"PointID","x","y","Displacement_x","Displacement_y","Sxx","Syy","Sxy","Von_Mises_Stress"
0, 1.000080000000000e+00, 1.257210000000000e-03, -6.634545781321138e-05, 2.543162126627090e-02, -1.056698719252938e+04, -1.075948580724267e+04, 1.359528284214593e+03, 2.725862127655108e+03
1, 9.798550000000000e-01, 5.416750000000000e-03, -1.886943337054294e-04, 2.478311879258373e-02, -1.327820371154679e+04, -8.175790770958420e+03, 1.602237545396960e+03, 6.025220197121627e+03
2, 9.596080000000000e-01, 9.461560000000001e-03, -3.069776622833650e-04, 2.413453113848153e-02, -1.671963455008994e+04, -4.475045149468699e+03, 5.143110320348789e+03, 1.599175739745070e+04
3, 9.393450000000000e-01, 1.339430000000000e-02, -4.210416897443396e-04, 2.348676409325242e-02, -2.221018526953455e+04, -2.367978663843658e+03, 8.153940086197512e+03, 2.568384937465796e+04
4, 9.190670000000000e-01, 1.721730000000000e-02, -5.308916160100779e-04, 2.284041883125524e-02, -3.592923463524714e+04, -2.108713893317071e+03, 1.135457069517505e+04, 4.073736277598532e+04
5, 8.987730000000000e-01, 2.093270000000000e-02, -6.366198394387142e-04, 2.219560384032008e-02, -4.373184397941401e+04, -1.392338679822578e+03, 1.331075776544063e+04, 5.001338618985005e+04
6, 8.784640000000000e-01, 2.454230000000000e-02, -7.383322062652836e-04, 2.155257580722847e-02, -5.095159265682605e+04, -1.512355319132283e+03, 1.456464696239731e+04, 5.738252306312342e+04
7, 8.581410000000000e-01, 2.804760000000000e-02, -8.361398400209713e-04, 2.091140910512179e-02, -5.906765185831019e+04, -2.092084299808041e+02, 1.547457061768390e+04, 6.649936620760076e+04
8, 8.378050000000000e-01, 3.144970000000000e-02, -9.299195770469570e-04, 2.027249741302972e-02, -8.728593283770580e+04, 2.800358495912157e+03, 1.665904491686787e+04, 9.605016916390295e+04
9, 8.174540000000000e-01, 3.474970000000000e-02, -1.019157372793641e-03, 1.963550284206627e-02, -9.984396632874108e+04, 2.549147303373242e+03, 2.422261914018892e+04, 1.132752878227271e+05
10, 7.970910000000000e-01, 3.794800000000000e-02, -1.104704490436076e-03, 1.900120624546559e-02, -1.077080762199324e+05, 3.328917661631784e+03, 2.160516022862805e+04, 1.191484192269175e+05
11, 7.767150000000000e-01, 4.104500000000000e-02, -1.186154006638901e-03, 1.836979065440493e-02, -1.301285405515219e+05, 3.833418441879869e+03, 2.407181225674822e+04, 1.423503250387803e+05
12, 7.563270000000000e-01, 4.404060000000000e-02, -1.263502571899031e-03, 1.774091926501246e-02, -1.474187473111887e+05, 5.396336006676634e+03, 2.469107643881397e+04, 1.605959112564063e+05
13, 7.359270000000000e-01, 4.693450000000000e-02, -1.336761461013024e-03, 1.711503988018894e-02, -1.619689800368620e+05, 5.541839754224082e+03, 2.628920718564229e+04, 1.755686885662709e+05
14, 7.155150000000000e-01, 4.972610000000000e-02, -1.406119432186826e-03, 1.649227941178599e-02, -1.748694053884365e+05, 5.846899386815292e+03, 2.743112285280505e+04, 1.888603950421698e+05
15, 6.950930000000000e-01, 5.241420000000000e-02, -1.471528190612970e-03, 1.587272322618901e-02, -1.864388150749393e+05, 7.614828432769044e+03, 2.769216210718503e+04, 2.018024775053548e+05
16, 6.746590000000000e-01, 5.499760000000000e-02, -1.533112467422215e-03, 1.525655881822004e-02, -2.210935579898716e+05, 1.275902079803871e+04, 2.642334598514428e+04, 2.397494555947070e+05
17, 6.542150000000000e-01, 5.747460000000000e-02, -1.589815991105307e-03, 1.464349598085407e-02, -2.369822149802016e+05, 1.099480716325506e+04, 3.433157206284747e+04, 2.573076580134418e+05
18, 6.337610000000000e-01, 5.984290000000000e-02, -1.642942457534005e-03, 1.403423552309131e-02, -2.427470006140813e+05, 1.073250984810950e+04, 2.984092510994954e+04, 2.604108013693410e+05
19, 6.132970000000000e-01, 6.210030000000000e-02, -1.691852802876143e-03, 1.342885379425185e-02, -2.644505871642006e+05, 9.931019605138530e+03, 3.087343141787240e+04, 2.812435620656596e+05
20, 5.928230000000000e-01, 6.424370000000000e-02, -1.736524819754896e-03, 1.282675435919401e-02, -2.738445300008599e+05, 1.045793766684003e+04, 3.297562011191250e+04, 2.918517760936264e+05
21, 5.723410000000000e-01, 6.627000000000000e-02, -1.777072890409492e-03, 1.222896928006080e-02, -3.047588933692355e+05, 1.442387767031801e+04, 2.763921952112795e+04, 3.239341710154032e+05
22, 5.518500000000000e-01, 6.817540000000000e-02, -1.812637682598789e-03, 1.163530018241212e-02, -3.292125961599206e+05, 2.177774203301877e+04, 2.808533704939475e+04, 3.554565544950695e+05
23, 5.313510000000000e-01, 6.995570000000000e-02, -1.843800643823745e-03, 1.104622396058574e-02, -3.453936988057742e+05, 3.548562114944951e+04, 2.986078571820912e+04, 3.855330368002059e+05
24, 5.108440000000000e-01, 7.160630000000000e-02, -1.870374143242586e-03, 1.046103205196169e-02, -3.686981489032371e+05, 4.413851461569012e+04, 3.445410010637695e+04, 4.185480268762486e+05
25, 4.903300000000000e-01, 7.312210000000000e-02, -1.891927115548928e-03, 9.879688391556049e-03, -3.959686520038287e+05, 4.482647790290321e+04, 3.986545245334060e+04, 4.479479475862468e+05
26, 4.698100000000000e-01, 7.449720000000000e-02, -1.908374233326855e-03, 9.302728816236878e-03, -4.233579499133949e+05, 4.836575074693379e+04, 4.119990971071809e+04, 4.788663487919783e+05
27, 4.492840000000000e-01, 7.572540000000000e-02, -1.919575008285596e-03, 8.730999263767523e-03, -4.942771995254585e+05, 5.341106117392120e+04, 3.503093290421439e+04, 5.521513342811643e+05
28, 4.287520000000000e-01, 7.679970000000000e-02, -1.923868017775214e-03, 8.163842798468303e-03, -5.392016341284009e+05, 5.377858371490376e+04, 3.837351367258048e+04, 5.979261199845782e+05
29, 4.082160000000000e-01, 7.771220000000000e-02, -1.922513817952153e-03, 7.603365940328053e-03, -6.087015701376506e+05, 5.435161379613100e+04, 2.610474917847625e+04, 6.651055227882339e+05
30, 3.875760000000000e-01, 7.844390000000000e-02, -1.913594873964402e-03, 7.046192111988518e-03, -6.596295751471227e+05, 5.612827279819508e+04, 3.436808524129086e+04, 7.190507339735655e+05
31, 3.668650000000000e-01, 7.894160000000000e-02, -1.896920157354494e-03, 6.495032846951763e-03, -7.356108341910572e+05, 5.660527190593945e+04, 1.689927383031929e+04, 7.929367569885107e+05
32, 3.461490000000000e-01, 7.918989999999999e-02, -1.870902355132443e-03, 5.951497633848949e-03, -8.058975685366499e+05, 5.517404133267939e+04, 2.071182694227351e+04, 8.620674198832160e+05
33, 3.254310000000000e-01, 7.917720000000000e-02, -1.836123884630071e-03, 5.416875428721481e-03, -8.746717907513827e+05, 5.246168728722744e+04, 7.782012815606366e+03, 9.272641074655156e+05
34, 3.047140000000000e-01, 7.889030000000000e-02, -1.792018133333071e-03, 4.892245572433629e-03, -9.579475095754287e+05, 5.134096105113935e+04, -5.841533825779783e+03, 1.009356087319766e+06
35, 2.840020000000000e-01, 7.831420000000000e-02, -1.738151611704819e-03, 4.378621075216205e-03, -1.056661431473705e+06, 4.802446438963439e+04, -2.370940392495146e+04, 1.105703157206894e+06
36, 2.632960000000000e-01, 7.743220000000001e-02, -1.674006339194062e-03, 3.877099565640991e-03, -1.165017965012240e+06, 4.529798977428381e+04, -4.248469402171057e+04, 1.213294897094391e+06
37, 2.426010000000000e-01, 7.622460000000000e-02, -1.599247476193698e-03, 3.389334880144019e-03, -1.291992042384893e+06, 4.469674828929051e+04, -6.803694584071875e+04, 1.343597047894697e+06
38, 2.219220000000000e-01, 7.466879999999999e-02, -1.513206633647874e-03, 2.916763489824955e-03, -1.440023687729883e+06, 4.185481011736187e+04, -9.965888061395752e+04, 1.495222877140032e+06
39, 2.012640000000000e-01, 7.273780000000001e-02, -1.414922221441675e-03, 2.461864021287006e-03, -1.612430894743776e+06, 3.848207122455713e+04, -1.329311990003541e+05, 1.672183134669479e+06
40, 1.806310000000000e-01, 7.039890000000000e-02, -1.304120695192510e-03, 2.026888665880359e-03, -1.814881492285143e+06, 3.220957837778859e+04, -1.744911544349376e+05, 1.879769686750716e+06
41, 1.600330000000000e-01, 6.761140000000000e-02, -1.179002595150925e-03, 1.615361267285821e-03, -2.054327793958682e+06, 2.373863402067503e+04, -2.114345840205452e+05, 2.120655184695204e+06
42, 1.394760000000000e-01, 6.432340000000000e-02, -1.039228723418073e-03, 1.230889587533606e-03, -2.286586083778442e+06, 2.003591475212087e+04, -2.463592701769844e+05, 2.358659917010860e+06
43, 1.189730000000000e-01, 6.046550000000000e-02, -8.866509677600405e-04, 8.770696067480580e-04, -2.586942203275222e+06, -2.549441075666309e+02, -3.511176346936371e+05, 2.680314412585153e+06
44, 9.853700000000000e-02, 5.594070000000000e-02, -7.144662803510744e-04, 5.653595062615863e-04, -3.153987248689357e+06, -2.571890828208431e+04, -5.052281586861166e+05, 3.287413083096179e+06
45, 7.818849999999999e-02, 5.060340000000000e-02, -5.186907469566344e-04, 3.052907857470166e-04, -3.969246396003623e+06, -6.802685412273913e+04, -6.746813483401043e+05, 4.127989050511807e+06
46, 5.795880000000000e-02, 4.421300000000000e-02, -2.902105711641487e-04, 1.115183037818292e-04, -5.450931335176049e+06, -1.968504084974111e+05, -7.034005670331223e+05, 5.439159476876765e+06
47, 3.790390000000000e-02, 3.630690000000000e-02, 0.000000000000000e+00, 0.000000000000000e+00, -3.934598516859749e+06, -5.796821433950909e+05, 1.479729216982074e+05, 3.367944152619647e+06
48, 1.815790000000000e-02, 2.570150000000000e-02, 0.000000000000000e+00, 0.000000000000000e+00, -5.421862458332139e+05, 7.912882174533040e+04, 1.700411409020342e+04, 6.222451066775067e+05
49, 0.000000000000000e+00, 0.000000000000000e+00, 0.000000000000000e+00, 0.000000000000000e+00, 3.680853142231159e+04, -1.846110458490727e+04, -1.197158507102874e+05, 2.457280454273012e+05
50, 2.265850000000000e-02, -2.172400000000000e-02, 0.000000000000000e+00, 0.000000000000000e+00, 5.624892894904703e+05, -4.392626201857547e+04, 1.417904119389949e+05, 6.694459685316952e+05
51, 4.372870000000000e-02, -2.856010000000000e-02, 0.000000000000000e+00, 0.000000000000000e+00, 3.968523950430803e+06, 7.727609949533276e+05, 7.612192986900178e+05, 3.539875725275482e+06
52, 6.449020000000000e-02, -3.290520000000000e-02, 2.704127121656708e-04, 1.587328371766320e-04, 5.728917060684724e+06, 1.897619055000520e+05, 2.064334884530161e+05, 5.554520589018322e+06
53, 8.507679999999999e-02, -3.594290000000000e-02, 4.596948351739467e-04, 3.822606554540342e-04, 4.038987185834016e+06, 1.533635718826169e+04, 2.255072381841898e+04, 4.023903593706068e+06
54, 1.055450000000000e-01, -3.813560000000000e-02, 6.076436999838713e-04, 6.682370556957867e-04, 3.180988401033313e+06, 1.136954809875255e+04, 7.300392185140996e+04, 3.172979981547464e+06
55, 1.259250000000000e-01, -3.972410000000000e-02, 7.244883557549844e-04, 1.000855020801143e-03, 2.770547926788251e+06, -3.236727036934897e+04, 1.376387511566279e+05, 2.816400416442388e+06
56, 1.462380000000000e-01, -4.085400000000000e-02, 8.283028003125507e-04, 1.364596743877639e-03, 2.490818147772071e+06, -2.313606244992174e+03, 8.362284383989529e+04, 2.498735092588985e+06
57, 1.664980000000000e-01, -4.162220000000000e-02, 9.109160364284419e-04, 1.755249338556406e-03, 2.107890701977108e+06, 1.507262135668192e+03, 1.015126344887930e+05, 2.116145187713186e+06
58, 1.867150000000000e-01, -4.209820000000000e-02, 9.789414205179927e-04, 2.169460427115365e-03, 1.864522071583746e+06, 7.960480526051388e+03, 1.112363642871827e+05, 1.869843591413464e+06
59, 2.069000000000000e-01, -4.233380000000000e-02, 1.034971276299239e-03, 2.603402215884548e-03, 1.675541499980686e+06, 1.365321322008152e+04, 1.140211177708867e+05, 1.677461158674915e+06
60, 2.270570000000000e-01, -4.236980000000000e-02, 1.080986599968098e-03, 3.054482423465968e-03, 1.504047061538898e+06, 1.061130469900519e+04, 1.073292777363888e+05, 1.508783833173462e+06
61, 2.471950000000000e-01, -4.223880000000000e-02, 1.117217215232154e-03, 3.520796925240668e-03, 1.342596468554014e+06, 1.354924330428322e+04, 1.067519063080462e+05, 1.346087071829165e+06
62, 2.673160000000000e-01, -4.196780000000000e-02, 1.145097448618177e-03, 4.000245061387417e-03, 1.208140823486062e+06, 1.668507869508592e+04, 1.052215789089089e+05, 1.209897976883901e+06
63, 2.874270000000000e-01, -4.157950000000000e-02, 1.166007553159343e-03, 4.491632140086096e-03, 1.095053649234808e+06, 1.686746528805685e+04, 1.002989512472432e+05, 1.096688180723603e+06
64, 3.075300000000000e-01, -4.109350000000000e-02, 1.180585182827861e-03, 4.993772307146097e-03, 9.914540911789385e+05, 1.705655330253000e+04, 9.478391606334978e+04, 9.926663713437781e+05
65, 3.276300000000000e-01, -4.052670000000000e-02, 1.189554768998497e-03, 5.505720827094359e-03, 8.983152149544734e+05, 1.640097665862897e+04, 8.964355458094872e+04, 8.999536605962384e+05
66, 3.477290000000000e-01, -3.989380000000000e-02, 1.193588932562694e-03, 6.026605026149880e-03, 8.142083018472380e+05, 1.620529661626973e+04, 8.460044405108773e+04, 8.157436710708957e+05
67, 3.678290000000000e-01, -3.920820000000000e-02, 1.193257752176986e-03, 6.555659375206376e-03, 7.371154426116464e+05, 1.589574568029485e+04, 7.908598279307940e+04, 7.383604959226485e+05
68, 3.879340000000000e-01, -3.848140000000000e-02, 1.189072305099373e-03, 7.092244953393679e-03, 6.666888422958748e+05, 1.516378204542135e+04, 7.360406021190532e+04, 6.679484522424379e+05
69, 4.081110000000000e-01, -3.771960000000000e-02, 1.181452208683398e-03, 7.637511332108666e-03, 6.026774157091250e+05, 1.436281047469944e+04, 6.830695843775489e+04, 6.039680761565189e+05
70, 4.283910000000000e-01, -3.689040000000000e-02, 1.169720337521554e-03, 8.191751490700542e-03, 5.449239298382992e+05, 1.362084172874200e+04, 6.327332290769322e+04, 5.461657486531691e+05
71, 4.486760000000000e-01, -3.599200000000000e-02, 1.153972977743932e-03, 8.751808276630491e-03, 4.937384234496572e+05, 1.287064004536825e+04, 5.837860566852309e+04, 4.948394401372609e+05
72, 4.689660000000000e-01, -3.503220000000000e-02, 1.134619822708787e-03, 9.317233940321575e-03, 4.484149581853996e+05, 1.205272514549380e+04, 5.376883543681683e+04, 4.494177890120718e+05
73, 4.892610000000000e-01, -3.401800000000000e-02, 1.112033906198246e-03, 9.887662281539117e-03, 4.086274625630181e+05, 1.134750504981745e+04, 4.926793769426396e+04, 4.093173382355969e+05
74, 5.095640000000000e-01, -3.295580000000000e-02, 1.086578372861902e-03, 1.046288004509726e-02, 3.751266801256601e+05, 1.040241539558284e+04, 4.480974644335622e+04, 3.755734852038505e+05
75, 5.298740000000000e-01, -3.185120000000000e-02, 1.058602940427715e-03, 1.104261430658454e-02, 3.471094695660216e+05, 9.215759042561123e+03, 4.090081139220254e+04, 3.476545197483764e+05
76, 5.501910000000000e-01, -3.070950000000000e-02, 1.028403387451637e-03, 1.162667774303772e-02, 3.229236502817157e+05, 8.197822140910906e+03, 3.774528105757977e+04, 3.236528570357107e+05
77, 5.705160000000000e-01, -2.953530000000000e-02, 9.962270983378129e-04, 1.221496147602236e-02, 3.016172932582857e+05, 7.070303768268478e+03, 3.511169464566454e+04, 3.028023339097535e+05
78, 5.908500000000000e-01, -2.833280000000000e-02, 9.623013395009682e-04, 1.280750249518892e-02, 2.832382773210539e+05, 5.890902953950697e+03, 3.366885350922872e+04, 2.854048577982332e+05
79, 6.111930000000000e-01, -2.710560000000000e-02, 9.267441816449258e-04, 1.340425418844674e-02, 2.634532641656754e+05, 5.167038716742041e+03, 3.264074694699065e+04, 2.664084227303768e+05
80, 6.315450000000000e-01, -2.585710000000000e-02, 8.896626092917129e-04, 1.400538227055338e-02, 2.484538917953526e+05, 4.865139203738535e+03, 3.129353268688369e+04, 2.515007378542631e+05
81, 6.519070000000000e-01, -2.459010000000000e-02, 8.511235214361645e-04, 1.461055470530968e-02, 2.282311843334317e+05, 4.201229407119856e+03, 2.877350187256050e+04, 2.313030011571970e+05
82, 6.722800000000000e-01, -2.330710000000000e-02, 8.111008809932220e-04, 1.521966122850248e-02, 2.081586187015234e+05, 3.560762586080966e+03, 2.708552619423895e+04, 2.116477867682781e+05
83, 6.926620000000000e-01, -2.201020000000000e-02, 7.698209567268125e-04, 1.583263305057396e-02, 1.880927267431811e+05, 3.263106492432831e+03, 2.550687055321171e+04, 1.917404242816549e+05
84, 7.130560000000000e-01, -2.070110000000000e-02, 7.271890523570736e-04, 1.644958653460579e-02, 1.711796933821803e+05, 2.560012480471056e+03, 2.464027020724417e+04, 1.756734711074449e+05
85, 7.334610000000000e-01, -1.938120000000000e-02, 6.834479401249381e-04, 1.707025905451972e-02, 1.573086708333642e+05, 2.026961608748973e+03, 2.337261930820844e+04, 1.621651212592390e+05
86, 7.538770000000000e-01, -1.805140000000000e-02, 6.386498860817375e-04, 1.769462371564912e-02, 1.421674938501670e+05, 1.150001180317985e+03, 2.131571959332601e+04, 1.473206463670864e+05
87, 7.743050000000000e-01, -1.671250000000000e-02, 5.926943200094688e-04, 1.832254792737771e-02, 1.231401526184384e+05, -4.665159973182600e+02, 1.996984263699671e+04, 1.298991415909709e+05
88, 7.947460000000000e-01, -1.536480000000000e-02, 5.455204635268305e-04, 1.895399035696145e-02, 1.070228170510077e+05, -4.102897681133254e+01, 2.174981524339599e+04, 1.155633375199764e+05
89, 8.151990000000000e-01, -1.400830000000000e-02, 4.975278794313977e-04, 1.958896034666512e-02, 9.655398841881295e+04, -2.005140096026975e+03, 1.397044970832737e+04, 1.024431338539404e+05
90, 8.356650000000000e-01, -1.264280000000000e-02, 4.482633715898304e-04, 2.022702037158145e-02, 6.763697004054554e+04, -3.224177580280759e+03, 1.343256741203960e+04, 7.578283256289970e+04
91, 8.561440000000000e-01, -1.126750000000000e-02, 3.974793764173510e-04, 2.086805587611886e-02, 4.616452202465340e+04, -8.786856357799254e+02, 1.545949556855061e+04, 5.629429278282832e+04
92, 8.766380000000000e-01, -9.881770000000000e-03, 3.459183698526591e-04, 2.151211845318369e-02, 4.046191641372422e+04, -1.847823054523268e+03, 1.408885501242774e+04, 5.083401809925929e+04
93, 8.971450000000000e-01, -8.484230000000001e-03, 2.934012087641181e-04, 2.215886418467763e-02, 3.181330307887149e+04, -4.462524740448885e+03, 1.179711371860300e+04, 4.327381716853255e+04
94, 9.176680000000000e-01, -7.073410000000000e-03, 2.398475320350615e-04, 2.280831933280755e-02, 2.206533488260899e+04, -6.365457548300134e+03, 9.607542858372111e+03, 3.431514938553040e+04
95, 9.382060000000000e-01, -5.647530000000000e-03, 1.851734347880779e-04, 2.346023216757143e-02, 6.286511636212257e+03, -8.530717036731559e+03, 7.204420703302931e+03, 2.066796981386967e+04
96, 9.587590000000000e-01, -4.204500000000000e-03, 1.293157445027869e-04, 2.411445949484256e-02, -1.644786118575843e+03, -8.581055036486272e+03, 4.580420184396902e+03, 1.149055363174867e+04
97, 9.793290000000000e-01, -2.741940000000000e-03, 7.223475239828166e-05, 2.477054966653927e-02, -8.253828691266050e+03, -1.038100487519031e+04, 1.093986835875609e+03, 3.051574561719095e+03
98, 9.999160000000000e-01, -1.257210000000000e-03, 1.409266411557183e-05, 2.542769265707109e-02, -1.009655256013068e+04, -1.137041373623516e+04, 3.035194039994074e+02, 1.411105386001660e+03
99, 2.965208526196640e-01, -2.451291204343565e-02, 7.573845442803968e-04, 4.704286513110600e-03, 8.305068343766946e+05, 2.334238874199748e+04, 1.215069567786977e+05, 8.429532635201368e+05
100, 3.569550691458233e-01, -2.225937713288704e-02, 7.422280902461439e-04, 6.256476016667622e-03, 6.110685211891196e+05, 2.023742024043957e+04, 9.880293818152996e+04, 6.230003789898062e+05
101, 2.357521292249362e-01, -2.612922374397977e-02, 7.281766234270273e-04, 3.239105877028638e-03, 1.140751106851018e+06, 2.609725626545959e+04, 1.477056598319804e+05, 1.153135314874544e+06
102, 4.175395537093936e-01, -1.978668907414103e-02, 7.001071003772257e-04, 7.883452014160693e-03, 4.465556023415723e+05, 1.745133621755325e+04, 7.772513886079368e+04, 4.563937554892175e+05
103, 1.751367101315091e-01, -2.542483001771199e-02, 6.109038044172098e-04, 1.911021182687894e-03, 1.583724261433543e+06, 2.209019863200389e+04, 1.778102181919841e+05, 1.601613823890130e+06
104, 4.545161237720396e-01, 5.410499663149525e-02, -1.327624605310377e-03, 8.878144857228416e-03, -3.303148793091126e+05, 4.957632109154539e+04, 5.443532659060614e+04, 3.951836829449777e+05
105, 4.984928440317798e-01, -1.590850127774330e-02, 6.035444507172050e-04, 1.013859189125058e-02, 2.958363183563174e+05, 1.378344068024569e+04, 5.175275403272755e+04, 3.004450299226816e+05
106, 3.174663951753988e-01, 6.223768294924557e-02, -1.393246537617580e-03, 5.210913437499519e-03, -7.366674593189579e+05, 5.379364198147305e+04, 4.208910934975196e+04, 7.949306417370711e+05
107, 2.563717303565273e-01, 5.966322547531767e-02, -1.236160706132540e-03, 3.705996328356835e-03, -9.833785420293125e+05, 5.475022824684983e+04, 1.435568033734470e+04, 1.038525727128071e+06
108, 3.756939939814997e-01, 6.148855564182976e-02, -1.447858658963772e-03, 6.727883778646635e-03, -5.400366154582491e+05, 4.902964618672815e+04, 5.125739512530839e+04, 5.979200137380557e+05
109, 1.331764993897024e-01, 4.104774463271259e-02, -5.884912263721180e-04, 1.096135380606683e-03, -1.702111540911672e+06, 7.824510354504030e+04, -1.175404130189585e+04, 1.780511839727237e+06
110, 2.151334798234129e-01, 5.783655425665940e-02, -1.117227759879927e-03, 2.756678985329455e-03, -1.228838820589108e+06, 5.380561183078155e+04, -2.043531774666480e+04, 1.283295425404209e+06
111, 5.390439783578407e-01, -1.368921905163664e-02, 5.396392364350811e-04, 1.129585082798556e-02, 2.488191138606105e+05, 1.017602103317511e+04, 4.120455852051994e+04, 2.524713613971449e+05
112, 4.171750027518464e-01, 5.955074979533879e-02, -1.441205511255787e-03, 7.847451156777209e-03, -4.394727476520786e+05, 4.774085063442036e+04, 5.180441793310099e+04, 4.981083027061761e+05
113, 5.796418763382618e-01, -1.132888697481147e-02, 4.678248568971656e-04, 1.247062263402113e-02, 2.104719107520247e+05, 7.415669896978770e+03, 3.408438575739080e+04, 2.141934134375213e+05
114, 4.579843708690872e-01, -1.795387507594605e-02, 6.577489380308244e-04, 9.000115950737162e-03, 3.623030643575217e+05, 1.546090328478941e+04, 6.445030892699548e+04, 3.700200724024898e+05
115, 1.742940777616075e-01, 5.338799194168506e-02, -9.310563888387118e-04, 1.885677994524151e-03, -1.534984301692098e+06, 5.814617812360475e+04, -6.272375826646789e+04, 1.598061890266485e+06
116, 9.710402222757537e-02, -1.854828260839096e-02, 2.874838013097710e-04, 5.113310536637714e-04, 2.421703770873157e+06, -1.203735453577249e+04, 3.451805320653551e+05, 2.529761701104357e+06
117, 5.189774796231875e-01, 5.374676487811309e-02, -1.371761077472811e-03, 1.069573156445801e-02, -2.718251485100774e+05, 3.792210303501142e+04, 3.774813262165739e+04, 3.188150653677230e+05
118, 6.203290590016649e-01, -9.338681345593056e-03, 4.033490623336961e-04, 1.366416771922044e-02, 1.772139710685785e+05, 5.382346453864347e+03, 3.255603531115456e+04, 1.837544256839998e+05
119, 1.374487160331137e-01, -2.687496070907593e-02, 5.460066646609703e-04, 1.184893333308637e-03, 2.163047274510169e+06, -1.806588690170343e+04, 1.682406955751995e+05, 2.206915120586789e+06
120, 5.596387496012009e-01, 5.071566089060470e-02, -1.317042715841369e-03, 1.186448477460364e-02, -2.352976705817641e+05, 1.697241612665013e+04, 3.307532696339141e+04, 2.607989755785321e+05
121, 6.609827153956152e-01, -6.310240884540755e-03, 3.050928285400117e-04, 1.487185245147773e-02, 1.447862677961938e+05, 4.557709845451385e+03, 2.807251394117283e+04, 1.510506955325069e+05
122, 6.033984443620632e-01, 4.523925165445848e-02, -1.190115155213205e-03, 1.314253561603128e-02, -1.888124030710756e+05, 1.180171794332637e+04, 3.360183322197301e+04, 2.115711661212138e+05
123, 7.020103535966860e-01, -3.111390526276716e-03, 1.977850255534515e-04, 1.610520491901796e-02, 1.070289959877282e+05, 3.315125789973332e+03, 2.572294761786813e+04, 1.157723931168527e+05
124, 5.755684299532306e-02, -1.475369716728351e-02, 8.255650318068740e-05, 5.235706186760520e-05, 3.511512618740447e+06, 4.956541399795950e+05, 5.880313189495738e+05, 3.237055095634923e+06
125, 9.060053040963247e-02, 3.560010455049589e-02, -3.685611693103546e-04, 4.305626687650372e-04, -2.620606648771511e+06, 9.025252045026694e+04, -1.850647148518979e+05, 2.736010458694675e+06
126, 6.425569992028460e-01, 4.076809820674596e-02, -1.085492411605196e-03, 1.430145346252155e-02, -1.521383289573847e+05, 8.810714924342677e+03, 3.179943000225997e+04, 1.730589775779250e+05
127, 7.425676713184176e-01, -1.802184129515955e-03, 1.448797530888268e-04, 1.733927946508677e-02, 8.619867908456708e+04, 1.300501995143740e+03, 2.304987868959925e+04, 9.660687399728890e+04
128, 6.794554790031843e-01, 3.455015607646333e-02, -9.239791417330549e-04, 1.540765109543669e-02, -1.177497570902284e+05, 7.085277387356976e+03, 2.894243741556519e+04, 1.376024875038078e+05
129, 7.233793830986925e-01, 3.102487013943550e-02, -8.447616310024072e-04, 1.673848945917278e-02, -1.014321020689979e+05, 5.444044046420506e+03, 2.604891551893243e+04, 1.188978326435523e+05
130, 7.843494364326934e-01, 2.390274058805750e-03, 6.508244999417932e-07, 1.862263890748963e-02, 4.415923140496036e+04, 3.177271717343040e+02, 1.890924591087307e+04, 5.789918667048318e+04
131, 5.454676153951814e-02, 2.401897778829271e-02, -8.600924321370231e-05, 3.822760753677803e-05, -3.326518592044855e+06, -3.106912286455642e+05, 5.308278178155543e+04, 3.017695447309849e+06
132, 7.640247874542017e-01, 2.555744565522233e-02, -7.020904758426896e-04, 1.798498608197633e-02, -8.080538286965711e+04, 5.502103975030530e+03, 2.349304430883512e+04, 9.826838153258398e+04
133, 8.229295107187748e-01, 4.300233002464899e-03, -7.534145110102389e-05, 1.982021042081108e-02, 2.393012655803021e+04, -2.395878658695835e+03, 1.701865629057338e+04, 4.303018938394042e+04
134, 8.046566490081991e-01, 1.839946429817115e-02, -5.041730900198016e-04, 1.924443768064004e-02, -3.536684603582695e+04, 3.375425617538882e+02, 1.972320652953348e+04, 5.320547780401554e+04
135, 8.440270490961900e-01, 1.089332864254128e-02, -2.910817146031190e-04, 2.047661761222556e-02, -1.013218536442622e+04, -6.505903272089690e+02, 1.518788304069184e+04, 3.182118491635285e+04
136, 9.686534179528660e-01, 2.042627793953139e-03, -7.506110190455893e-05, 2.442713990843139e-02, -9.915125781719804e+03, -7.922660589627007e+03, 4.006523886105037e+03, 8.257048633829296e+03
137, 8.665349974513943e-01, 8.204479495203282e-03, -2.181190969128567e-04, 2.118469366853878e-02, -6.765115713711319e+03, -1.874834141570263e+03, 1.366800839149148e+04, 2.776999581228539e+04
138, 3.973268305362796e-01, -2.062836453280328e-02, 7.166365308482463e-04, 7.333962923950592e-03, 4.961862875929871e+05, 1.837840877043203e+04, 8.451492050966062e+04, 5.068248772701735e+05
139, 4.066700510668398e-01, -2.659281018491663e-03, 2.372052933957591e-04, 7.577973571190428e-03, 2.666905448037636e+05, 2.613232551310573e+04, 1.028906835392946e+05, 3.165663088596531e+05
140, 4.269223676397205e-01, -1.818542477264619e-03, 2.141651036520421e-04, 8.131541006611124e-03, 2.362520979016002e+05, 2.553047266192892e+04, 9.358628055055960e+04, 2.818460057776244e+05
141, 4.160748716342525e-01, 1.536155603904590e-02, -2.483526592435288e-04, 7.827137878576732e-03, 5.458047166299037e+04, 3.354746946780191e+04, 1.035828200560804e+05, 2.082306164434619e+05
142, 3.957310706537015e-01, 1.449338912604128e-02, -2.192000048224107e-04, 7.274310373704673e-03, 6.681801297195625e+04, 3.452015898013930e+04, 1.137876294096678e+05, 2.298557151762042e+05
143, 4.363670491508843e-01, 1.618760295133900e-02, -2.771863936286650e-04, 8.384523339833567e-03, 4.114960091801474e+04, 3.280152585801884e+04, 9.464250257859720e+04, 1.894690041525696e+05
144, 4.051964526601900e-01, 3.152834713834579e-02, -6.776643167389650e-04, 7.525870389198030e-03, -1.337915050336460e+05, 3.831686442579539e+04, 1.036223729711291e+05, 2.693913056478600e+05
145, 3.848128117936778e-01, 3.076188516682927e-02, -6.453483806541058e-04, 6.975582989112346e-03, -1.405289122656848e+05, 4.129754846771157e+04, 1.074557077868057e+05, 2.815098193077584e+05
146, 3.753524428032796e-01, 1.356859858717361e-02, -1.894832669976860e-04, 6.727306467631746e-03, 8.459679449399127e+04, 3.793645374417296e+04, 1.242074044609633e+05, 2.527589853805527e+05
147, 3.644173846774071e-01, 2.988645409861292e-02, -6.108870071696766e-04, 6.432119535849273e-03, -1.456819850518883e+05, 4.646109236416985e+04, 1.234235604205693e+05, 3.128137836900302e+05
148, 3.550134956621845e-01, 1.257057333110983e-02, -1.588779840576191e-04, 6.188507872896990e-03, 9.732997660431503e+04, 3.905334972471531e+04, 1.357304321000982e+05, 2.776457563745240e+05
149, 3.439974420069055e-01, 2.973245781499734e-02, -5.949104810752509e-04, 5.895336709089858e-03, -1.642232696574375e+05, 4.737459214257117e+04, 1.284496651921450e+05, 3.328226570866714e+05
150, 3.345561861413926e-01, 1.175186653708911e-02, -1.339227086412491e-04, 5.654661432339651e-03, 1.153946513177412e+05, 4.059424148883831e+04, 1.465721357778856e+05, 3.025370477421494e+05
151, 3.236084648859458e-01, 2.848484668563251e-02, -5.513957963441970e-04, 5.368321082070458e-03, -1.686613373469002e+05, 5.118325855600725e+04, 1.385667892386740e+05, 3.537437867544433e+05
152, 3.143303878446695e-01, 1.091172861632015e-02, -1.096965930155285e-04, 5.135668951518573e-03, 1.361776676369818e+05, 4.416627736858152e+04, 1.589440735455699e+05, 3.309365044841109e+05
153, 3.032408532210827e-01, 2.754866912925832e-02, -5.162927625377443e-04, 4.851115898698138e-03, -1.794689753391917e+05, 5.433314472483607e+04, 1.496085928646078e+05, 3.797293188340162e+05
154, 2.939539767717528e-01, 1.001939063924226e-02, -8.542409879333401e-05, 4.622523507817331e-03, 1.546566727845530e+05, 4.707691810467095e+04, 1.728610034358039e+05, 3.620733484424331e+05
155, 2.828296347109930e-01, 2.713220734740742e-02, -4.940396792186371e-04, 4.343057075309575e-03, -1.947983971337684e+05, 5.914116279204368e+04, 1.615267797822711e+05, 4.109122807152839e+05
156, 2.733885986292580e-01, 9.103913709920631e-03, -6.190533272950569e-05, 4.115579438504003e-03, 1.762500436610597e+05, 4.995173302586798e+04, 1.880389669180317e+05, 3.967188873594321e+05
157, 2.624180698607566e-01, 2.586783501818393e-02, -4.518858749615437e-04, 3.846600548714427e-03, -2.127488838714171e+05, 6.612247425300817e+04, 1.769270691391515e+05, 4.505352212189873e+05
158, 2.529513835064207e-01, 8.525498647222548e-03, -4.781992525820080e-05, 3.623741143274260e-03, 1.961288330537689e+05, 5.298144076972425e+04, 2.058414206710420e+05, 4.358599979043886e+05
159, 2.420041412463820e-01, 2.497529745393339e-02, -4.186066397728647e-04, 3.362851374744394e-03, -2.392376891744937e+05, 6.876474288559417e+04, 1.924498914174378e+05, 4.929638333399961e+05
160, 2.324783599824982e-01, 7.702710819772898e-03, -2.956392526704683e-05, 3.144683992580208e-03, 2.224762447276624e+05, 5.663569052977658e+04, 2.268630212776429e+05, 4.830842691596809e+05
161, 2.215823702425378e-01, 2.397561795711019e-02, -3.832936433774234e-04, 2.893279149856509e-03, -2.680736625118431e+05, 7.524495370320545e+04, 2.113536624175523e+05, 5.445632697024896e+05
162, 2.121325115698451e-01, 6.410467661081484e-03, -3.062872932735955e-06, 2.683792080591044e-03, 2.554785166363533e+05, 5.862082078083011e+04, 2.518970973385933e+05, 5.408895848581118e+05
163, 2.011663454080357e-01, 2.296567656220408e-02, -3.478833845407001e-04, 2.440121117923812e-03, -3.070649532034909e+05, 7.816901385400190e+04, 2.311332380210935e+05, 6.017437197406512e+05
164, 1.916646013131764e-01, 6.122736367823681e-03, -2.259924992551588e-07, 2.237131588357947e-03, 2.824892398883947e+05, 6.286136681176058e+04, 2.825732119855387e+05, 6.063224250837691e+05
165, 3.255525552210641e-01, -6.161447547465032e-03, 3.176409607361757e-04, 5.429764084373030e-03, 4.225313662719065e+05, 3.209801633488575e+04, 1.433787939791891e+05, 4.844255515502368e+05
166, 2.646894232509986e-01, -8.340506671611615e-03, 3.461455891981733e-04, 3.911896235656710e-03, 5.846297359849972e+05, 3.689856219571555e+04, 1.848989962644748e+05, 6.608781990798498e+05
167, 1.807269234638549e-01, 2.189447272204787e-02, -3.110717473583757e-04, 2.005112456720503e-03, -3.620734129857274e+05, 8.061351431509835e+04, 2.577343010307424e+05, 6.794700841937546e+05
168, 1.712197765907188e-01, 5.003864087505491e-03, 1.738439924137054e-05, 1.811102910351853e-03, 3.085207877078661e+05, 7.029428033547405e+04, 3.264786647532723e+05, 6.950576544223987e+05
169, 1.602426840341227e-01, 2.138865991864423e-02, -2.847653018989737e-04, 1.591084412491051e-03, -4.288802151099647e+05, 8.126077908320099e+04, 2.832682565811536e+05, 7.623696312829470e+05
170, 2.037692397470149e-01, -1.034914650557998e-02, 3.462665750586174e-04, 2.506516276948009e-03, 8.198794373945204e+05, 3.269503607218537e+04, 2.387604101758297e+05, 9.206983303745722e+05
171, 2.916999765043648e-01, 4.426039903148235e-02, -9.154985105727565e-04, 4.561783943182091e-03, -5.188809366225712e+05, 6.392264260855549e+04, 1.088136458577513e+05, 6.221106413364401e+05
172, 1.507262204296524e-01, 4.193183260823651e-03, 2.650311433183373e-05, 1.407697326855861e-03, 3.428072963989670e+05, 1.040510103800280e+05, 3.741790705725758e+05, 7.855217829772666e+05
173, 3.537537079013051e-01, 4.827208157291081e-02, -1.079091351327465e-03, 6.148105013438428e-03, -4.306262161806278e+05, 5.226908949573365e+04, 8.878811745380024e+04, 5.145106368659698e+05
174, 1.397136229518096e-01, 2.099975485568201e-02, -2.593120200632339e-04, 1.203114186445967e-03, -5.615623181659778e+05, 8.726852281728928e+04, 3.141479878838906e+05, 9.031817609855959e+05
175, 1.295462050507191e-01, 2.895094086866376e-03, 4.104342878486262e-05, 1.019462824052103e-03, 4.260929530360733e+05, 9.342159310352363e+04, 4.443344028673680e+05, 9.488953999284504e+05
176, 1.191521560559205e-01, 2.012333267723078e-02, -2.189672241957282e-04, 8.425709467378198e-04, -7.743688498831394e+05, 1.153244650096250e+05, 3.455679888155485e+05, 1.126598035743436e+06
177, 1.080886766322981e-01, -1.434166924619944e-05, 6.942239612278280e-05, 6.617627554897361e-04, 6.443719568844982e+05, 7.566625400495346e+04, 5.292683321211390e+05, 1.201634739025502e+06
178, 2.290595946644183e-01, 4.112394933858098e-02, -7.686272540706375e-04, 3.064960037052962e-03, -7.142642362584309e+05, 7.300972918841688e+04, 1.169273136541281e+05, 8.212723563982218e+05
179, 3.459241474687385e-01, -5.280135464756558e-03, 3.000260867583397e-04, 5.957465650886833e-03, 3.775905111682779e+05, 3.025251505845620e+04, 1.324590698089052e+05, 4.368355574356879e+05
180, 2.852249789379561e-01, -7.661787197075484e-03, 3.402190136368547e-04, 4.413161709630630e-03, 5.258223998951039e+05, 3.574750884894175e+04, 1.686017925314849e+05, 5.948778501618858e+05
181, 3.956003701982225e-01, 4.825293871018150e-02, -1.117111953374155e-03, 7.262576628482933e-03, -3.520577151952878e+05, 4.810909884931217e+04, 8.271924255813948e+04, 4.330165948554105e+05
182, 3.863679656039212e-01, -3.541874220538175e-03, 2.599520790082495e-04, 7.029325575962989e-03, 3.002833884263164e+05, 2.779147801648371e+04, 1.119203147924659e+05, 3.526421255207310e+05
183, 7.630082210649703e-01, -1.683932405478732e-04, 8.756571718057246e-05, 1.796572750637288e-02, 7.379640402932938e+04, 5.214361105208241e+02, 2.176596392169621e+04, 8.523056766949724e+04
184, 7.221165178549034e-01, -2.386671879896191e-03, 1.695238935963267e-04, 1.671529606299980e-02, 9.663903449028199e+04, 2.476690659541206e+03, 2.457023596196648e+04, 1.062136195438490e+05
185, 6.813490575644440e-01, -5.026272236468695e-03, 2.614687658098589e-04, 1.548239246408456e-02, 1.238593647537064e+05, 3.730874909922913e+03, 2.640011639383131e+04, 1.312201152818399e+05
186, 6.700514205024029e-01, 1.200943009480344e-02, -2.447262359977425e-04, 1.513468246457214e-02, 2.131852802558925e+04, 4.525843012480248e+03, 2.994026410538863e+04, 6.219060965090459e+04
187, 6.507436095443034e-01, 9.724469617936471e-03, -1.689585223543199e-04, 1.455818295666687e-02, 4.337340314153559e+04, 4.706904221254841e+03, 3.029525268814881e+04, 7.187703027050591e+04
188, 6.585972170885982e-01, 2.855958551875440e-02, -7.329114001372950e-04, 1.478450890546452e-02, -7.955054561292572e+04, 4.030626787084094e+03, 3.379207366371913e+04, 1.074868798958135e+05
189, 6.914402908656641e-01, 1.520975427006638e-02, -3.500992242410217e-04, 1.577688169643680e-02, 1.216263839202673e+03, 5.706925333720762e+03, 2.974209901142738e+04, 5.965346473659803e+04
190, 6.408436581122263e-01, -8.308025859652041e-03, 3.689963529023883e-04, 1.427200402110286e-02, 1.642072863997132e+05, 5.306588742612318e+03, 3.031677217462259e+04, 1.700760371606337e+05
191, 5.999777577336088e-01, -1.017319331688185e-02, 4.313614360506489e-04, 1.306506426737511e-02, 1.923360723770169e+05, 6.464301015755530e+03, 3.184992011361048e+04, 1.964840579638625e+05
192, 5.887616024017648e-01, 6.914165488212533e-03, -6.465754336033862e-05, 1.272804436719776e-02, 7.389749762936147e+04, 8.638818430549460e+03, 3.675859393156524e+04, 9.830296090187864e+04
193, 5.684052808662257e-01, 5.719726871149628e-03, -2.376521677535103e-05, 1.213531320348035e-02, 9.421306723487508e+04, 1.181926523416698e+04, 3.966482871632747e+04, 1.143762788191427e+05
194, 5.775195922504133e-01, 2.398253745901509e-02, -5.556911992428111e-04, 1.239284697128147e-02, -3.444768279664807e+04, 9.556119630205305e+03, 3.748872141311054e+04, 8.693648003445273e+04
195, 5.571515349656804e-01, 2.232351574757130e-02, -4.984211981928781e-04, 1.180199675080581e-02, -1.916175556256754e+04, 1.334693379070483e+04, 4.219182804915258e+04, 9.042906778234860e+04
196, 5.979431170668756e-01, 2.519796775079432e-02, -6.013529622904462e-04, 1.298928797419792e-02, -6.091420891841331e+04, 1.198884020914779e+04, 3.658864471674922e+04, 1.032945800171993e+05
197, 7.026714032463355e-01, 3.307350982476356e-02, -8.940572325486298e-04, 1.610893353323662e-02, -1.108962819967677e+05, 6.436248105345892e+03, 2.674554192989019e+04, 1.289504504554267e+05
198, 5.593113618335217e-01, -1.250046520892452e-02, 5.039528634734760e-04, 1.188034789363798e-02, 2.287395859327264e+05, 9.106452872267610e+03, 3.745964878070354e+04, 2.320595059139958e+05
199, 5.187649537457070e-01, -1.486169353188113e-02, 5.738959971629026e-04, 1.071505982986093e-02, 2.704962890933990e+05, 1.210862180664314e+04, 4.586860784004907e+04, 2.741895390904404e+05
200, 5.076921965629095e-01, 2.218307329771115e-03, 9.147834791148332e-05, 1.039105503005753e-02, 1.393594487926622e+05, 2.019004952067387e+04, 5.669390064870669e+04, 1.644935840873688e+05
201, 4.873986433704672e-01, 1.181039459401317e-03, 1.245855008755594e-04, 9.816284210373128e-03, 1.578847688106795e+05, 2.223674373384573e+04, 6.593322876581854e+04, 1.891802033226214e+05
202, 4.966194656028796e-01, 1.934467626271270e-02, -3.872961404288685e-04, 1.006981932919526e-02, -1.426891681945875e+03, 3.071335627354748e+04, 6.287205160218982e+04, 1.297866519689689e+05
203, 4.763431748988570e-01, 1.825370403979853e-02, -3.486137314323096e-04, 9.497966570717940e-03, 7.598839169673429e+03, 3.166752115938029e+04, 7.366620292783565e+04, 1.492854288533944e+05
204, 4.860578366563697e-01, 3.670910442424759e-02, -8.682095027164421e-04, 9.765881231604422e-03, -1.509397461694641e+05, 4.030047381787073e+04, 6.115541203740398e+04, 2.270082805244400e+05
205, 5.169176985164646e-01, 1.994335935477508e-02, -4.127128413318015e-04, 1.064675535918879e-02, -6.997588749704588e+03, 2.537288314968532e+04, 5.328472591949897e+04, 1.113772666043376e+05
206, 4.659122849665016e-01, 3.584565405751972e-02, -8.315337732696470e-04, 9.200011450601392e-03, -1.537429614046109e+05, 4.120021700218471e+04, 7.038355518995570e+04, 2.404541997388565e+05
207, 5.073801417642654e-01, 3.694836126629831e-02, -8.883255895362074e-04, 1.036962914383640e-02, -1.448509039046858e+05, 3.576562033317244e+04, 5.221326646482726e+04, 2.086318039213415e+05
208, 4.255042211984943e-01, 3.276145417967536e-02, -7.225373529522011e-04, 8.080262814606160e-03, -1.279788535532168e+05, 3.647733593899438e+04, 8.986608524460802e+04, 2.436175103950098e+05
209, 4.782031906629673e-01, -1.692800596420961e-02, 6.312403613234430e-04, 9.566010494131312e-03, 3.265126299334384e+05, 1.460360478819978e+04, 5.820547554156905e+04, 3.329245402476871e+05
210, 4.377615561649102e-01, -1.892015496718379e-02, 6.811111758601790e-04, 8.439093424972842e-03, 4.021110884029707e+05, 1.662311604597887e+04, 7.094049662765877e+04, 4.107690264358066e+05
211, 7.437995247830567e-01, 2.907365860617513e-02, -7.977099842872864e-04, 1.736270990385630e-02, -9.201479880175256e+04, 5.244011801264857e+03, 2.482825152265356e+04, 1.092018522489532e+05
212, 3.771599174236252e-01, -2.142636025480181e-02, 7.300560494923124e-04, 6.792154622189475e-03, 5.505809580855086e+05, 1.944592582993448e+04, 9.153874594882785e+04, 5.618022699568470e+05
213, 6.218943807040979e-01, 4.341022781815626e-02, -1.149502536756068e-03, 1.368812765837690e-02, -1.776182985014651e+05, 1.043592526095962e+04, 3.071018142101983e+04, 1.978303617914497e+05
214, 6.296675380922808e-01, 2.448237643370344e-02, -5.966242151993545e-04, 1.392503177300082e-02, -5.614695281762637e+04, 7.881699424380438e+03, 3.394039217013792e+04, 9.331382100513771e+04
215, 5.814676933777930e-01, 4.439866935626801e-02, -1.150440495413911e-03, 1.250048190587673e-02, -1.856609088055903e+05, 1.249749069406285e+04, 3.269913255602980e+04, 2.086712351329990e+05
216, 3.312274326488422e-01, 4.612386330115190e-02, -1.002292480850644e-03, 5.562440664621582e-03, -4.408653589696402e+05, 5.671510544780191e+04, 9.927624872893546e+04, 5.357325945064713e+05
217, 2.710279663853664e-01, 4.299515715254759e-02, -8.622612579278093e-04, 4.054431153282439e-03, -5.712804476581372e+05, 6.748917144014178e+04, 1.127833374552782e+05, 6.774267127248268e+05
218, 5.390455428341940e-01, 5.238266303217255e-02, -1.348966203030617e-03, 1.127041532692439e-02, -2.547002147381689e+05, 2.689155136678692e+04, 3.296049752265553e+04, 2.892049451960876e+05
219, 6.114472204034992e-01, 1.035802388696049e-02, -1.729659480274591e-04, 1.339239997405127e-02, 4.379385655020094e+04, 8.391080137711364e+03, 3.396850895221632e+04, 7.660806079950026e+04
220, 5.481464598881551e-01, 4.391424796774106e-03, 2.007286964455315e-05, 1.154929706364100e-02, 1.099368383056330e+05, 1.283852165870307e+04, 4.330475932776165e+04, 1.301126120612791e+05
221, 4.369713267450843e-01, 6.210740459687750e-02, -1.531043788734319e-03, 8.391129750235302e-03, -4.368951979747749e+05, 4.965582041607561e+04, 4.662672380832610e+04, 4.954070033715364e+05
222, 4.776658622515376e-01, 5.502642382875403e-02, -1.373388669585587e-03, 9.525610047587804e-03, -3.102303485238604e+05, 4.569729957770256e+04, 4.877015316843492e+04, 3.690509477611465e+05
223, 4.672216742651403e-01, 6.822137221719886e-05, 1.587579968692115e-04, 9.249304643619399e-03, 1.810366871451534e+05, 2.261486660926179e+04, 7.545209939482780e+04, 2.187911114150987e+05
224, 7.838712537706656e-01, 2.237803476451621e-02, -6.158217629603643e-04, 1.859862882562020e-02, -6.351611208594604e+04, 5.392687881314167e+03, 2.071748587728047e+04, 8.040696236787672e+04
225, 5.279391987118984e-01, 3.223725334036668e-03, 5.845162027862275e-05, 1.096873857277345e-02, 1.245814910747957e+05, 1.647157522938508e+04, 4.889077661409492e+04, 1.457703195297970e+05
226, 2.240945376964768e-01, -9.587620610872932e-03, 3.476942284953636e-04, 2.960113424124632e-03, 7.343448287168129e+05, 3.981135702267657e+04, 2.192576450407345e+05, 8.213844428394930e+05
227, 4.471002731846575e-01, -9.168098744713615e-04, 1.881971289949950e-04, 8.688652525761394e-03, 2.082118688893044e+05, 2.390473351993728e+04, 8.435579477600419e+04, 2.498654049628070e+05
228, 3.661288396845953e-01, -4.394762525783355e-03, 2.804192053016066e-04, 6.489195509072046e-03, 3.371340401633333e+05, 2.939659465500736e+04, 1.221782982999839e+05, 3.929535362735768e+05
229, 1.546440068756184e-01, -2.520108376499952e-02, 5.612317377651239e-04, 1.503332379585466e-03, 1.814316375600047e+06, -1.266260521840441e+03, 1.801029326628048e+05, 1.850969630761746e+06
230, 1.882221366659534e-01, 3.826074051584353e-02, -6.497218382852480e-04, 2.165797999872436e-03, -9.024177480552172e+05, 8.530911713450457e+04, 1.211050958285345e+05, 1.016990726191773e+06
231, 1.543914041184917e-01, 4.912107034456465e-02, -7.960663088258635e-04, 1.491733548294651e-03, -1.698975519610839e+06, 6.177724604386526e+04, -8.475329931617386e+04, 1.768893097035714e+06
232, 5.370927014694915e-01, 2.057153489439007e-02, -4.392700560566724e-04, 1.122423972298054e-02, -1.232315598352697e+04, 1.862785798902619e+04, 4.618709353411821e+04, 9.742153613265762e+04
233, 1.206636050110365e-01, -1.834415102198253e-02, 3.566576363763151e-04, 8.793350935948820e-04, 1.936433612356758e+06, 1.102520666581579e+04, 2.999672052724271e+05, 2.016709901215625e+06
234, 8.631313342926250e-02, 1.043432805688596e-03, 3.740505808822168e-05, 3.439663457611969e-04, 5.676801401107374e+05, 1.219508803455355e+05, 6.502232876120214e+05, 1.374713012967716e+06
235, 1.106095889185965e-01, 3.867169228023645e-02, -4.839228987946840e-04, 7.201237389512320e-04, -2.088819797466788e+06, 9.880861931101818e+04, -8.964017193753294e+04, 2.194962307556494e+06
236, 3.368165213239255e-01, -2.303433487990625e-02, 7.505435001499003e-04, 5.730343088615218e-03, 6.772969030596643e+05, 2.126938309562669e+04, 1.060210204647130e+05, 6.894446562790099e+05
237, 4.563612726504259e-01, 1.708420333116029e-02, -3.086447405608923e-04, 8.938969926163399e-03, 2.232250254241365e+04, 3.169909191778140e+04, 8.379949908766840e+04, 1.678610872647107e+05
238, 4.456317431566468e-01, 3.339001461812384e-02, -7.513378993357346e-04, 8.635701312878344e-03, -1.373557985776146e+05, 3.723499001051936e+04, 7.959149607864811e+04, 2.362650385731590e+05
239, 3.167674574315031e-01, -2.377538963541589e-02, 7.554880295911548e-04, 5.215089742809376e-03, 7.497123633322999e+05, 2.245271729860596e+04, 1.135485547572369e+05, 7.618921773445916e+05
240, 7.729445970665597e-02, -1.752507912106143e-02, 2.007606794277879e-04, 2.531126081571611e-04, 3.123002868699430e+06, -5.052789709878771e+04, 3.473365239307557e+05, 3.248671753946992e+06
241, 7.252862014530212e-02, 3.083776928774613e-02, -2.319643539986205e-04, 2.105255076408008e-04, -3.119830312148090e+06, 1.447900275664884e+05, -1.508381706524938e+05, 3.278529331481006e+06
242, 6.994351787411089e-02, 1.216950509271565e-02, -5.326545662802538e-05, 1.569578851187476e-04, -9.840186062894941e+05, 6.457889600598498e+04, 5.152086074704250e+05, 1.470141611773089e+06
243, 3.053917014711016e-01, -6.863402861304940e-03, 3.288184764298575e-04, 4.916531993661774e-03, 4.715298510828681e+05, 3.403353523088008e+04, 1.552708596176454e+05, 5.365064638656954e+05
244, 2.497228322075046e-02, 2.402640398398414e-03, 1.559973706188214e-06, -1.178624369408496e-05, 4.918952846196057e+04, -1.032490912934496e+04, -1.324770403511702e+05, 2.715559484942868e+05
245, 4.989473083532157e-01, 5.518919255669726e-02, -1.395968854965235e-03, 1.012603283733387e-02, -2.914200860207485e+05, 4.297941336898330e+04, 4.386182463362892e+04, 3.457144252600231e+05
246, 7.121516210256057e-01, 1.460595551967098e-02, -3.414040758653893e-04, 1.640418302895567e-02, -1.797276248860401e+03, 4.906612893660927e+03, 2.826165154372247e+04, 5.691946873917902e+04
247, 2.763702683359829e-01, -2.506910702819862e-02, 7.518032148192359e-04, 4.206294402721340e-03, 9.206675664314907e+05, 2.404713829754694e+04, 1.296067895301221e+05, 9.333380265028947e+05
248, 8.873385472785349e-01, 6.844391408278278e-03, -1.858155922076482e-04, 2.184106011543123e-02, -6.346465541413771e+03, -2.551223533798417e+03, 1.254582702520483e+04, 2.537705587497902e+04
249, 9.962521156902329e-02, 1.917857730881604e-02, -1.778499040376628e-04, 5.359654913699323e-04, -9.713930385559631e+05, 1.987073511437038e+05, 3.798750119943102e+05, 1.395118282055690e+06
250, 2.557921536609737e-01, -2.522121516525769e-02, 7.328048804014837e-04, 3.709425790867400e-03, 1.020533387130527e+06, 2.472799095188060e+04, 1.391430542751001e+05, 1.033959160349443e+06
251, 7.326436531224615e-01, 1.392908380138819e-02, -3.304031185033614e-04, 1.702832670319825e-02, -2.453739573720909e+03, 3.745690403925951e+03, 2.673888019882856e+04, 5.383589684584972e+04
252, 2.442929978870507e-01, -8.841726120787759e-03, 3.455529859644746e-04, 3.426604063250912e-03, 6.501143656361850e+05, 3.906193506622530e+04, 2.024594479154810e+05, 7.330377787716135e+05
253, 3.995007411905830e-02, -1.161067152480321e-02, 3.002512093798601e-05, -1.142446475334844e-06, 1.303808666991116e+06, 3.988584420541713e+05, 3.253645665638936e+05, 1.114622498568312e+06
254, 8.043761192319334e-01, -8.566257281116389e-04, 9.281105162385225e-05, 1.924535856656704e-02, 5.796295443318045e+04, -5.744655027358475e+02, 1.695332945854696e+04, 6.764828934772819e+04
255, 3.728297782789732e-02, 1.860236346631203e-02, -2.770897500614709e-05, -5.642741791080696e-06, -1.280896637976730e+06, -2.801620450977684e+05, 1.298839350839232e+05, 1.033899933144480e+06
256, 2.774419946245726e-01, 6.094101662917976e-02, -1.301452966129173e-03, 4.213307035896066e-03, -8.877182142137627e+05, 5.520747532204734e+04, 2.560250362046553e+04, 9.443149944553070e+05
257, 5.272315251059175e-01, 3.640340721383552e-02, -8.851764749517224e-04, 1.093605027939749e-02, -1.368145342991709e+05, 2.837414445267795e+04, 4.517389540500157e+04, 1.882817646295828e+05
258, 5.083404437921797e-02, 4.581799144869038e-03, -2.579192756479844e-07, 1.666135323985558e-05, 8.157412299574116e+04, 5.937089685165350e+04, 1.426543046052876e+05, 2.861712524711002e+05
259, 2.490426759473710e-01, 4.254632631819232e-02, -8.260684071766917e-04, 3.528859683803268e-03, -6.372651265874790e+05, 7.206371599368796e+04, 1.173180756319183e+05, 7.471288579605556e+05
260, 2.163684835035404e-01, -2.701679002700320e-02, 7.193231266874047e-04, 2.798105031451022e-03, 1.282510557799466e+06, 2.537554259772283e+04, 1.549365555658962e+05, 1.294762445952455e+06
261, 6.319627623250758e-01, 8.005179788726667e-03, -1.110822640183526e-04, 1.400022690777311e-02, 5.452499157431190e+04, 5.429013572315011e+03, 3.236897494235304e+04, 8.124910591044850e+04
262, 3.114372276557584e-01, 4.471425339351094e-02, -9.471722902344663e-04, 5.056772418309429e-03, -4.734788784425819e+05, 5.886069420078646e+04, 1.048736795020087e+05, 5.721707570396133e+05
263, 2.356884134652882e-01, 5.867724256479173e-02, -1.176143665431446e-03, 3.222083106976871e-03, -1.095211165554800e+06, 5.654001870883894e+04, -1.985665228159814e+02, 1.151751252730967e+06
264, 3.383946157052069e-01, 6.335777825715755e-02, -1.450354195815498e-03, 5.748092789397564e-03, -6.823076412439616e+05, 5.227785296877589e+04, 4.280377006694436e+04, 7.395569614543205e+05
265, 1.951580192305350e-01, -2.592057073090863e-02, 6.596833117267086e-04, 2.331525623012060e-03, 1.419037554227347e+06, 2.456141203309500e+04, 1.711390301330990e+05, 1.435868371992556e+06
266, 2.079444632386854e-01, 4.033501394168094e-02, -7.224712269540374e-04, 2.591235888507640e-03, -8.041027796974982e+05, 7.994617870347282e+04, 1.190182002676236e+05, 9.155347556644795e+05
267, 9.479046644594288e-01, 3.329224375259112e-03, -1.053258721579507e-04, 2.376454901528410e-02, -8.493200400041313e+03, -5.890395168142430e+03, 6.437203328589339e+03, 1.313487502223020e+04
268, 3.561712635176024e-01, 6.624998309437961e-02, -1.548679082667639e-03, 6.212406406076396e-03, -6.718778976523007e+05, 5.187422483547614e+04, 4.041748166415961e+04, 7.282523093693919e+05
269, 1.945815262482765e-01, 5.549283344264481e-02, -1.022229941269183e-03, 2.308368793806395e-03, -1.373319897289344e+06, 5.582358114150135e+04, -3.969516220134949e+04, 1.431346885122604e+06
270, 2.977935989933491e-01, 6.155964200056977e-02, -1.347962374855761e-03, 4.715338667701288e-03, -8.054557488253037e+05, 5.500106443105884e+04, 3.474115080715637e+04, 8.632576195533504e+05
271, 9.078621578882508e-01, 5.667274229115189e-03, -1.590407954477860e-04, 2.249080662266036e-02, -6.716685141530536e+03, -3.674024225953551e+03, 1.055154666004778e+04, 2.132131171208379e+04
272, 1.825817478992424e-01, -9.081920198856432e-03, 2.993222646775055e-04, 2.051974170880184e-03, 9.033941034754498e+05, 2.938046501197037e+04, 2.659525303994463e+05, 1.023143603764224e+06
273, 5.473154535762672e-01, 3.607904473465572e-02, -8.881577528544440e-04, 1.151303556592507e-02, -1.308154226194071e+05, 1.944164821179163e+04, 4.044342474960144e+04, 1.706454504423677e+05
274, 7.530729938319840e-01, 1.313628422854849e-02, -3.158325353837426e-04, 1.765399388213998e-02, -2.269913659205473e+03, 3.526680773525462e+03, 2.545018896992601e+04, 5.122937615701895e+04
275, 3.748556537104224e-01, 4.373238303807285e-02, -9.797511907795448e-04, 6.707334324715481e-03, -3.218192485031079e+05, 4.867130760620248e+04, 9.501225102773374e+04, 4.163803111911207e+05
276, 6.131635011745523e-01, 2.949827386178269e-02, -7.353947378421083e-04, 1.343550407466180e-02, -8.839320492233483e+04, 1.275656601288392e+04, 3.668428592854010e+04, 1.249568865513012e+05
277, 1.615549999555386e-01, -8.423645609178222e-03, 2.621813100666434e-04, 1.623665638362896e-03, 1.024134752575942e+06, 3.379991722965570e+04, 3.059659743185474e+05, 1.164140797267731e+06
278, 1.684665400829101e-01, 3.589271030097479e-02, -5.704445245292190e-04, 1.758782047460968e-03, -1.015531865733921e+06, 9.403988683030408e+04, 1.254423527683871e+05, 1.137581913341065e+06
279, 8.256084584492730e-01, 2.063599800034852e-02, -5.852171577292102e-04, 1.989609576466442e-02, -5.447834999217237e+04, 1.052788806008627e+03, 1.882532718600414e+04, 6.709157287516272e+04
280, 3.972984879188702e-01, 6.550620359910081e-02, -1.579885129651887e-03, 7.307757359133646e-03, -5.490377680229122e+05, 4.879959292721769e+04, 4.277283089262110e+04, 6.039267922505931e+05
281, 6.627065683700449e-01, 4.403640084504622e-02, -1.196457732295708e-03, 1.490173607978362e-02, -1.764715668787922e+05, 9.001595449409208e+03, 2.943575109722767e+04, 1.945922601612282e+05
282, 9.271814000509705e-01, 4.566893966412862e-03, -1.340240998982602e-04, 2.310440733823201e-02, -7.400362269438338e+03, -4.654885836912926e+03, 7.532800201323155e+03, 1.531371791348427e+04
283, 5.666099503639990e-01, 3.514156773900353e-02, -8.728548785534556e-04, 1.207150714458376e-02, -1.228335623988533e+05, 1.196833400195991e+04, 3.741855004056526e+04, 1.541821741376374e+05
284, 1.494596596362294e-01, 3.329163864126687e-02, -4.879079028846421e-04, 1.388417670465621e-03, -1.124227421836526e+06, 8.783162553698223e+04, 1.513963415542311e+05, 1.249308025774267e+06
285, 4.157211108020577e-01, 4.328993327621897e-02, -1.000550568649879e-03, 7.810301239282308e-03, -2.663102319669875e+05, 4.471103629549209e+04, 8.244463078354496e+04, 3.520265585033912e+05
286, 1.420183368662139e-01, -1.083000509133579e-02, 2.779550825244759e-04, 1.250521260069342e-03, 1.283830155585956e+06, 4.107328013410754e+04, 3.299226754229942e+05, 1.407068064635079e+06
287, 7.723941052487970e-01, 1.222809467856913e-02, -2.971401608575373e-04, 1.824882765975919e-02, -2.847027454676469e+03, 4.759784494286252e+03, 2.171928892584974e+04, 4.409958768293689e+04
288, 6.445251630204021e-01, 2.466895360166448e-02, -6.097811881036579e-04, 1.436645538200497e-02, -4.016490679086202e+04, 3.293993135371379e+03, 3.482341875174873e+04, 8.209359266737539e+04
289, 7.017993879064316e-02, -4.170715886349615e-03, 5.839654209980883e-05, 1.590568951809901e-04, 1.345792262823190e+06, 2.658956127241788e+05, 6.761214443152960e+05, 1.730531018140696e+06
290, 4.338320994818889e-01, 4.597756208071748e-02, -1.087700101395794e-03, 8.306480874277515e-03, -2.901419170421025e+05, 4.421437110591707e+04, 7.393126412675853e+04, 3.655919237150126e+05
291, 8.319934002763331e-02, 1.967812476841416e-02, -1.525696538701854e-04, 3.184760088276227e-04, -1.578773323641381e+06, 2.260604424045284e+05, 3.650910504421131e+05, 1.946943970306070e+06
