"arc_length","Displacement_Magnitude","Sxx","Sxy","Sxz","Syy","Syz","Szz","Von_Mises_Stress"
0,0,1.41355e+06,80778.3,23797.4,3.13352e+06,796700,1.22517e+06,2.49089e+06
0.00181107,9.28417e-07,1.39584e+06,72620.5,38128.3,3.08922e+06,755297,1.21198e+06,2.4381e+06
0.00362215,1.85683e-06,1.37813e+06,64462.5,52459.5,3.04492e+06,713893,1.1988e+06,2.38531e+06
0.00543323,2.78525e-06,1.36042e+06,56304.7,66790.4,3.00062e+06,672489,1.18562e+06,2.33252e+06
0.00724431,3.8482e-06,1.34207e+06,54088.9,78938.6,2.97094e+06,630291,1.1634e+06,2.30464e+06
0.00905538,5.29291e-06,1.32263e+06,62060.7,87344,2.96632e+06,586733,1.12567e+06,2.31947e+06
0.0108665,6.84635e-06,1.30319e+06,70032.5,95749.5,2.96169e+06,543175,1.08794e+06,2.33431e+06
0.0126775,8.4488e-06,1.28374e+06,78004.8,104155,2.95707e+06,499616,1.05021e+06,2.34915e+06
0.0144886,1.00768e-05,1.2643e+06,85976.6,112560,2.95244e+06,456058,1.01248e+06,2.36398e+06
0.0162997,1.17199e-05,1.24486e+06,93948.9,120966,2.94782e+06,412499,974747,2.37882e+06
0.0181108,1.33723e-05,1.22542e+06,101921,129371,2.9432e+06,368941,937018,2.39366e+06
0.0199218,1.50311e-05,1.20597e+06,109893,137777,2.93857e+06,325383,899288,2.40849e+06
0.0217329,1.66944e-05,1.18653e+06,117865,146182,2.93395e+06,281824,861558,2.42333e+06
0.023544,1.83609e-05,1.16709e+06,125837,154587,2.92933e+06,238266,823828,2.43817e+06
0.0253551,2.00297e-05,1.14765e+06,133809,162993,2.9247e+06,194708,786099,2.453e+06
0.0271662,2.16855e-05,1.12861e+06,141632,171388,2.92083e+06,151215,748828,2.46864e+06
0.0289772,2.26337e-05,1.12911e+06,142376,179310,2.95247e+06,110829,733369,2.52255e+06
0.0307883,2.45332e-05,1.03636e+06,99308.8,168472,2.68281e+06,102110,695702,2.31128e+06
0.0325994,2.68305e-05,933667,59445.8,158665,2.38798e+06,96215.2,652474,2.08458e+06
0.0344105,2.94508e-05,833489,29994.4,152915,2.10946e+06,88815.9,606107,1.88009e+06
0.0362215,3.20719e-05,733312,541.908,147164,1.83094e+06,81416.7,559739,1.6756e+06
0.0380326,3.46939e-05,633134,-28909.4,141414,1.55243e+06,74017.4,513372,1.47111e+06
0.0398437,3.73163e-05,532957,-58362,135663,1.27391e+06,66618.1,467005,1.26662e+06
0.0416548,4.02327e-05,494318,-56240.5,136905,1.15859e+06,59620.7,460762,1.23201e+06
0.0434658,4.36659e-05,551112,-5157.17,148990,1.29636e+06,53246.7,516742,1.46084e+06
0.0452769,4.71725e-05,607904,45924.6,161075,1.43412e+06,46872.6,572722,1.68968e+06
0.047088,5.04837e-05,619099,115818,184076,1.524e+06,40924.6,598616,1.93177e+06
0.0488991,5.36632e-05,578142,180996,213924,1.53322e+06,37310.9,585540,2.11956e+06
0.0507102,5.70331e-05,494655,165721,232886,1.4011e+06,40997,527372,2.06017e+06
0.0525212,6.0416e-05,411171,150445,251848,1.26898e+06,44683,469207,2.00077e+06
0.0543323,6.38099e-05,327685,135170,270810,1.13686e+06,48369,411039,1.94138e+06
0.0561434,6.72132e-05,244201,119894,289771,1.00474e+06,52055,352874,1.88199e+06
0.0579545,7.05835e-05,171746,102300,305583,885569,53258.6,303655,1.82855e+06
0.0597655,7.38744e-05,123707,79574.4,314424,795072,48967.4,274241,1.78831e+06
0.0615766,7.71769e-05,75663,56848.9,323265,704568,44677.8,244824,1.74806e+06
0.0633877,8.04897e-05,27624.1,34123.4,332105,614071,40386.6,215410,1.70781e+06
0.0651988,8.38115e-05,-20420.2,11397.9,340946,523568,36097,185993,1.66756e+06
0.0670099,8.71184e-05,-61421.4,-12806.9,347777,441335,30222,162288,1.63112e+06
0.0688209,9.01312e-05,-6186.2,-57240.4,327127,472113,2689.76,216648,1.64666e+06
0.070632,9.32918e-05,18761.2,-77846,336231,487485,-7846.03,201040,1.63834e+06
0.0724431,9.62098e-05,99886.6,-121037,356205,586806,31677.4,182092,1.47455e+06
0.0742542,9.98077e-05,153265,-116043,353481,691836,70491.7,219865,1.40499e+06
0.0760652,0.000103851,185044,-80152.8,337345,793314,105498,289440,1.40247e+06
0.0778763,0.000108081,219568,-48208.5,320804,897528,139124,352039,1.41182e+06
0.0796874,0.00011332,272281,-42401.6,301593,1.01988e+06,163618,368440,1.49989e+06
0.0814985,0.00011856,324994,-36594.7,282381,1.14222e+06,188111,384840,1.58796e+06
0.0833095,0.000123802,377708,-30787.8,263169,1.26457e+06,212604,401240,1.67603e+06
0.0851206,0.000129044,430420,-24980.8,243957,1.38692e+06,237097,417641,1.76409e+06
0.0869317,0.000134288,483134,-19173.9,224745,1.50927e+06,261591,434041,1.85216e+06
0.0887428,0.000139533,535846,-13367,205534,1.63162e+06,286084,450441,1.94023e+06
0.0905539,0.000144778,588560,-7560.07,186322,1.75397e+06,310577,466842,2.0283e+06
0.0923649,0.000150025,641273,-1753.17,167110,1.87631e+06,335070,483242,2.11636e+06
0.094176,0.000155272,693986,4053.75,147898,1.99866e+06,359563,499642,2.20443e+06
0.0959871,0.000160519,746699,9860.67,128687,2.12101e+06,384057,516043,2.2925e+06
0.0977982,0.000165767,799412,15667.6,109475,2.24336e+06,408550,532443,2.38057e+06
0.0996092,0.000170917,805454,17468.2,95619.3,2.28169e+06,426593,527001,2.40319e+06
0.10142,0.000177255,794288,17150.8,96356.8,2.24709e+06,419535,528659,2.34809e+06
0.103231,0.000183315,758514,7290.58,91161.6,2.15568e+06,418306,503467,2.34143e+06
0.105042,0.00018936,719527,-3815.83,85191.5,2.05685e+06,417837,474770,2.34111e+06
0.106854,0.000195427,680541,-14921.7,79221.9,1.95802e+06,417369,446074,2.34078e+06
0.108665,0.000201514,641554,-26027.5,73252.2,1.85919e+06,416901,417378,2.34045e+06
0.110476,0.000207619,602567,-37133.9,67282.1,1.76036e+06,416432,388681,2.34012e+06
0.112287,0.000213922,578490,-18826.3,84787,1.74187e+06,391391,405755,2.20611e+06
0.114098,0.000220228,554644,-61.2361,102657,1.72464e+06,365967,423541,2.07003e+06
0.115909,0.000226534,530800,18703.5,120527,1.7074e+06,340544,441327,1.93394e+06
0.11772,0.000232841,506954,37468.7,138397,1.69017e+06,315120,459114,1.79785e+06
0.119531,0.000239149,483109,56233.4,156267,1.67294e+06,289696,476900,1.66177e+06
0.121342,0.000245456,459264,74998.2,174137,1.6557e+06,264273,494686,1.52568e+06
0.123153,0.000252219,458526,79586.1,182129,1.69814e+06,235482,495167,1.53136e+06
0.124964,0.000259152,466379,78904,186450,1.76276e+06,205441,489216,1.58972e+06
0.126775,0.000266495,506673,63393.6,185187,1.90418e+06,178497,467770,1.74279e+06
0.128586,0.000274119,569029,37799.3,180126,2.09783e+06,153659,435786,1.96025e+06
0.130398,0.000281745,631385,12205,175065,2.29149e+06,128821,403802,2.17772e+06
0.132209,0.000289373,693742,-13389.3,170004,2.48514e+06,103984,371819,2.39518e+06
0.13402,0.000297149,721021,-27405.7,171902,2.58227e+06,92906.2,346986,2.50618e+06
0.135831,0.00030505,719138,-31796.5,179586,2.59915e+06,93268.9,328099,2.52867e+06
0.137642,0.000312955,717256,-36187.4,187269,2.61603e+06,93631.6,309212,2.55116e+06
0.139453,0.000320866,715374,-40578.4,194953,2.63291e+06,93993.8,290324,2.57366e+06
0.141264,0.000328781,713491,-44969.3,202637,2.64979e+06,94356.5,271437,2.59615e+06
0.143075,0.000336638,699410,-48092.2,212561,2.62915e+06,96643.2,250591,2.58321e+06
0.144886,0.000344265,638633,-46361.4,231065,2.46486e+06,106297,222249,2.43465e+06
0.146697,0.000351891,577855,-44630.5,249569,2.30056e+06,115951,193905,2.28608e+06
0.148508,0.000359519,517078,-42899.6,268072,2.13628e+06,125605,165562,2.13752e+06
0.150319,0.000367147,456299,-41168.7,286576,1.97198e+06,135258,137219,1.98895e+06
0.15213,0.000374776,395523,-39437.9,305079,1.80769e+06,144912,108876,1.84039e+06
0.153942,0.000382406,334746,-37707,323583,1.6434e+06,154566,80533.4,1.69182e+06
0.155753,0.000390443,319459,-23619.8,341666,1.61102e+06,163403,68575,1.66409e+06
0.157564,0.000399506,433234,19430.8,352178,1.94663e+06,169421,101419,1.95415e+06
0.159375,0.000409297,644070,82184.3,354818,2.55686e+06,173148,167381,2.47467e+06
0.161186,0.000419088,854904,144937,357458,3.16708e+06,176874,233342,2.99519e+06
0.162997,0.000428879,1.06574e+06,207691,360098,3.7773e+06,180601,299304,3.51572e+06
0.164808,0.000438088,999639,192597,352392,3.54102e+06,191972,277781,3.32384e+06
0.166619,0.000447279,925059,175119,344368,3.27881e+06,203577,253579,3.11015e+06
0.16843,0.000456471,850477,157641,336344,3.0166e+06,215183,229376,2.89646e+06
0.170241,0.000465662,775895,140162,328321,2.75439e+06,226789,205174,2.68277e+06
0.172052,0.000474853,701315,122685,320297,2.49219e+06,238394,180971,2.46908e+06
0.173863,0.000484045,626733,105206,312273,2.22998e+06,249999,156769,2.25539e+06
0.175674,0.000493236,552153,87728.7,304250,1.96777e+06,261605,132567,2.0417e+06
0.177486,0.000502428,477571,70250.5,296226,1.70556e+06,273210,108364,1.828e+06
0.179297,0.000511619,402991,52772.8,288203,1.44336e+06,284816,84161.7,1.61432e+06
0.181108,0.000520811,328409,35294.5,280179,1.18115e+06,296421,59959.1,1.40062e+06
0.182919,0.000530554,303831,38060.4,268889,1.06204e+06,302916,70308.1,1.46093e+06
0.18473,0.000540348,283552,42566.9,257319,955241,308972,83628.3,1.5448e+06
0.186541,0.000550148,263273,47073.4,245748,848439,315029,96948.6,1.62867e+06
0.188352,0.000559952,242994,51580,234177,741638,321085,110268,1.71254e+06
0.190163,0.00056976,222714,56086.4,222607,634835,327141,123589,1.79641e+06
0.191974,0.000579648,211966,56099,215500,576868,329141,127080,1.83358e+06
0.193785,0.00059004,218426,55580.4,224540,595202,320945,134963,1.80859e+06
0.195596,0.000600203,233805,51941.3,234797,666411,306632,137678,1.71804e+06
0.197407,0.000610372,249184,48302,245054,737622,292319,140393,1.6275e+06
0.199218,0.00062092,271613,49074.3,247589,829360,286852,147528,1.62813e+06
0.20103,0.000631819,300656,53985.6,242880,940363,289685,158811,1.71432e+06
0.202841,0.000642719,329699,58897,238171,1.05137e+06,292517,170094,1.80051e+06
0.204652,0.00065362,358742,63808.4,233463,1.16237e+06,295350,181376,1.8867e+06
0.206463,0.000664521,387785,68719.7,228754,1.27337e+06,298183,192659,1.97289e+06
0.208274,0.000675423,416827,73631.1,224045,1.38437e+06,301016,203942,2.05908e+06
0.210085,0.000686326,445871,78542.5,219336,1.49537e+06,303848,215225,2.14527e+06
0.211896,0.000697229,474913,83453.9,214627,1.60638e+06,306681,226507,2.23146e+06
0.213707,0.000708132,503956,88365.2,209918,1.71738e+06,309514,237790,2.31765e+06
0.215518,0.000719036,532999,93276.6,205209,1.82838e+06,312347,249072,2.40384e+06
0.217329,0.000729941,562042,98188,200500,1.93938e+06,315179,260355,2.49003e+06
0.21914,0.000740771,570279,100549,199756,1.98562e+06,312711,262662,2.4556e+06
0.220951,0.000751542,561609,100838,202234,1.97924e+06,305936,257676,2.32315e+06
0.222762,0.000762315,552939,101126,204712,1.97285e+06,299161,252689,2.1907e+06
0.224574,0.000773089,544269,101415,207190,1.96646e+06,292386,247703,2.05826e+06
0.226385,0.000783864,535599,101703,209668,1.96008e+06,285610,242716,1.92581e+06
0.228196,0.000794641,526929,101992,212146,1.95369e+06,278835,237730,1.79336e+06
0.230007,0.000806275,528352,111587,206572,1.96138e+06,266848,229678,1.79031e+06
0.231818,0.000818449,525215,124659,201688,1.95298e+06,250216,218704,1.79099e+06
0.233629,0.000830624,522080,137730,196803,1.94458e+06,233583,207731,1.79167e+06
0.23544,0.000842801,518944,150802,191918,1.93619e+06,216951,196758,1.79236e+06
0.237251,0.000854979,515808,163873,187034,1.92779e+06,200318,185784,1.79304e+06
0.239062,0.000867158,512672,176945,182149,1.91939e+06,183686,174811,1.79372e+06
0.240873,0.000879339,509536,190016,177264,1.911e+06,167054,163837,1.7944e+06
0.242684,0.000891809,498503,192186,173459,1.86685e+06,161475,157725,1.7892e+06
0.244495,0.000904826,507204,190813,163878,1.86494e+06,160720,166863,1.82236e+06
0.246306,0.000917865,518084,190011,153755,1.86916e+06,159483,176829,1.85901e+06
0.248118,0.000930907,528964,189209,143632,1.87339e+06,158245,186794,1.89567e+06
0.249929,0.000943951,539844,188407,133509,1.87761e+06,157008,196760,1.93233e+06
0.25174,0.000956998,550724,187605,123386,1.88184e+06,155771,206726,1.96899e+06
0.253551,0.000970046,561605,186804,113264,1.88606e+06,154533,216691,2.00565e+06
0.255362,0.000983096,572485,186002,103141,1.89029e+06,153296,226657,2.0423e+06
0.257173,0.000996464,578583,191842,97864,1.90496e+06,148240,222066,2.04939e+06
0.258984,0.00101016,579734,204554,97600.1,1.93043e+06,139232,202418,2.02588e+06
0.260795,0.00102386,580885,217265,97336.3,1.9559e+06,130225,182769,2.00238e+06
0.262606,0.00103756,582036,229977,97072.4,1.98137e+06,121218,163121,1.97887e+06
0.264417,0.00105126,583187,242689,96808.6,2.00684e+06,112210,143472,1.95537e+06
0.266228,0.00106496,584337,255400,96544.7,2.03231e+06,103203,123823,1.93186e+06
0.268039,0.00107866,585488,268111,96280.8,2.05778e+06,94195.7,104175,1.90836e+06
0.26985,0.00109244,605799,277429,87639,2.1123e+06,93481.3,97810.2,1.93745e+06
0.271662,0.00110627,637789,284677,73889.4,2.18453e+06,97823,99543.8,1.99859e+06
0.273473,0.0011201,669782,291926,60139.4,2.25677e+06,102165,101278,2.05974e+06
0.275284,0.00113393,701772,299174,46389.9,2.329e+06,106507,103012,2.12089e+06
0.277095,0.00114776,733764,306423,32639.9,2.40124e+06,110849,104746,2.18204e+06
0.278906,0.0011616,765755,313672,18890.4,2.47347e+06,115190,106480,2.24319e+06
0.280717,0.00117543,797745,320920,5140.79,2.5457e+06,119532,108214,2.30434e+06
0.282528,0.00118926,829738,328169,-8609.17,2.61794e+06,123874,109948,2.36549e+06
0.284339,0.00120306,817649,324742,-15365.6,2.58681e+06,130771,99493.6,2.34328e+06
0.28615,0.00121679,684219,291930,-2871.97,2.27113e+06,144703,55487.8,2.09158e+06
0.287961,0.00123119,601838,265721,1464.77,2.10755e+06,144380,36224.4,1.96036e+06
0.289772,0.00124616,561723,244977,-952.091,2.06989e+06,132255,37447.5,1.92887e+06
0.291583,0.00126112,521611,224234,-3369.31,2.03224e+06,120129,38671.4,1.89738e+06
0.293394,0.00127608,481497,203490,-5786.17,1.99458e+06,108003,39894.5,1.86589e+06
0.295206,0.00129104,441384,182747,-8203.39,1.95693e+06,95877.3,41118.3,1.83441e+06
0.297017,0.001306,401272,162003,-10620.6,1.91928e+06,83751.1,42342.1,1.80292e+06
0.298828,0.00132158,429974,159777,-19605.6,2.0413e+06,65028.1,64612.1,1.90302e+06
0.300639,0.00133727,471063,160884,-29773.1,2.19207e+06,45116.9,90670.8,2.02679e+06
0.30245,0.00135296,512151,161990,-39940.4,2.34284e+06,25206.3,116729,2.15057e+06
0.304261,0.00136841,515436,143444,-47325.6,2.37938e+06,8811.82,131340,2.2782e+06
0.306072,0.00138386,519174,125135,-54744.2,2.41728e+06,-7624.36,146089,2.40577e+06
0.307883,0.00139932,522911,106824,-62162.8,2.45519e+06,-24061,160837,2.53335e+06
0.309694,0.00141478,526650,88514.5,-69581.3,2.4931e+06,-40497.1,175586,2.66093e+06
0.311505,0.00143024,530561,74370.2,-75649.1,2.52604e+06,-54818.7,187784,2.77461e+06
0.313316,0.0014457,534798,68048.4,-79180.3,2.54966e+06,-65169,195196,2.86217e+06
0.315127,0.00146157,499954,57799.3,-64504.9,2.42674e+06,-54701.7,196874,2.75766e+06
0.316938,0.00147746,462931,47332.3,-48813.9,2.29565e+06,-43073.3,198232,2.64244e+06
0.31875,0.00149335,425907,36864.3,-33123,2.16456e+06,-31444.8,199590,2.52721e+06
0.320561,0.00150924,388884,26397.3,-17432,2.03347e+06,-19816.4,200948,2.41199e+06
0.322372,0.00152512,351861,15929.2,-1741.09,1.90237e+06,-8187.87,202306,2.29677e+06
0.324183,0.00154101,314838,5462.25,13949.9,1.77128e+06,3440.53,203664,2.18155e+06
0.325994,0.0015569,277814,-5005.8,29640.8,1.64019e+06,15069,205022,2.06633e+06
0.327805,0.00157279,240791,-15472.8,45331.7,1.5091e+06,26697.4,206380,1.95111e+06
0.329616,0.00158868,203768,-25939.8,61022.7,1.378e+06,38325.9,207737,1.83589e+06
0.331427,0.00160457,166745,-36407.8,76713.6,1.24691e+06,49954.4,209095,1.72066e+06
0.333238,0.00162046,129721,-46874.8,92404.6,1.11582e+06,61582.8,210453,1.60544e+06
0.335049,0.00163645,104282,-65627.2,100630,1.01922e+06,75386.7,228684,1.46933e+06
0.33686,0.00165289,127319,-56027.6,95520.3,1.04623e+06,89628.4,243035,1.41933e+06
0.338671,0.00166934,150357,-46427.9,90410.7,1.07325e+06,103870,257388,1.36933e+06
0.340482,0.00168579,173394,-36828.2,85301,1.10026e+06,118112,271739,1.31933e+06
0.342294,0.00170258,196815,-18693,82399.7,1.16338e+06,126014,284653,1.34494e+06
0.344105,0.00171998,220933,14941.2,83508.1,1.29206e+06,122404,294954,1.50783e+06
0.345916,0.00173737,225184,24423.7,85735.3,1.31006e+06,115762,294988,1.50843e+06
0.347727,0.00175477,220856,23479,88445.7,1.28028e+06,107811,290590,1.43896e+06
0.349538,0.00177217,216530,22535.1,91155.9,1.2505e+06,99861,286191,1.36949e+06
0.351349,0.00178957,212202,21590.5,93866.3,1.22072e+06,91910.5,281793,1.30002e+06
0.35316,0.00180697,207875,20646.6,96576.5,1.19094e+06,83960.1,277394,1.23055e+06
0.354971,0.00182437,203548,19701.9,99286.9,1.16116e+06,76009.6,272996,1.16108e+06
0.356782,0.00184177,199221,18758.1,101997,1.13138e+06,68059.2,268597,1.09162e+06
0.358593,0.00185924,224866,44655.1,105319,1.1992e+06,59261.1,285927,1.14123e+06
0.360404,0.00187672,252923,72712.4,108691,1.27487e+06,50394.9,305004,1.20042e+06
0.362215,0.00189419,280980,100770,112062,1.35055e+06,41528.8,324082,1.25961e+06
0.364026,0.00191167,309040,128829,115434,1.42623e+06,32662.5,343162,1.31882e+06
0.365838,0.00192914,337097,156887,118805,1.5019e+06,23796.3,362240,1.37801e+06
0.367649,0.00194662,365157,184947,122176,1.57759e+06,14929.9,381320,1.43722e+06
0.36946,0.0019641,393214,213004,125548,1.65326e+06,6063.74,400397,1.49641e+06
0.371271,0.00198157,421275,241064,128919,1.72894e+06,-2802.65,419478,1.55562e+06
0.373082,0.00199904,447017,267346,132224,1.79849e+06,-11527.9,436395,1.60984e+06
0.374893,0.00201638,426902,258458,134208,1.74676e+06,-17461.5,410509,1.56556e+06
0.376704,0.00203382,409311,248881,131510,1.6968e+06,-17675.8,390701,1.49019e+06
0.378515,0.00205155,400655,240970,118924,1.66206e+06,-8394.24,382644,1.37719e+06
0.380326,0.00207003,423378,255974,99458.5,1.71799e+06,-10502.5,375218,1.43318e+06
0.382137,0.00208851,446100,270977,79992.6,1.77393e+06,-12611.3,367793,1.48917e+06
0.383948,0.00210699,468822,285980,60526.6,1.82987e+06,-14719.6,360367,1.54517e+06
0.385759,0.00212547,491545,300984,41060.8,1.88581e+06,-16828.5,352942,1.60116e+06
0.38757,0.00214395,514267,315987,21594.8,1.94174e+06,-18936.7,345516,1.65715e+06
0.389382,0.00216255,538392,333791,2664.94,2.00707e+06,-22558.1,338954,1.73006e+06
0.391193,0.00218161,568492,363529,-13980.3,2.11243e+06,-32626.6,336071,1.87504e+06
0.393004,0.00220058,564603,363902,-22985.2,2.11505e+06,-27158.5,322473,1.88913e+06
0.394815,0.00221954,558382,362260,-31466,2.11062e+06,-20624.2,308140,1.89425e+06
0.396626,0.0022385,552161,360619,-39947,2.10619e+06,-14089.9,293807,1.89936e+06
0.398437,0.00225747,545939,358977,-48427.7,2.10176e+06,-7555.69,279473,1.90447e+06
0.400248,0.00227643,539718,357335,-56908.7,2.09733e+06,-1021.38,265140,1.90958e+06
0.402059,0.0022954,533497,355693,-65389.5,2.0929e+06,5512.85,250807,1.91469e+06
0.40387,0.00231437,527276,354052,-73870.5,2.08847e+06,12047.2,236474,1.91981e+06
0.405681,0.00233333,521055,352410,-82351.2,2.08404e+06,18581.4,222141,1.92492e+06
0.407492,0.00235232,511586,347089,-89192.4,2.06587e+06,25745.2,208012,1.91221e+06
0.409303,0.00237157,468284,305584,-78418.2,1.90645e+06,37600.2,194355,1.72177e+06
0.411114,0.00239141,429157,289191,-64673.5,1.78299e+06,30912.2,164781,1.62925e+06
0.412926,0.00241124,390029,272797,-50928.7,1.65953e+06,24224.6,135208,1.53674e+06
0.414737,0.00243107,350902,256404,-37183.9,1.53608e+06,17536.5,105634,1.44422e+06
0.416548,0.00245091,311774,240010,-23439.1,1.41262e+06,10849,76060,1.35171e+06
0.418359,0.00247074,272647,223617,-9694.35,1.28916e+06,4160.89,46486,1.2592e+06
0.42017,0.00249057,233519,207223,4050.5,1.1657e+06,-2526.67,16912.5,1.16668e+06
0.421981,0.002511,220117,213284,21586.5,1.10556e+06,-22997.1,-15652,1.23852e+06
0.423792,0.00253146,223134,210952,30530.4,1.10224e+06,-38699.7,-25410.7,1.3306e+06
0.425603,0.00255184,229881,201296,34896.8,1.11573e+06,-50086,-24097.2,1.40711e+06
0.427414,0.00257222,236502,192712,39680.5,1.12927e+06,-60697.4,-22913.9,1.48395e+06
0.429225,0.00259254,242317,190960,47125.1,1.14308e+06,-66367.5,-22561.8,1.56285e+06
0.431036,0.00261286,248132,189210,54569.5,1.1569e+06,-72036.6,-22209.3,1.64175e+06
0.432847,0.00263318,253946,187458,62014.1,1.17071e+06,-77706.6,-21857.2,1.72065e+06
0.434658,0.0026535,259761,185708,69458.5,1.18453e+06,-83375.7,-21504.7,1.79956e+06
0.43647,0.00267405,259855,180248,73163.7,1.19152e+06,-78741.1,-17820.3,1.83328e+06
0.438281,0.0026948,254407,171197,73245.4,1.1919e+06,-64120.6,-10906.7,1.82323e+06
0.440092,0.00271556,248959,162145,73327,1.19228e+06,-49500.2,-3993.06,1.81318e+06
0.441903,0.00273632,243511,153093,73408.6,1.19265e+06,-34880.3,2920.3,1.80313e+06
0.443714,0.00275708,238063,144041,73490.2,1.19303e+06,-20259.8,9833.91,1.79307e+06
0.445525,0.00277784,232615,134988,73571.9,1.19341e+06,-5640.22,16747.1,1.78302e+06
0.447336,0.00279859,227166,125937,73653.5,1.19378e+06,8980.25,23660.8,1.77297e+06
0.449147,0.00281935,221718,116884,73735.2,1.19416e+06,23600.1,30574.1,1.76292e+06
0.450958,0.00284011,216270,107833,73816.8,1.19454e+06,38220.6,37487.7,1.75287e+06
0.452769,0.00286087,210822,98780.1,73898.5,1.19491e+06,52840.5,44401.1,1.74281e+06
0.45458,0.00288163,205374,89728.4,73980.1,1.19529e+06,67461,51314.7,1.73276e+06
0.456391,0.00290264,199285,80268.2,73816.5,1.18501e+06,78876.3,59546.3,1.71165e+06
0.458202,0.00292425,191686,69844.9,73075.4,1.14963e+06,82740.4,70882.5,1.66447e+06
0.460014,0.00294586,184087,59422.3,72334.2,1.11424e+06,86605,82219,1.6173e+06
0.461825,0.00296747,176488,48999,71593.1,1.07886e+06,90469.1,93555.2,1.57012e+06
0.463636,0.00298906,157482,39828,69799.4,1.03069e+06,95677.7,98560.1,1.54307e+06
0.465447,0.00301064,128348,31767.6,67071.1,971159,102079,97942.4,1.53388e+06
0.467258,0.00303222,99216.4,23707.8,64343.1,911635,108481,97326.1,1.52469e+06
0.469069,0.0030538,70082.3,15647.4,61614.8,852106,114882,96708.4,1.5155e+06
0.47088,0.00307541,73287.9,11805.8,63055.7,843010,122041,116947,1.43886e+06
0.472691,0.00309704,101539,11231.2,67725.3,872971,129788,153338,1.30996e+06
0.474502,0.00311867,129790,10656.3,72395.2,902931,137534,189728,1.18107e+06
0.476313,0.00314044,165438,15037.5,75942.4,951650,145042,229310,1.10267e+06
0.478124,0.00316256,220753,32592.4,76506,1.05023e+06,151916,277374,1.1585e+06
0.479935,0.00318468,276068,50147.8,77069.4,1.14881e+06,158790,325437,1.21433e+06
0.481746,0.0032068,331382,67702.6,77633,1.2474e+06,165664,373501,1.27016e+06
0.483558,0.00322893,386697,85258,78196.4,1.34598e+06,172538,421565,1.32598e+06
0.485369,0.00325131,474120,122208,76077.6,1.51626e+06,180346,484308,1.44664e+06
0.48718,0.00327435,595416,183619,65414.9,1.7742e+06,189166,557337,1.6809e+06
0.488991,0.00329752,583049,178001,51198.1,1.76667e+06,191743,550909,1.75709e+06
0.490802,0.00332079,522395,155479,44991.2,1.65225e+06,182173,504161,1.68359e+06
0.492613,0.00334405,461738,132957,38784.5,1.53784e+06,172604,457413,1.61009e+06
0.494424,0.00336732,401084,110435,32577.6,1.42343e+06,163034,410666,1.53659e+06
0.496235,0.00339058,340427,87911.7,26370.8,1.30902e+06,153465,363918,1.46309e+06
0.498046,0.00341385,279773,65389.7,20163.9,1.19461e+06,143896,317170,1.38959e+06
0.499857,0.00343711,219116,42866.9,13957.2,1.08019e+06,134326,270422,1.31609e+06
0.501668,0.00346038,158462,20344.9,7750.29,965782,124757,223675,1.24259e+06
0.503479,0.00348364,97805.4,-2177.86,1543.56,851368,115187,176926,1.16909e+06
0.505291,0.00350698,110973,5734.43,3005.6,883205,109081,183236,1.1741e+06
0.507102,0.00353033,128845,15586.3,4955.99,924362,103196,192928,1.18412e+06
0.508913,0.00355367,146718,25438.4,6906.82,965520,97310.3,202620,1.19414e+06
0.510724,0.00357681,156292,32900.5,4468.58,989982,92153,202558,1.21678e+06
0.512535,0.00359995,165408,40230.8,1788.51,1.01352e+06,87036.1,201959,1.24011e+06
0.514346,0.00362308,174524,47561.1,-891.613,1.03707e+06,81918.9,201359,1.26344e+06
0.516157,0.00364622,183641,54891.5,-3571.68,1.06061e+06,76802,200760,1.28678e+06
0.517968,0.00366935,192757,62221.8,-6251.8,1.08415e+06,71684.8,200161,1.31011e+06
0.519779,0.00369274,197971,76479.8,-10307.1,1.12422e+06,67482.4,195508,1.36752e+06
0.52159,0.0037166,195779,103887,-16972.7,1.19566e+06,65015.8,183161,1.48961e+06
0.523401,0.00374047,193586,131295,-23638.4,1.26709e+06,62549.1,170815,1.6117e+06
0.525212,0.00376471,181124,130625,-14061.5,1.27148e+06,75584.4,168868,1.63226e+06
0.527023,0.00378901,167281,126178,-2300.21,1.26684e+06,90704.4,168320,1.63916e+06
0.528835,0.0038133,153438,121733,9460.68,1.26221e+06,105824,167772,1.64607e+06
0.530646,0.00383759,139595,117287,21222,1.25758e+06,120944,167224,1.65297e+06
0.532457,0.00386189,125753,112842,32982.9,1.25295e+06,136064,166676,1.65988e+06
0.534268,0.00388618,111910,108395,44744.2,1.24832e+06,151184,166128,1.66678e+06
0.536079,0.00391047,98066.8,103950,56505.1,1.24369e+06,166304,165580,1.67369e+06
0.53789,0.00393477,84224,99504.9,68266,1.23906e+06,181424,165032,1.68059e+06
0.539701,0.00395902,70606.9,88776.3,81148.2,1.22e+06,194738,166381,1.65912e+06
0.541512,0.00398312,57921.9,52135.2,98653.3,1.14145e+06,200603,175558,1.52061e+06
0.543323,0.00400722,45236.8,15493.6,116159,1.0629e+06,206468,184734,1.3821e+06
0.545134,0.00403166,42420.1,22496.5,127733,1.0347e+06,214576,177417,1.33443e+06
0.546945,0.0040562,41910.9,39705.1,137921,1.01827e+06,223208,166243,1.30802e+06
0.548756,0.00408073,41401.7,56913.4,148109,1.00184e+06,231841,155069,1.2816e+06
0.550567,0.00410583,46866.2,60856.5,146505,1.00226e+06,227662,149391,1.26029e+06
0.552379,0.00413114,54524.8,59927.1,140570,1.00886e+06,218777,145732,1.24085e+06
0.55419,0.00415645,62183.3,58997.6,134635,1.01547e+06,209892,142074,1.22142e+06
0.556001,0.00418177,69841.8,58068.4,128700,1.02207e+06,201008,138415,1.20198e+06
0.557812,0.00420708,77500.4,57139,122765,1.02867e+06,192123,134756,1.18255e+06
0.559623,0.00423239,85158.9,56209.8,116831,1.03528e+06,183239,131097,1.16311e+06
0.561434,0.0042577,92817.5,55280.4,110896,1.04188e+06,174354,127438,1.14368e+06
0.563245,0.00428302,100476,54351.2,104961,1.04848e+06,165469,123779,1.12425e+06
0.565056,0.00430833,108135,53421.8,99026.3,1.05509e+06,156585,120120,1.10481e+06
0.566867,0.00433364,115793,52492.6,93091.8,1.06169e+06,147700,116461,1.08538e+06
0.568678,0.00435896,123451,51563.2,87156.9,1.06829e+06,138816,112803,1.06594e+06
0.570489,0.00438427,131110,50633.8,81222,1.0749e+06,129931,109144,1.04651e+06
0.5723,0.00440959,140506,51905.7,76140.9,1.09022e+06,121839,108307,1.03786e+06
0.574111,0.00443492,157633,62972.5,74857.5,1.14434e+06,117272,120030,1.0772e+06
0.575922,0.00446026,174760,74038.8,73574.1,1.19846e+06,112706,131751,1.11654e+06
0.577734,0.0044856,191887,85105.5,72290.7,1.25258e+06,108139,143474,1.15588e+06
0.579545,0.00451094,209014,96171.8,71007.3,1.30669e+06,103573,155196,1.19523e+06
0.581356,0.00453627,226141,107239,69723.9,1.36081e+06,99006.3,166918,1.23457e+06
0.583167,0.00456161,243268,118305,68440.5,1.41493e+06,94439.9,178640,1.27391e+06
0.584978,0.0045869,231633,129130,59027.2,1.43629e+06,81238.3,157750,1.30992e+06
0.586789,0.00461259,276846,147625,57627.1,1.49494e+06,84269.3,151514,1.36014e+06
0.5886,0.00463885,305796,165011,38618.9,1.5574e+06,78840.6,142860,1.41969e+06
0.590411,0.0046651,334746,182399,19610.9,1.61987e+06,73411.8,134204,1.47925e+06
0.592222,0.00469135,363695,199786,602.693,1.68233e+06,67983.2,125550,1.5388e+06
0.594033,0.0047176,392645,217173,-18405.4,1.74479e+06,62554.4,116894,1.59835e+06
0.595844,0.00474386,421595,234560,-37413.5,1.80726e+06,57125.8,108240,1.6579e+06
0.597655,0.00477014,445815,248594,-55012,1.84965e+06,51861.3,103994,1.69694e+06
0.599467,0.00479671,442682,243697,-64763.3,1.79437e+06,50548.9,120942,1.64549e+06
0.601278,0.00482353,435114,236702,-73888.3,1.7622e+06,56218.3,132224,1.6389e+06
0.603089,0.00485035,427546,229707,-83013.2,1.73002e+06,61887.4,143505,1.63231e+06
0.6049,0.00487717,419979,222712,-92138.2,1.69785e+06,67556.9,154786,1.62572e+06
0.606711,0.00490399,412411,215717,-101263,1.66568e+06,73226,166067,1.61913e+06
0.608522,0.00493081,404843,208722,-110388,1.6335e+06,78895.4,177348,1.61255e+06
0.610333,0.00495763,397275,201727,-119513,1.60133e+06,84564.5,188629,1.60596e+06
0.612144,0.00498445,389707,194732,-128638,1.56915e+06,90234,199911,1.59937e+06
0.613955,0.00501127,382139,187737,-137763,1.53698e+06,95903.1,211192,1.59278e+06
0.615766,0.00503809,374571,180742,-146888,1.50481e+06,101572,222473,1.58619e+06
0.617577,0.00506494,366650,173533,-155497,1.46992e+06,106795,233434,1.57613e+06
0.619388,0.0050925,349280,160630,-150333,1.36269e+06,100103,235837,1.47343e+06
0.621199,0.00512005,331911,147726,-145170,1.25545e+06,93409.6,238240,1.37072e+06
0.62301,0.0051476,314541,134823,-140006,1.14822e+06,86716.6,240643,1.26802e+06
0.624822,0.00517516,297172,121919,-134842,1.04098e+06,80023.7,243046,1.16531e+06
0.626633,0.00520272,280418,109273,-129255,938649,73871.7,245893,1.06676e+06
0.628444,0.00523045,274338,101100,-116320,921351,77099.5,256437,1.04025e+06
0.630255,0.0052582,269684,94307,-103516,907788,79864.4,266418,1.01982e+06
0.632066,0.00528629,284495,106360,-92502.6,945252,76303.5,268699,1.08246e+06
0.633877,0.00531439,299308,118413,-81489.7,982716,72742.3,270980,1.1451e+06
0.635688,0.00534248,314120,130466,-70476.7,1.02018e+06,69181.4,273262,1.20774e+06
0.637499,0.00537057,328932,142519,-59463.8,1.05764e+06,65620.2,275543,1.27039e+06
0.63931,0.00539867,343744,154573,-48450.8,1.09511e+06,62059.3,277824,1.33303e+06
0.641121,0.00542676,358556,166626,-37437.9,1.13257e+06,58498.1,280106,1.39567e+06
0.642932,0.00545486,373368,178679,-26425,1.17004e+06,54937.2,282387,1.45831e+06
0.644743,0.00548295,388180,190732,-15412,1.2075e+06,51376,284668,1.52096e+06
0.646554,0.00551113,396867,198337,-6626.41,1.23248e+06,49270.6,285659,1.56655e+06
0.648366,0.00553962,382421,189140,-6252.86,1.21032e+06,52662,281774,1.54774e+06
0.650177,0.00556812,367974,179944,-5879.58,1.18816e+06,56053.5,277888,1.52894e+06
0.651988,0.00559662,353527,170747,-5506.02,1.16599e+06,59445,274003,1.51013e+06
0.653799,0.00562511,339080,161551,-5132.75,1.14383e+06,62836.4,270118,1.49132e+06
0.65561,0.00565361,324633,152354,-4759.19,1.12167e+06,66227.9,266233,1.47252e+06
0.657421,0.00568211,310186,143158,-4385.91,1.0995e+06,69619.3,262348,1.45371e+06
0.659232,0.0057106,295740,133961,-4012.36,1.07734e+06,73010.8,258462,1.4349e+06
0.661043,0.00573904,270108,115720,-6845.21,1.02806e+06,75681.9,244832,1.37067e+06
0.662854,0.00576738,226815,83196.8,-14740.4,935973,77215.9,215815,1.2347e+06
0.664665,0.00579573,183523,50673.8,-22635.6,843883,78749.8,186797,1.09873e+06
0.666476,0.0058245,155193,41835.6,-29645.9,798222,87544,159954,1.05915e+06
0.668287,0.00585339,131186,39841,-36400.5,765975,98435.9,133738,1.04742e+06
0.670098,0.00588231,112049,39013.8,-42705.6,740665,108338,115325,1.03679e+06
0.67191,0.00591136,121396,45015.5,-46380.7,755930,112449,142560,1.03264e+06
0.673721,0.00594041,130744,51017.2,-50056,771194,116560,169795,1.02849e+06
0.675532,0.00596946,140091,57018.8,-53731.1,786459,120671,197030,1.02434e+06
0.677343,0.00599852,149438,63020.5,-57406.3,801724,124782,224265,1.02019e+06
0.679154,0.00602771,155844,66047.9,-58526.4,807395,130393,241047,1.01475e+06
0.680965,0.00605705,159277,66070.4,-57065.2,803373,137520,247270,1.00802e+06
0.682776,0.00608639,162710,66092.9,-55604.1,799351,144647,253492,1.00128e+06
0.684587,0.00611573,166144,66115.4,-54142.9,795329,151774,259714,994548
0.686398,0.00614507,169577,66137.8,-52681.8,791307,158902,265936,987815
0.688209,0.00617441,173010,66160.4,-51220.6,787286,166028,272159,981080
0.69002,0.00620375,176444,66182.8,-49759.4,783263,173156,278381,974347
0.691831,0.00623309,179877,66205.3,-48298.3,779242,180283,284603,967613
0.693642,0.00626243,183310,66227.7,-46837.1,775220,187410,290825,960879
0.695454,0.00629182,184735,64489.8,-45567,764828,195213,296928,964092
0.697265,0.00632192,157922,37995.3,-46982.9,664867,212525,301346,1.10719e+06
0.699076,0.00635205,136729,17717.1,-44698.2,586540,225791,302318,1.21568e+06
0.700887,0.00638229,139022,23420.1,-26947.7,598636,222149,288886,1.17954e+06
0.702698,0.00641252,141315,29122.7,-9197.28,610731,218506,275453,1.1434e+06
0.704509,0.00644276,143609,34825.8,8553.25,622827,214864,262021,1.10726e+06
0.70632,0.006473,145902,40528.3,26303.7,634922,211221,248588,1.07112e+06
0.708131,0.00650323,148195,46231.4,44054.2,647018,207579,235156,1.03497e+06
0.709942,0.00653343,154280,55889.5,62030.4,674264,200365,221168,973128
0.711753,0.00656355,168234,73733.3,80515.8,732593,185822,205876,857691
0.713564,0.00659409,165276,76060.1,93999.3,758033,179193,207892,881939
0.715375,0.00662463,162319,78386.6,107483,783473,172563,209908,906189
0.717187,0.00665517,159361,80713.4,120966,808912,165933,211924,930437
0.718998,0.00668571,156404,83040,134450,834352,159303,213941,954688
0.720809,0.00671625,153446,85366.8,147933,859792,152673,215957,978936
0.72262,0.0067468,150488,87693.4,161417,885231,146043,217973,1.00319e+06
0.724431,0.00677733,147531,90020.1,174900,910671,139414,219989,1.02743e+06
0.726242,0.00680805,154727,88100.7,189459,933170,133780,221362,1.06904e+06
0.728053,0.00683926,147998,86868.3,196032,921140,133259,207614,1.08441e+06
0.729864,0.0068705,131516,88256.7,199723,900989,133619,189942,1.08243e+06
0.731675,0.00690174,115034,89644.7,203415,880838,133979,172270,1.08044e+06
0.733486,0.00693299,98552.1,91033,207106,860686,134338,154598,1.07845e+06
0.735297,0.00696423,82070.2,92421,210798,840535,134698,136926,1.07647e+06
0.737108,0.00699547,65588,93809.4,214490,820384,135058,119253,1.07448e+06
0.738919,0.00702672,49106.2,95197.4,218181,800233,135418,101581,1.0725e+06
0.74073,0.00705796,32624,96585.8,221873,780082,135778,83908.9,1.07051e+06
0.742542,0.00708924,36972.1,97032.5,217828,782571,124124,75702.6,1.03963e+06
0.744353,0.00712052,41247.4,97482.8,213811,784981,112512,67463.3,1.00884e+06
0.746164,0.00715179,45522.7,97933.2,209794,787390,100900,59224.1,978055
0.747975,0.00718305,50073.4,101082,205479,795573,88237.5,48194.1,974148
0.749786,0.00721428,54779,105744,200996,806994,74985.6,35598.9,985314
0.751597,0.00724552,59484.3,110406,196514,818414,61734.2,23004.1,996479
0.753408,0.00727676,64189.9,115069,192032,829836,48482.3,10408.9,1.00765e+06
0.755219,0.007308,68895.1,119730,187550,841256,35230.8,-2185.91,1.01881e+06
0.75703,0.00733924,73600.7,124393,183068,852677,21979,-14781.1,1.02998e+06
0.758841,0.00737048,78306,129055,178585,864097,8727.53,-27375.9,1.04114e+06
0.760652,0.00740172,83011.6,133718,174103,875518,-4524.33,-39971.2,1.05231e+06
0.762463,0.00743308,92055.2,138691,163503,895786,-11005.2,-46582,1.06976e+06
0.764274,0.00746458,106039,144018,145937,926127,-9774.56,-46377.2,1.09438e+06
0.766086,0.00749627,122648,150958,127527,965098,-8681.55,-45962.7,1.12634e+06
0.767897,0.00752855,148184,163376,106248,1.03341e+06,-8055.65,-44833.7,1.18324e+06
0.769708,0.00756084,173720,175795,84969.3,1.10173e+06,-7429.96,-43705,1.24014e+06
0.771519,0.00759313,199256,188213,63690.8,1.17004e+06,-6804.05,-42576,1.29704e+06
0.77333,0.00762542,224792,200632,42412,1.23836e+06,-6178.36,-41447.4,1.35394e+06
0.775141,0.0076578,232995,189844,46368.8,1.22441e+06,-2512.88,-36633.1,1.32722e+06
0.776952,0.00769022,232544,167469,62926.7,1.16939e+06,2670.65,-29978.4,1.25874e+06
0.778763,0.00772271,233992,152816,71651.6,1.14031e+06,8540.5,-22311.9,1.25075e+06
0.780574,0.00775532,239337,154012,64301.3,1.16449e+06,15819.1,-12568.6,1.36688e+06
0.782385,0.00778792,244682,155207,56951.9,1.18867e+06,23097.6,-2825.67,1.483e+06
0.784196,0.00782053,250027,156402,49601.7,1.21285e+06,30376.3,6917.58,1.59913e+06
0.786007,0.00785313,255372,157597,42252.2,1.23702e+06,37654.7,16660.6,1.71526e+06
0.787818,0.00788574,260717,158793,34902,1.2612e+06,44933.4,26403.8,1.83138e+06
0.78963,0.00791834,266062,159988,27552.6,1.28538e+06,52211.8,36146.8,1.94751e+06
0.791441,0.0079512,245103,127742,34271.6,1.17459e+06,51350,34073.1,1.85879e+06
0.793252,0.00798411,219135,89125.6,43669.6,1.0381e+06,48937.6,29748.7,1.73106e+06
0.795063,0.00801702,193166,50510.3,53068.1,901605,46525.3,25424.4,1.60333e+06
0.796874,0.00804993,167198,11894.3,62466.2,765111,44113,21100,1.4756e+06
0.798685,0.00808284,141229,-26721,71864.7,628618,41700.7,16775.6,1.34788e+06
0.800496,0.00811575,115261,-65336.9,81262.8,492124,39288.4,12451.2,1.22015e+06
0.802307,0.00814867,91599.7,-101512,89266.6,365628,37275.6,9572.17,1.0989e+06
0.804118,0.00818165,90119.4,-114229,83861.1,335244,39103.4,20588.2,1.03993e+06
0.805929,0.00821463,88639.8,-126944,78455.9,304862,40931.4,31604.4,980975
0.80774,0.00824761,87160.2,-139660,73050.7,274481,42759.3,42620.7,922016
0.809551,0.0082806,85679.8,-152377,67645.3,244096,44587.2,53636.7,863055
0.811363,0.00831358,84200.2,-165092,62240,213715,46415.1,64653,804096
0.813174,0.00834666,69068.7,-171323,58776.2,186529,40710.8,77912.3,771637
0.814985,0.00837977,49896.9,-175632,55887.3,160293,32776.9,91836,747025
0.816796,0.00841319,52236.4,-166906,65471.7,170183,26593.1,106486,765777
0.818607,0.0084467,60753.6,-154435,78638.2,190451,20911.8,121345,796985
0.820418,0.00848021,69270.9,-141965,91804.8,210717,15230.6,136204,828191
0.822229,0.00851372,77788,-129494,104971,230985,9549.3,151063,859398
0.82404,0.00854723,86305.2,-117022,118138,251253,3868,165922,890606
0.825851,0.00858084,96688.9,-103171,127273,289636,2145.55,184675,926339
0.827662,0.00861457,109327,-87651.3,131537,349909,5205.8,208136,967543
0.829473,0.0086483,121966,-72132,135801,410182,8266.33,231596,1.00875e+06
0.831284,0.00868203,134605,-56612,140065,470455,11326.6,255056,1.04995e+06
0.833095,0.00871576,147243,-41092.7,144329,530727,14387.1,278516,1.09115e+06
0.834907,0.00874949,159882,-25572.6,148593,591000,17447.4,301976,1.13236e+06
0.836718,0.00878322,172521,-10053.3,152857,651273,20507.9,325436,1.17356e+06
0.838529,0.00881695,185159,5466.78,157121,711546,23568.1,348896,1.21476e+06
0.84034,0.0088504,191542,-5972.82,153196,720375,30456.8,341729,1.12983e+06
0.842151,0.00888378,196597,-23133.2,147534,718288,38158,328064,1.01813e+06
0.843962,0.00891733,192484,-32588.3,138666,717120,45280.2,312238,923551
0.845773,0.00895127,166388,-23567.1,122113,718157,51014.6,291233,870037
0.847584,0.00898524,143665,-13066.3,104987,724792,56354.9,271723,829563
0.849395,0.00901969,161096,15046.1,81052.9,798078,57006.4,270025,944316
0.851206,0.00905414,178528,43158.6,57118.8,871363,57657.7,268325,1.05907e+06
0.853017,0.00908859,195960,71270.9,33184.6,944649,58309.1,266626,1.17382e+06
0.854828,0.00912304,213391,99383.4,9250.45,1.01793e+06,58960.4,264927,1.28858e+06
0.856639,0.00915752,228739,124536,-12575.2,1.08061e+06,58480.7,262392,1.38655e+06
0.858451,0.00919212,233286,134346,-23473,1.08832e+06,52139.9,255524,1.39759e+06
0.860262,0.00922672,237834,144157,-34371.2,1.09603e+06,45799.1,248656,1.40862e+06
0.862073,0.00926133,242381,153967,-45269,1.10374e+06,39458.4,241788,1.41966e+06
0.863884,0.00929593,246928,163777,-56167.2,1.11145e+06,33117.5,234920,1.43069e+06
0.865695,0.00933052,249239,170253,-66009.9,1.11016e+06,27472.1,227705,1.43249e+06
0.867506,0.00936495,225788,138318,-63695.9,1.00521e+06,29837.8,216486,1.32794e+06
0.869317,0.00939939,202336,106382,-61381.9,900269,32203.5,205267,1.22339e+06
0.871128,0.00943382,178884,74445.6,-59067.9,795325,34569.2,194047,1.11884e+06
0.872939,0.00946825,155432,42509.7,-56754,690382,36934.9,182828,1.01429e+06
0.87475,0.00950307,136992,21927.8,-58967.9,625421,39381.6,168183,974452
0.876561,0.00953815,121948,9040.49,-64250.6,587557,41883.3,151216,978470
0.878372,0.00957334,122213,9171.66,-63518.5,594563,42717.3,160185,963678
0.880183,0.00960858,129485,15262.9,-60032.7,622111,42787.9,181029,940273
0.881995,0.00964382,136758,21354.3,-56547,649659,42858.4,201873,916869
0.883806,0.00967906,144031,27445.5,-53061.2,677207,42928.9,222717,893464
0.885617,0.0097143,151303,33536.9,-49575.5,704755,42999.5,243560,870060
0.887428,0.00974954,158576,39628.1,-46089.7,732303,43070,264404,846655
0.889239,0.00978482,164364,44395.5,-42049.1,757876,43103,281937,827724
0.89105,0.00982039,159676,39823.9,-34094.3,769523,42871.2,276114,840360
0.892861,0.00985596,154989,35252.3,-26139.5,781170,42639.3,270292,852994
0.894672,0.00989153,150301,30680.6,-18184.4,792817,42407.4,264469,865631
0.896483,0.0099271,145614,26109,-10229.5,804464,42175.6,258646,878265
0.898294,0.00996267,140926,21537.2,-2274.5,816111,41943.7,252823,890901
0.900105,0.00999824,136238,16965.6,5680.39,827758,41711.8,247001,903536
0.901916,0.0100338,131551,12393.9,13635.4,839405,41479.9,241178,916172
0.903727,0.0100694,126863,7822.24,21590.3,851052,41248.1,235356,928806
0.905538,0.0101054,132723,1421.45,23252.4,825266,38431.9,224691,979849
0.90735,0.0101418,133978,-1314.26,19228.8,764821,38299.4,215942,924496
0.909161,0.0101781,135233,-4049.81,15205.1,704376,38167,207193,869140
0.910972,0.0102144,136488,-6785.51,11181.5,643931,38034.4,198443,813788
0.912783,0.0102507,137743,-9521.06,7157.86,583486,37902,189695,758432
0.914594,0.0102871,138999,-12256.8,3134.29,523041,37769.5,180945,703080
0.916405,0.0103234,140254,-14992.3,-889.396,462597,37637.1,172196,647724
0.918216,0.0103597,141509,-17728,-4912.97,402152,37504.6,163447,592371
0.920027,0.010396,142764,-20463.6,-8936.65,341707,37372.2,154698,537016
0.921838,0.0104324,149863,-17244.1,-8711.94,338748,30986.2,154947,539107
0.923649,0.0104687,157620,-13354.5,-8008.92,342260,23896.1,156207,547669
0.92546,0.010505,165628,1069.36,-6401.58,370325,16973.7,150054,632040
0.927271,0.0105413,173693,17932.9,-4584.76,404075,10090.1,142183,733974
0.929083,0.0105776,181758,34797.8,-2767.86,437829,3206.53,134312,835913
0.930894,0.0106139,189823,51661.4,-951.05,471579,-3677.01,126440,937846
0.932705,0.0106502,196275,65463.1,633.775,495545,-10100.1,118501,1.02472e+06
0.934516,0.0106866,184329,44330.1,-428.184,407878,-11271.3,109785,939738
0.936327,0.010723,172383,23196.4,-1490.19,320209,-12442.5,101068,854756
0.938138,0.0107595,164323,13463.7,-3108.76,264674,-12745.9,95265.1,785611
0.939949,0.0107962,169155,41549.8,-6573.88,315730,-10170.6,99129.2,768994
0.94176,0.010833,173987,69635.6,-10038.9,366786,-7595.3,102993,752377
0.943571,0.0108698,178819,97721.7,-13504,417842,-5019.96,106857,735760
0.945382,0.0109068,171745,99392,-16069,441440,-4507.99,124077,744378
0.947193,0.0109439,162736,96768.7,-18487.7,460575,-4331.36,143467,757096
0.949004,0.0109809,153727,94145.8,-20906.4,479710,-4154.72,162857,769814
0.950815,0.0110181,141019,80809.6,-21098.5,467992,-8051.64,169296,793409
0.952627,0.0110553,126678,62744.9,-20308.2,442658,-13746.3,170020,821804
0.954438,0.0110925,112338,44680.4,-19517.7,417323,-19441.1,170744,850200
0.956249,0.0111297,97997.4,26615.8,-18727.3,391989,-25135.7,171468,878595
0.95806,0.0111669,83656.8,8551.29,-17936.8,366654,-30830.5,172191,906990
0.959871,0.0112041,70039.6,-8538.1,-16752.3,344658,-36092.9,173402,935651
0.961682,0.0112415,70000.4,-7315.74,-8166.22,385338,-33240.6,183763,969299
0.963493,0.0112789,69961,-6093.79,419.617,426018,-30388.3,194124,1.00295e+06
0.965304,0.0113162,69921.8,-4871.43,9005.69,466698,-27535.9,204485,1.03659e+06
0.967115,0.0113536,69882.6,-3649.08,17591.8,507378,-24683.5,214846,1.07024e+06
0.968926,0.011391,71800.7,549.222,26055.6,553545,-20983.2,224195,1.0914e+06
0.970737,0.0114287,81090.7,15957,34060.2,620379,-14089.1,229729,1.06553e+06
0.972548,0.0114664,90380.8,31364.7,42064.6,687214,-7195.06,235264,1.03965e+06
0.974359,0.0115041,99670.8,46772.4,50069.2,754047,-301.032,240798,1.01378e+06
0.976171,0.0115418,108961,62180.1,58073.5,820882,6593.06,246333,987899
0.977982,0.0115795,118251,77587.9,66078.1,887716,13487.1,251868,962024
0.979793,0.0116172,118554,81475.9,73114.2,927927,19432.6,250882,958545
0.981604,0.0116551,109578,73471.2,79150.8,940652,24398.9,243163,978190
0.983415,0.0116929,100602,65466.5,85187.4,953377,29365.2,235445,997835
0.985226,0.0117308,91625.9,57461.2,91223.7,966102,34331.4,227726,1.01748e+06
0.987037,0.0117687,84268,50473.2,95270.9,971753,38799.9,220118,1.02929e+06
0.988848,0.0118066,83913.1,47885.7,90706.9,946782,41113.5,212987,1.00718e+06
0.990659,0.0118445,83558.7,45298.9,86143.1,921812,43427.1,205856,985080
0.99247,0.0118825,83203.8,42711.4,81579.1,896841,45740.8,198726,962975
0.994281,0.0119204,82849.4,40124.6,77015.2,871871,48054.4,191595,940871
0.996092,0.0119583,82494.5,37537.1,72451.2,846901,50368.1,184464,918766
0.997903,0.0119963,82140.1,34950.3,67887.4,821931,52681.7,177334,896662
0.999715,0.0120343,80149,32457.4,63726.7,794367,55338.9,169191,874068
1.00153,0.0120727,65210.9,30706,62754.9,746291,60713.4,153043,847602
1.00334,0.0121112,50273.6,28955.3,61783.2,698216,66087.8,136896,821137
1.00515,0.0121497,35335.4,27203.8,60811.4,650140,71462.3,120749,794671
1.00696,0.0121882,20668,25068.5,59720,601604,76767,105160,769645
1.00877,0.0122267,13438.7,12331.3,55330.7,540344,80147.7,104962,784307
1.01058,0.0122652,6210.05,-406.121,50941.2,479082,83528.5,104764,798970
1.01239,0.0123037,-1019.26,-13143.3,46551.9,417822,86909.2,104566,813632
1.0142,0.0123422,-8247.93,-25880.7,42162.4,356560,90290,104369,828296
1.01601,0.0123807,-15476.3,-38617.4,37773.1,295301,93670.6,104171,842958
1.01783,0.0124193,-21985.7,-47069.1,32823,269403,94898.3,107659,849979
1.01964,0.0124579,-27880.9,-51871.5,27396,273606,94293.2,114284,850495
1.02145,0.0124965,-33777.2,-56674.8,21968.7,277809,93688.1,120909,851010
1.02326,0.0125351,-39672.4,-61477.2,16541.7,282013,93083,127534,851526
1.02507,0.0125737,-44203.1,-65947.7,12296.5,286079,92606.3,134210,854602
1.02688,0.0126127,-35983.6,-67310.4,19087.3,288864,93328.1,141362,881590
1.02869,0.0126516,-27764.1,-68673.7,25878.7,291648,94050.1,148515,908580
1.0305,0.0126905,-19544.6,-70036.5,32669.5,294433,94771.9,155668,935568
1.03231,0.0127294,-11324.4,-71399.2,39460.7,297218,95493.7,162822,962558
1.03412,0.0127683,-3105.55,-72762.5,46251.7,300002,96215.8,169974,989546
1.03594,0.0128074,19694.3,-67070.2,50650,329960,96426.4,185110,1.01035e+06
1.03775,0.0128466,51602.9,-56970.3,53553,376895,96318,205232,1.02729e+06
1.03956,0.0128858,83513.6,-46869.3,56456,423833,96209.2,225356,1.04422e+06
1.04137,0.0129249,115422,-36769.3,59359,470768,96100.8,245479,1.06116e+06
1.04318,0.0129641,147333,-26668.4,62261.9,517707,95992,265603,1.0781e+06
1.04499,0.0130031,163255,-25095.5,60684,533994,93202.7,266980,1.03969e+06
1.0468,0.013042,165569,-30781.2,55291.3,524193,88130.8,252401,954168
1.04861,0.0130809,167882,-36466.5,49899,514393,83059.3,237822,868652
1.05042,0.0131198,170196,-42152.2,44506.5,504592,77987.6,223243,783131
1.05224,0.0131589,156305,-41353.7,34142.1,501651,73902.5,204233,716960
1.05405,0.0131983,129641,-35444.7,19858.4,504118,70594.8,181730,666033
1.05586,0.013238,139001,-2082.63,-505.262,579880,65052.3,168254,784418
1.05767,0.0132778,148496,31383.3,-20892.6,655919,59501.4,154811,903439
1.05948,0.0133175,157990,64847.2,-41278.8,731953,53950.6,141368,1.02245e+06
1.06129,0.0133572,167484,98313.2,-61666.1,807992,48399.8,127924,1.14147e+06
1.0631,0.013397,176978,131777,-82052.3,884027,42849,114481,1.26048e+06
1.06491,0.0134367,186472,165243,-102440,960066,37297.8,101037,1.37951e+06
1.06672,0.0134765,192665,190950,-121096,1.01189e+06,31725.2,86689.4,1.46535e+06
1.06854,0.0135165,190542,197122,-135398,1.00275e+06,26096,70060.6,1.46768e+06
1.07035,0.0135564,188419,203293,-149697,993606,20467.7,53433.1,1.46999e+06
1.07216,0.0135963,174622,176998,-150038,905124,28391.8,50833.5,1.35939e+06
1.07397,0.0136362,158644,144636,-147768,801820,38848.5,50855.8,1.22769e+06
1.07578,0.013676,142665,112272,-145499,698510,49305.8,50878.3,1.09598e+06
1.07759,0.0137159,126687,79910.8,-143230,595206,59762.4,50900.6,964279
1.0794,0.0137558,110708,47547.2,-140961,491896,70219.7,50923.1,832570
1.08121,0.0137958,98447.9,22978.7,-140910,416070,79929.1,50899.4,732682
1.08302,0.0138362,100050,27462.6,-149129,442678,86853.4,50703.8,751394
1.08484,0.0138768,107863,51683.3,-148781,482301,90630.4,48639.3,813491
1.08665,0.0139175,117719,82391.8,-145618,526206,93373.6,45960.3,889850
1.08846,0.0139582,127574,113098,-142455,570107,96116.5,43281.6,966203
1.09027,0.0139989,137429,143807,-139291,614011,98859.7,40602.6,1.04256e+06
1.09208,0.0140396,138240,150414,-137686,609013,100012,39089,1.05009e+06
1.09389,0.0140804,134551,145031,-136855,579684,100374,38155,1.02337e+06
1.0957,0.0141212,130862,139647,-136023,550355,100735,37221,996657
1.09751,0.014162,127172,134263,-135192,521025,101096,36287,969939
1.09932,0.0142029,123483,128879,-134361,491696,101458,35353.1,943222
1.10113,0.0142437,119794,123496,-133530,462367,101819,34419.1,916505
1.10295,0.0142844,104504,114034,-119657,427248,101032,19467.4,891145
1.10476,0.0143251,88599.6,104357,-105093,391822,100184,3774.41,865858
1.10657,0.0143659,72696.6,94679.6,-90531.3,356397,99335.6,-11917.3,840570
1.10838,0.0144066,56792.7,85002.6,-75968,320971,98487.5,-27610.3,815282
1.11019,0.0144474,40889.8,75326.1,-61405.7,285548,97639.4,-43302.2,789996
1.112,0.0144881,25746.5,66096.8,-46602.8,251599,96435.7,-58632.1,767601
1.11381,0.0145291,22453.6,63852.3,-28064.6,240678,89692.6,-68307.7,790282
1.11562,0.0145701,19160.6,61607.3,-9525.3,229757,82949,-77983.6,812964
1.11743,0.014611,15867.7,59362.9,9012.89,218836,76205.9,-87659.2,835645
1.11925,0.014652,12574.7,57117.9,27552.2,207915,69462.2,-97335.2,858327
1.12106,0.014693,9281.74,54873.5,46090.4,196994,62719.1,-107011,881008
1.12287,0.0147341,8527.27,53346.4,62688.8,195864,59566.1,-110056,897115
1.12468,0.0147754,11519,52879.3,76422,209185,61712.4,-103315,903517
1.12649,0.0148167,14510.9,52412.4,90156.2,222507,63858.7,-96574.4,909919
1.1283,0.0148579,22982.4,47792.5,97491,238652,68410.4,-77473.4,886068
1.13011,0.014899,42066.5,35130.5,92434.4,260271,77620.7,-34433.1,803625
1.13192,0.0149401,61149.4,22468.9,87378.3,281888,86830.5,8604.42,721188
1.13373,0.0149811,80232.3,9807.7,82322.1,303504,96040.3,51641.8,638750
1.13555,0.0150222,99316.5,-2854.61,77265.6,325123,105251,94682.2,556307
1.13736,0.0150635,116368,-12122.8,72146.1,319466,112040,125867,552624
1.13917,0.015105,131905,-18862.5,66979.3,293476,117025,148219,607650
1.14098,0.0151467,138680,-23714.1,61051.2,265505,116981,151736,666937
1.14279,0.0151884,141770,-27771.8,54802.3,236697,114822,147331,728023
1.1446,0.0152301,144859,-31829.7,48553.8,207890,112662,142926,789105
1.14641,0.0152718,147949,-35887.5,42304.9,179082,110503,138521,850191
1.14822,0.0153134,137668,-15353.5,38790.2,191400,103593,115037,824835
1.15003,0.015355,118331,21838.8,37126.8,231574,93465.1,78629.3,740931
1.15184,0.0153965,98994.9,59029.5,35463.7,271747,83337.7,42223.1,657029
1.15366,0.0154381,81465.9,93684.1,34237.9,310644,73609.5,9146.99,580771
1.15547,0.0154801,94566.5,86291.8,39391.3,328895,69051.9,23755.1,606622
1.15728,0.0155222,109625,76371.2,44778.7,345990,64555.6,39939.1,634391
1.15909,0.0155643,124683,66451.2,50165.9,363083,60059.5,56122.1,662158
1.1609,0.0156064,139741,56530.6,55553.6,380179,55563.1,72306.5,689926
1.16271,0.0156484,154799,46610.6,60940.7,397273,51067.1,88489.5,717693
1.16452,0.0156905,169857,36690,66328.4,414368,46570.7,104674,745462
1.16633,0.0157327,164455,37893.5,74994.1,412814,42117.4,104424,752873
1.16814,0.0157748,156879,40278.1,84008.7,409281,37668.3,102430,758123
1.16996,0.015817,149304,42662.6,93022.5,405747,33219.6,100435,763373
1.17177,0.0158591,141729,45047.2,102037,402213,28770.5,98441.1,768624
1.17358,0.0159013,134154,47431.8,111051,398679,24321.8,96446.6,773873
1.17539,0.0159435,126579,49816.5,120065,395145,19872.8,94451.8,779123
1.1772,0.0159856,119004,52200.9,129079,391612,15424,92457.9,784374
1.17901,0.0160279,103420,47132.9,131056,359933,14625.3,86330.9,768965
1.18082,0.0160704,80846.7,35560.8,126892,303694,17012.4,76598.5,735530
1.18263,0.0161129,58272.3,23988.5,122728,247452,19399.6,66865,702092
1.18444,0.0161553,35699.4,12416.4,118563,191214,21786.7,57132.7,668657
1.18626,0.0161979,10413.5,14845.3,119822,173466,25503.8,47822.3,664442
1.18807,0.0162405,-16548,25933.6,124435,179531,30043.4,38774.8,678303
1.18988,0.0162831,-43511.3,37023.6,129049,185597,34583.2,29726.1,692166
1.19169,0.0163257,-69440.6,47252.5,133139,191107,38954,21314,704964
1.1935,0.0163683,-79066,43894.7,128962,187840,40658.8,22945.1,700957
1.19531,0.0164109,-88690.5,40537.6,124786,184574,42363.4,24576,696951
1.19712,0.0164536,-98315.9,37179.8,120609,181308,44068.2,26207.2,692943
1.19893,0.0164962,-107940,33822.7,116433,178042,45772.8,27838,688937
1.20074,0.0165388,-117566,30464.9,112256,174776,47477.6,29469.2,684930
1.20256,0.0165814,-127190,27107.7,108080,171510,49182.3,31100.1,680924
1.20437,0.016624,-136816,23749.9,103903,168244,50887.1,32731.2,676917
1.20618,0.0166666,-146440,20392.8,99726.5,164978,52591.7,34362.1,672911
1.20799,0.0167092,-156065,17035.6,95549.8,161713,54296.4,35993,668904
1.2098,0.0167519,-150761,7194.72,98869.5,143681,54259.3,46083.3,671205
1.21161,0.0167949,-111055,-17584.6,119462,91625,50208.7,75665.8,688041
1.21342,0.0168378,-72045.6,-41527.9,139524,41659.3,46323.7,104495,704542
1.21523,0.0168808,-56297.7,-37506.7,141887,61585.3,47971.8,108152,709884
1.21704,0.0169239,-40550.5,-33486.3,144249,81509.6,49620,111809,715226
1.21885,0.0169669,-24802.7,-29465.1,146611,101436,51268.1,115466,720568
1.22067,0.0170099,-9055.42,-25444.7,148973,121360,52916.3,119124,725909
1.22248,0.0170529,8931.05,-23357.5,149416,139736,54392.7,121386,713767
1.22429,0.0170956,36231.3,-29317.8,141874,151662,55154.6,117844,628874
1.2261,0.0171383,63533.5,-35278.7,134331,163589,55916.7,114302,543975
1.22791,0.0171811,90833.8,-41239,126789,175515,56678.6,110760,459082
1.22972,0.0172239,109605,-44968.9,117551,188144,58086.9,102084,383508
1.23153,0.0172671,97304.1,-40573.2,102137,203327,61848.6,74709.4,341901
1.23334,0.0173107,96152.8,-26848.9,86535.7,260203,65471.2,60358.3,429520
1.23515,0.0173543,94938.6,-13178.2,70936.1,316841,69094.3,45934.3,516402
1.23697,0.017398,93724.2,493.246,55335.5,373481,72717.6,31509.5,603289
1.23878,0.0174416,92509.9,14164,39735.9,430118,76340.7,17085.5,690171
1.24059,0.0174852,91295.7,27835.6,24135.2,486759,79963.9,2660.5,777058
1.2424,0.0175288,90081.3,41506.1,8535.72,543396,83587.1,-11763.3,863939
1.24421,0.0175725,88867,55177.8,-7064.96,600037,87210.3,-26188.3,950827
1.24602,0.0176161,74727.2,61146,-17612.2,611264,88749.5,-44599.6,982508
1.24783,0.0176599,54502.6,63489.2,-25782.2,601118,89307.7,-64889.3,988208
1.24964,0.0177036,35112.1,53943.6,-25567.6,560386,89224.8,-78650.2,961240
1.25145,0.0177472,16605,31792.2,-16463.7,487224,88461.8,-85490.5,899636
1.25327,0.0177908,-1901.13,9642.2,-7360.36,414067,87698.9,-92330.3,838035
1.25508,0.0178345,-20408.9,-12509.4,1743.6,340904,86936,-99170.8,776430
1.25689,0.0178781,-38915,-34659.4,10846.9,267747,86173.2,-106011,714829
1.2587,0.0179218,-57422.8,-56810.9,19950.9,194584,85410.3,-112851,653223
1.26051,0.0179654,-75928.9,-78960.9,29054.2,121426,84647.4,-119691,591623
1.26232,0.0180091,-94436.7,-101112,38158.1,48263.1,83884.5,-126531,530017
1.26413,0.0180527,-112943,-123262,47261.5,-24894.3,83121.6,-133371,468417
1.26594,0.0180965,-120500,-133963,51209.4,-58357.9,80128.8,-125304,442174
1.26775,0.0181405,-109730,-125502,46529,-25386.2,73404.4,-92289.8,475109
1.26956,0.0181845,-98038.9,-117052,42196.3,6885.47,67057.1,-60350,503561
1.27138,0.0182284,-67553.2,-108860,44961.1,24838.6,68413.1,-50366.6,440542
1.27319,0.0182723,-37066,-100667,47726.1,42791.7,69769.1,-40382.9,377519
1.275,0.0183162,-6580.29,-92474.9,50490.9,60744.8,71125.1,-30399.5,314499
1.27681,0.0183603,7461.43,-96794.8,50717.1,59796.1,67654.4,-7269.58,337661
1.27862,0.0184045,12673.9,-107831,49580.3,48701,61592.9,22916.7,407088
1.28043,0.0184487,8569.52,-113369,50193.7,40460.7,60307.3,30128.9,434272
1.28224,0.0184928,-5208.46,-113194,52624.3,35188.3,63981.8,13482.8,417583
1.28405,0.0185369,-18988.3,-113020,55055.2,29914.5,67656.7,-3165.46,400892
1.28586,0.018581,-32767,-112846,57486,24641.3,71331.3,-19812.4,384202
1.28768,0.0186251,-31495,-107347,56399,42739.3,71954.8,-5349.97,391927
1.28949,0.0186692,-30018.4,-101776,55264.1,61154.5,72536.6,9535.36,399984
1.2913,0.0187132,-28541.1,-96203.9,54129.2,79571.3,73118.5,24422,408041
1.29311,0.0187573,-27064.5,-90632.8,52994.3,97986.4,73700.3,39307.3,416098
1.29492,0.0188014,-25587.2,-85061.4,51859.4,116402,74282.2,54193.1,424155
1.29673,0.0188455,-24110.6,-79490.1,50724.5,134818,74864,69079.3,432212
1.29854,0.0188896,-22633.3,-73918.7,49589.5,153234,75445.9,83965.1,440269
1.30035,0.0189336,-21156.7,-68347.3,48454.6,171650,76027.8,98851.3,448327
1.30216,0.018978,-19815.3,-68872.8,49081.2,168882,78267.8,100981,447694
1.30398,0.0190224,-18505.2,-70833.5,50122.4,161126,80898.4,100108,445015
1.30579,0.0190668,-17195.7,-72794.3,51163.5,153371,83528.7,99235.5,442336
1.3076,0.0191113,-2961.81,-67840.5,49727.2,152284,83667.6,105987,433814
1.30941,0.0191558,14620.5,-61095,47648.8,152925,83160.6,114715,423778
1.31122,0.0192004,32204.1,-54349,45570.2,153565,82653.7,123443,413741
1.31303,0.0192449,49786.4,-47603.5,43491.8,154206,82146.7,132171,403705
1.31484,0.0192894,67370.1,-40857.5,41413.3,154847,81639.7,140899,393668
1.31665,0.0193339,79754.2,-34511,39297.1,154501,80591,143412,387044
1.31846,0.0193785,78911.9,-29179.4,37084.6,151647,78163.7,130109,389102
1.32028,0.0194232,78070.4,-23848.1,34872.2,148793,75736.7,116808,391159
1.32209,0.0194678,77228.1,-18516.4,32659.7,145938,73309.4,103506,393216
1.3239,0.0195124,76386.6,-13185.1,30447.3,143084,70882.4,90205,395273
1.32571,0.0195571,74520.2,-7883.97,28231.1,140354,68437.5,76239.8,397893
1.32752,0.0196019,46236.1,-3369.86,25922,140839,65538.5,45173.5,415014
1.32933,0.0196468,17950.1,1144.54,23612.7,141324,62639.2,14105.3,432136
1.33114,0.0196916,-10334,5658.65,21303.5,141809,59740.2,-16961,449256
1.33295,0.0197366,-25015.7,9213.71,19413.9,149755,56736.9,-31210.4,460937
1.33476,0.0197815,-14588.8,11740.9,18157.7,166517,53875.8,-22007.7,458157
1.33657,0.0198264,-4161.18,14268.3,16901.5,183280,51014.6,-12804.1,455378
1.33839,0.0198714,6265.75,16795.5,15645.4,200042,48153.5,-3601.43,452598
1.3402,0.0199163,16693.3,19322.9,14389.2,216805,45292.3,5602.13,449819
1.34201,0.0199613,27120.3,21850.1,13133,233567,42431.2,14804.8,447039
1.34382,0.0200063,34552.2,22221.9,11795.2,240658,41025.7,22416.1,440233
1.34563,0.0200513,36408.7,18582,10305.4,229748,42329.4,27063.2,425936
1.34744,0.0200963,38265.4,14942,8815.62,218837,43633.1,31711,411638
1.34925,0.0201413,40121.9,11302.2,7325.89,207927,44936.7,36358.2,397341
1.35106,0.0201863,41978.5,7662.11,5836.07,197015,46240.4,41005.5,383042
1.35287,0.0202313,43835,4022.32,4346.35,186105,47544.1,45653.1,368745
1.35469,0.0202763,45691.6,382.242,2856.52,175194,48847.8,50300.5,354447
1.3565,0.0203213,47548.2,-3257.55,1366.81,164284,50151.4,54948,340150
1.35831,0.0203665,44397.1,-10303.7,-3376.63,143007,53432.1,52437.6,328385
1.36012,0.0204116,40535.1,-17833.1,-8581.82,120260,56993.5,48911.2,316981
1.36193,0.0204568,36672.9,-25362.9,-13787.3,97510.5,60555,45384.3,305576
1.36374,0.0205021,32298.4,-32961.8,-19095,75916.8,64181.6,42086.1,296046
1.36555,0.0205474,21463.9,-41437.9,-25695.8,68858.2,68630.6,41663.1,310125
1.36736,0.0205927,10630.1,-49913.4,-32296.2,61800.1,73079.3,41240.1,324203
1.36917,0.020638,-204.344,-58389.6,-38897,54741.7,77528.4,40817.3,338282
1.37099,0.0206833,-1411.93,-62207.2,-41222.9,53811,81092,45870.4,344733
1.3728,0.0207287,4609.43,-62527.2,-40339.2,57481.7,83991.1,55036.3,345457
1.37461,0.020774,10630.5,-62847.1,-39455.3,61152.3,86890,64201.7,346180
1.37642,0.0208193,16651.9,-63167.1,-38571.5,64823,89789.1,73367.6,346904
1.37823,0.0208647,22673,-63486.9,-37687.7,68493.6,92688,82533,347627
1.38004,0.02091,28694.4,-63806.9,-36803.9,72164.4,95587.1,91699,348351
1.38185,0.0209554,34715.5,-64126.8,-35920.1,75834.9,98485.9,100864,349074
1.38366,0.0210007,40737,-64446.6,-35036.1,79505.8,101385,110030,349798
1.38547,0.021046,46757.9,-64766.6,-34152.4,83176.3,104284,119196,350522
1.38728,0.0210914,52779.4,-65086.5,-33268.5,86847.1,107183,128362,351245
1.3891,0.0211369,55561.7,-64635.6,-30370.9,84680.1,110370,128935,351811
1.39091,0.0211825,55329.3,-61803.1,-25862.1,79321.4,112439,124448,349555
1.39272,0.0212281,53778.8,-57181.6,-20768.6,73577.2,113396,119073,344864
1.39453,0.0212737,52228.5,-52559.4,-15674.5,67832.8,114353,113697,340172
1.39634,0.0213193,50678.1,-47937.9,-10581,62088.6,115309,108322,335481
1.39815,0.0213649,49127.8,-43315.7,-5486.94,56344.2,116266,102947,330789
1.39996,0.0214105,47577.5,-38694,-393.272,50600.2,117222,97572,326097
1.40177,0.0214562,39476.7,-35577.5,2567.54,50426.7,116643,90752.7,331110
1.40358,0.0215018,28593.2,-33100.7,4621.82,52620.7,115411,83320.6,340247
1.4054,0.0215475,17708.8,-30624,6676.18,54814.5,114179,75887.8,349384
1.40721,0.0215932,6825.31,-28147.3,8730.46,57008.5,112947,68455.7,358520
1.40902,0.0216389,-4059.03,-25670.5,10784.8,59202.4,111716,61022.9,367658
1.41083,0.0216846,-14942.6,-23193.8,12839.1,61396.4,110484,53590.8,376794
1.41264,0.0217303,-25826.8,-20716.8,14893.5,63590.6,109252,46158.2,385931
1.41445,0.0217761,-17266.3,-17126.3,16121.8,80402.5,109654,53321.9,385354
1.41626,0.0218219,-7198.94,-13449,17286.4,98348.2,110183,61616.9,384025
1.41807,0.0218677,2868.17,-9772.09,18450.7,116293,110712,69911.6,382696
1.41988,0.0219135,12935.5,-6094.79,19615.2,134239,111240,78206.6,381366
1.4217,0.0219593,23002.6,-2417.9,20779.6,152183,111769,86501.3,380037
1.42351,0.0220051,31979.2,1373.13,22197.3,169077,112328,94102.3,379559
1.42532,0.022051,33969.1,5892.2,25236.9,179235,113076,97258,384533
1.42713,0.0220969,35958.9,10411.7,28276.8,189394,113825,100414,389508
1.42894,0.0221428,32807,4110.89,24991.3,173130,115467,95079.2,381764
1.43075,0.0221887,29421.3,-2682.05,21418.2,155664,117151,89358.3,373441
1.43256,0.0222346,26035.8,-9474.58,17845.3,138199,118835,83637.7,365119
1.43437,0.0222805,22650.2,-16267.5,14272.2,120733,120518,77916.9,356797
1.43618,0.0223264,19264.6,-23060,10699.2,103268,122202,72196.3,348475
1.438,0.0223723,15879,-29853,7126.12,85801.9,123885,66475.4,340152
1.43981,0.0224183,12493.4,-36645.5,3553.19,68337,125569,60754.8,331830
1.44162,0.0224642,9107.82,-43438.5,-19.9291,50871,127253,55033.9,323508
1.44343,0.0225101,5722.25,-50231,-3592.86,33406,128936,49313.3,315186
1.44524,0.0225561,-4872.75,-53637.7,-5810.79,18897.4,128973,41098,311929
1.44705,0.0226021,-16738,-56446.9,-7789.53,4911.64,128719,32443.6,309566
1.44886,0.0226481,-28604.1,-59256.5,-9768.51,-9075.43,128465,23788.5,307202
1.45067,0.0226941,-40469.4,-62065.8,-11747.2,-23061.2,128212,15134,304839
1.45248,0.0227401,-52340.2,-64823.4,-13782.1,-36212.4,128070,6646.68,303255
1.45429,0.0227861,-62068.7,-66691.9,-15793.6,-41860.5,128475,613.298,304548
1.45611,0.0228323,-53320.8,-63026.3,-16127.9,-21635.9,127374,7378.42,297047
1.45792,0.0228785,-42258.7,-58208.6,-17774.2,1890.3,124613,15080.5,291582
1.45973,0.0229247,-31197.4,-53391.4,-19420.3,25414.8,121853,22782,286116
1.46154,0.0229709,-20135.5,-48574,-21066.6,48940.8,119092,30484.1,280651
1.46335,0.0230171,-9074.05,-43756.6,-22712.8,72465.5,116332,38185.6,275185
1.46516,0.0230633,-651.041,-40228.2,-24324.2,90064.8,115398,44387.6,274246
1.46697,0.0231095,4838.12,-38132.7,-25896.7,101075,116497,48921.7,278339
1.46878,0.0231557,10327.3,-36037.4,-27469.4,112085,117595,53456,282432
1.47059,0.0232019,15816.4,-33941.9,-29041.9,123095,118693,57990.1,286525
1.47241,0.0232481,21305.6,-31846.6,-30614.5,134105,119791,62524.4,290618
1.47422,0.0232943,26794.8,-29751.1,-32187,145115,120889,67058.5,294711
1.47603,0.0233405,32283.9,-27655.8,-33759.7,156125,121987,71592.7,298804
1.47784,0.0233867,37772.8,-25560.6,-35332.2,167134,123086,76126.7,302897
1.47965,0.0234329,38655.1,-24795.4,-35956.2,170224,123979,77138.8,304437
1.48146,0.0234793,30663.5,-26592.9,-34753,158055,124477,71366.4,301057
1.48327,0.0235256,22671.3,-28390.4,-33549.7,145886,124975,65593.5,297676
1.48508,0.023572,17576.9,-28132.1,-31159.5,135396,125177,61523.5,294304
1.48689,0.0236184,17748.5,-24136.8,-26611.7,127956,124841,60547.7,290944
1.48871,0.0236648,17920.2,-20141.9,-22064.2,120517,124505,59572.2,287585
1.49052,0.0237111,18091.7,-16146.7,-17516.4,113077,124169,58596.4,284226
1.49233,0.0237575,18263.4,-12151.8,-12969,105637,123833,57620.8,280867
1.49414,0.0238039,18435.1,-8156.59,-8421.19,98197.6,123497,56645.2,277508
1.49595,0.0238503,18606.6,-4161.6,-3873.68,90758.1,123160,55669.5,274149
1.49776,0.0238967,18778.3,-166.436,674.088,83318.3,122824,54693.9,270790
1.49957,0.023943,18949.8,3828.55,5221.59,75878.7,122488,53718.1,267431
1.50138,0.0239895,18527.9,2649.73,8824.29,65137.7,122168,53162.3,272522
1.50319,0.0240359,18089.7,1329.67,12401,54306.8,121848,52617.7,277843
1.50501,0.0240823,17651.6,9.58822,15977.8,43475.7,121527,52073.4,283165
1.50682,0.0241287,17213.3,-1310.47,19554.5,32644.9,121207,51528.8,288487
1.50863,0.0241752,16775.2,-2630.55,23131.4,21813.7,120887,50984.4,293809
1.51044,0.0242216,16832.9,-3837.57,26560,12051.6,120567,50865.1,298772
1.51225,0.0242681,20901.5,-1765.62,26034.8,17974,120055,54297.5,295118
1.51406,0.0243147,23873.9,801.087,24969.3,23752.5,119479,56826.5,290455
1.51587,0.0243612,26846.6,3367.94,23903.6,29531.4,118904,59355.6,285793
1.51768,0.0244078,29819,5934.64,22838.1,35309.9,118329,61884.5,281131
1.51949,0.0244543,32791.7,8501.49,21772.4,41088.8,117754,64413.7,276468
1.5213,0.0245009,35764.1,11068.2,20706.9,46867.3,117179,66942.6,271806
1.52312,0.0245475,36891.1,10819,18581.9,48689.8,113955,65572,267059
1.52493,0.024594,37905.4,10398.3,16392.6,50271.1,110571,63963.7,262306
1.52674,0.0246406,38919.8,9977.57,14203.1,51852.4,107186,62355.4,257554
1.52855,0.0246872,39934.2,9556.86,12013.7,53433.7,103801,60747.2,252801
1.53036,0.0247338,40948.6,9136.11,9824.24,55015,100416,59138.9,248049
1.53217,0.0247804,41963.1,8715.4,7634.9,56596.4,97031.6,57530.7,243296
1.53398,0.024827,42977.4,8294.66,5445.41,58177.7,93646.7,55922.4,238544
1.53579,0.0248736,39146.3,7666.14,2119.04,55977.6,88356.5,50994.9,231146
1.5376,0.0249202,30297.8,6822.42,-2384.8,49861.9,81092.9,42630.1,221007
1.53942,0.0249668,24489.9,6059.96,-5679.11,47256.4,75371,36750.5,212628
1.54123,0.0250135,25585.3,5481.87,-6227.49,52621,73149,36512.9,208240
1.54304,0.0250602,26680.6,4903.83,-6775.84,57985.3,70927.1,36275.3,203854
1.54485,0.0251069,27856.9,4071.2,-7135.55,63006.4,69015.6,36338.2,199783
1.54666,0.0251536,29362.1,2205.05,-6728.91,66632.8,68365.6,37621.8,196997
1.54847,0.0252003,29757.4,473.387,-6272.04,68097.4,67961.3,37872,194440
1.55028,0.025247,25267.9,-665.464,-5594.27,60046.8,68639.2,33573.4,192887
1.55209,0.0252937,20778.1,-1804.45,-4916.47,51995.7,69317.1,29274.6,191334
1.5539,0.0253405,16288.6,-2943.3,-4238.7,43945.1,69995,24976.1,189781
1.55572,0.0253872,11798.9,-4082.29,-3560.89,35894,70672.9,20677.3,188229
1.55753,0.0254339,7309.37,-5221.14,-2883.12,27843.4,71350.8,16378.7,186676
1.55934,0.0254806,2819.57,-6360.05,-2205.3,19792.2,72028.7,12079.8,185123
1.56115,0.0255273,-1669.9,-7498.98,-1527.54,11741.7,72706.6,7781.34,183570
1.56296,0.025574,-6159.7,-8637.89,-849.728,3690.53,73384.5,3482.47,182018
1.56477,0.0256207,-10649.2,-9776.81,-171.968,-4360.02,74062.4,-816.023,180465
1.56658,0.0256675,-16040.3,-10852,502.974,-11529.3,74436.2,-5222.03,179789
1.56839,0.0257143,-21282.7,-11388.4,1081.16,-15781.8,74669.7,-8744.58,179818
1.5702,0.0257611,-18549.9,-8962.43,1061.01,-8185.71,76373.4,-5764.05,177535
1.57201,0.0258079,-16105.8,-7038.95,1263.28,-1819.89,77896.8,-2987.15,175930
1.57383,0.0258547,-14417.7,-6432.08,2048.49,1323.01,78948.2,-743.259,176105
1.57564,0.0259015,-12612.6,-5844.09,2829.45,4452.33,79953.4,1545.73,176272
1.57745,0.0259483,-8249.87,-5667.7,3517.67,7293.02,79949.7,4823.8,176287
1.57926,0.0259951,-3887.39,-5491.31,4205.88,10133.4,79946,8101.65,176302
1.58107,0.026042,475.303,-5314.92,4894.1,12974.1,79942.4,11379.7,176317
1.58288,0.0260888,4837.78,-5138.54,5582.32,15814.4,79938.7,14657.6,176332
1.58469,0.0261356,9200.48,-4962.14,6270.54,18655.1,79935.1,17935.6,176347
1.5865,0.0261824,13563,-4785.76,6958.75,21495.5,79931.4,21213.5,176362
1.58831,0.0262292,17925.7,-4609.37,7647.02,24336,79927.7,24491.6,176377
1.59013,0.026276,22288.1,-4432.98,8335.18,27176.5,79924.1,27769.4,176392
1.59194,0.0263229,26650.9,-4256.59,9023.46,30017,79920.4,31047.5,176407
1.59375,0.0263697,31013.3,-4080.2,9711.62,32857.6,79916.8,34325.3,176422
1.59556,0.0264165,33666.8,-3342.02,10078.7,34408.6,79507,36317.6,175301
1.59737,0.0264634,30229.2,-602.141,9301.49,31365.5,77650.3,33728.4,170133
1.59918,0.0265102,26901.9,1775.93,8657.3,27881.6,75873.6,31082.4,165733
1.60099,0.0265571,23963.4,2880.43,8481.12,22849.1,74378.5,28237.5,164037
1.6028,0.026604,21024.7,3985.09,8304.95,17816.2,72883.3,25392.5,162341
1.60461,0.0266509,18086.2,5089.66,8128.8,12783.6,71388.3,22547.7,160645
1.60643,0.0266979,14860.9,5202.65,8565.56,14048.5,69045.9,21010.6,160073
1.60824,0.0267448,11588.1,5150.07,9104.69,16365.1,66562.3,19692.1,159688
1.61005,0.0267917,8314.98,5097.45,9643.82,18681.7,64078.5,18373.4,159302
1.61186,0.0268386,5042.15,5044.88,10182.9,20998.3,61594.8,17054.9,158917
1.61367,0.0268855,1769.05,4992.26,10722.1,23314.9,59111,15736.3,158532
1.61548,0.0269324,-1503.78,4939.69,11261.2,25631.5,56627.4,14417.7,158147
1.61729,0.0269793,-4776.68,4887.05,11800.3,27948,54143.7,13099.2,157762
1.6191,0.0270262,-8049.71,4834.49,12339.5,30264.7,51659.9,11780.6,157377
1.62091,0.0270732,-11322.5,4781.92,12878.6,32581.2,49176.2,10462,156992
1.62273,0.0271201,-9399.42,5364.45,13953.2,38146.9,47920.5,12757.8,155593
1.62454,0.0271671,-5522.56,6185.81,15229.1,44933.9,47126.7,16412.5,153814
1.62635,0.027214,-1645.36,7007.2,16505.1,51721.4,46332.9,20067.6,152034
1.62816,0.027261,2231.51,7828.56,17780.9,58508.4,45539.1,23722.3,150254
1.62997,0.0273079,6408.06,8481.36,18913,65252.6,44897.8,27376.9,148384
1.63178,0.0273548,10950.5,8710.59,19690.9,71396.2,44566.1,30841.9,146272
1.63359,0.0274018,12320.5,6506.52,18539.3,67375.2,45001.9,30642.2,142595
1.6354,0.0274488,13690.4,4302.59,17387.7,63354.4,45437.8,30442.4,138918
1.63721,0.0274958,15060.5,2098.51,16236,59333.3,45873.6,30242.6,135241
1.63902,0.0275428,16430.4,-105.422,15084.5,55312.5,46309.5,30042.9,131564
1.64084,0.0275898,17800.4,-2309.5,13932.9,51291.4,46745.4,29843.1,127887
1.64265,0.0276368,19170.4,-4513.43,12781.3,47270.7,47181.3,29643.4,124210
1.64446,0.0276838,20540.4,-6717.5,11629.7,43249.6,47617.1,29443.5,120533
1.64627,0.0277308,21910.4,-8921.44,10478.1,39228.9,48053,29243.8,116856
1.64808,0.0277778,23280.4,-11125.5,9326.46,35207.8,48488.9,29044,113179
1.64989,0.0278247,24650.3,-13329.4,8174.91,31187,48924.7,28844.3,109502
1.6517,0.0278717,25421.1,-15035.8,6949.79,28656.4,49184.4,28949.9,106233
1.65351,0.0279188,24240.5,-15226.2,5556.02,30298.9,48930.3,29692.5,104643
1.65532,0.0279658,22891.3,-15660.6,4400.37,29865.7,48846.9,29210.1,104464
1.65714,0.0280128,21542.2,-16095,3244.77,29432.6,48763.5,28727.8,104284
1.65895,0.0280598,20193,-16529.4,2089.12,28999.4,48680.2,28245.4,104105
1.66076,0.0281069,21375.9,-14680.1,-918.91,27955.5,46901.9,26527.5,100214
1.66257,0.0281539,21103.6,-12926.6,-2306.51,27806.9,46033.6,24741,97262.8
1.66438,0.028201,19084.1,-11975.3,-2062.06,28426,46294.1,23312.1,96113
1.66619,0.028248,17064.5,-11024,-1817.62,29045.2,46554.7,21883.2,94963.2
1.668,0.0282951,15044.9,-10072.7,-1573.16,29664.4,46815.3,20454.3,93813.5
1.66981,0.0283421,14656,-9462.79,-2711.28,29377.2,46712.1,19756.1,93704.9
1.67162,0.0283892,14417.6,-8884.4,-3976.88,29006.4,46575.3,19125.3,93692.4
1.67344,0.0284363,14179.2,-8306,-5242.54,28635.7,46438.5,18494.5,93679.9
1.67525,0.0284833,13940.8,-7727.61,-6508.14,28264.9,46301.8,17863.8,93667.4
1.67706,0.0285304,13702.3,-7149.21,-7773.81,27894.1,46165,17233,93654.9
1.67887,0.0285774,13463.9,-6570.82,-9039.41,27523.3,46028.3,16602.2,93642.4
1.68068,0.0286245,13225.4,-5992.42,-10305.1,27152.6,45891.5,15971.4,93629.9
1.68249,0.0286715,12987,-5414.03,-11570.7,26781.8,45754.8,15340.7,93617.4
1.6843,0.0287186,12748.5,-4835.62,-12836.3,26411,45618,14709.9,93604.9
1.68611,0.0287657,12510.1,-4257.25,-14101.9,26040.2,45481.2,14079.2,93592.4
1.68792,0.0288127,11885.4,-3975.78,-14238.8,24860.4,45038.3,13359.5,92850.9
1.68973,0.0288598,11069.8,-3837.59,-12733.5,21014.2,44046.4,12006.4,90678.3
1.69155,0.028907,10254.3,-3699.4,-11228.1,17167.8,43054.4,10653.2,88505.6
1.69336,0.0289541,9438.72,-3561.21,-9722.75,13321.6,42062.4,9300.08,86333.1
1.69517,0.0290012,8623.14,-3423.02,-8217.32,9475.19,41070.5,7946.89,84160.4
1.69698,0.0290483,7797.76,-3286.47,-6711.05,5608.58,40078.5,6582.77,81985.5
1.69879,0.0290954,7086.44,-3130.89,-5215.73,1978.48,39087,5346.11,79837.3
1.7006,0.0291425,6375.24,-2975.29,-3720.53,-1651.24,38095.6,4109.61,77689.3
1.70241,0.0291896,5664.02,-2819.67,-2225.24,-5281.17,37104.1,2873.06,75541.2
1.70422,0.0292367,4952.73,-2664.1,-730.012,-8911.07,36112.6,1636.46,73393.1
1.70603,0.0292838,4241.51,-2508.49,765.283,-12541,35121.2,399.902,71245
1.70785,0.0293309,3530.22,-2352.92,2260.51,-16170.9,34129.7,-836.701,69096.9
1.70966,0.029378,4643.53,-2247.7,3594.53,-16003.4,33066.3,361.55,67640.1
1.71147,0.0294251,6176.81,-2154.14,4891.35,-14961.7,31986.4,2120.29,66342.6
1.71328,0.0294722,7710.18,-2060.52,6188.25,-13919.9,30906.4,3879.11,65045
1.71509,0.0295193,9243.47,-1966.95,7485.07,-12878.1,29826.4,5637.85,63747.4
1.7169,0.0295665,10736.6,-1649.43,8366.01,-11253,29014.9,7293.15,62441.5
1.71871,0.0296136,12195.7,-1143.16,8896.21,-9136.23,28429.8,8861.06,61128.7
1.72052,0.0296607,13654.9,-636.877,9426.47,-7019.25,27844.6,10429.1,59815.9
1.72233,0.0297078,14975.8,-70.5783,9913.48,-5038.02,27256.2,11864.1,58476.1
1.72415,0.029755,15447,864.938,10134.9,-3890.39,26647.7,12482,56970.2
1.72596,0.0298021,16739.6,1101.79,10058.5,-1949.92,25931,13688.5,55442.8
1.72777,0.0298492,18519.5,924.135,9805.47,461.122,25150.2,15244.4,53902.7
1.72958,0.0298964,20299.4,746.497,9552.41,2872.02,24369.4,16800.2,52362.6
1.73139,0.0299435,22079.3,568.846,9299.33,5283.08,23588.5,18356,50822.4
1.7332,0.0299906,23859.2,391.207,9046.28,7693.96,22807.7,19911.8,49282.3
1.73501,0.0300377,25639.1,213.556,8793.21,10105,22026.9,21467.7,47742.1
1.73682,0.0300849,27418.9,35.9165,8540.15,12515.9,21246.1,23023.5,46202.1
1.73863,0.030132,29198.9,-141.734,8287.08,14927,20465.2,24579.3,44661.9
1.74045,0.0301791,30978.7,-319.373,8034.03,17337.8,19684.4,26135.1,43121.8
1.74226,0.0302262,32723.9,-499.561,7765.65,19730.7,18906.1,27662.4,41555.5
1.74407,0.0302734,31089,-555.09,7191.62,19405.6,18313.5,26577.5,39997.2
1.74588,0.0303205,29359.6,-611.13,6620.11,19046,17718.1,25458.2,38409.4
1.74769,0.0303676,27630.2,-667.167,6048.64,18686.4,17122.7,24339,36821.7
1.7495,0.0304148,25900.8,-723.209,5477.13,18326.8,16527.3,23219.6,35233.8
1.75131,0.0304619,24482.6,-686.273,5114.6,17814.8,16030.6,22193.8,34118.9
1.75312,0.0305091,23472.5,-527.409,5026.05,17102.8,15663.4,21290.4,33623.7
1.75493,0.0305562,22462.5,-368.554,4937.52,16390.8,15296.2,20387,33128.6
1.75674,0.0306033,21452.4,-209.69,4848.97,15678.8,14929,19483.6,32633.5
1.75856,0.0306505,20442.3,-50.8344,4760.44,14966.9,14561.8,18580.2,32138.4
1.76037,0.0306976,19432.2,108.03,4671.9,14254.9,14194.6,17676.8,31643.3
1.76218,0.0307448,18422.2,266.885,4583.36,13542.9,13827.4,16773.5,31148.2
1.76399,0.0307919,17412,425.751,4494.83,12830.9,13460.2,15870.1,30653.1
1.7658,0.0308391,16402,584.604,4406.28,12119,13093,14966.7,30158
1.76761,0.0308862,15593.7,725.457,4371.68,11577.9,12735.2,14174.7,29697.9
1.76942,0.0309334,16007.5,757.218,4663.65,12071.5,12434.5,14057,29450.1
1.77123,0.0309805,16421.4,788.984,4955.64,12565.3,12133.9,13939.4,29202.4
1.77304,0.0310277,16588.1,942.293,5353.43,13018,11836.6,13925.5,28796.6
1.77486,0.0310748,16582.8,1180.19,5824.89,13442.3,11541.6,13983.8,28280.8
1.77667,0.031122,16663.7,1137.54,6321.57,13504.3,11082.1,13859,27865.8
1.77848,0.0311691,16824.4,835.657,6841.62,13231.6,10470.5,13564.9,27543.8
1.78029,0.0312163,16985.1,533.8,7361.64,12958.9,9858.95,13270.9,27221.8
1.7821,0.0312634,17145.7,231.95,7881.65,12686.3,9247.38,12976.8,26899.8
1.78391,0.0313106,17306.4,-69.9284,8401.7,12413.6,8635.76,12682.7,26577.8
1.78572,0.0313577,17467.1,-371.778,8921.72,12140.9,8024.19,12388.7,26255.9
1.78753,0.0314049,17627.8,-673.657,9441.77,11868.2,7412.57,12094.6,25933.9
1.78934,0.031452,17788.4,-975.506,9961.78,11595.5,6801,11800.6,25611.9
1.79116,0.0314991,17949.1,-1277.39,10481.8,11322.8,6189.39,11506.5,25289.9
1.79297,0.0315463,18473.2,-1224.95,10963.2,11510.2,5741.38,11266.6,25701.7
1.79478,0.0315934,19017.8,-1152.57,11442.4,11723.4,5302.57,11029.7,26154.9
1.79659,0.0316406,19562.4,-1080.19,11921.6,11936.6,4863.77,10792.8,26608
1.7984,0.0316877,20107,-1007.81,12400.8,12149.9,4424.96,10555.9,27061.1
1.80021,0.0317349,20086.1,-797.045,12836.5,12113.6,4110.15,10228.3,27452.9
1.80202,0.031782,19279,-408.594,13233.4,11580.2,4039.71,9697.17,28045.4
1.80383,0.0318292,18471.9,-20.1699,13630.3,11046.8,3969.27,9166.08,28637.8
1.80564,0.0318763,17664.8,368.282,14027.1,10513.4,3898.84,8634.95,29230.3
1.80745,0.0319235,16857.7,756.706,14424,9980.08,3828.4,8103.87,29822.8
1.80927,0.0319706,16050.6,1145.16,14820.9,9446.67,3757.97,7572.73,30415.2
1.81108,0.0320178,15243.6,1533.58,15217.7,8913.31,3687.53,7041.65,31007.7
