"arc_length","Displacement_Magnitude","Sxx","Sxy","Sxz","Syy","Syz","Szz","Von_Mises_Stress"
0,0,2.12718e+06,-39275.7,2412.11,4.43966e+06,490003,1.84409e+06,2.62285e+06
0.00181107,5.37583e-07,2.0502e+06,-57046.9,3591.15,4.31304e+06,445060,1.74655e+06,2.57082e+06
0.00362215,1.07517e-06,1.97323e+06,-74817.3,4770.84,4.18643e+06,400118,1.64901e+06,2.51879e+06
0.00543323,1.61275e-06,1.89625e+06,-92588.4,5949.89,4.05981e+06,355175,1.55147e+06,2.46676e+06
0.00724431,2.25209e-06,1.82092e+06,-107300,7978.66,3.93877e+06,312144,1.45468e+06,2.42e+06
0.00905538,3.48806e-06,1.75479e+06,-104917,14752,3.84891e+06,279797,1.36202e+06,2.40263e+06
0.0108665,4.74517e-06,1.68867e+06,-102535,21525.4,3.75904e+06,247451,1.26937e+06,2.38527e+06
0.0126775,6.01012e-06,1.62254e+06,-100153,28299,3.66918e+06,215103,1.17672e+06,2.3679e+06
0.0144886,7.27891e-06,1.55641e+06,-97770.6,35072.4,3.57931e+06,182757,1.08407e+06,2.35054e+06
0.0162997,8.54974e-06,1.49028e+06,-95388.7,41846,3.48945e+06,150409,991417,2.33317e+06
0.0181108,9.8219e-06,1.42415e+06,-93006.2,48619.4,3.39958e+06,118062,898765,2.3158e+06
0.0199218,1.09082e-05,1.35718e+06,-93354.1,56864.5,3.30007e+06,86025.5,813652,2.30586e+06
0.0217329,1.27551e-05,1.29867e+06,-81529.4,78301.3,3.21022e+06,64379.9,742291,2.26427e+06
0.023544,1.52205e-05,1.2207e+06,-57888.6,107988,3.08234e+06,39191.1,647306,2.2284e+06
0.0253551,1.76886e-05,1.14274e+06,-34248.5,137674,2.95446e+06,14003.5,552324,2.19254e+06
0.0271662,1.98218e-05,1.08699e+06,-18786.5,160571,2.85699e+06,968.234,483773,2.16623e+06
0.0289772,2.15265e-05,1.06228e+06,-14755.9,173978,2.802e+06,4919.44,452166,2.15326e+06
0.0307883,2.32794e-05,1.03758e+06,-10725.3,187386,2.74702e+06,8870.72,420559,2.14029e+06
0.0325994,2.50705e-05,1.01287e+06,-6694.62,200793,2.69203e+06,12821.9,388952,2.12733e+06
0.0344105,2.68921e-05,988170,-2663.99,214200,2.63705e+06,16773.2,357346,2.11436e+06
0.0362215,2.87383e-05,963466,1366.64,227607,2.58207e+06,20724.4,325739,2.10139e+06
0.0380326,3.06048e-05,938762,5397.27,241014,2.52708e+06,24675.7,294132,2.08843e+06
0.0398437,3.24881e-05,914057,9427.9,254422,2.4721e+06,28626.9,262525,2.07546e+06
0.0416548,3.44084e-05,890269,13243,267528,2.42044e+06,33159.5,230561,2.0653e+06
0.0434658,3.73082e-05,904436,8126.77,268174,2.5065e+06,61778.5,183768,2.17116e+06
0.0452769,4.03028e-05,881525,15053.6,261163,2.42767e+06,54337.2,200248,2.10328e+06
0.047088,4.34131e-05,859763,24734,254006,2.34015e+06,44460,224176,2.02326e+06
0.0488991,4.69199e-05,889055,36406.8,255112,2.39767e+06,63124.1,216874,2.07842e+06
0.0507102,5.04272e-05,918343,48079,256218,2.45519e+06,81787.1,209573,2.13357e+06
0.0525212,5.39352e-05,947634,59751.8,257324,2.51271e+06,100451,202271,2.18872e+06
0.0543323,5.74435e-05,976923,71424,258430,2.57023e+06,119114,194970,2.24387e+06
0.0561434,6.0743e-05,990575,69400.4,250066,2.58443e+06,124795,189890,2.26378e+06
0.0579545,6.37167e-05,979020,45302.2,226438,2.5288e+06,109549,188389,2.2269e+06
0.0597655,6.67053e-05,967465,21204,202810,2.47317e+06,94303.8,186889,2.19002e+06
0.0615766,6.97067e-05,955909,-2896.27,179180,2.41754e+06,79056.8,185388,2.15313e+06
0.0633877,7.33759e-05,946959,26925.7,171665,2.46325e+06,101572,164978,2.21478e+06
0.0651988,7.71613e-05,938464,66170.7,166965,2.52666e+06,130687,141262,2.29364e+06
0.0670099,8.10368e-05,930674,94077.8,164397,2.58918e+06,155792,118807,2.36663e+06
0.0688209,8.52109e-05,925163,85332,168712,2.64876e+06,167934,100423,2.42065e+06
0.070632,8.93987e-05,919652,76586,173029,2.70834e+06,180077,82040.9,2.47467e+06
0.0724431,9.35985e-05,914142,67840.2,177345,2.76792e+06,192219,63657.5,2.52869e+06
0.0742542,9.78087e-05,908631,59094.3,181662,2.82751e+06,204362,45274.9,2.5827e+06
0.0760652,0.000102028,903120,50348.4,185978,2.88709e+06,216505,26892.4,2.63672e+06
0.0778763,0.000106254,897772,41416.5,189822,2.94864e+06,228960,7417.34,2.69326e+06
0.0796874,0.000110484,895160,28073.5,183804,3.04514e+06,246327,-31751.1,2.79551e+06
0.0814985,0.000115217,886548,1242.32,164653,3.0985e+06,246412,-51519.4,2.85828e+06
0.0833095,0.000119952,877935,-25589.8,145502,3.15187e+06,246498,-71288.7,2.92106e+06
0.0851206,0.000125077,852817,-25317.7,136833,3.09599e+06,243981,-71550.5,2.87567e+06
0.0869317,0.000130659,806997,-19135.6,133842,3.03251e+06,259588,-98610.3,2.84735e+06
0.0887428,0.000136252,770528,-13730,131518,2.98899e+06,273873,-121257,2.83155e+06
0.0905539,0.000141856,772652,-17560.4,139266,3.00778e+06,272278,-122226,2.84693e+06
0.0923649,0.000147419,758831,-24832.8,151666,2.97665e+06,264706,-127988,2.82481e+06
0.094176,0.000152992,745009,-32105.6,164067,2.94551e+06,257133,-133752,2.80267e+06
0.0959871,0.000158624,737505,-38780.9,173197,2.93532e+06,254067,-127549,2.79513e+06
0.0977982,0.000164275,731528,-45312.1,181537,2.93019e+06,252091,-118453,2.79112e+06
0.0996092,0.000169931,725551,-51842.9,189877,2.92507e+06,250115,-109357,2.78711e+06
0.10142,0.000175593,719573,-58374.2,198217,2.91994e+06,248139,-100261,2.7831e+06
0.103231,0.000181539,733803,-53512.9,198468,2.9445e+06,246214,-68947.8,2.78249e+06
0.105042,0.000187646,759588,-42137.6,194095,2.98604e+06,244317,-24930.4,2.78383e+06
0.106854,0.000193754,785373,-30762.2,189722,3.02758e+06,242421,19086.5,2.78516e+06
0.108665,0.000200132,744205,-24701,182803,2.87545e+06,233263,46389,2.8674e+06
0.110476,0.000206658,668608,-21372.6,174577,2.62372e+06,220372,65097.1,2.99124e+06
0.112287,0.000213491,655890,-12927.9,171810,2.57683e+06,207632,67187.5,3.03964e+06
0.114098,0.00022052,683266,-1220.92,172526,2.66054e+06,194987,58682.2,3.03994e+06
0.115909,0.000227552,710644,10486.3,173241,2.74427e+06,182342,50176,3.04023e+06
0.11772,0.000234586,738020,22193.3,173957,2.82798e+06,169697,41670.7,3.04053e+06
0.119531,0.000241623,765398,33900.5,174673,2.91171e+06,157052,33164.5,3.04082e+06
0.121342,0.000248663,792777,45607.8,175388,2.99543e+06,144408,24658.3,3.04111e+06
0.123153,0.000255704,820153,57314.7,176104,3.07915e+06,131763,16153,3.04141e+06
0.124964,0.000262748,847531,69022,176819,3.16287e+06,119118,7646.81,3.04171e+06
0.126775,0.000269793,874907,80728.9,177535,3.24659e+06,106473,-858.542,3.042e+06
0.128586,0.00027684,902285,92436.2,178251,3.33031e+06,93828.5,-9364.72,3.0423e+06
0.130398,0.000284054,940077,103394,175379,3.42967e+06,83679.5,-10763.3,3.10232e+06
0.132209,0.000291624,1.01991e+06,114468,163057,3.62303e+06,79306.2,-2788.31,3.26176e+06
0.13402,0.000299388,974142,115586,160393,3.50296e+06,78490.3,-5936.24,3.16007e+06
0.135831,0.00030725,873714,110556,161063,3.24771e+06,80878.9,-12208.8,2.94849e+06
0.137642,0.000315532,833109,94418,154515,3.07419e+06,88841.1,16177.7,2.82978e+06
0.139453,0.000323819,792503,78280,147966,2.90067e+06,96803.5,44563.7,2.71107e+06
0.141264,0.00033211,751899,62142.1,141418,2.72715e+06,104766,72950.2,2.59237e+06
0.143075,0.000340404,711293,46004.1,134869,2.55363e+06,112728,101336,2.47366e+06
0.144886,0.000348702,670689,29866.2,128320,2.38011e+06,120690,129722,2.35496e+06
0.146697,0.000357004,630082,13728.2,121771,2.20659e+06,128653,158108,2.23625e+06
0.148508,0.000365309,589478,-2409.73,115223,2.03307e+06,136615,186495,2.11755e+06
0.150319,0.000373616,548872,-18547.8,108674,1.85955e+06,144577,214881,1.99884e+06
0.15213,0.000382348,497619,-34035.9,96384.3,1.76989e+06,144773,218714,1.92449e+06
0.153942,0.000391526,503609,-26186.7,110184,1.83237e+06,138589,213357,1.93873e+06
0.155753,0.000400718,511207,-17692.1,124719,1.8989e+06,132246,207796,1.95534e+06
0.157564,0.000409914,518805,-9197.87,139253,1.96542e+06,125902,202235,1.97194e+06
0.159375,0.000419114,526402,-703.311,153788,2.03195e+06,119559,196674,1.98854e+06
0.161186,0.000428316,534000,7790.91,168322,2.09847e+06,113215,191113,2.00515e+06
0.162997,0.000437522,541598,16285.5,182857,2.165e+06,106872,185552,2.02175e+06
0.164808,0.00044673,549195,24779.7,197392,2.23152e+06,100528,179991,2.03835e+06
0.166619,0.00045594,556793,33274.3,211926,2.29805e+06,94184.7,174430,2.05495e+06
0.16843,0.000465303,564914,41325.7,231039,2.36714e+06,96172.3,189648,2.08627e+06
0.170241,0.000474847,573662,48847.1,255633,2.43931e+06,108132,229740,2.13519e+06
0.172052,0.000484391,582410,56368.8,280227,2.51149e+06,120093,269832,2.18411e+06
0.173863,0.000494689,580567,63187.3,275212,2.54822e+06,119760,248735,2.23358e+06
0.175674,0.000505196,578458,68763,263653,2.56145e+06,120735,207720,2.27141e+06
0.177486,0.000515703,575589,74222.3,251287,2.57484e+06,121968,169033,2.30792e+06
0.179297,0.000526202,566229,78687.8,232014,2.58974e+06,125411,150264,2.33325e+06
0.181108,0.000536702,556869,83152.9,212741,2.60463e+06,128853,131495,2.35858e+06
0.182919,0.000547205,547509,87618.3,193468,2.61952e+06,132296,112726,2.38391e+06
0.18473,0.00055771,538149,92083.5,174194,2.63442e+06,135737,93957.1,2.40924e+06
0.186541,0.000568216,528789,96548.7,154921,2.64931e+06,139179,75188.1,2.43457e+06
0.188352,0.000578724,519429,101014,135648,2.6642e+06,142622,56419.1,2.4599e+06
0.190163,0.000589233,510068,105479,116374,2.6791e+06,146064,37650.2,2.48523e+06
0.191974,0.000599759,506153,110232,98525,2.69806e+06,153236,23178.2,2.51079e+06
0.193785,0.000610293,504825,115122,81351.6,2.71895e+06,162180,10748.7,2.53646e+06
0.195596,0.000621155,487283,124638,66160.9,2.68749e+06,162908,11332.2,2.51193e+06
0.197407,0.000632154,462970,136086,51797.8,2.63415e+06,160204,17352.5,2.46644e+06
0.199218,0.000643534,444687,139263,46275.5,2.57468e+06,158865,17611.9,2.42403e+06
0.20103,0.000655292,434512,140458,50216.7,2.50609e+06,157949,11000.5,2.3783e+06
0.202841,0.000667202,433482,157916,59930.3,2.42543e+06,154656,-1597.28,2.31376e+06
0.204652,0.000679112,432452,175375,69644.7,2.34477e+06,151364,-14196.8,2.24921e+06
0.206463,0.000690954,431921,171645,72353.9,2.27722e+06,152012,-12952.3,2.1947e+06
0.208274,0.000702778,431537,161733,73019.6,2.21349e+06,153812,-7669.54,2.14311e+06
0.210085,0.000714603,431153,151823,73685.5,2.14977e+06,155610,-2386.91,2.09152e+06
0.211896,0.00072643,430769,141911,74351.2,2.08604e+06,157409,2895.81,2.03993e+06
0.213707,0.000738258,430385,132000,75017.1,2.02232e+06,159208,8178.44,1.98834e+06
0.215518,0.000750088,430001,122088,75682.9,1.95859e+06,161007,13461.2,1.93675e+06
0.217329,0.000762429,425522,148692,61025.9,1.95348e+06,162314,33756.9,1.93034e+06
0.21914,0.000774778,420982,175830,46145.1,1.94922e+06,163614,54271.9,1.92458e+06
0.220951,0.000787145,417593,197865,33624.5,1.94457e+06,162793,75596.3,1.91456e+06
0.222762,0.000799611,420215,193213,33454.2,1.93785e+06,150870,101152,1.88218e+06
0.224574,0.00081208,422838,188561,33283.2,1.93113e+06,138948,126709,1.84981e+06
0.226385,0.00082455,425460,183909,33112.9,1.92441e+06,127025,152265,1.81744e+06
0.228196,0.000837023,428083,179256,32941.9,1.91769e+06,115103,177821,1.78507e+06
0.230007,0.000849498,430705,174604,32771.6,1.91097e+06,103180,203378,1.7527e+06
0.231818,0.000861974,433328,169952,32600.6,1.90426e+06,91258.3,228934,1.72033e+06
0.233629,0.000874453,435950,165300,32430.3,1.89754e+06,79335.4,254490,1.68796e+06
0.23544,0.000887143,436164,155039,20698.8,1.91005e+06,92903.5,248038,1.69964e+06
0.237251,0.000899879,435858,143568,6471.78,1.92671e+06,111973,234680,1.72083e+06
0.239062,0.000912615,435552,132096,-7754.71,1.94337e+06,131042,221320,1.74202e+06
0.240873,0.000925352,435246,120625,-21981.7,1.96004e+06,150112,207962,1.76322e+06
0.242684,0.000938791,419210,115502,-5941.51,1.93824e+06,163699,210685,1.74721e+06
0.244495,0.000952436,406934,108308,16298.6,1.92279e+06,181930,229876,1.72724e+06
0.246306,0.000966082,394658,101114,38538.8,1.90735e+06,200160,249066,1.70727e+06
0.248118,0.000979727,382381,93920.1,60779,1.89191e+06,218391,268257,1.6873e+06
0.249929,0.000993586,372473,97375.2,73307.7,1.89177e+06,222034,254804,1.69927e+06
0.25174,0.00100756,363849,106606,80569.3,1.89993e+06,217764,223647,1.72857e+06
0.253551,0.00102154,355225,115838,87830.6,1.90809e+06,213494,192489,1.75787e+06
0.255362,0.00103552,346601,125069,95092.2,1.91625e+06,209224,161332,1.78717e+06
0.257173,0.0010495,337976,134301,102353,1.92442e+06,204953,130174,1.81647e+06
0.258984,0.00106349,329352,143532,109615,1.93258e+06,200684,99016.3,1.84577e+06
0.260795,0.00107747,320728,152763,116876,1.94074e+06,196413,67858.3,1.87507e+06
0.262606,0.00109146,312104,161994,124138,1.9489e+06,192144,36701.1,1.90437e+06
0.264417,0.00110544,303479,171226,131399,1.95707e+06,187873,5543.06,1.93367e+06
0.266228,0.00111996,361204,191636,134547,2.0613e+06,179858,10255.2,2.01779e+06
0.268039,0.00113463,438840,215401,136459,2.19437e+06,170719,25732.1,2.11837e+06
0.26985,0.0011493,516478,239168,138371,2.32744e+06,161579,41209.4,2.21895e+06
0.271662,0.00116419,572241,285462,154781,2.48112e+06,148575,35110.9,2.36746e+06
0.273473,0.00117905,593099,315544,168969,2.55939e+06,137646,22794.9,2.45332e+06
0.275284,0.0011938,516869,301003,177209,2.42892e+06,132416,-7071.35,2.36616e+06
0.277095,0.00120854,440638,286461,185449,2.29844e+06,127186,-36937.5,2.279e+06
0.278906,0.00122325,384580,276196,178881,2.20303e+06,117764,-48958.9,2.20435e+06
0.280717,0.00123793,347431,269941,158430,2.14048e+06,104412,-44253.1,2.14144e+06
0.282528,0.00125303,355384,274594,159864,2.1694e+06,102407,-25798.7,2.15692e+06
0.284339,0.00126815,365807,279845,162496,2.20334e+06,101023,-6591.79,2.17668e+06
0.28615,0.00128327,376229,285096,165128,2.23727e+06,99638.3,12615.2,2.19645e+06
0.287961,0.0012984,386652,290347,167760,2.2712e+06,98254,31822.5,2.21622e+06
0.289772,0.00131352,397075,295598,170392,2.30514e+06,96869.6,51029.5,2.23598e+06
0.291583,0.00132868,407194,300944,172756,2.3396e+06,95526.4,69862.1,2.25645e+06
0.293394,0.00134472,408361,309078,167220,2.38972e+06,95397.2,77624.5,2.2977e+06
0.295206,0.00136075,409528,317213,161685,2.43983e+06,95268,85386.9,2.33896e+06
0.297017,0.00137679,410694,325348,156149,2.48995e+06,95138.9,93149.4,2.38021e+06
0.298828,0.00139283,411861,333483,150613,2.54006e+06,95009.6,100912,2.42147e+06
0.300639,0.00140887,413028,341618,145077,2.59018e+06,94880.5,108674,2.46272e+06
0.30245,0.00142491,414194,349752,139541,2.64029e+06,94751.2,116437,2.50397e+06
0.304261,0.00144095,415361,357887,134006,2.69041e+06,94622.1,124199,2.54523e+06
0.306072,0.001457,416527,366022,128470,2.74053e+06,94492.8,131961,2.58648e+06
0.307883,0.00147305,418342,374291,123562,2.79152e+06,94183.2,140723,2.62807e+06
0.309694,0.00148933,437721,386189,135685,2.86629e+06,88980.6,176585,2.67853e+06
0.311505,0.00150568,454549,396986,145797,2.9343e+06,84740.8,207671,2.725e+06
0.313316,0.00152259,430752,386791,132955,2.89253e+06,83051.5,186314,2.69787e+06
0.315127,0.00153969,382568,361831,112015,2.78353e+06,74877,148278,2.62029e+06
0.316938,0.00155686,348874,352994,96356,2.66208e+06,62295.1,100289,2.54517e+06
0.31875,0.00157412,332130,363020,86876.2,2.52608e+06,44557.4,40657.2,2.47291e+06
0.320561,0.00159137,314749,368704,77575.4,2.3929e+06,29071.2,-12512.3,2.39692e+06
0.322372,0.00160857,295063,358685,68922.8,2.26991e+06,21725.9,-42317.6,2.30743e+06
0.324183,0.00162578,275378,348667,60270,2.14692e+06,14380.7,-72122.5,2.21795e+06
0.325994,0.00164311,256027,337725,54504.1,2.07171e+06,24982.4,-78741.6,2.15148e+06
0.327805,0.00166044,236681,326770,48782.3,1.99724e+06,35858.6,-85005.8,2.08537e+06
0.329616,0.00167778,217336,315814,43060.5,1.92277e+06,46734.7,-91270.1,2.01926e+06
0.331427,0.00169511,197990,304858,37338.8,1.8483e+06,57611,-97534.4,1.95314e+06
0.333238,0.00171259,187888,303659,32802.1,1.82941e+06,66642.2,-103816,1.93855e+06
0.335049,0.00173036,198451,312559,29518.5,1.88925e+06,70002.9,-100490,2.01234e+06
0.33686,0.00174811,207603,305254,24298.9,1.88341e+06,71704.4,-85043.1,2.04453e+06
0.338671,0.00176585,216754,297948,19079.4,1.87758e+06,73405.8,-69595.5,2.07673e+06
0.340482,0.0017836,225905,290643,13859.9,1.87174e+06,75107.3,-54148.7,2.10893e+06
0.342294,0.00180135,235057,283337,8640.43,1.86591e+06,76808.7,-38701.1,2.14113e+06
0.344105,0.00181913,246951,277128,4148.98,1.87062e+06,80676.7,-23288,2.17458e+06
0.345916,0.00183718,287290,282290,7208.58,1.98465e+06,107014,-8224.68,2.22104e+06
0.347727,0.00185524,327629,287452,10268.4,2.09869e+06,133351,6839.49,2.26749e+06
0.349538,0.00187329,367968,292614,13328,2.21273e+06,159688,21902.8,2.31395e+06
0.351349,0.00189168,373910,274459,10796.7,2.18246e+06,168548,29435,2.23631e+06
0.35316,0.00191017,367992,248264,6337.33,2.10244e+06,171382,34369.2,2.11588e+06
0.354971,0.00192878,361778,228897,2763.3,2.03797e+06,176951,36259.1,2.02747e+06
0.356782,0.00194776,354470,234738,2456.29,2.03091e+06,192613,26909.9,2.05722e+06
0.358593,0.00196675,347161,240577,2149.38,2.02386e+06,208275,17561.5,2.08697e+06
0.360404,0.00198574,343333,243987,-9086.53,2.03233e+06,209718,19132.2,2.10502e+06
0.362215,0.00200472,327037,219816,-11212.7,1.93302e+06,199335,29736.4,1.99703e+06
0.364026,0.00202371,304417,183665,-7052.56,1.78192e+06,186433,42254.9,1.83442e+06
0.365838,0.00204269,281797,147514,-2891.76,1.63082e+06,173531,54772.6,1.67179e+06
0.367649,0.00206173,261612,115450,834.274,1.49405e+06,161986,65828.2,1.53544e+06
0.36946,0.00208108,258982,112841,1432.41,1.46049e+06,160230,66340.7,1.58837e+06
0.371271,0.00210043,256352,110231,2029.89,1.42695e+06,158474,66854,1.6413e+06
0.373082,0.00211979,253721,107621,2628.03,1.39339e+06,156718,67366.5,1.69423e+06
0.374893,0.00213914,251091,105012,3225.51,1.35984e+06,154962,67879.8,1.74717e+06
0.376704,0.0021585,248461,102402,3823.65,1.32629e+06,153206,68392.3,1.8001e+06
0.378515,0.00217786,245830,99792.7,4421.78,1.29274e+06,151450,68904.9,1.85303e+06
0.380326,0.00219753,241353,104747,17344.3,1.28792e+06,152150,71753.8,1.8326e+06
0.382137,0.00221737,237860,114369,34887.5,1.30752e+06,153397,78207.1,1.77424e+06
0.383948,0.00223722,234367,123991,52431,1.32713e+06,154644,84660.3,1.71587e+06
0.385759,0.00225706,230873,133613,69974.2,1.34673e+06,155890,91113.6,1.65751e+06
0.38757,0.0022769,227380,143235,87517.7,1.36634e+06,157137,97566.8,1.59914e+06
0.389382,0.00229674,223887,152857,105061,1.38594e+06,158384,104020,1.54078e+06
0.391193,0.00231677,225205,175371,119240,1.44926e+06,162489,127265,1.56224e+06
0.393004,0.00233732,235812,201936,114549,1.51186e+06,171408,161365,1.61553e+06
0.394815,0.00235799,248071,225736,104435,1.56012e+06,181065,193789,1.65401e+06
0.396626,0.00237866,260330,249535,94321.5,1.60837e+06,190723,226213,1.6925e+06
0.398437,0.00239934,272589,273335,84207.6,1.65662e+06,200380,258637,1.73098e+06
0.400248,0.00242013,277992,289594,84012.2,1.71474e+06,195789,271387,1.7647e+06
0.402059,0.00244099,280263,302410,88347,1.77737e+06,184690,275152,1.79623e+06
0.40387,0.00246185,282534,315226,92681.6,1.83999e+06,173591,278917,1.82777e+06
0.405681,0.00248271,284805,328042,97016.5,1.90262e+06,162492,282682,1.85931e+06
0.407492,0.00250357,287076,340857,101351,1.96524e+06,151393,286447,1.89084e+06
0.409303,0.00252443,289347,353673,105686,2.02787e+06,140294,290212,1.92238e+06
0.411114,0.00254516,296671,371266,105482,2.09234e+06,137004,280377,1.9641e+06
0.412926,0.00256609,308514,363613,90435.3,2.07763e+06,129648,279113,1.93402e+06
0.414737,0.00258706,321230,350146,72179.5,2.04505e+06,121154,280164,1.88749e+06
0.416548,0.00260804,333946,336679,53924,2.01248e+06,112661,281215,1.84096e+06
0.418359,0.00262901,346662,323211,35668.2,1.9799e+06,104167,282265,1.79443e+06
0.42017,0.00265004,352016,307678,26405.4,1.92897e+06,99278.7,298112,1.73508e+06
0.421981,0.00267172,345937,315965,32970.9,1.96083e+06,104718,269249,1.77954e+06
0.423792,0.00269348,341778,320943,44122.2,1.9814e+06,107233,237092,1.8213e+06
0.425603,0.00271524,337619,325921,55273,2.00197e+06,109747,204936,1.86305e+06
0.427414,0.00273701,333460,330899,66423.9,2.02254e+06,112261,172780,1.9048e+06
0.429225,0.00275882,330563,333266,74741.6,2.02714e+06,114721,146007,1.92824e+06
0.431036,0.00278072,329622,331593,78674,2.00701e+06,117098,127567,1.92333e+06
0.432847,0.00280253,327563,327963,77810.7,1.98381e+06,115851,117496,1.90915e+06
0.434658,0.00282431,325221,323837,75731,1.95984e+06,113685,109548,1.89262e+06
0.43647,0.0028461,322879,319711,73650.9,1.93586e+06,111518,101601,1.87608e+06
0.438281,0.00286789,320536,315585,71571.1,1.91188e+06,109352,93653,1.85955e+06
0.440092,0.00288967,318194,311459,69491.3,1.8879e+06,107186,85704.9,1.84301e+06
0.441903,0.00291167,303779,307828,74573.7,1.8549e+06,111528,63548.1,1.8311e+06
0.443714,0.00293419,259636,305414,97294.1,1.79971e+06,131898,6398.6,1.83058e+06
0.445525,0.00295671,215493,303000,120014,1.74451e+06,152267,-50750.2,1.83006e+06
0.447336,0.00297942,163265,284801,119708,1.65102e+06,153478,-89860.9,1.77383e+06
0.449147,0.00300217,109700,263994,115598,1.55119e+06,151523,-125991,1.70839e+06
0.450958,0.00302512,90538.1,254211,106171,1.51811e+06,151295,-130603,1.68051e+06
0.452769,0.00304824,97736.7,252877,92670.9,1.53616e+06,152391,-111065,1.68141e+06
0.45458,0.00307138,104595,251702,80427.4,1.55181e+06,152733,-93353.5,1.68092e+06
0.456391,0.00309464,109484,251455,75470.5,1.5535e+06,148699,-86222.5,1.67239e+06
0.458202,0.00311791,114374,251209,70513.9,1.5552e+06,144667,-79090.6,1.66387e+06
0.460014,0.00314117,119263,250962,65556.9,1.5569e+06,140633,-71959.6,1.65535e+06
0.461825,0.00316444,124153,250716,60600.3,1.5586e+06,136600,-64827.7,1.64682e+06
0.463636,0.0031877,129042,250470,55643.4,1.5603e+06,132567,-57696.7,1.6383e+06
0.465447,0.00321097,133931,250223,50686.8,1.562e+06,128534,-50564.8,1.62978e+06
0.467258,0.00323423,138820,249977,45729.8,1.5637e+06,124501,-43433.8,1.62126e+06
0.469069,0.0032575,143710,249730,40773.2,1.5654e+06,120468,-36301.9,1.61273e+06
0.47088,0.00328076,148599,249484,35816.3,1.56709e+06,116434,-29170.9,1.60421e+06
0.472691,0.00330406,182228,250271,30021.8,1.61462e+06,111284,14505.1,1.61072e+06
0.474502,0.00332737,229338,251543,23834.7,1.68366e+06,105611,75324.7,1.62428e+06
0.476313,0.00335068,276448,252815,17647.2,1.75269e+06,99937.2,136144,1.63784e+06
0.478124,0.0033743,304225,252460,10509.7,1.77723e+06,93222,173511,1.62852e+06
0.479935,0.00339825,310352,251377,6154.92,1.75376e+06,88423.7,184240,1.59686e+06
0.481746,0.00342251,293364,255818,26927.3,1.68938e+06,103434,164377,1.56031e+06
0.483558,0.00344678,276377,260259,47699.9,1.62501e+06,118444,144515,1.52375e+06
0.485369,0.00347104,259389,264700,68472.3,1.56064e+06,133455,124651,1.4872e+06
0.48718,0.00349519,253850,250220,76394.4,1.53238e+06,139570,131557,1.55886e+06
0.488991,0.00351935,248829,234882,83734.5,1.50575e+06,145283,139676,1.63542e+06
0.490802,0.0035435,243808,219544,91074.1,1.47913e+06,150995,147794,1.71199e+06
0.492613,0.00356765,238787,204206,98414.1,1.4525e+06,156708,155912,1.78855e+06
0.494424,0.0035918,233765,188868,105754,1.42587e+06,162420,164031,1.86511e+06
0.496235,0.003616,230188,174877,119014,1.39605e+06,170194,169513,1.89298e+06
0.498046,0.00364044,235363,170781,154557,1.35621e+06,188542,165794,1.73242e+06
0.499857,0.00366565,269017,213452,148422,1.36259e+06,225155,189003,1.85475e+06
0.501668,0.00369079,285743,233962,143850,1.37664e+06,242122,201401,1.88726e+06
0.503479,0.00371583,276108,219962,141710,1.40262e+06,228492,196964,1.77991e+06
0.505291,0.00374087,266472,205963,139570,1.4286e+06,214862,192527,1.67256e+06
0.507102,0.00376585,260653,201723,134466,1.46037e+06,207215,191529,1.57123e+06
0.508913,0.00379077,262579,213253,124016,1.50338e+06,208209,197575,1.48792e+06
0.510724,0.00381583,295170,238650,100475,1.58487e+06,201290,232284,1.54629e+06
0.512535,0.00384089,327761,264048,76933.4,1.66636e+06,194372,266994,1.60466e+06
0.514346,0.00386596,360352,289445,53392.2,1.74785e+06,187454,301703,1.66303e+06
0.516157,0.00389102,392943,314842,29850.6,1.82934e+06,180535,336413,1.7214e+06
0.517968,0.0039161,410958,326965,17204.1,1.86777e+06,176100,354912,1.74671e+06
0.519779,0.00394132,404619,318180,18659.3,1.85078e+06,173729,346518,1.72951e+06
0.52159,0.0039668,375672,292321,25688.9,1.81262e+06,169454,313509,1.69619e+06
0.523401,0.00399228,346725,266461,32718.8,1.77446e+06,165180,280500,1.66288e+06
0.525212,0.00401776,317779,240601,39748.4,1.73631e+06,160906,247491,1.62956e+06
0.527023,0.00404325,288832,214741,46778.2,1.69815e+06,156632,214482,1.59625e+06
0.528835,0.00406931,282332,208424,51303.4,1.68046e+06,152725,200149,1.59288e+06
0.530646,0.00409544,278085,204067,55577.4,1.66483e+06,148855,187689,1.59253e+06
0.532457,0.00412157,273838,199711,59851.2,1.64919e+06,144984,175230,1.59217e+06
0.534268,0.00414775,267128,195550,63236.1,1.63429e+06,139350,162399,1.5954e+06
0.536079,0.00417404,254785,191836,64587.3,1.62106e+06,129684,148717,1.60683e+06
0.53789,0.00420033,242442,188122,65938.5,1.60783e+06,120017,135036,1.61826e+06
0.539701,0.00422663,230099,184407,67290.1,1.59459e+06,110351,121354,1.6297e+06
0.541512,0.00425292,217756,180693,68641.4,1.58136e+06,100684,107673,1.64113e+06
0.543323,0.00427922,205414,176979,69992.9,1.56813e+06,91018,93991.5,1.65256e+06
0.545134,0.00430551,193071,173265,71344.1,1.5549e+06,81351.4,80310.1,1.66399e+06
0.546945,0.00433212,208767,183934,82651.2,1.56917e+06,75615.8,62702.8,1.69382e+06
0.548756,0.00435891,233026,199571,108550,1.53639e+06,76313,52840.9,1.67322e+06
0.550567,0.0043857,257286,215208,134449,1.5036e+06,77010.5,42978.3,1.65262e+06
0.552379,0.00441249,281545,230845,160348,1.47082e+06,77707.7,33116.4,1.63202e+06
0.55419,0.00443928,305804,246482,186247,1.43803e+06,78404.9,23254.4,1.61142e+06
0.556001,0.00446642,294229,249055,179787,1.3969e+06,78394.4,21178.4,1.5796e+06
0.557812,0.00449371,303932,260574,172648,1.43309e+06,76031.3,20700.5,1.6155e+06
0.559623,0.00452098,309419,270050,163362,1.45964e+06,75154.2,18471.1,1.64215e+06
0.561434,0.00454823,313581,278884,153402,1.48317e+06,74744,15691.3,1.66591e+06
0.563245,0.00457549,317744,287717,143442,1.50669e+06,74333.9,12911.3,1.68967e+06
0.565056,0.00460275,321906,296551,133481,1.53022e+06,73923.7,10131.5,1.71342e+06
0.566867,0.00463007,296088,289842,119807,1.48042e+06,83791.2,1622.63,1.67566e+06
0.568678,0.0046574,267862,281886,105835,1.42473e+06,94483.6,-7346.03,1.63295e+06
0.570489,0.00468474,239637,273930,91862.3,1.36904e+06,105176,-16314.7,1.59025e+06
0.5723,0.00471207,211412,265975,77889.7,1.31335e+06,115868,-25283.4,1.54755e+06
0.574111,0.0047394,183187,258018,63917.2,1.25766e+06,126561,-34252.1,1.50484e+06
0.575922,0.00476687,168995,255534,58519.9,1.23449e+06,132716,-33859,1.47831e+06
0.577734,0.0047945,169449,258314,62075.2,1.24563e+06,134301,-22696.3,1.46308e+06
0.579545,0.00482216,172508,260400,67231.1,1.26429e+06,135673,-5969.81,1.42949e+06
0.581356,0.00484982,175568,262485,72387.1,1.28294e+06,137045,10756.6,1.3959e+06
0.583167,0.00487769,204805,264697,88016.9,1.34322e+06,144411,45133.2,1.40897e+06
0.584978,0.0049057,251619,266993,110680,1.43146e+06,155802,91361.8,1.45336e+06
0.586789,0.0049337,298434,269289,133343,1.5197e+06,167193,137590,1.49775e+06
0.5886,0.00496171,322934,271263,146503,1.58487e+06,174946,173281,1.53297e+06
0.590411,0.00498974,325551,273249,150723,1.62529e+06,180054,198663,1.55799e+06
0.592222,0.0050183,282825,280854,142883,1.57787e+06,195442,203122,1.54081e+06
0.594033,0.00504686,240097,288459,135042,1.53045e+06,210829,207581,1.52364e+06
0.595844,0.00507543,197370,296065,127201,1.48303e+06,226217,212040,1.50646e+06
0.597655,0.00510423,186047,290352,125794,1.46545e+06,220878,209639,1.50168e+06
0.599467,0.00513305,177567,283434,124969,1.45057e+06,213662,206618,1.49803e+06
0.601278,0.00516187,169086,276517,124144,1.43569e+06,206448,203598,1.49437e+06
0.603089,0.00519069,160606,269599,123319,1.42081e+06,199232,200577,1.49071e+06
0.6049,0.00521951,152126,262682,122494,1.40593e+06,192018,197556,1.48705e+06
0.606711,0.00524833,143750,255749,121702,1.39044e+06,185160,194670,1.4837e+06
0.608522,0.00527702,137746,248485,121667,1.36131e+06,186373,194838,1.48739e+06
0.610333,0.0053057,131741,241220,121631,1.33217e+06,187586,195006,1.49107e+06
0.612144,0.00533461,133913,235343,112486,1.32119e+06,193174,184297,1.49328e+06
0.613955,0.00536362,140301,230181,98643.1,1.31958e+06,201018,167978,1.49472e+06
0.615766,0.00539264,146690,225019,84799.7,1.31796e+06,208862,151659,1.49617e+06
0.617577,0.00542165,153078,219858,70956.5,1.31635e+06,216706,135340,1.49761e+06
0.619388,0.00545078,157684,215203,56060.1,1.31134e+06,222912,119348,1.49407e+06
0.621199,0.00548053,152559,213321,35413.1,1.28778e+06,220170,105141,1.46332e+06
0.62301,0.00551028,147435,211439,14765.9,1.26423e+06,217427,90933.8,1.43256e+06
0.624822,0.00554003,142310,209556,-5881.1,1.24068e+06,214685,76726.9,1.4018e+06
0.626633,0.00556978,137185,207674,-26528.3,1.21712e+06,211943,62519.6,1.37104e+06
0.628444,0.00559953,132060,205792,-47175.3,1.19357e+06,209201,48312.7,1.34029e+06
0.630255,0.00562928,126935,203909,-67822.5,1.17001e+06,206459,34105.4,1.30953e+06
0.632066,0.00565903,121811,202027,-88469.7,1.14646e+06,203716,19898,1.27877e+06
0.633877,0.00568879,116686,200145,-109117,1.12291e+06,200974,5691.17,1.24801e+06
0.635688,0.00571857,122962,207511,-122200,1.15679e+06,196124,2495.22,1.26251e+06
0.637499,0.00574856,147107,223826,-138007,1.25219e+06,181269,6754.88,1.34814e+06
0.63931,0.00577856,166489,238553,-152812,1.33218e+06,167393,9455.94,1.42144e+06
0.641121,0.00580872,121651,231877,-154135,1.20449e+06,166721,-8857.13,1.32845e+06
0.642932,0.00583887,76812.9,225202,-155458,1.07679e+06,166049,-27169.8,1.23546e+06
0.644743,0.00586933,73449.6,225957,-156006,1.05727e+06,164241,-27020.4,1.22272e+06
0.646554,0.00589982,82305.5,230514,-148399,1.0782e+06,159025,-17445.6,1.24118e+06
0.648366,0.0059303,91161.4,235072,-140792,1.09913e+06,153808,-7870.81,1.25964e+06
0.650177,0.00596079,100017,239630,-133185,1.12006e+06,148591,1704.49,1.2781e+06
0.651988,0.00599127,108873,244187,-125579,1.14099e+06,143374,11279.3,1.29657e+06
0.653799,0.00602176,117729,248745,-117972,1.16192e+06,138157,20854.6,1.31503e+06
0.65561,0.00605225,126585,253303,-110365,1.18285e+06,132941,30429.4,1.33349e+06
0.657421,0.00608273,135441,257861,-102758,1.20378e+06,127724,40004.7,1.35195e+06
0.659232,0.00611322,144297,262418,-95151.2,1.22471e+06,122507,49579.5,1.37041e+06
0.661043,0.00614399,153147,265837,-83002.7,1.25519e+06,127930,56963.6,1.39886e+06
0.662854,0.00617507,161988,267986,-65796.6,1.29631e+06,145203,61907,1.43844e+06
0.664665,0.00620615,170830,270135,-48590.5,1.33744e+06,162476,66850.4,1.47801e+06
0.666476,0.00623723,179672,272284,-31383.7,1.37856e+06,179749,71794.1,1.51758e+06
0.668287,0.00626831,188513,274433,-14177.6,1.41969e+06,197022,76737.5,1.55716e+06
0.670098,0.00629951,188245,274560,-5321.22,1.4422e+06,208676,75187,1.58214e+06
0.67191,0.00633095,162957,264503,-15184.2,1.41189e+06,201413,62443.1,1.55565e+06
0.673721,0.00636238,137670,254446,-25047,1.38158e+06,194151,49699.2,1.52916e+06
0.675532,0.00639382,112382,244389,-34910,1.35126e+06,186888,36955.3,1.50268e+06
0.677343,0.00642562,110434,246904,-41652,1.35076e+06,177919,36636.8,1.49214e+06
0.679154,0.00645754,116948,253978,-47262.9,1.36106e+06,168331,40823.2,1.48738e+06
0.680965,0.00648946,123462,261052,-52873.7,1.37136e+06,158742,45009.5,1.48262e+06
0.682776,0.00652138,129975,268126,-58484.3,1.38166e+06,149154,49195.7,1.47787e+06
0.684587,0.0065533,136489,275200,-64095.2,1.39196e+06,139566,53382.1,1.47311e+06
0.686398,0.00658522,143002,282274,-69705.8,1.40226e+06,129978,57568.3,1.46835e+06
0.688209,0.00661714,149516,289347,-75316.7,1.41256e+06,120390,61754.7,1.4636e+06
0.69002,0.00664906,156029,296421,-80927.3,1.42286e+06,110802,65940.9,1.45884e+06
0.691831,0.00668082,158722,301660,-78848,1.43208e+06,107097,70847.6,1.46286e+06
0.693642,0.00671276,171407,310895,-79652.4,1.45168e+06,106455,78971.3,1.47817e+06
0.695454,0.0067447,184092,320130,-80456.4,1.47128e+06,105813,87095.1,1.49349e+06
0.697265,0.00677664,196777,329365,-81260.4,1.49089e+06,105171,95218.9,1.5088e+06
0.699076,0.00680864,209301,340620,-81426.5,1.51817e+06,105535,100284,1.53127e+06
0.700887,0.00684121,228549,349888,-66150,1.56432e+06,110640,118469,1.56083e+06
0.702698,0.0068738,249106,356650,-48951.4,1.60541e+06,115464,142156,1.58392e+06
0.704509,0.0069064,269664,363412,-31752.8,1.64649e+06,120288,165842,1.607e+06
0.70632,0.00693899,290221,370174,-14554.2,1.68758e+06,125112,189529,1.63009e+06
0.708131,0.00697179,292002,355590,-8905.21,1.64601e+06,125498,205022,1.62467e+06
0.709942,0.00700459,287868,335772,-11719.1,1.57735e+06,121529,210436,1.61328e+06
0.711753,0.00703737,283732,316460,-16176.5,1.50834e+06,116553,213296,1.6029e+06
0.713564,0.00707016,279596,297148,-20633.9,1.43932e+06,111578,216155,1.59253e+06
0.715375,0.00710294,275460,277836,-25092.4,1.3703e+06,106602,219013,1.58216e+06
0.717187,0.00713572,271324,258524,-29549.8,1.30128e+06,101626,221872,1.57179e+06
0.718998,0.0071685,267188,239211,-34008.3,1.23226e+06,96650,224731,1.56142e+06
0.720809,0.00720144,255597,223080,-21625.6,1.17206e+06,99759.4,224505,1.5296e+06
0.72262,0.00723451,237764,209612,4857.87,1.11924e+06,109638,221695,1.47984e+06
0.724431,0.00726765,214808,191439,15485.6,1.05607e+06,110355,215500,1.42065e+06
0.726242,0.00730089,185240,167192,5644.89,979560,99242.1,204933,1.34929e+06
0.728053,0.00733413,155674,142946,-4195.58,903050,88130,194368,1.27793e+06
0.729864,0.0073677,148671,142227,6825.5,944216,86817.8,210369,1.31301e+06
0.731675,0.0074013,142772,142659,18867.8,991139,85985.2,227671,1.35329e+06
0.733486,0.00743489,136873,143092,30909.5,1.03806e+06,85152.5,244972,1.39357e+06
0.735297,0.00746851,134813,146419,42205,1.08429e+06,85376.4,256083,1.42348e+06
0.737108,0.00750217,137124,153041,52649.6,1.12971e+06,86803.3,260146,1.44156e+06
0.738919,0.00753583,139435,159664,63094.9,1.17514e+06,88230.2,264209,1.45964e+06
0.74073,0.00756948,141745,166286,73539.5,1.22057e+06,89657.1,268272,1.47772e+06
0.742542,0.00760334,145992,181027,80935.2,1.25321e+06,94297.1,257288,1.48818e+06
0.744353,0.00763741,152380,204742,84958.8,1.27171e+06,102489,229667,1.4902e+06
0.746164,0.00767149,158768,228458,88982.3,1.29021e+06,110682,202047,1.49222e+06
0.747975,0.00770556,165156,252174,93006.3,1.30872e+06,118874,174426,1.49424e+06
0.749786,0.00773964,171544,275890,97029.9,1.32722e+06,127067,146805,1.49626e+06
0.751597,0.00777372,177932,299606,101054,1.34572e+06,135259,119184,1.49828e+06
0.753408,0.00780803,170768,300933,91411.7,1.33686e+06,148212,86839.2,1.46205e+06
0.755219,0.00784269,179414,269252,80236.3,1.3736e+06,164377,94032.8,1.48146e+06
0.75703,0.00787736,188060,237572,69060.8,1.41034e+06,180541,101227,1.50087e+06
0.758841,0.00791203,196706,205892,57885.5,1.44708e+06,196706,108420,1.52028e+06
0.760652,0.00794675,186602,216038,43962.1,1.28711e+06,219458,94700,1.38307e+06
0.762463,0.0079815,176902,226666,31586.8,1.13594e+06,240480,80427.3,1.25417e+06
0.764274,0.00801651,177401,229994,37348.1,1.14274e+06,240158,66320.9,1.26565e+06
0.766086,0.00805152,177900,233321,43109.3,1.14955e+06,239836,52214.9,1.27714e+06
0.767897,0.00808653,178399,236649,48870.6,1.15635e+06,239514,38108.5,1.28863e+06
0.769708,0.00812158,180301,238973,57125.5,1.18487e+06,236257,24025.5,1.31942e+06
0.771519,0.00815664,182856,240829,66542.3,1.22351e+06,231633,9952.69,1.3592e+06
0.77333,0.00819171,185411,242685,75959.3,1.26216e+06,227009,-4119.67,1.39898e+06
0.775141,0.00822675,185177,243492,86129.6,1.29268e+06,223020,-18586.9,1.43261e+06
0.776952,0.00826163,158387,234317,103471,1.24591e+06,225081,-36813.4,1.40762e+06
0.778763,0.00829689,153253,236062,114346,1.28695e+06,220493,-35282.2,1.4457e+06
0.780574,0.00833247,167063,247360,119562,1.40481e+06,210089,-16466.5,1.53896e+06
0.782385,0.00836805,180873,258658,124779,1.52268e+06,199684,2348.76,1.63222e+06
0.784196,0.00840358,196769,272177,123934,1.60768e+06,192641,13112.5,1.70167e+06
0.786007,0.00843901,216545,289829,111810,1.63152e+06,191852,8891.42,1.72682e+06
0.787818,0.00847444,212795,288453,113408,1.59033e+06,183413,-1136.7,1.69303e+06
0.78963,0.00850987,202559,281831,118789,1.53122e+06,172864,-12766.6,1.64298e+06
0.791441,0.0085453,192323,275209,124170,1.47211e+06,162315,-24396.5,1.59294e+06
0.793252,0.00858073,192740,271416,121932,1.44398e+06,157161,-12852.9,1.56267e+06
0.795063,0.00861617,195584,268267,117958,1.42292e+06,153236,3969.64,1.53691e+06
0.796874,0.00865161,198428,265119,113984,1.40185e+06,149311,20792.5,1.51115e+06
0.798685,0.00868717,200962,263864,110930,1.3799e+06,149261,38139.2,1.48715e+06
0.800496,0.00872322,202109,271107,112001,1.35403e+06,166601,57838.4,1.47105e+06
0.802307,0.00875928,203255,278351,113072,1.32816e+06,183941,77537.3,1.45496e+06
0.804118,0.00879534,204402,285594,114143,1.30229e+06,201282,97236.5,1.43886e+06
0.805929,0.00883161,202171,281334,112482,1.27126e+06,210730,105412,1.42616e+06
0.80774,0.00886802,197868,270017,109144,1.23708e+06,215338,106520,1.41555e+06
0.809551,0.00890443,194649,258832,101619,1.20693e+06,214194,107316,1.40314e+06
0.811363,0.00894086,193839,247938,84788.2,1.18571e+06,200270,107418,1.38675e+06
0.813174,0.00897728,193029,237044,67958.2,1.16449e+06,186346,107520,1.37036e+06
0.814985,0.0090137,192219,226150,51127.9,1.14327e+06,172422,107622,1.35398e+06
0.816796,0.00905013,191029,216355,35832,1.12352e+06,160112,108511,1.33919e+06
0.818607,0.00908659,185840,218126,36686.8,1.11927e+06,164795,117682,1.34133e+06
0.820418,0.00912311,179735,218824,36827.1,1.11012e+06,170082,125538,1.33735e+06
0.822229,0.00915997,167120,211898,31886.1,1.06615e+06,179672,124038,1.28981e+06
0.82404,0.00919683,154505,204972,26945.2,1.02217e+06,189262,122539,1.24226e+06
0.825851,0.00923369,141890,198046,22004.2,978203,198853,121039,1.19472e+06
0.827662,0.00927057,130056,191145,16830.5,936729,207485,119945,1.15708e+06
0.829473,0.00930776,129228,184586,8378.65,930424,202637,124568,1.25888e+06
0.831284,0.00934494,128401,178028,-73.1343,924119,197790,129191,1.36067e+06
0.833095,0.00938217,132584,174237,-10690.4,928640,190117,132639,1.47331e+06
0.834907,0.00941955,153204,179524,-28411,968680,173177,132232,1.62152e+06
0.836718,0.00945693,173825,184811,-46131.6,1.00872e+06,156237,131825,1.76973e+06
0.838529,0.0094943,207669,213672,-56769.5,1.0968e+06,148286,141139,1.77299e+06
0.84034,0.00953168,245508,249653,-65268.1,1.19938e+06,143049,153390,1.73248e+06
0.842151,0.0095694,206589,195390,-77038.9,1.1664e+06,158451,147998,1.85008e+06
0.843962,0.00960684,183133,174646,-79763,1.15978e+06,171738,137831,1.85273e+06
0.845773,0.00964411,176993,181847,-77600.4,1.18327e+06,181379,127525,1.7786e+06
0.847584,0.00968154,171731,183879,-76274.2,1.19314e+06,188128,117599,1.70247e+06
0.849395,0.00971929,168111,176209,-76517.2,1.17746e+06,189453,108386,1.62257e+06
0.851206,0.00975705,164493,168540,-76760.1,1.16178e+06,190777,99172.2,1.54267e+06
0.853017,0.0097948,160873,160870,-77003.1,1.1461e+06,192102,89959.1,1.46277e+06
0.854828,0.00983256,157213,153161,-77238.6,1.13025e+06,193344,80735.5,1.38316e+06
0.856639,0.00987052,143068,135314,-75628.8,1.0704e+06,173923,68962,1.37608e+06
0.858451,0.00990849,128924,117466,-74019.1,1.01056e+06,154502,57188.8,1.36901e+06
0.860262,0.00994652,119386,110025,-57321.5,981483,154105,62114.7,1.3496e+06
0.862073,0.00998457,110945,105058,-37033.6,959730,158236,71014.9,1.32727e+06
0.863884,0.0100228,118513,105597,-11315.2,956493,168443,106229,1.3074e+06
0.865695,0.0100611,128737,107049,15304.2,956328,179659,145807,1.28794e+06
0.867506,0.0100996,146831,113376,33186.1,963222,183386,185003,1.27314e+06
0.869317,0.0101384,183535,131230,30408.6,986808,169407,223296,1.26937e+06
0.871128,0.0101772,207989,144355,31576.5,1.00047e+06,157634,248372,1.26475e+06
0.872939,0.0102159,209943,148793,39991.2,995886,149916,249171,1.25858e+06
0.87475,0.0102545,211897,153232,48405.4,991307,142199,249972,1.25241e+06
0.876561,0.0102932,213851,157670,56820.1,986728,134481,250771,1.24623e+06
0.878372,0.0103319,215805,162109,65234.3,982150,126763,251571,1.24006e+06
0.880183,0.0103706,217759,166547,73649,977570,119045,252371,1.23389e+06
0.881995,0.0104092,219713,170985,82063.3,972992,111328,253171,1.22772e+06
0.883806,0.0104479,221667,175424,90478,968412,103610,253971,1.22155e+06
0.885617,0.0104866,223621,179862,98892.2,963834,95892.1,254771,1.21538e+06
0.887428,0.0105252,225575,184301,107307,959254,88174.2,255571,1.20921e+06
0.889239,0.0105639,227528,188740,115722,954675,80456.3,256370,1.20304e+06
0.89105,0.0106026,206469,178088,108397,915107,73185.2,223597,1.17964e+06
0.892861,0.0106413,175635,161028,94389.6,860676,66103,176563,1.14893e+06
0.894672,0.01068,145530,145070,81157.7,807606,59914.3,130437,1.11993e+06
0.896483,0.0107193,124662,143091,77771.2,771785,65055.5,95810.5,1.11264e+06
0.898294,0.0107586,107074,142718,73694.8,745359,70608.9,67092.9,1.10461e+06
0.900105,0.0107981,105597,150233,66228,765090,78184.5,67400,1.09295e+06
0.901916,0.0108376,104121,157748,58761.3,784823,85760.7,67708.5,1.08129e+06
0.903727,0.0108771,102644,165263,51294.5,804555,93336.3,68015.7,1.06963e+06
0.905538,0.0109166,101167,172778,43827.7,824286,100912,68322.9,1.05797e+06
0.90735,0.0109561,99690.6,180293,36361,844019,108488,68631.4,1.04632e+06
0.909161,0.0109957,98213.5,187808,28894.2,863751,116064,68938.6,1.03466e+06
0.910972,0.0110352,96737.4,195323,21427.5,883484,123640,69247.1,1.023e+06
0.912783,0.0110747,95260.3,202838,13960.7,903215,131216,69554.3,1.01134e+06
0.914594,0.0111144,132014,220369,10742.1,997777,139435,84111,1.08289e+06
0.916405,0.0111543,176341,239883,8365.08,1.10716e+06,147782,101489,1.17092e+06
0.918216,0.0111941,216667,258313,5481.48,1.20885e+06,154789,116330,1.25377e+06
0.920027,0.0112342,215216,265418,-2690.59,1.23021e+06,147814,104666,1.28261e+06
0.921838,0.0112741,194273,256404,-6618.23,1.16816e+06,151682,96568.6,1.2342e+06
0.923649,0.0113141,163133,238959,-8325.96,1.06247e+06,161222,90337.6,1.14539e+06
0.92546,0.011354,131994,221514,-10033.5,956786,170762,84106.3,1.05658e+06
0.927271,0.0113943,125888,209170,-10336.8,915640,174206,98878.4,1.01098e+06
0.929083,0.0114347,124296,197746,-10386.6,886131,176550,117437,973181
0.930894,0.0114751,122704,186322,-10436.5,856624,178895,135997,935381
0.932705,0.0115156,121113,174898,-10486.4,827116,181239,154556,897580
0.934516,0.011556,119521,163473,-10536.2,797607,183584,173115,859779
0.936327,0.0115964,117929,152049,-10586.2,768100,185928,191675,821979
0.938138,0.0116368,116337,140625,-10636,738591,188272,210233,784178
0.939949,0.0116773,114681,132843,-10690.4,706628,187919,221043,749749
0.94176,0.011718,118671,137473,-1105.97,745839,190916,238751,778332
0.943571,0.0117588,122375,142338,8098.3,784566,193761,254252,808088
0.945382,0.0117997,120013,150640,8813.7,797575,191605,226561,845237
0.947193,0.0118406,117652,158943,9528.62,810584,189449,198869,882386
0.949004,0.0118815,115291,167245,10244,823593,187294,171178,919535
0.950815,0.0119224,112929,175547,10959.4,836602,185139,143487,956684
0.952627,0.0119633,110568,183850,11674.3,849611,182983,115795,993833
0.954438,0.0120042,108207,192152,12389.7,862620,180828,88104.4,1.03098e+06
0.956249,0.0120451,105846,200455,13104.7,875629,178672,60412.4,1.06813e+06
0.95806,0.012086,103484,208757,13820.1,888638,176517,32721.6,1.10528e+06
0.959871,0.012127,99556.5,215727,17573.1,899042,176685,7157.29,1.13895e+06
0.961682,0.0121682,81992,211096,47772.4,886778,197087,115.056,1.14238e+06
0.963493,0.0122095,64427.3,206465,77972,874512,217488,-6927.94,1.14581e+06
0.965304,0.0122509,59320.1,198018,90058.5,850553,227503,-16785.7,1.12895e+06
0.967115,0.0122923,64448.1,186435,87263.4,816984,228986,-28956.7,1.09542e+06
0.968926,0.012334,77728.1,178235,79978.7,814200,227244,-24554.7,1.06994e+06
0.970737,0.0123757,93573.8,171098,71280.4,821102,224488,-14937.1,1.047e+06
0.972548,0.0124174,109419,163962,62582.8,828005,221732,-5319.76,1.02407e+06
0.974359,0.0124592,117851,160880,56684.8,831612,213942,-717.549,1.00563e+06
0.976171,0.0125011,121391,160474,52634.8,833047,202830,575.667,990157
0.977982,0.012543,124931,160068,48584.4,834481,191719,1868.89,974687
0.979793,0.0125848,128472,159662,44534.5,835916,180607,3162.1,959216
0.981604,0.0126267,132012,159256,40484,837350,169496,4455.32,943746
0.983415,0.0126685,135552,158850,36433.6,838784,158384,5748.54,928275
0.985226,0.0127104,139092,158444,32383.7,840218,147272,7041.76,912805
0.987037,0.0127522,142633,158038,28333.3,841653,136161,8334.98,897334
0.988848,0.0127941,145959,157978,24688.7,842421,125641,9252.66,883332
0.990659,0.0128359,148621,158996,22306.8,841113,116965,9000.43,873902
0.99247,0.0128777,152972,163161,15459.3,854200,107401,8553.77,880475
0.994281,0.0129197,161283,174697,-1853.09,901018,95755.2,7650.76,924549
0.996092,0.0129617,169594,186234,-19165,947835,84109.4,6747.99,968622
0.997903,0.013004,179949,193062,-11938.4,962319,82956.1,16171.1,965232
0.999715,0.0130467,192023,194002,10138.8,944242,88487.5,25141.7,942967
1.00153,0.0130894,204097,194941,32216.7,926163,94018.7,34112.3,920701
1.00334,0.0131321,207033,193517,36188.2,914493,103368,42497.6,925172
1.00515,0.013175,208185,191632,36623.6,904074,113462,50768.6,934863
1.00696,0.0132178,209336,189747,37059.2,893655,123556,59039.5,944555
1.00877,0.0132606,210488,187862,37494.6,883236,133650,67310.2,954246
1.01058,0.0133034,211025,186277,37682,872678,143576,75008.2,964433
1.01239,0.0133462,210007,185448,37241.5,861769,153072,81256.1,975869
1.0142,0.013389,208990,184620,36801.5,850861,162569,87505.4,987306
1.01601,0.0134318,207973,183791,36361.4,839953,172065,93754.1,998741
1.01783,0.0134747,194537,184069,40751.8,815396,175562,98098.7,990708
1.01964,0.0135178,159704,179606,34887.5,759527,170272,89305.2,954534
1.02145,0.0135608,124868,175143,29023,703654,164982,80510.7,918359
1.02326,0.0136039,90034.5,170680,23158.7,647785,159693,71717.2,882185
1.02507,0.0136471,76388.4,168257,21006.7,627015,156453,70172.8,860733
1.02688,0.0136903,80170.2,172308,24678.6,641763,154659,72856.3,863888
1.02869,0.0137336,83352.7,177237,28785.7,656815,152760,74997,869060
1.0305,0.0137768,86534.9,182165,32892.3,671865,150861,77137.5,874232
1.03231,0.0138201,89717.4,187093,36999.1,686916,148962,79278.1,879404
1.03412,0.0138633,92899.6,192021,41106,701966,147064,81418.7,884577
1.03594,0.0139065,96082.1,196950,45212.8,717017,145165,83559.3,889749
1.03775,0.0139498,99264.3,201878,49319.6,732068,143266,85699.8,894921
1.03956,0.0139931,103655,206545,54099.4,753179,144755,88564.6,908546
1.04137,0.0140369,112874,210171,61566.6,798495,159775,94321.3,955931
1.04318,0.0140806,122093,213796,69034,843812,174795,100078,1.00332e+06
1.04499,0.0141243,131312,217422,76501.3,889127,189815,105835,1.0507e+06
1.0468,0.0141681,133796,212220,77009.6,896124,201182,111932,1.0841e+06
1.04861,0.0142121,127817,197507,67174.9,859047,204145,115482,1.09918e+06
1.05042,0.0142561,120411,185752,50971.7,826306,194665,110000,1.109e+06
1.05224,0.0143001,113005,173998,34769.4,793568,185186,104519,1.11882e+06
1.05405,0.0143441,105598,162243,18566.2,760827,175706,99037.7,1.12864e+06
1.05586,0.0143881,100602,154666,9481.42,740594,169183,94816.3,1.15396e+06
1.05767,0.0144322,101982,158142,19230.5,753453,170485,93928.4,1.22028e+06
1.05948,0.0144763,104912,161945,28274.5,766015,173167,96997.4,1.27192e+06
1.06129,0.0145207,112918,166817,35012.2,777608,180366,113024,1.27549e+06
1.0631,0.014565,120923,171689,41749.7,789201,187566,129049,1.27907e+06
1.06491,0.0146094,128928,176561,48487.6,800795,194765,145075,1.28264e+06
1.06672,0.0146537,135653,179561,52267.8,803362,201249,158157,1.27925e+06
1.06854,0.0146981,138475,176699,46835,778741,203530,162101,1.25428e+06
1.07035,0.0147428,142390,173938,42019.3,764691,187586,166962,1.23211e+06
1.07216,0.0147874,146305,171178,37203.3,750640,171642,171822,1.20994e+06
1.07397,0.0148321,150220,168417,32387.5,736590,155698,176683,1.18777e+06
1.07578,0.0148768,154135,165657,27571.5,722539,139753,181543,1.1656e+06
1.07759,0.0149214,152773,159280,21402.3,708086,129167,181551,1.13068e+06
1.0794,0.0149659,145431,148805,13698.8,693175,124652,176057,1.08131e+06
1.08121,0.0150104,138089,138330,5995.73,678266,120137,170564,1.03195e+06
1.08302,0.015055,130739,131144,-2142.75,667347,118286,158532,979359
1.08484,0.0150995,123386,125077,-10428.5,657786,117342,144278,925683
1.08665,0.015144,116033,119010,-18714.9,648225,116397,130023,872003
1.08846,0.0151888,113252,116828,-23553.4,646195,119279,124640,845067
1.09027,0.015234,116618,119868,-23758.7,654288,127307,131182,854074
1.09208,0.0152792,119984,122908,-23963.9,662380,135333,137723,863080
1.09389,0.0153244,122608,125673,-23823.2,671702,143392,142912,872266
1.0957,0.0153696,122222,127321,-22278.2,686016,151579,142609,882179
1.09751,0.0154147,121836,128968,-20733,700331,159767,142305,892093
1.09932,0.0154599,121450,130616,-19188,714646,167954,142002,902006
1.10113,0.0155051,121064,132264,-17642.8,728961,176141,141698,911920
1.10295,0.0155502,120143,133924,-13738.9,742689,183229,140160,922865
1.10476,0.0155955,116940,135639,208.947,753918,185634,133363,938209
1.10657,0.0156408,113738,137353,14156.1,765147,188039,126567,953552
1.10838,0.0156863,153983,167090,26462.9,808976,211117,128645,1.01142e+06
1.11019,0.0157319,195025,197340,38738.7,853402,234575,130886,1.07006e+06
1.112,0.0157777,203310,203127,35884.6,850376,234308,130325,1.07071e+06
1.11381,0.0158235,204627,203710,29812.8,837259,228996,129168,1.05903e+06
1.11562,0.0158692,180527,187364,25700.7,790396,215994,126727,1.00903e+06
1.11743,0.0159149,140681,160532,22803.5,722630,198231,123490,935280
1.11925,0.0159606,119671,146423,19769.2,684619,184101,123743,895154
1.12106,0.0160065,120866,147315,16574,681690,174256,128111,894664
1.12287,0.0160524,122062,148207,13378.3,678761,164411,132479,894175
1.12468,0.0160983,123258,149099,10183.1,675832,154566,136847,893686
1.12649,0.0161442,124454,149991,6987.73,672903,144722,141215,893197
1.1283,0.01619,125650,150883,3792.26,669975,134876,145583,892708
1.13011,0.0162359,126846,151775,596.882,667045,125031,149951,892219
1.13192,0.0162818,128042,152667,-2598.59,664117,115186,154319,891730
1.13373,0.0163277,127032,152180,-3580.01,659015,109013,154031,888154
1.13555,0.0163735,125789,151547,-4327.59,653684,103227,153251,884251
1.13736,0.0164197,125027,145351,-1985.67,627322,108849,144362,900424
1.13917,0.016466,123287,135728,4846.02,589436,120052,122495,874781
1.14098,0.0165123,121548,126105,11677.2,551554,131254,100629,849138
1.14279,0.0165586,119808,116483,18508.7,513669,142458,78761.8,823493
1.1446,0.0166049,118069,106860,25340,475787,153660,56895.7,797852
1.14641,0.0166514,120651,104947,33871.3,471544,157582,48396.6,780556
1.14822,0.0166981,125599,107254,43332.9,485720,157517,47216.8,767834
1.15003,0.0167447,127147,108718,53113.5,502434,158291,48429.2,768601
1.15184,0.0167913,127399,109858,63015.1,520113,159384,50553.8,774517
1.15366,0.0168379,127650,110999,72917.3,537794,160477,52679.2,780434
1.15547,0.0168845,127902,112140,82818.9,555473,161570,54803.7,786350
1.15728,0.0169311,128153,113281,92721.1,573154,162664,56929.1,792267
1.15909,0.0169777,128404,114421,102623,590834,163757,59054.3,798184
1.1609,0.0170244,128656,115562,112525,608515,164850,61179.1,804100
1.16271,0.0170712,155650,131818,111922,671064,169872,72899.6,855687
1.16452,0.0171181,189714,152070,108543,745472,175932,87155.8,919344
1.16633,0.0171651,217367,170153,105180,799355,178032,93342.7,968103
1.16814,0.017212,231552,183680,101848,810091,171806,82563,985547
1.16996,0.0172589,220193,179532,101126,784700,163270,71902.5,965499
1.17177,0.0173059,179755,155261,103373,718178,152101,61376.6,902765
1.17358,0.017353,139320,130991,105621,651660,140932,50851.3,840036
1.17539,0.0174,132606,117752,99974.1,615667,137559,51015.6,817739
1.1772,0.017447,127433,105018,93967.2,581070,134543,51668.4,797290
1.17901,0.0174941,122260,92283.4,87959.9,546472,131526,52321.3,776842
1.18082,0.0175412,117183,83910.8,81566,520833,128487,53213.5,765649
1.18263,0.0175883,112208,80278.8,74750.9,504929,125424,54366.4,764516
1.18444,0.0176355,107234,76647,67936.3,489026,122360,55519.1,763384
1.18626,0.0176826,102260,73014.9,61121.3,473121,119296,56672,762251
1.18807,0.0177298,97286.1,69383.1,54306.6,457218,116233,57824.7,761118
1.18988,0.017777,90034.6,66200.3,46907.9,443624,113925,58136.3,757164
1.19169,0.0178245,75020.6,64549.1,37519.9,437907,114194,55579.8,743593
1.1935,0.017872,60005.5,62897.8,28131.3,432190,114464,53023.1,730020
1.19531,0.0179194,44991.5,61246.6,18743.3,426473,114733,50466.7,716448
1.19712,0.0179671,42463.2,66221.1,9293.8,431996,119453,51371.1,729723
1.19893,0.018015,45083.7,73927.3,-180.129,442152,126008,53702.6,754068
1.20074,0.0180628,47704.2,81633.9,-9654.7,452309,132563,56034.2,778413
1.20256,0.0181106,50496.9,90557.6,-18526.8,462849,138678,58369.8,805347
1.20437,0.0181584,53661.7,102110,-26100.4,474219,143844,60714.1,837872
1.20618,0.0182063,56826.4,113661,-33673.7,485588,149011,63058.3,870396
1.20799,0.0182541,59991.4,125213,-41247.4,496958,154177,65402.8,902921
1.2098,0.0183021,78364.4,136513,-38848.2,529611,160201,70207.6,936700
1.21161,0.01835,101237,147740,-33499.5,568560,166480,75740.7,970853
1.21342,0.018398,124107,158967,-28151.3,607507,172758,81273.2,1.005e+06
1.21523,0.0184461,138998,165694,-27083.9,631162,176793,84081.8,1.02584e+06
1.21704,0.0184943,138252,163605,-34402.9,624855,176432,81553,1.02057e+06
1.21885,0.0185424,127672,155982,-38154.9,598912,173993,75814.2,998121
1.22067,0.0185904,104996,141553,-37520.9,548820,168996,66127.8,954529
1.22248,0.0186385,82319.9,127123,-36886.4,498726,163998,56441,910934
1.22429,0.0186865,59849.6,112818,-36241.4,449134,158989,46839.1,867645
1.2261,0.0187348,57387.5,110694,-34569.4,448248,152773,45473.3,853984
1.22791,0.018783,54925.8,108570,-32897.2,447361,146557,44107.5,840322
1.22972,0.0188313,52463.7,106445,-31225.1,446475,140341,42741.7,826661
1.23153,0.0188795,50002,104321,-29552.9,445588,134125,41375.9,812999
1.23334,0.0189278,47539.9,102197,-27880.9,444702,127908,40010.1,799338
1.23515,0.0189761,45078.2,100073,-26208.6,443816,121693,38644.3,785677
1.23697,0.0190243,42616.1,97948.5,-24536.6,442929,115476,37278.5,772015
1.23878,0.0190726,43932.8,95594.8,-15285.1,442683,114332,36390.9,758315
1.24059,0.0191211,51599.2,98233.3,3848.26,448021,124976,39504.9,765517
1.2424,0.0191696,59265.4,100872,22980.9,453359,135620,42618.6,772719
1.24421,0.0192181,66931.9,103510,42114.3,458696,146265,45732.6,779922
1.24602,0.0192666,74598.1,106149,61246.9,464034,156908,48846.3,787124
1.24783,0.0193153,70721.2,104954,67453.5,460229,157271,51895.2,772542
1.24964,0.0193641,61850.4,100945,68341.9,451651,153682,53999.1,744009
1.25145,0.0194128,52979,96935.6,69230,443072,150094,56103,715473
1.25327,0.0194616,44137.2,92938.1,70106.3,434521,146495,58199.5,686964
1.25508,0.0195106,47849.6,94076.8,65908.1,437708,138357,57133.1,669296
1.25689,0.0195597,51561.7,95215.3,61710,440894,130220,56066.7,651630
1.2587,0.0196087,55274,96354.1,57511.8,444081,122082,55000.3,633962
1.26051,0.0196578,58986.2,97492.6,53313.7,447268,113945,53933.9,616296
1.26232,0.0197068,62698.5,98631.3,49115.5,450455,105808,52867.5,598628
1.26413,0.0197559,66410.7,99769.8,44917.4,453641,97670.5,51801.2,580962
1.26594,0.0198049,70123,100909,40719.2,456828,89532.9,50734.8,563294
1.26775,0.019854,73835.2,102047,36521,460014,81395.7,49668.4,545628
1.26956,0.0199031,79957.3,104763,32787.1,469373,73224.9,50032.3,535315
1.27138,0.0199522,103584,117337,29422.7,521068,63084.5,59221.2,573696
1.27319,0.0200014,127212,129913,26058.4,572766,52943.8,68410.9,612080
1.275,0.0200506,150839,142487,22694,624461,42803.4,77599.9,650461
1.27681,0.0200997,165458,150332,19233.5,653963,33901.5,82976.4,671524
1.27862,0.0201489,139481,136858,15339.5,583433,30583.2,71169,614530
1.28043,0.020198,113503,123384,11445.5,512899,27264.9,59361,557533
1.28224,0.0202471,87525.7,109910,7551.46,442370,23946.5,47553.6,500539
1.28405,0.0202964,67076.6,99432.8,4815.31,386332,23124.7,38148.3,459292
1.28586,0.0203458,65007.6,98897,6575.21,378469,31201.7,36948.5,472069
1.28768,0.0203952,62938.3,98361.1,8335.31,370606,39279.3,35748.5,484847
1.28949,0.0204447,60869.3,97825.3,10095.2,362744,47356.3,34548.6,497625
1.2913,0.0204941,58800.1,97289.4,11855.3,354880,55433.9,33348.6,510403
1.29311,0.0205436,56731.1,96753.6,13615.2,347018,63510.8,32148.7,523180
1.29492,0.020593,54662,96217.7,15375.2,339155,71587.9,30948.8,535957
1.29673,0.0206424,52592.8,95681.9,17135.2,331292,79665.4,29748.9,548736
1.29854,0.020692,51627.7,97374.8,16627.3,331553,84499.8,30182.7,554839
1.30035,0.0207419,52354.8,102484,12642.9,344269,84364.1,33121,550711
1.30216,0.0207918,53081.8,107593,8658.83,356983,84228.5,36059,546585
1.30398,0.0208417,53808.9,112702,4674.53,369698,84092.8,38997.2,542457
1.30579,0.0208916,54535.9,117811,690.436,382413,83957.1,41935.3,538331
1.3076,0.0209415,57047,124250,-2102.35,395864,83403.5,46929.4,536212
1.30941,0.0209914,61992.8,132504,-3268.84,410319,82279.6,54729.2,536836
1.31122,0.0210413,67090.9,137825,-6103.95,423743,83456.2,63260.9,538065
1.31303,0.0210912,72573.9,135697,-13174.3,434547,90472,73647.5,540829
1.31484,0.0211411,78057.5,133570,-20244.9,445353,97488.1,84035,543592
1.31665,0.021191,80518.5,129730,-28701.7,453230,103400,88280.8,545586
1.31846,0.0212411,76342.3,122002,-38825.7,451736,105785,76799.8,543827
1.32028,0.0212912,86241.5,121311,-32219.3,441932,105103,77227.3,530279
1.32209,0.0213412,96141.6,120620,-25612.2,432128,104421,77655.6,516730
1.3239,0.0213913,105221,119282,-19489,422488,103480,78297.6,502622
1.32571,0.0214415,106817,112029,-17780.3,414342,100177,80899.5,483389
1.32752,0.0214917,108412,104776,-16071.9,406196,96874.9,83500.6,464158
1.32933,0.0215419,110007,97522.5,-14363.2,398049,93572.4,86102.5,444926
1.33114,0.0215921,111602,90269.5,-12654.8,389903,90269.8,88703.6,425694
1.33295,0.0216423,113197,83016.2,-10946.1,381757,86967.3,91305.5,406462
1.33476,0.0216925,114793,75763.4,-9237.56,373611,83665,93907.2,387230
1.33657,0.0217427,116388,68510,-7529.04,365464,80362.2,96508.6,367998
1.33839,0.021793,114579,63808.5,-3634.5,361181,78863.1,97530.3,358029
1.3402,0.0218434,107692,60004.3,388.325,359472,78252.1,93722.1,356776
1.34201,0.0218938,100805,56200.2,4410.75,357763,77641.2,89914.4,355522
1.34382,0.0219442,97652.4,56166,7622.84,353349,81532.7,85958.2,370118
1.34563,0.0219947,93340.2,59042.1,11243.3,350790,86605,80085.2,394759
1.34744,0.0220452,89027.7,61918.4,14863.9,348230,91677.7,74211.9,419402
1.34925,0.0220957,84715.5,64794.6,18484.3,345671,96749.9,68338.9,444043
1.35106,0.0221461,80403.1,67670.9,22105,343111,101823,62465.4,468685
1.35287,0.0221966,76090.9,70547,25725.4,340552,106895,56592.6,493326
1.35469,0.0222472,74300.8,70190.9,24869.1,332983,110101,60225.1,521113
1.3565,0.0222978,73803.1,68178.9,21719.4,322848,112352,68727.1,550508
1.35831,0.0223485,69531.9,66322,20686.9,307082,114238,72623.3,570451
1.36012,0.0223993,57439.6,64786.8,24043.6,279644,115372,66971.3,570795
1.36193,0.02245,45346.8,63251.6,27400.4,252205,116506,61319.2,571140
1.36374,0.0225008,33254.5,61716.3,30757.2,224768,117639,55667.3,571485
1.36555,0.0225515,21161.6,60181.1,34114,197329,118773,50015.2,571829
1.36736,0.0226024,20182.2,59987.4,36654.6,193077,117507,47167.4,559705
1.36917,0.0226533,21125.8,60025.9,39054.3,192836,115826,44804.6,545422
1.37099,0.0227042,22069.3,60064.4,41453.8,192596,114146,42442,531141
1.3728,0.0227552,23012.8,60102.9,43853.5,192355,112465,40079.2,516858
1.37461,0.0228061,23893.9,61000.2,46512.1,193881,110922,38114.1,502879
1.37642,0.022857,24620.5,64023.6,49812.8,199780,109719,37133,489647
1.37823,0.0229079,25347.1,67047.1,53113.2,205678,108516,36152.1,476418
1.38004,0.0229589,31882.3,72553.1,54305.5,221836,107795,37207.1,476476
1.38185,0.02301,53362,84446.5,50073,264391,108317,43500.8,510731
1.38366,0.0230611,74843,96340.6,45840.1,306948,108839,49795,544988
1.38547,0.0231121,92533.4,102851,42343.6,337317,109228,55576.5,565790
1.38728,0.0231632,101742,98793.1,40153.7,342159,109318,59855.8,559522
1.3891,0.0232144,81544.4,87446.4,35724.7,293183,108282,51860.2,519767
1.39091,0.0232656,61345.9,76098.8,31295.6,244204,107246,43864.4,480010
1.39272,0.0233169,45190,67105.9,27729.6,204529,106047,37070.8,446890
1.39453,0.0233681,48548.5,69479.5,28331.6,209763,104061,36081.5,445807
1.39634,0.0234194,51906.4,71852.8,28933.2,214996,102075,35091.8,444724
1.39815,0.0234707,55264.9,74226.4,29535.2,220231,100089,34102.5,443641
1.39996,0.023522,58623.1,76599.7,30137,225464,98103.2,33113.2,442558
1.40177,0.0235733,61981.3,78973.2,30738.7,230698,96117.2,32123.5,441475
1.40358,0.0236246,65339.4,81346.6,31340.6,235932,94131.3,31134.2,440393
1.4054,0.0236759,68697.6,83720,31942.3,241165,92145.3,30144.5,439309
1.40721,0.0237272,72055.8,86093.4,32544.1,246399,90159.4,29155.2,438227
1.40902,0.0237785,75414,88466.9,33145.8,251632,88173.4,28165.5,437143
1.41083,0.0238298,78772.2,90840.3,33747.7,256866,86187.5,27176.2,436061
1.41264,0.0238812,71543.2,84896.7,25392.5,251606,84962.4,18756.4,431436
1.41445,0.0239326,63484.5,78301.5,16335.3,245523,83797.1,9754.19,426534
1.41626,0.0239841,60174.5,75734.3,20855.1,253464,85540.7,12680.1,431465
1.41807,0.0240356,57506.9,73712.2,27210.5,263300,87677.5,17218.5,437725
1.41988,0.0240871,55537.9,72298.5,33743.2,263384,89021.5,22354.3,435759
1.4217,0.0241386,54386.7,71597.4,40483,252059,89437.9,28188.4,424170
1.42351,0.0241902,52570.9,70356.3,44305.8,243500,89917.1,33454.1,414066
1.42532,0.0242419,49766.5,68312.4,43789.4,239055,90489.7,37873.5,406171
1.42713,0.0242935,46962.1,66268.4,43272.8,234610,91062.3,42293.2,398277
1.42894,0.0243452,44138.6,64646.6,42742.8,231000,92322.2,46648.4,391639
1.43075,0.0243968,41249,64463.8,42166.8,230237,95926.3,50784.7,389287
1.43256,0.0244484,38359.7,64281,41590.7,229475,99530.2,54920.7,386935
1.43437,0.0245,35470.1,64098.2,41014.7,228713,103134,59057,384583
1.43618,0.0245517,33924.8,63600.2,39516.4,228355,104634,62441.2,381712
1.438,0.0246036,34704,62556.7,36422.8,228697,102495,64525.1,377945
1.43981,0.0246554,35483.3,61513.3,33329.4,229039,100356,66608.9,374177
1.44162,0.0247073,36262.5,60469.8,30235.9,229381,98216.5,68692.9,370410
1.44343,0.0247591,37041.8,59426.4,27142.5,229723,96077.4,70776.7,366643
1.44524,0.024811,37821.1,58383,24048.9,230065,93938.1,72860.6,362875
1.44705,0.0248628,38600.3,57339.6,20955.5,230407,91799,74944.4,359108
1.44886,0.0249147,42016.9,59604.1,18017.6,230319,86889.7,77345.8,357131
1.45067,0.0249665,47292.5,65462.2,11685.1,226581,84630.5,77553.2,357463
1.45248,0.0250183,52575.1,71355.3,5279.18,222772,82460.7,77710.8,357823
1.45429,0.0250702,57857.6,77248.5,-1126.19,218963,80290.5,77868.5,358182
1.45611,0.0251221,58091.8,76663.1,-6628.65,213231,79697.5,75282.8,352982
1.45792,0.025174,54096.8,65167.1,-1912.48,196388,76595,67087.4,331051
1.45973,0.025226,50102.3,53671.8,2803.4,179546,73492.7,58892.6,309122
1.46154,0.025278,46107.5,42175.8,7519.61,162703,70390.3,50697.3,287191
1.46335,0.0253301,44531.3,35809.5,9241.55,153283,69387.1,46066,279034
1.46516,0.0253821,44446.3,32751,9028.49,148624,69618.5,43657,279796
1.46697,0.0254342,44035.4,31044.8,7970.69,145558,68733.7,41126.1,284679
1.46878,0.0254863,43624.5,29338.3,6912.84,142492,67848.7,38594.9,289563
1.47059,0.0255384,43213.7,27632.1,5855.04,139426,66963.8,36064,294446
1.47241,0.0255905,42802.8,25925.6,4797.2,136360,66078.8,33532.8,299329
1.47422,0.0256425,42391.9,24219.4,3739.4,133295,65194,31001.9,304212
1.47603,0.0256946,41981,22512.9,2681.56,130228,64309,28470.7,309096
1.47784,0.0257467,40673.9,24613.7,2910.77,127924,68805.5,33053.6,319966
1.47965,0.0257989,39086.6,27733.5,7958.86,132953,73904,38189.7,331281
1.48146,0.0258511,37419.3,31145.3,14351.3,140027,79181.9,43495.4,342733
1.48327,0.0259034,35752,34557.5,20744.2,147101,84460.1,48801.5,354186
1.48508,0.0259556,34084.7,37969.4,27136.6,154174,89738,54107.2,365638
1.48689,0.0260079,33627.3,40595.3,32033.8,159494,91722.3,56596.3,367528
1.48871,0.0260602,34604.5,42288.9,35157,162731,89800.7,55744.8,358079
1.49052,0.0261126,35581.8,43982.6,38280.4,165970,87878.9,54893.3,348629
1.49233,0.0261649,35850,45202.9,39407.2,167974,82955.7,54490.1,338574
1.49414,0.0262172,35647.9,46109.5,39210.1,169160,76041.4,54384.1,328114
1.49595,0.0262695,35445.8,47015.9,39012.7,170347,69127,54278.2,317655
1.49776,0.0263218,35243.8,47922.5,38815.6,171533,62212.7,54172.2,307196
1.49957,0.0263742,34994.9,50048.7,39413.1,171546,58760.5,53767.7,301415
1.50138,0.0264266,34628.3,55237.5,42006.5,168616,64000.3,52613.5,307378
1.50319,0.026479,34261.8,60425.9,44599.5,165685,69239.5,51459.5,313341
1.50501,0.0265314,34401.2,64768.7,45488.2,162985,73531.9,50515,317674
1.50682,0.0265838,35556.6,65099.9,40739.8,160324,74399.7,50000.5,315094
1.50863,0.0266364,33604.3,61274.2,37511.9,154525,74934.8,48232.9,307806
1.51044,0.0266889,31652.2,57448.8,34284.1,148726,75469.8,46465.4,300519
1.51225,0.0267414,29853.2,53957.2,30939.1,143383,75963.3,44948.7,294289
1.51406,0.026794,29191.3,52939.7,26727.3,141415,76150.8,45290.8,295889
1.51587,0.0268465,28529.1,51922.2,22515.3,139447,76338.2,45632.9,297490
1.51768,0.026899,27867.1,50904.7,18303.5,137479,76525.7,45975,299090
1.51949,0.0269515,27205,49887.1,14091.4,135511,76713.1,46317.1,300690
1.5213,0.027004,26543,48869.6,9879.65,133543,76900.7,46659.2,302291
1.52312,0.0270566,26223.4,48160,5723.32,132712,77319,46991.6,303982
1.52493,0.0271091,26053.1,47584.6,1591.56,132375,77838.1,47319.8,305714
1.52674,0.0271616,25882.9,47009.3,-2540.48,132039,78357.3,47648.1,307446
1.52855,0.0272143,25555.7,47749.4,-1501.48,132972,78761.7,48191.5,301449
1.53036,0.027267,25175.4,48935.5,1290.65,134334,79127.4,48808,292831
1.53217,0.0273197,24794.9,50121.5,4082.67,135697,79492.9,49424.4,284214
1.53398,0.0273724,24414.6,51307.6,6874.8,137060,79858.6,50040.9,275596
1.53579,0.0274251,23855.7,52446.4,9703.31,138605,80167.5,50598.1,267029
1.5376,0.0274778,22415.7,53351.9,12712.2,141049,80196.6,50863.2,258708
1.53942,0.0275305,20976.1,54257.5,15720.8,143493,80225.7,51128.3,250387
1.54123,0.0275832,19536.1,55163,18729.7,145937,80254.8,51393.3,242067
1.54304,0.0276359,18907.4,55371.3,21926.3,147877,80213.4,51986.5,234604
1.54485,0.0276887,21556.1,52763.1,25882.7,147784,79887.3,53905.2,230602
1.54666,0.0277414,24497.9,50803.7,29044.6,145187,79011.4,55519.5,224860
1.54847,0.0277942,22255.6,49043.2,27174.2,133176,76078.5,53352.3,213813
1.55028,0.0278471,17683.6,46566.7,24359.5,120645,73034.8,50118.6,202873
1.55209,0.0279,16371.8,45974.6,23437.4,118323,70820,48493.4,203438
1.5539,0.0279528,16114.3,45992,23127.4,119304,68873.5,47388.6,207723
1.55572,0.0280057,15856.8,46009.3,22817.4,120284,66926.9,46283.6,212008
1.55753,0.0280586,15599.3,46026.7,22507.4,121265,64980.4,45178.8,216294
1.55934,0.0281115,15341.8,46044.1,22197.4,122246,63033.7,44073.9,220579
1.56115,0.0281643,15084.3,46061.4,21887.4,123226,61087.2,42969,224864
1.56296,0.0282172,14826.8,46078.8,21577.4,124207,59140.6,41864.1,229150
1.56477,0.0282701,14569.3,46096.1,21267.3,125187,57194.1,40759.2,233435
1.56658,0.028323,14311.8,46113.5,20957.3,126168,55247.4,39654.3,237721
1.56839,0.0283758,14546.4,44696.4,19798.6,122122,53586,37281.2,235884
1.5702,0.0284287,15348.9,41197,17063,110675,52691.3,32764.9,223956
1.57201,0.0284815,16151.4,37697.8,14327.6,99229.5,51796.6,28248.9,212030
1.57383,0.0285344,16953.9,34198.5,11592.1,87783.3,50902,23732.6,200103
1.57564,0.0285873,17120.5,32166.8,11039.3,81731.1,51179.5,21350.9,194000
1.57745,0.0286403,16330.6,32280.4,14483.9,83972.2,53465.6,22436.1,197515
1.57926,0.0286934,15540.8,32394,17928.2,86213.2,55751.6,23521.2,201030
1.58107,0.0287464,14750.9,32507.6,21372.8,88454.4,58037.7,24606.4,204545
1.58288,0.0287994,14227.5,32757.9,23616.7,89796.8,59238.9,25115.1,206270
1.58469,0.0288525,14194.9,33119.9,23357.5,89165.6,58404.7,24436.2,204289
1.5865,0.0289055,14162.3,33481.8,23098.4,88534.5,57570.5,23757.3,202309
1.58831,0.0289586,14129.7,33843.8,22839.3,87903.5,56736.4,23078.5,200328
1.59013,0.0290117,14097.1,34205.7,22580.1,87272.3,55902.2,22399.6,198347
1.59194,0.0290647,14064.5,34567.7,22321.1,86641.2,55068,21720.7,196367
1.59375,0.0291178,14031.9,34929.7,22061.8,86010,54233.8,21041.8,194386
1.59556,0.0291708,13999.3,35291.7,21802.8,85378.9,53399.7,20362.9,192406
1.59737,0.0292239,13966.7,35653.6,21543.6,84747.7,52565.5,19684,190425
1.59918,0.0292769,13934.1,36015.6,21284.5,84116.7,51731.3,19005.2,188444
1.60099,0.02933,15534.7,37574.6,21255.1,85127.4,50662.7,18117,189106
1.6028,0.0293831,20197.5,41378.4,21656.6,89217.2,49154.7,16836.4,194723
1.60461,0.0294363,21448.6,43217.6,20403.6,89155.8,48270.5,15447.6,196412
1.60643,0.0294894,17975.9,42336.7,16859.3,83346.4,48250.1,13908.7,192663
1.60824,0.0295425,13749.3,40222.7,14523.2,76547.8,48649.2,12997,187158
1.61005,0.0295957,7550.35,34882.7,15346.6,67160.2,50145.3,13725.1,177059
1.61186,0.0296488,4027.25,31021,15778.9,60761,50487.8,14145.1,168292
1.61367,0.029702,5300.72,29808.6,15509.9,59717.8,48762.4,14012.4,161913
1.61548,0.0297552,6574.09,28596.3,15240.9,58674.7,47037.1,13879.7,155533
1.61729,0.0298083,7847.48,27383.9,14972,57631.5,45311.8,13747,149154
1.6191,0.0298615,8126.56,26710,13765.5,57898,44849,14354.8,146982
1.62091,0.0299147,8222.61,26135.1,12386.7,58405.4,44618.6,15098.9,145584
1.62273,0.0299679,8318.65,25560.2,11007.7,58912.9,44388.3,15843.1,144187
1.62454,0.0300211,8414.7,24985.4,9628.83,59420.3,44157.9,16587.2,142789
1.62635,0.0300743,8156.36,24130,8403.56,60134.3,43904.9,17262.1,142571
1.62816,0.0301275,6570.36,22223.9,7754.22,61621.8,43567,17677.3,146770
1.62997,0.0301808,4984.23,20317.7,7104.83,63109.4,43229,18092.6,150970
1.63178,0.030234,4267.26,18781.8,7441.34,62779.8,42645.4,18481.2,154195
1.63359,0.0302873,4789.11,17773.5,9183.3,59859.6,41711.4,18831.7,156032
1.6354,0.0303406,5310.94,16765.4,10925.2,56939.6,40777.4,19182.3,157869
1.63721,0.0303938,5832.81,15757.2,12667.1,54019.4,39843.4,19532.8,159706
1.63902,0.0304471,6196.33,14822.3,14410.9,50784,38726.9,19963,160689
1.64084,0.0305004,5641.14,14313.5,16166.4,45717.7,36550.4,20855.5,156715
1.64265,0.0305537,5085.91,13804.6,17921.7,40651.7,34374,21748,152740
1.64446,0.030607,4835.2,14192.7,19077.3,35479.3,32571.7,22375.2,149457
1.64627,0.0306603,5119.94,16033.4,19087.5,30135.3,31454.3,22418.9,147274
1.64808,0.0307137,5333.97,15052.2,17342,25120.1,30808.1,20075.9,142520
1.64989,0.030767,5547.91,14070.9,15596.7,20105.1,30161.9,17733.1,137766
1.6517,0.0308204,5612.02,13708.5,13737.1,18422.7,30001.6,16688.9,134421
1.65351,0.0308737,5552.39,13856.7,11783.4,19490.8,30242.2,16716.5,132240
1.65532,0.030927,5492.7,14004.8,9829.53,20558.8,30482.8,16744.1,130057
1.65714,0.0309804,5433.06,14153,7875.84,21626.8,30723.4,16771.7,127875
1.65895,0.0310337,5406.39,14595.5,5968.4,23117.1,30920,16834.9,125861
1.66076,0.031087,5504.84,16153.3,4236.9,26206.8,30949.7,17032.9,124482
1.66257,0.0311403,5603.26,17711.2,2505.29,29296.7,30979.4,17230.9,123103
1.66438,0.0311937,5351.43,19300.7,1340.21,32031.3,31099.1,17086.1,121667
1.66619,0.0312471,3640.8,21022.5,2533.91,33287.5,31593.8,15513.5,119993
1.668,0.0313005,1930.34,22744.1,3727.54,34543.7,32088.5,13941,118318
1.66981,0.0313539,219.768,24465.9,4921.24,35799.9,32583.2,12368.5,116644
1.67162,0.0314073,-1709.98,25986.6,6202.31,37453.9,33002.5,10786.2,114913
1.67344,0.0314607,-3801.46,27359.1,7547.96,39401.3,33366.3,9196.55,113142
1.67525,0.0315141,-5892.81,28731.6,8893.5,41348.5,33730.1,7606.98,111371
1.67706,0.0315675,-7984.29,30104.1,10239.1,43295.9,34093.9,6017.36,109599
1.67887,0.0316209,-7647.03,30156.8,11967,44127.9,34217.3,7484.54,108756
1.68068,0.0316743,-6630.89,29840.5,13801.9,44648.3,34273.6,9806.29,108173
1.68249,0.0317277,-5750.09,29526.9,15556,44934.2,34235.3,12060.3,107462
1.6843,0.0317811,-7666.13,29240,15624,40393.2,32271.2,12890.9,104137
1.68611,0.0318346,-10011.7,27632,14527.8,35843.6,31358.4,12295,100235
1.68792,0.0318881,-12357.3,26023.9,13431.5,31293.7,30445.6,11699.1,96333.7
1.68973,0.0319415,-13999.3,24612.2,12374.5,27935.8,29378.7,11389.2,93083.9
1.69155,0.031995,-13719.3,23736.6,11424.5,27833.2,27891.1,11860.3,91613.6
1.69336,0.0320484,-13439.3,22861,10474.6,27730.5,26403.6,12331.4,90143.4
1.69517,0.0321019,-13159.3,21985.4,9524.64,27627.9,24915.9,12802.6,88673.1
1.69698,0.0321553,-12879.3,21109.9,8574.73,27525.3,23428.4,13273.7,87202.9
1.69879,0.0322088,-12599.3,20234.2,7624.75,27422.6,21940.8,13744.8,85732.6
1.7006,0.0322622,-12319.3,19358.7,6674.84,27320,20453.2,14215.9,84262.4
1.70241,0.0323157,-12039.3,18483.1,5724.86,27217.4,18965.6,14687,82792.2
1.70422,0.0323692,-11759.3,17607.5,4774.94,27114.7,17478.1,15158.2,81321.9
1.70603,0.0324226,-11479.3,16731.9,3824.97,27012.1,15990.4,15629.3,79851.7
1.70785,0.0324761,-11408.4,15346.9,2285.38,24963.3,15536.3,14592.6,76737.3
1.70966,0.0325295,-11356.6,13915.4,691.98,22737.3,15176.2,13418.5,73473.1
1.71147,0.032583,-11304.7,12484,-901.306,20511.3,14816.1,12244.5,70209
1.71328,0.0326365,-11613.6,11382.9,-1526.83,18873.7,14306.6,11336.5,67890.1
1.71509,0.03269,-10157.9,10412.4,-37.5775,17646.1,14022.4,12777.4,65118.1
1.7169,0.0327435,-8702.16,9441.81,1451.78,16418.5,13738.1,14218.4,62346
1.71871,0.0327969,-7246.48,8471.29,2941.03,15191,13453.8,15659.2,59574
1.72052,0.0328505,-7222.25,8602.38,2988.05,15511.7,13121.8,15966,58728.7
1.72233,0.032904,-7290.59,8804.74,2941.76,15932.7,12786.7,16199.3,58008
1.72415,0.0329575,-7358.99,9007.12,2895.45,16353.6,12451.5,16432.7,57287.4
1.72596,0.033011,-7427.33,9209.47,2849.16,16774.6,12116.4,16666,56566.7
1.72777,0.0330645,-7495.73,9411.85,2802.85,17195.5,11781.3,16899.3,55846.1
1.72958,0.033118,-7564.07,9614.21,2756.57,17616.5,11446.2,17132.7,55125.4
1.73139,0.0331715,-7632.4,9816.57,2710.29,18037.4,11111.1,17366.1,54404.8
1.7332,0.033225,-7809.98,10064.1,2718.02,17946.1,10821.8,17643.2,53732.9
1.73501,0.0332785,-7170.02,9722.87,2320.38,15372.7,10884.1,17492.2,51523.2
1.73682,0.033332,-6178.02,9179.64,1748.23,13029.5,10955,17177.3,48892.2
1.73863,0.0333855,-5185.81,8636.33,1176.05,10686.4,11025.9,16862.5,46261
1.74045,0.033439,-3710.9,7898,901.449,9413.76,11093.8,16579.8,43795.4
1.74226,0.0334926,-2812.76,7699.99,1337.17,9400.37,11002.2,16230.4,43620.3
1.74407,0.0335461,-2030.5,7572.58,1784.12,9327.01,10898.6,15871.1,43598.5
1.74588,0.0335996,-1248.16,7445.18,2231.1,9253.65,10795,15511.9,43576.7
1.74769,0.0336531,-465.88,7317.79,2678.05,9180.29,10691.4,15152.6,43554.9
1.7495,0.0337066,316.439,7190.38,3125.03,9106.93,10587.8,14793.4,43533.1
1.75131,0.0337601,1098.72,7062.98,3571.98,9033.57,10484.3,14434.1,43511.3
1.75312,0.0338137,1881.04,6935.57,4018.96,8960.21,10380.7,14074.9,43489.5
1.75493,0.0338672,2743.67,7114.84,3981.54,9061.31,10575.5,13764.2,43763.6
1.75674,0.0339207,3661.92,7506.24,3609.05,9283.09,10976.8,13487,44242.4
1.75856,0.0339743,4580.12,7897.62,3236.59,9504.86,11378,13209.9,44721.2
1.76037,0.0340278,3715.67,9641.31,3040.98,11316.1,11890,13438.6,48898.5
1.76218,0.0340814,2631.32,11551.8,2867.21,13323.3,12415.6,13729.6,53531.8
1.76399,0.0341349,1612.59,11627.2,3056,13922.7,12250.4,13452.7,54556.8
1.7658,0.0341885,617.655,11037.8,3376.15,14012,11835,12970,54274.4
1.76761,0.034242,-377.283,10448.3,3696.32,14101.2,11419.4,12487.2,53991.8
1.76942,0.0342956,-1372.21,9858.89,4016.47,14190.5,11003.9,12004.4,53709.3
1.77123,0.0343491,-2367.15,9269.39,4336.64,14279.8,10588.4,11521.7,53426.7
1.77304,0.0344027,-3362.08,8679.97,4656.79,14369,10172.9,11038.9,53144.3
1.77486,0.0344562,-3164.64,7023.24,4856.75,12983.2,9353.46,10593.6,50008.3
1.77667,0.0345098,-2561.64,5906.44,5482.08,11638.6,8908.35,10460.8,47774
1.77848,0.0345633,-2150.02,5707.7,6512.45,10979.8,8951.28,10569.7,47546
1.78029,0.0346169,-1556.05,5521.57,7517.67,10381.1,8933.84,10637.6,47155.5
1.7821,0.0346704,-732.966,5351.24,8491.38,9857.7,8840.56,10653.8,46560.7
1.78391,0.034724,90.186,5180.93,9465.16,9334.37,8747.26,10670.1,45965.9
1.78572,0.0347775,913.269,5010.6,10438.9,8811.02,8653.98,10686.3,45371.1
1.78753,0.0348311,1736.42,4840.29,11412.7,8287.69,8560.68,10702.5,44776.3
1.78934,0.0348847,3042.17,4565.47,12082.3,8128.97,8228.67,10715.6,43890.2
1.79116,0.0349382,4954.34,4128.34,12314.4,8413.14,7584.31,10758.1,42541
1.79297,0.0349918,6631.01,3517.55,12293.4,8409.47,6966.57,11042.7,40630.9
1.79478,0.0350453,8307.76,2906.74,12272.4,8405.8,6348.8,11327.2,38720.7
1.79659,0.0350989,9984.4,2295.96,12251.5,8402.14,5731.07,11611.7,36810.7
1.7984,0.0351524,11661.2,1685.13,12230.5,8398.47,5113.29,11896.2,34900.5
1.80021,0.035206,12696.1,1599.88,12367.8,8547.09,4337.94,12672.3,34802.3
1.80202,0.0352596,13249.5,1909.08,12623.8,8810.02,3444.23,13817.4,36063.9
1.80383,0.0353131,13802.7,2218.26,12879.9,9072.94,2550.58,14962.5,37325.5
1.80564,0.0353667,14134.3,2430.14,13178.5,9441.56,1683.72,15959.4,38117.1
1.80745,0.0354202,13955.4,2418.02,13575,10053.5,878.756,16615.1,37826.4
1.80927,0.0354738,13505.7,2370.83,13953.7,10646.3,-5.1231,17086,37138.8
1.81108,0.0355274,13018,2318.71,14329.9,11236.4,-900.028,17530.9,36395.4
