"PointID","x","y","Displacement_x","Displacement_y","Sxx","Syy","Sxy","Von_Mises_Stress"
0, 1.000080000000000e+00, 1.298657635133715e-03, -6.742612605389105e-05, 2.543309694723274e-02, -1.056568529170643e+04, -1.076506594441174e+04, 1.373173368848320e+03, 2.753574594655134e+03
1, 9.798549999999997e-01, 5.466085204787603e-03, -1.900992999639118e-04, 2.478416990113637e-02, -1.331858978335422e+04, -8.164995859945519e+03, 1.629287477063513e+03, 6.097363451448426e+03
2, 9.596079999999999e-01, 9.515045330345698e-03, -3.085797025327924e-04, 2.413516471987271e-02, -1.682620712169864e+04, -4.447474202132540e+03, 5.222143309218849e+03, 1.619617706935887e+04
3, 9.393450000000000e-01, 1.344900780617144e-02, -4.227351261787227e-04, 2.348699951352420e-02, -2.241399434649191e+04, -2.324767971758187e+03, 8.271496483215022e+03, 2.602398187485249e+04
4, 9.190669999999999e-01, 1.727101729305880e-02, -5.325939440492028e-04, 2.284028364400068e-02, -3.632751150280592e+04, -2.079567368976610e+03, 1.149632933747638e+04, 4.125026097295353e+04
5, 8.987730000000000e-01, 2.098382774607576e-02, -6.382701180580000e-04, 2.219512662004928e-02, -4.421498816205855e+04, -1.369583537558758e+03, 1.345422183317176e+04, 5.059439729833621e+04
6, 8.784640000000001e-01, 2.458975481955059e-02, -7.398880105570185e-04, 2.155178598588549e-02, -5.149317547016614e+04, -1.503863537462248e+03, 1.469880920651427e+04, 5.799268295106897e+04
7, 8.581410000000000e-01, 2.809072098321879e-02, -8.375739742942411e-04, 2.091033442410281e-02, -5.966288984662978e+04, -2.003628051011644e+02, 1.559359140919951e+04, 6.714486200978275e+04
8, 8.378050000000000e-01, 3.148816299009652e-02, -9.312149149323338e-04, 2.027116693594879e-02, -8.812177189439585e+04, 2.829261802938196e+03, 1.676314965557915e+04, 9.693349924620986e+04
9, 8.174539999999997e-01, 3.478344019669395e-02, -1.020300016723049e-03, 1.963394090228604e-02, -1.007463234973233e+05, 2.562846952320293e+03, 2.437725909572773e+04, 1.142356675608563e+05
10, 7.970910000000001e-01, 3.797714645346972e-02, -1.105696618464229e-03, 1.899944132240811e-02, -1.085930606926075e+05, 3.338163575835859e+03, 2.171220958988438e+04, 1.200594817052483e+05
11, 7.767150000000000e-01, 4.106981767641025e-02, -1.186998646128235e-03, 1.836785076735275e-02, -1.311201107001769e+05, 3.834395941580186e+03, 2.417990587925073e+04, 1.433575608617758e+05
12, 7.563270000000003e-01, 4.406144302554352e-02, -1.264205933303550e-03, 1.773882676518358e-02, -1.484509817159419e+05, 5.401170565553956e+03, 2.478473529132128e+04, 1.616403946279892e+05
13, 7.359270000000001e-01, 4.695177322164684e-02, -1.337332333289071e-03, 1.711281906682179e-02, -1.630103437486498e+05, 5.538503725468068e+03, 2.637733463898931e+04, 1.766119166859426e+05
14, 7.155150000000001e-01, 4.974022901513260e-02, -1.406569153827112e-03, 1.648995314499525e-02, -1.758977507223943e+05, 5.839119959545562e+03, 2.751251213558669e+04, 1.898842896642778e+05
15, 6.950929999999998e-01, 5.242560869837989e-02, -1.471868150623853e-03, 1.587031252666380e-02, -1.874416887925650e+05, 7.609266709344225e+03, 2.776295281864870e+04, 2.028003980248802e+05
16, 6.746590000000001e-01, 5.500669355224435e-02, -1.533354619237495e-03, 1.525408404821750e-02, -2.221727378182567e+05, 1.277795856390954e+04, 2.647478690488209e+04, 2.408432832717171e+05
17, 6.542149999999998e-01, 5.748175425360464e-02, -1.589966268632259e-03, 1.464097455660037e-02, -2.380606286323428e+05, 1.099997614952615e+04, 3.441587149143121e+04, 2.583969692089463e+05
18, 6.337610000000004e-01, 5.984845435631306e-02, -1.643013079145806e-03, 1.403168579148409e-02, -2.437452334517115e+05, 1.073401383249793e+04, 2.989576213631790e+04, 2.614090925602684e+05
19, 6.132970000000003e-01, 6.210455409453806e-02, -1.691852105882002e-03, 1.342629348399509e-02, -2.654456419574649e+05, 9.929148658801620e+03, 3.092311779830977e+04, 2.822343568108340e+05
20, 5.928229999999999e-01, 6.424691297159943e-02, -1.736460370032147e-03, 1.282419707488121e-02, -2.747941340537546e+05, 1.045168393298478e+04, 3.303136540029962e+04, 2.927959376080149e+05
21, 5.723409999999998e-01, 6.627239182207123e-02, -1.776951946540074e-03, 1.222642860254980e-02, -3.057351259947795e+05, 1.437978124239538e+04, 2.769358868769064e+04, 3.248711948650989e+05
22, 5.518500000000001e-01, 6.817715390493094e-02, -1.812463621390274e-03, 1.163278694232447e-02, -3.302137408787066e+05, 2.163243390675962e+04, 2.813349592442203e+04, 3.563168605088493e+05
23, 5.313510000000002e-01, 6.995696601701676e-02, -1.843577941276446e-03, 1.104375733485952e-02, -3.463492073748122e+05, 3.532098715540367e+04, 2.985350895544532e+04, 3.863121346535003e+05
24, 5.108440000000002e-01, 7.160719882471353e-02, -1.870108304891483e-03, 1.045863396668279e-02, -3.695479023020078e+05, 4.407178650059560e+04, 3.442166378915440e+04, 4.193097312455518e+05
25, 4.903299999999994e-01, 7.312272706417473e-02, -1.891624573128450e-03, 9.877368413436097e-03, -3.967001171848229e+05, 4.481125053459670e+04, 3.984689862091287e+04, 4.486461736650539e+05
26, 4.698099999999996e-01, 7.449762942778866e-02, -1.908040772875257e-03, 9.300494463077154e-03, -4.239822107106621e+05, 4.836761009948389e+04, 4.118325634673121e+04, 4.794774193146736e+05
27, 4.492840000000002e-01, 7.572568831990989e-02, -1.919215736245938e-03, 8.728857602567639e-03, -4.948447870721623e+05, 5.341969035993672e+04, 3.500439895099243e+04, 5.527161739967209e+05
28, 4.287520000000001e-01, 7.679988951869912e-02, -1.923485465789621e-03, 8.161800110997212e-03, -5.397164394894779e+05, 5.377978601135749e+04, 3.835511571595801e+04, 5.984331452134621e+05
29, 4.082159999999996e-01, 7.771232176924710e-02, -1.922112567340824e-03, 7.601428098684616e-03, -6.091385044471370e+05, 5.435369296873026e+04, 2.607581328854174e+04, 6.655386451487034e+05
30, 3.875759999999999e-01, 7.844397614867708e-02, -1.913178075676381e-03, 7.044365261446489e-03, -6.600099844331936e+05, 5.612852063094168e+04, 3.434701014492737e+04, 7.194256228819472e+05
31, 3.668650000000000e-01, 7.894164625220589e-02, -1.896492020729175e-03, 6.493321030973527e-03, -7.359131015455106e+05, 5.660571139011256e+04, 1.687090874903119e+04, 7.932367736716205e+05
32, 3.461490000000000e-01, 7.918992725630633e-02, -1.870466373044865e-03, 5.949904833993095e-03, -8.061513415292855e+05, 5.517257424478805e+04, 2.068772201438365e+04, 8.623171198885947e+05
33, 3.254309999999996e-01, 7.917721553849592e-02, -1.835683828807108e-03, 5.415403892707222e-03, -8.748575268946326e+05, 5.246094096913369e+04, 7.755615065168254e+03, 9.274481867475719e+05
34, 3.047139999999997e-01, 7.889030854046913e-02, -1.791577721813076e-03, 4.890897401616458e-03, -9.580722717751255e+05, 5.133761390326856e+04, -5.868342402941571e+03, 1.009478116194453e+06
35, 2.840020000000000e-01, 7.831420450766545e-02, -1.737714577171359e-03, 4.377397580606392e-03, -1.056726588399761e+06, 4.801999686688485e+04, -2.373428028828354e+04, 1.105765925456887e+06
36, 2.632959999999995e-01, 7.743220227357003e-02, -1.673576483499086e-03, 3.876001331826595e-03, -1.165022565259273e+06, 4.529298122837822e+04, -4.250581795093491e+04, 1.213297449230161e+06
37, 2.426010000000000e-01, 7.622460108959768e-02, -1.598828706562886e-03, 3.388361708423383e-03, -1.291932605730677e+06, 4.469114990931549e+04, -6.805238880880614e+04, 1.343535475762177e+06
38, 2.219220000000000e-01, 7.466880049271685e-02, -1.512803032106802e-03, 2.915914465451478e-03, -1.439895990618205e+06, 4.184899341382637e+04, -9.966634365313184e+04, 1.495092544939216e+06
39, 2.012640000000000e-01, 7.273780020843071e-02, -1.414538127849384e-03, 2.461137384344695e-03, -1.612229677276092e+06, 3.847641225781479e+04, -1.329293414682598e+05, 1.671978299296095e+06
40, 1.806310000000000e-01, 7.039890008159150e-02, -1.303760663510223e-03, 2.026281657355516e-03, -1.814595634311700e+06, 3.220479000608648e+04, -1.744775983783726e+05, 1.879479059900348e+06
41, 1.600330000000000e-01, 6.761140002915771e-02, -1.178671692755734e-03, 1.614869982810035e-03, -2.053946566216570e+06, 2.373541530639798e+04, -2.114103986220196e+05, 2.120268813836418e+06
42, 1.394760000000000e-01, 6.432340000934324e-02, -1.038932312390481e-03, 1.230508817226447e-03, -2.286104899077449e+06, 2.003198178097422e+04, -2.463249955712345e+05, 2.358171182723614e+06
43, 1.189729999999999e-01, 6.046550000262205e-02, -8.863941195649108e-04, 8.767926423945499e-04, -2.586335087238415e+06, -2.564545548249353e+02, -3.510539069291127e+05, 2.679693653517768e+06
44, 9.853700000000000e-02, 5.594070000062380e-02, -7.142559943218153e-04, 5.651763727701147e-04, -3.153182261113990e+06, -2.571544658384725e+04, -5.051181690970258e+05, 3.286582744279390e+06
45, 7.818849999999983e-02, 5.060340000012009e-02, -5.185354850776175e-04, 3.051881894199217e-04, -3.968158379447867e+06, -6.801242550939124e+04, -6.745194722970307e+05, 4.126868611435809e+06
46, 5.795880000000000e-02, 4.421300000001747e-02, -2.901220640549965e-04, 1.114781901673204e-04, -5.449332047611473e+06, -1.967972014279861e+05, -7.032338017574784e+05, 5.437579740114980e+06
47, 3.790390000000000e-02, 3.630690000000179e-02, 0.000000000000000e+00, 0.000000000000000e+00, -3.933402739427991e+06, -5.794573234096398e+05, 1.478865791796385e+05, 3.366961778048028e+06
48, 1.815790000000000e-02, 2.570150000000010e-02, 0.000000000000000e+00, 0.000000000000000e+00, -5.420216818460415e+05, 7.912707497499381e+04, 1.698809498123603e+04, 6.220772938989847e+05
49, 0.000000000000000e+00, 0.000000000000000e+00, 0.000000000000000e+00, 0.000000000000000e+00, 3.679183784315693e+04, -1.845849948418376e+04, -1.196837714582242e+05, 2.456611902125420e+05
50, 2.265850000000000e-02, -2.172400000000000e-02, 0.000000000000000e+00, 0.000000000000000e+00, 5.623076634120467e+05, -4.394574577668088e+04, 1.417348384634632e+05, 6.692520107478279e+05
51, 4.372870000000000e-02, -2.856009999999832e-02, 0.000000000000000e+00, 0.000000000000000e+00, 3.967301219766748e+06, 7.724586859258492e+05, 7.609326326386190e+05, 3.538798200194000e+06
52, 6.449020000000000e-02, -3.290519999998642e-02, 2.703296648316903e-04, 1.586760812238549e-04, 5.727216144636088e+06, 1.897140392168303e+05, 2.063039057350000e+05, 5.552852849987002e+06
53, 8.507679999999999e-02, -3.594289999992169e-02, 4.595573164972157e-04, 3.821313717796253e-04, 4.037868650833772e+06, 1.534778143309328e+04, 2.249473225200515e+04, 4.022772451516534e+06
54, 1.055450000000000e-01, -3.813559999964977e-02, 6.074662329027282e-04, 6.680189705608362e-04, 3.180168446920274e+06, 1.137898218442263e+04, 7.293984706144157e+04, 3.172145576258805e+06
55, 1.259249999999999e-01, -3.972409999870422e-02, 7.242816466676781e-04, 1.000536783918934e-03, 2.769897515481395e+06, -3.234973918889583e+04, 1.375631841436367e+05, 2.815720901444979e+06
56, 1.462380000000000e-01, -4.085399999585703e-02, 8.280723025858255e-04, 1.364171388460650e-03, 2.490277887228458e+06, -2.303904543067502e+03, 8.356709021706010e+04, 2.498178901307977e+06
57, 1.664980000000000e-01, -4.162219998820602e-02, 9.106688423508547e-04, 1.754711763531078e-03, 2.107487987636118e+06, 1.516565177082066e+03, 1.014578142125014e+05, 2.115724553072363e+06
58, 1.867150000000000e-01, -4.209819996945979e-02, 9.786827319075828e-04, 2.168806478704223e-03, 1.864217877437275e+06, 7.966508009738658e+03, 1.111835001636276e+05, 1.869522995134359e+06
59, 2.069000000000001e-01, -4.233379992689998e-02, 1.034705455264018e-03, 2.602629070873181e-03, 1.675321966086136e+06, 1.365747881684656e+04, 1.139720744958201e+05, 1.677226103812910e+06
60, 2.270570000000000e-01, -4.236979983631141e-02, 1.080717446053774e-03, 3.053588159954203e-03, 1.503902581318005e+06, 1.061542581390896e+04, 1.072846876651013e+05, 1.508624057087487e+06
61, 2.471950000000000e-01, -4.223879965378518e-02, 1.116948208834222e-03, 3.519780507858016e-03, 1.342523253062452e+06, 1.355282530304037e+04, 1.067108984759491e+05, 1.345998239699150e+06
62, 2.673160000000002e-01, -4.196779930318456e-02, 1.144831663533196e-03, 3.999106172268653e-03, 1.208134529818943e+06, 1.668793681670372e+04, 1.051846713271589e+05, 1.209876127669876e+06
63, 2.874270000000000e-01, -4.157949865720571e-02, 1.165747777380244e-03, 4.490371043949804e-03, 1.095110055954628e+06, 1.687005596222349e+04, 1.002663288918650e+05, 1.096729157276958e+06
64, 3.075299999999999e-01, -4.109349751029943e-02, 1.180333975967103e-03, 4.992389931770098e-03, 9.915717170790527e+05, 1.705934523865674e+04, 9.475545135102431e+04, 9.927682232590542e+05
65, 3.276300000000001e-01, -4.052669554002214e-02, 1.189314504637684e-03, 5.504218694933452e-03, 8.984935795529579e+05, 1.640386960970312e+04, 8.961920054124383e+04, 9.001159152078038e+05
66, 3.477290000000003e-01, -3.989379225463741e-02, 1.193361839393429e-03, 6.024985282559849e-03, 8.144475652839837e+05, 1.620855330168120e+04, 8.458034715603417e+04, 8.159662129957487e+05
67, 3.678289999999997e-01, -3.920818692264672e-02, 1.193045921432137e-03, 6.553924804096024e-03, 7.374162827413850e+05, 1.589950811681288e+04, 7.907002111973995e+04, 7.386438445043390e+05
68, 3.879340000000001e-01, -3.848137847951093e-02, 1.188877715074932e-03, 7.090398995868157e-03, 6.670529242041681e+05, 1.516800276533719e+04, 7.359228807610602e+04, 6.682942841715894e+05
69, 4.081109999999998e-01, -3.771956535743447e-02, 1.181276817793277e-03, 7.635557785572681e-03, 6.031072099802251e+05, 1.436757879939102e+04, 6.829937758071283e+04, 6.043786670909186e+05
70, 4.283910000000004e-01, -3.689034529459320e-02, 1.169566286539330e-03, 8.189694813915975e-03, 5.454237691827752e+05, 1.362621867992908e+04, 6.326987174242041e+04, 5.466451695588614e+05
71, 4.486759999999999e-01, -3.599191530567270e-02, 1.153842355812543e-03, 8.749654347369702e-03, 4.943140382739878e+05, 1.287643420769386e+04, 5.837946732213907e+04, 4.953935964749246e+05
72, 4.689660000000000e-01, -3.503207127258595e-02, 1.134514676727257e-03, 9.314989742661985e-03, 4.490722348190523e+05, 1.205822228692618e+04, 5.377537675772191e+04, 4.500537875978482e+05
73, 4.892609999999997e-01, -3.401780769350785e-02, 1.111956162755993e-03, 9.885336175263793e-03, 4.093697936102041e+05, 1.135220454001123e+04, 4.928318946428255e+04, 4.100406470879910e+05
74, 5.095640000000002e-01, -3.295551732056692e-02, 1.086529635593227e-03, 1.046048201594145e-02, 3.759519883793107e+05, 1.040616989514442e+04, 4.483770093984802e+04, 3.763846743871807e+05
75, 5.298739999999997e-01, -3.185079078269174e-02, 1.058584137603307e-03, 1.104015599921698e-02, 3.480058161660385e+05, 9.219698197485908e+03, 4.094493367185377e+04, 3.485426575066128e+05
76, 5.501910000000001e-01, -3.070891613488456e-02, 1.028414334979505e-03, 1.162417218911371e-02, 3.238708075996144e+05, 8.204687562431916e+03, 3.780625519934180e+04, 3.245956732122595e+05
77, 5.705160000000002e-01, -2.953447837710452e-02, 9.962662921795442e-04, 1.221242256634625e-02, 3.025947720462556e+05, 7.081252660627573e+03, 3.518570384024486e+04, 3.037768509261587e+05
78, 5.908500000000002e-01, -2.833165897626403e-02, 9.623661105050579e-04, 1.280494488394104e-02, 2.842361557936656e+05, 5.904971839995726e+03, 3.375276734703180e+04, 2.864004978616187e+05
79, 6.111930000000000e-01, -2.710403542683288e-02, 9.268307382427841e-04, 1.340169296620191e-02, 2.644593459711822e+05, 5.183584025241531e+03, 3.273130236711687e+04, 2.674121787638675e+05
80, 6.315450000000000e-01, -2.585498087603431e-02, 8.897662192881208e-04, 1.400283389482767e-02, 2.494855163889485e+05, 4.883963571140521e+03, 3.138798363086014e+04, 2.525286948180889e+05
81, 6.519069999999999e-01, -2.458726385130564e-02, 8.512383964749372e-04, 1.460803533242728e-02, 2.292640663317898e+05, 4.220199631520149e+03, 2.886678013144153e+04, 2.323314570178492e+05
82, 6.722800000000005e-01, -2.330334827629684e-02, 8.112194263013087e-04, 1.521718778931680e-02, 2.091908802031061e+05, 3.580314595463976e+03, 2.718142562829487e+04, 2.126758667226740e+05
83, 6.926619999999998e-01, -2.200529400394980e-02, 7.699348411840633e-04, 1.583022382108487e-02, 1.891149291632466e+05, 3.284080446835161e+03, 2.560589792822258e+04, 1.927582744514591e+05
84, 7.130559999999998e-01, -2.069475732198221e-02, 7.272874694582468e-04, 1.644726168623050e-02, 1.722040485309744e+05, 2.580359764701144e+03, 2.474828848519682e+04, 1.766977841470109e+05
85, 7.334609999999996e-01, -1.937309304066067e-02, 6.835193865803229e-04, 1.706803930684482e-02, 1.583445755483190e+05, 2.048274180814100e+03, 2.348847675758424e+04, 1.632034557928483e+05
86, 7.538770000000000e-01, -1.804115687730259e-02, 6.386812014277896e-04, 1.769253151054269e-02, 1.431975624557677e+05, 1.170712343148095e+03, 2.143300745622506e+04, 1.483547147460670e+05
87, 7.743050000000000e-01, -1.669970940220784e-02, 5.926696780523336e-04, 1.832060664806457e-02, 1.241239186582688e+05, -4.557228975520957e+02, 2.009325968280486e+04, 1.309008916275949e+05
88, 7.947459999999997e-01, -1.534902177824056e-02, 5.454217570840539e-04, 1.895222496512062e-02, 1.079741588270183e+05, -1.958157232013889e+01, 2.190623289490841e+04, 1.165426107654345e+05
89, 8.151990000000001e-01, -1.398908412276005e-02, 4.973394770533107e-04, 1.958739828779588e-02, 9.749696656606338e+04, -1.999074357936010e+03, 1.407218902707102e+04, 1.034000395338640e+05
90, 8.356650000000000e-01, -1.261971595912052e-02, 4.479653010523236e-04, 2.022568734121338e-02, 6.837438865837656e+04, -3.225038810956012e+03, 1.353974214182672e+04, 7.654917689305908e+04
91, 8.561440000000001e-01, -1.124018120338883e-02, 3.970496388898813e-04, 2.086697827369924e-02, 4.673839447886251e+04, -8.527940787003604e+02, 1.560309361678102e+04, 5.690999341045151e+04
92, 8.766380000000000e-01, -9.849977269397228e-03, 3.453461709881404e-04, 2.151132494805779e-02, 4.102264337236366e+04, -1.825801328439522e+03, 1.423793714278831e+04, 5.144768828242675e+04
93, 8.971449999999996e-01, -8.447941260037093e-03, 2.926804855882887e-04, 2.215838291044871e-02, 3.231743894941096e+04, -4.464741585583774e+03, 1.193922433517148e+04, 4.385326801745965e+04
94, 9.176680000000004e-01, -7.032941213546145e-03, 2.389816556332094e-04, 2.280817976406286e-02, 2.248152163642961e+04, -6.384254575369696e+03, 9.738367317674076e+03, 3.482206525129504e+04
95, 9.382060000000000e-01, -5.603699693129224e-03, 1.841803571905805e-04, 2.346046309285956e-02, 6.503426771962837e+03, -8.571801132255476e+03, 7.311302472900302e+03, 2.100197780603233e+04
96, 9.587590000000001e-01, -4.158846050345323e-03, 1.282351774569783e-04, 2.411508887576718e-02, -1.529972778381686e+03, -8.611444030717075e+03, 4.651426628501426e+03, 1.169146328818515e+04
97, 9.793290000000001e-01, -2.697004162919209e-03, 7.113852044018950e-05, 2.477159761295066e-02, -8.223959252188180e+03, -1.039397648126838e+04, 1.112213285003520e+03, 3.107579176764159e+03
98, 9.999159999999997e-01, -1.216907614987547e-03, 1.310063065199704e-05, 2.542916724681738e-02, -1.008994564914265e+04, -1.137825041900564e+04, 3.067373280528901e+02, 1.426912868305508e+03
99, 2.965208518154832e-01, -2.451290942447063e-02, 7.572284726960825e-04, 4.702972323444327e-03, 8.305756805870821e+05, 2.334206922231908e+04, 1.214558573581619e+05, 8.429900381756725e+05
100, 3.569550655825027e-01, -2.225936363757839e-02, 7.421056729774349e-04, 6.254803586699271e-03, 6.112809649895456e+05, 2.023782895659871e+04, 9.876134774746103e+04, 6.231750988985682e+05
101, 2.357521290884743e-01, -2.612922336771749e-02, 7.280033164523603e-04, 3.238162187248577e-03, 1.140663026281644e+06, 2.609684750419978e+04, 1.476417862480920e+05, 1.153017846809260e+06
102, 4.175395410127040e-01, -1.978663335835235e-02, 7.000299390808396e-04, 7.881448236048664e-03, 4.469160661447245e+05, 1.745325060716945e+04, 7.769032561016228e+04, 4.567071892395566e+05
103, 1.751367101156132e-01, -2.542482997858419e-02, 6.107429397139550e-04, 1.910439135981430e-03, 1.583440038568106e+06, 2.209162722408123e+04, 1.777276883486461e+05, 1.601298656225479e+06
104, 4.545162228688529e-01, 5.410532950813614e-02, -1.327367706682481e-03, 8.875972776266380e-03, -3.307341432442478e+05, 4.958329046805349e+04, 5.437966363895164e+04, 3.955628163205595e+05
105, 4.984927894006225e-01, -1.590821619020916e-02, 6.035416999354101e-04, 1.013622558133451e-02, 2.964216195337757e+05, 1.377901345098261e+04, 5.173323470809255e+04, 3.009853037387761e+05
106, 3.174664004060689e-01, 6.223769631419307e-02, -1.392904717007002e-03, 5.209485521021909e-03, -7.367946159536205e+05, 5.378806687163796e+04, 4.204300449798508e+04, 7.950417821045970e+05
107, 2.563717314105666e-01, 5.966322747630105e-02, -1.235838155060204e-03, 3.704937832847038e-03, -9.833566080018656e+05, 5.474051689915425e+04, 1.431337746848670e+04, 1.038491758188761e+06
108, 3.756940139235235e-01, 6.148861639262046e-02, -1.447529746847762e-03, 6.726117562433184e-03, -5.402955020780419e+05, 4.902730286670265e+04, 5.120951977067330e+04, 5.981563575592199e+05
109, 1.331764994043778e-01, 4.104774464364988e-02, -5.883221157102661e-04, 1.095791050166006e-03, -1.701726210097888e+06, 7.822017498741577e+04, -1.179570837671441e+04, 1.780102718587519e+06
110, 2.151334800925959e-01, 5.783655468666130e-02, -1.116926195045441e-03, 2.755869628209271e-03, -1.228705122750602e+06, 5.379365717059471e+04, -2.046861039980617e+04, 1.283151969388722e+06
111, 5.390438766469148e-01, -1.368862784268494e-02, 5.396747494382089e-04, 1.129336020936950e-02, 2.494978800451975e+05, 1.016762437779141e+04, 4.122196461075346e+04, 2.531323225969114e+05
112, 4.171750480094754e-01, 5.955090515447047e-02, -1.440901844908289e-03, 7.845461582745556e-03, -4.398298963496130e+05, 4.773949681671923e+04, 5.175686809288324e+04, 4.984365623945759e+05
113, 5.796417021609543e-01, -1.132772645559041e-02, 4.678905799955217e-04, 1.246806095440486e-02, 2.111762377940058e+05, 7.421692845161688e+03, 3.413264340341789e+04, 2.148861651436176e+05
114, 4.579843437613020e-01, -1.795374505174668e-02, 6.577074224521928e-04, 8.997916150833613e-03, 3.627727011318490e+05, 1.546238240308704e+04, 6.441810562258717e+04, 3.704365354868299e+05
115, 1.742940778216177e-01, 5.338799201502666e-02, -9.307970938988984e-04, 1.885107789385281e-03, -1.534719159007478e+06, 5.813060588470456e+04, -6.274571308664471e+04, 1.597785489845269e+06
116, 9.710402222722213e-02, -1.854828260701973e-02, 2.874003622277714e-04, 5.111609633007859e-04, 2.421057056603025e+06, -1.202306276088702e+04, 3.450247183798603e+05, 2.529040745503385e+06
117, 5.189776927250810e-01, 5.374781990726285e-02, -1.371567760438539e-03, 1.069330459276440e-02, -2.724849167008888e+05, 3.781347972841272e+04, 3.769376350161319e+04, 3.193248722762731e+05
118, 6.203287774626575e-01, -9.336529951387132e-03, 4.034275994069107e-04, 1.366159374104613e-02, 1.779178201999323e+05, 5.395479124815563e+03, 3.262102506451884e+04, 1.844464238609108e+05
119, 1.374487160305860e-01, -2.687496070271507e-02, 5.458547969597251e-04, 1.184520270163011e-03, 2.162559153869289e+06, -1.805132252945446e+04, 1.681540046292084e+05, 2.206391879714779e+06
120, 5.596390879087316e-01, 5.071766022575924e-02, -1.316917696627155e-03, 1.186196303886163e-02, -2.360180056010023e+05, 1.688445121360165e+04, 3.311352156316742e+04, 2.614300554720517e+05
121, 6.609822853382991e-01, -6.306392118220629e-03, 3.051565903084248e-04, 1.486932911517250e-02, 1.454724115568935e+05, 4.572813675369504e+03, 2.813656241267568e+04, 1.517213276398040e+05
122, 6.033990050359129e-01, 4.524296949904567e-02, -1.190088847874630e-03, 1.313998346726230e-02, -1.895037406221317e+05, 1.180954780461178e+04, 3.363913471603624e+04, 2.122578753190651e+05
123, 7.020096982075864e-01, -3.104764313728138e-03, 1.977897621596919e-04, 1.610280119882985e-02, 1.076429759356175e+05, 3.328877567256015e+03, 2.579772959043371e+04, 1.163766408111557e+05
124, 5.755684299531481e-02, -1.475369716714318e-02, 8.253228948278127e-05, 5.233533266495777e-05, 3.510457285960781e+06, 4.954840038760257e+05, 5.877768749351613e+05, 3.236045505013658e+06
125, 9.060053041110261e-02, 3.560010455124676e-02, -3.684524512148440e-04, 4.304193128271936e-04, -2.619902641274695e+06, 9.021706864275981e+04, -1.850590687056633e+05, 2.735276270822364e+06
126, 6.425578062521644e-01, 4.077421473719080e-02, -1.085574161632454e-03, 1.429892978733771e-02, -1.527968836586571e+05, 8.812054140732553e+03, 3.184667807625978e+04, 1.737074908995541e+05
127, 7.425667752705342e-01, -1.791555736957194e-03, 1.447855543918458e-04, 1.733707477024029e-02, 8.680001643667063e+04, 1.310744916719266e+03, 2.314188310312527e+04, 9.721420965706004e+04
128, 6.794566059190392e-01, 3.455943291319560e-02, -9.241785086109268e-04, 1.540521570515233e-02, -1.183421943408345e+05, 7.083572242976972e+03, 2.899205466283305e+04, 1.381802440923722e+05
129, 7.233806801009188e-01, 3.103955998920494e-02, -8.451544203922166e-04, 1.673623565344400e-02, -1.020480296175900e+05, 5.444481550099109e+03, 2.611479272948160e+04, 1.195097048542540e+05
130, 7.843483593006574e-01, 2.407658753467372e-03, 3.422336755835794e-07, 1.862073297878612e-02, 4.454300174257320e+04, 3.290234258779089e+02, 1.900278565462122e+04, 5.830351043574575e+04
131, 5.454676153968591e-02, 2.401897778836719e-02, -8.598415730563713e-05, 3.821055313000074e-05, -3.325527326515798e+06, -3.105937255119181e+05, 5.300374710639835e+04, 3.016796679806496e+06
132, 7.640261001531525e-01, 2.557854223220752e-02, -7.026873781632784e-04, 1.798298512891109e-02, -8.138660408407020e+04, 5.521814687218553e+03, 2.357814055789426e+04, 9.887764207340790e+04
133, 8.229285121732515e-01, 4.325459989557034e-03, -7.590583102586857e-05, 1.981868462949211e-02, 2.420501977138501e+04, -2.402267975786978e+03, 1.713247949307204e+04, 4.338242934164641e+04
134, 8.046576053101190e-01, 1.842731663649059e-02, -5.049555049531867e-04, 1.924277392172726e-02, -3.565068240941786e+04, 3.378480851780564e+02, 1.982631625930796e+04, 5.354909516338121e+04
135, 8.440268415923862e-01, 1.092677845198273e-02, -2.919821385145597e-04, 2.047535995769467e-02, -1.018514603278877e+04, -6.416691541354076e+02, 1.529953985726553e+04, 3.205279442278968e+04
136, 9.686534179528832e-01, 2.091075436509604e-03, -7.636087594458731e-05, 2.442796470133542e-02, -9.912570903814760e+03, -7.925277780515557e+03, 4.071079926074635e+03, 8.381175395841787e+03
137, 8.665347747378581e-01, 8.242087267910925e-03, -2.191256863912026e-04, 2.118373378398163e-02, -6.776727727366831e+03, -1.866445869491872e+03, 1.379055915560570e+04, 2.801479886097376e+04
138, 3.973268220538671e-01, -2.062832905729432e-02, 7.165431714146064e-04, 7.332065454152058e-03, 4.964959437470969e+05, 1.837973984014509e+04, 8.447827702821951e+04, 5.070911373678505e+05
139, 4.066700436456092e-01, -2.659212938035235e-03, 2.372070044830831e-04, 7.576026602656858e-03, 2.668807076057455e+05, 2.613010471260853e+04, 1.028128338357232e+05, 3.166113832425124e+05
140, 4.269223569321594e-01, -1.818438232455170e-03, 2.141784429425484e-04, 8.129489486777013e-03, 2.364669509125487e+05, 2.552959503407524e+04, 9.350710497628778e+04, 2.819022575808640e+05
141, 4.160748881743896e-01, 1.536167498665046e-02, -2.482617369805626e-04, 7.825143741441254e-03, 5.462382183954221e+04, 3.354459720745142e+04, 1.034841262636870e+05, 2.080389176700480e+05
142, 3.957310814013349e-01, 1.449346633372025e-02, -2.191161850766784e-04, 7.272423888311068e-03, 6.686049274386525e+04, 3.451599704537775e+04, 1.136899821636009e+05, 2.296689238434950e+05
143, 4.363670743873385e-01, 1.618778283684456e-02, -2.770895524449538e-04, 8.382427176223367e-03, 4.118924263908041e+04, 3.280126271262798e+04, 9.454211965387239e+04, 1.892701977645584e+05
144, 4.051964901703583e-01, 3.152846174489180e-02, -6.774958502949280e-04, 7.523936389815771e-03, -1.338886637275213e+05, 3.831229944402465e+04, 1.035281380607235e+05, 2.693055387445439e+05
145, 3.848128369641440e-01, 3.076195860089444e-02, -6.451828247252372e-04, 6.973759251333309e-03, -1.406026028741566e+05, 4.129345189725565e+04, 1.073586134462131e+05, 2.814065782205139e+05
146, 3.753524496752737e-01, 1.356864764978193e-02, -1.894074579376467e-04, 6.725532421252978e-03, 8.463813111549222e+04, 3.793184698429128e+04, 1.241111128859234e+05, 2.525782063925432e+05
147, 3.644174013940734e-01, 2.988650014044099e-02, -6.107263006338205e-04, 6.430410162044787e-03, -1.457406003298552e+05, 4.645532904369649e+04, 1.233299507364181e+05, 3.126985485453243e+05
148, 3.550135000019953e-01, 1.257060385176059e-02, -1.588110194145086e-04, 6.186849740635511e-03, 9.736615149976393e+04, 3.904697253989671e+04, 1.356342160574191e+05, 2.774665545549510e+05
149, 3.439974530424352e-01, 2.973248607093197e-02, -5.947515176581538e-04, 5.893745494489412e-03, -1.642667321937800e+05, 4.736736026293233e+04, 1.283543739784665e+05, 3.326986179225764e+05
150, 3.345561888412470e-01, 1.175188509203232e-02, -1.338638256087084e-04, 5.653123059150176e-03, 1.154257509669183e+05, 4.058741342995827e+04, 1.464753235475258e+05, 3.023588239140796e+05
151, 3.236084717278476e-01, 2.848486348453910e-02, -5.512453573664305e-04, 5.366850374461301e-03, -1.686888470626527e+05, 5.117501838031755e+04, 1.384708316776912e+05, 3.536054358031992e+05
152, 3.143303895010669e-01, 1.091173967532593e-02, -1.096459437178514e-04, 5.134251313555311e-03, 1.362025415710082e+05, 4.415843895098459e+04, 1.588461610059701e+05, 3.307575067817263e+05
153, 3.032408574155243e-01, 2.754867888033673e-02, -5.161497597325446e-04, 4.849767625147440e-03, -1.794836657044863e+05, 5.432310814050352e+04, 1.495113534857295e+05, 3.795789598757303e+05
154, 2.939539777652365e-01, 1.001939702657499e-02, -8.538193039038554e-05, 4.621229192827821e-03, 1.546736176124553e+05, 4.706781562212361e+04, 1.727610623572038e+05, 3.618902420474213e+05
155, 2.828296372549853e-01, 2.713221285243355e-02, -4.939016237016445e-04, 4.341832952599283e-03, -1.948009024131589e+05, 5.912948663474218e+04, 1.614277165310773e+05, 4.107508650505434e+05
156, 2.733885992048811e-01, 9.103917276476371e-03, -6.187160944854650e-05, 4.114410672081178e-03, 1.762581187059463e+05, 4.994132594793547e+04, 1.879359987850712e+05, 3.965295584064817e+05
157, 2.624180713305175e-01, 2.586783801484984e-02, -4.517579889628543e-04, 3.845501152718916e-03, -2.127395457080832e+05, 6.610830355354873e+04, 1.768254860622884e+05, 4.503611141323104e+05
158, 2.529513838477514e-01, 8.525500588357842e-03, -4.779240475846399e-05, 3.622697588819615e-03, 1.961271467658586e+05, 5.296960929103336e+04, 2.057342426591975e+05, 4.356608714884436e+05
159, 2.420041420646534e-01, 2.497529901970493e-02, -4.184871101952121e-04, 3.361876803889280e-03, -2.392155433246389e+05, 6.874834219927539e+04, 1.923448183924315e+05, 4.927756806465356e+05
160, 2.324783601726384e-01, 7.702711831663829e-03, -2.954361273883693e-05, 3.143765561698493e-03, 2.224637582372063e+05, 5.662246827789478e+04, 2.267501522335580e+05, 4.828725086470914e+05
161, 2.215823706828724e-01, 2.397561874309202e-02, -3.831833341763127e-04, 2.892428769470228e-03, -2.680381489262158e+05, 7.522589705731493e+04, 2.112434943203625e+05, 5.443578426326672e+05
162, 2.121325116669503e-01, 6.410468166972463e-03, -3.051878175532353e-06, 2.682996955286980e-03, 2.554534304572158e+05, 5.860622010862640e+04, 2.517765922715877e+05, 5.406612931268476e+05
163, 2.011663456335072e-01, 2.296567693903760e-02, -3.477825861064362e-04, 2.439393466151878e-03, -3.070135749681249e+05, 7.814741043915821e+04, 2.310167795596030e+05, 6.015180749007217e+05
164, 1.916646013664415e-01, 6.122736612156312e-03, -2.180852254812457e-07, 2.236458842610133e-03, 2.824508198098893e+05, 6.284505257230625e+04, 2.824423924124437e+05, 6.060705512815046e+05
165, 3.255525538590951e-01, -6.161437508139599e-03, 3.175979108145326e-04, 5.428277090973171e-03, 4.226163969577812e+05, 3.209334352232648e+04, 1.432984074208936e+05, 4.844027142182512e+05
166, 2.646894229772289e-01, -8.340504830647766e-03, 3.460779035331257e-04, 3.910778430915292e-03, 5.846270491077895e+05, 3.689208173205551e+04, 1.848089653660449e+05, 6.607806059538736e+05
167, 1.807269235733196e-01, 2.189447289239244e-02, -3.109810686529658e-04, 2.004505322684223e-03, -3.620023094405357e+05, 8.058940801820398e+04, 2.576089721418879e+05, 6.792179020572682e+05
168, 1.712197766160248e-01, 5.003864197072673e-03, 1.738545212061979e-05, 1.810549520532391e-03, 3.084690975904317e+05, 7.027589848985098e+04, 3.263332846847365e+05, 6.947730930816809e+05
169, 1.602426840849283e-01, 2.138865999024500e-02, -2.846820835781822e-04, 1.590594658451427e-03, -4.287854158806563e+05, 8.123620114868911e+04, 2.831332319740623e+05, 7.620890748656230e+05
170, 2.037692397099820e-01, -1.034914625906224e-02, 3.461842211465955e-04, 2.505768912080792e-03, 8.197701165128148e+05, 3.268866385421857e+04, 2.386511470379692e+05, 9.204969815536168e+05
171, 2.916999805213980e-01, 4.426040597783516e-02, -9.152612589100994e-04, 4.560508229956794e-03, -5.189140439056503e+05, 6.391186597008433e+04, 1.087339561469820e+05, 6.220758266481451e+05
172, 1.507262204414042e-01, 4.193183306689322e-03, 2.649980939309217e-05, 1.407259550224559e-03, 3.427404032005455e+05, 1.040234045573937e+05, 3.740173959957115e+05, 7.852017928347121e+05
173, 3.537537244957117e-01, 4.827211817019209e-02, -1.078830734330466e-03, 6.146460464908896e-03, -4.307740903435330e+05, 5.226616684063427e+04, 8.871313244590518e+04, 5.145949567708619e+05
174, 1.397136229741799e-01, 2.099975488326074e-02, -2.592361122774095e-04, 1.202736922010991e-03, -5.614304346875875e+05, 8.723979208103678e+04, 3.140025696866763e+05, 9.028640640624714e+05
175, 1.295462050553768e-01, 2.895094104153282e-03, 4.103440970999775e-05, 1.019138900359090e-03, 4.259978256925590e+05, 9.339528088808633e+04, 4.441483140581576e+05, 9.485227210421617e+05
176, 1.191521560648285e-01, 2.012333268731761e-02, -2.189027058611122e-04, 8.423005805458185e-04, -7.741736682657086e+05, 1.152866038253818e+05, 3.454082254628134e+05, 1.126217982673796e+06
177, 1.080886766339152e-01, -1.434166340284627e-05, 6.940372782102219e-05, 6.615464512944735e-04, 6.442097953952859e+05, 7.564411995753599e+04, 5.290487843721703e+05, 1.201181664973567e+06
178, 2.290595953533373e-01, 4.112395025010222e-02, -7.684182088243750e-04, 3.064065765506105e-03, -7.141967119769213e+05, 7.299204032035606e+04, 1.168463976080579e+05, 8.211446001035784e+05
179, 3.459241453068500e-01, -5.280118655732408e-03, 2.999936083997478e-04, 5.955858362425940e-03, 3.777025588137133e+05, 3.024812092651848e+04, 1.323802131404313e+05, 4.368325419791096e+05
180, 2.852249784506570e-01, -7.661783836368256e-03, 3.401584685761348e-04, 4.411918334624718e-03, 5.258504562809976e+05, 3.574165396185467e+04, 1.685159763915170e+05, 5.948085198679067e+05
181, 3.956004076773577e-01, 4.825303664474071e-02, -1.116857866439877e-03, 7.260697652862692e-03, -3.522781176405359e+05, 4.810752103837276e+04, 8.264471905123966e+04, 4.331619304700622e+05
182, 3.863679605568167e-01, -3.541830668292296e-03, 2.599420157614223e-04, 7.027488275875532e-03, 3.004477612209637e+05, 2.778850145473626e+04, 1.118426626486102e+05, 3.526729316088638e+05
183, 7.630071944130284e-01, -1.548926792038406e-04, 8.738556811445692e-05, 1.796365581831931e-02, 7.436785657243201e+04, 5.309901525865523e+02, 2.186653933144411e+04, 8.581646119502054e+04
184, 7.221157439895679e-01, -2.378248353096834e-03, 1.694858714701848e-04, 1.671298044719569e-02, 9.724986589218531e+04, 2.489657278599881e+03, 2.465422655269369e+04, 1.068214429978196e+05
185, 6.813485251706484e-01, -5.021231020435771e-03, 2.615116562187691e-04, 1.547991916634111e-02, 1.245038844396298e+05, 3.744692016115991e+03, 2.646582115359914e+04, 1.318504505571233e+05
186, 6.700515383077217e-01, 1.201559085954784e-02, -2.447683626350038e-04, 1.513219139949983e-02, 2.142849090162091e+04, 4.527620531812147e+03, 2.997905423860629e+04, 6.229457593901953e+04
187, 6.507435809377459e-01, 9.729116975690866e-03, -1.689541068998143e-04, 1.455564667963566e-02, 4.357220448378457e+04, 4.708476440993566e+03, 3.032536860132173e+04, 7.203402862958686e+04
188, 6.585979388149935e-01, 2.856639275659097e-02, -7.330075586506027e-04, 1.478200835832517e-02, -7.991789316153247e+04, 4.018634205382977e+03, 3.383920381946993e+04, 1.078225741065360e+05
189, 6.914406051337542e-01, 1.521813650601616e-02, -3.502178923349171e-04, 1.577446098050049e-02, 1.231027513150379e+03, 5.715546110069252e+03, 2.979353844819731e+04, 5.975559086899699e+04
190, 6.408433115336621e-01, -8.305143901364878e-03, 3.690730160191519e-04, 1.426944788197431e-02, 1.649181945808315e+05, 5.321757474418959e+03, 3.038184747557429e+04, 1.707725076268933e+05
191, 5.999775325053320e-01, -1.017160259890958e-02, 4.314364701873798e-04, 1.306248863920550e-02, 1.930350528428988e+05, 6.476710228421201e+03, 3.190275476399498e+04, 1.971678428273414e+05
192, 5.887615421182162e-01, 6.916094978191102e-03, -6.459168903419884e-05, 1.272547436647257e-02, 7.414925312106014e+04, 8.639585984367150e+03, 3.678265696502792e+04, 9.850569476932783e+04
193, 5.684052132177062e-01, 5.721124610699631e-03, -2.369372756432515e-05, 1.213276398597260e-02, 9.450942830516974e+04, 1.180561165171431e+04, 3.967815524793513e+04, 1.146182590365311e+05
194, 5.775198497809690e-01, 2.398472269050228e-02, -5.556184468581960e-04, 1.239029566754518e-02, -3.456656437501269e+04, 9.531255184949961e+03, 3.750232572393899e+04, 8.700755960697145e+04
195, 5.571517167784684e-01, 2.232509760011300e-02, -4.983320495517746e-04, 1.179947097380844e-02, -1.921806910688586e+04, 1.328848007681698e+04, 4.218800168692893e+04, 9.042115728731726e+04
196, 5.979434802714312e-01, 2.520096263523507e-02, -6.013080220084904e-04, 1.298672581493678e-02, -6.113618402895652e+04, 1.199990747103246e+04, 3.660939147750795e+04, 1.034885407052804e+05
197, 7.026726080514140e-01, 3.308542526992195e-02, -8.943540057779364e-04, 1.610658236935361e-02, -1.115121580963524e+05, 6.437132611262479e+03, 2.680005029396607e+04, 1.295569602972603e+05
198, 5.593112273895584e-01, -1.249963127585487e-02, 5.040051566786412e-04, 1.187781475708143e-02, 2.294383078943362e+05, 9.105089274107555e+03, 3.749676247619568e+04, 2.327461192207819e+05
199, 5.187648784930818e-01, -1.486128041732897e-02, 5.739126749533568e-04, 1.071262525851690e-02, 2.711352023719684e+05, 1.210056114674970e+04, 4.586494038413031e+04, 2.747968638475284e+05
200, 5.076921547559540e-01, 2.218801406125352e-03, 9.153582912850103e-05, 1.038865412943587e-02, 1.396606696964546e+05, 2.016511786773577e+04, 5.662498958319356e+04, 1.646351866644465e+05
201, 4.873986128046545e-01, 1.181380042102880e-03, 1.246333376343807e-04, 9.813958288074220e-03, 1.581638504769422e+05, 2.222423145909549e+04, 6.585204231035351e+04, 1.892763744488352e+05
202, 4.966195398807023e-01, 1.934524399983409e-02, -3.871894665127112e-04, 1.006746109300209e-02, -1.430222771288820e+03, 3.068581986966143e+04, 6.276780176593058e+04, 1.295786554530644e+05
203, 4.763432282635650e-01, 1.825409445344848e-02, -3.485081493270990e-04, 9.495688481928737e-03, 7.606944651757232e+03, 3.165837013809065e+04, 7.355910334821830e+04, 1.490712507812962e+05
204, 4.860579916766217e-01, 3.670967178919289e-02, -8.680415907065038e-04, 9.763569064126293e-03, -1.512138509986271e+05, 4.028668426091103e+04, 6.105414926985891e+04, 2.271186728936096e+05
205, 5.169177959553387e-01, 1.994416739579059e-02, -4.126091288747553e-04, 1.064432730622778e-02, -7.005015696843134e+03, 2.531661519877603e+04, 5.320072294757840e+04, 1.112023179269777e+05
206, 4.659124016534861e-01, 3.584604646426498e-02, -8.313592342920118e-04, 9.197783150914707e-03, -1.539677618426199e+05, 4.120124336275844e+04, 7.028431368160727e+04, 2.405212664020278e+05
207, 5.073803465083232e-01, 3.694918486074806e-02, -8.881707767418810e-04, 1.036723760238418e-02, -1.451625752327934e+05, 3.570932408736749e+04, 5.211692201150570e+04, 2.087566482857394e+05
208, 4.255042765684639e-01, 3.276162929600352e-02, -7.223651159799495e-04, 8.078224191460863e-03, -1.280955181103679e+05, 3.647385853210129e+04, 8.976767528766587e+04, 2.435488079106489e+05
209, 4.782031518369652e-01, -1.692781207879532e-02, 6.312180875890084e-04, 9.563723136458379e-03, 3.270398716544159e+05, 1.460274750281219e+04, 5.817712889022617e+04, 3.333995648643899e+05
210, 4.377615374937120e-01, -1.892006914163759e-02, 6.810512296394757e-04, 8.436988550680459e-03, 4.025247794834153e+05, 1.662541105966612e+04, 7.090687505873242e+04, 4.111319280623037e+05
211, 7.438008627969315e-01, 2.909148469479517e-02, -7.982088280061509e-04, 1.736057247375548e-02, -9.262353906481822e+04, 5.250513045920698e+03, 2.490318363300308e+04, 1.098180508696632e+05
212, 3.771599118606886e-01, -2.142633809936826e-02, 7.299477299675182e-04, 6.790367689086328e-03, 5.508413820272511e+05, 1.944677496437802e+04, 9.149975938138540e+04, 5.620222880659726e+05
213, 6.218950466927666e-01, 4.341496251921977e-02, -1.149524973089740e-03, 1.368558182378594e-02, -1.783185379457152e+05, 1.043856179411036e+04, 3.074347277774811e+04, 1.985192362869025e+05
214, 6.296680154454125e-01, 2.448689621384141e-02, -5.966340300214484e-04, 1.392248170042579e-02, -5.638298502021619e+04, 7.884445411832617e+03, 3.396467528350721e+04, 9.351309685169546e+04
215, 5.814681894526672e-01, 4.440140435257908e-02, -1.150366027585919e-03, 1.249793706081492e-02, -1.862824916349888e+05, 1.248522566742893e+04, 3.273189766892964e+04, 2.092704325547471e+05
216, 3.312274428823589e-01, 4.612388401768835e-02, -1.002042880383624e-03, 5.560927713613757e-03, -4.409629400840331e+05, 5.670865330005618e+04, 9.919846800629472e+04, 5.357596094151197e+05
217, 2.710279687247303e-01, 4.299516087250381e-02, -8.620336928851356e-04, 4.053281242450740e-03, -5.712815126462653e+05, 6.747630269496806e+04, 1.127032088617515e+05, 6.773622367761933e+05
218, 5.390458141137325e-01, 5.238412209890266e-02, -1.348804132739356e-03, 1.126793227562665e-02, -2.554054431133971e+05, 2.673926880796269e+04, 3.295427719281197e+04, 2.897405322118220e+05
219, 6.114472136003947e-01, 1.036084648591465e-02, -1.729175907893039e-04, 1.338982552015476e-02, 4.395566789670298e+04, 8.403396937902284e+03, 3.399141708468563e+04, 7.671785784306165e+04
220, 5.481463954856952e-01, 4.392423442677627e-03, 2.014342879166230e-05, 1.154678308902646e-02, 1.102549590518705e+05, 1.280438989126704e+04, 4.329187847818861e+04, 1.303585839076452e+05
221, 4.369713804686246e-01, 6.210763805663357e-02, -1.530738686098474e-03, 8.389042620412610e-03, -4.373471014405045e+05, 4.966174550397645e+04, 4.658857862561508e+04, 4.958423132767244e+05
222, 4.776659882638217e-01, 5.502693667247634e-02, -1.373145787775951e-03, 9.523337312051986e-03, -3.107378711927918e+05, 4.569791149516900e+04, 4.871598688170020e+04, 3.695124581009566e+05
223, 4.672216525495523e-01, 6.845356716443952e-05, 1.587946492315830e-04, 9.247062823849203e-03, 1.812953416569839e+05, 2.261010313670000e+04, 7.536864579766082e+04, 2.188669367486382e+05
224, 7.838723347810934e-01, 2.240252159318650e-02, -6.165189401077102e-04, 1.859677942529934e-02, -6.400697088845749e+04, 5.421339289482936e+03, 2.080214689510235e+04, 8.093952999583066e+04
225, 5.279391447584201e-01, 3.224431495559372e-03, 5.851688392580658e-05, 1.096627441926147e-02, 1.249004314480848e+05, 1.643635157006014e+04, 4.884669834197891e+04, 1.459741633969370e+05
226, 2.240945376211064e-01, -9.587620107521327e-03, 3.476160473163747e-04, 2.959243531102784e-03, 7.342744908554680e+05, 3.980416921534836e+04, 2.191564510722131e+05, 8.212230073647478e+05
227, 4.471002579484077e-01, -9.166531062627051e-04, 1.882221894674446e-04, 8.686502451385828e-03, 2.084501982864430e+05, 2.390360122406700e+04, 8.427412166449218e+04, 2.499319043591464e+05
228, 3.661288363428088e-01, -4.394735173894497e-03, 2.803978211221121e-04, 6.487471635592382e-03, 3.372727347007589e+05, 2.939299712892594e+04, 1.221005132706238e+05, 3.929682864699134e+05
229, 1.546440068688796e-01, -2.520108374904741e-02, 5.610795286549229e-04, 1.502866553402497e-03, 1.813943688908749e+06, -1.256735025854731e+03, 1.800158548278260e+05, 1.850560836884305e+06
230, 1.882221368384374e-01, 3.826074070520234e-02, -6.495403979354590e-04, 2.165147524736173e-03, -9.022696195236826e+05, 8.528477225178515e+04, 1.210222078705723e+05, 1.016783740972723e+06
231, 1.543914041473108e-01, 4.912107037328611e-02, -7.958412640289342e-04, 1.491274931390938e-03, -1.698635030924576e+06, 6.175906866248511e+04, -8.477073274794275e+04, 1.768539424039915e+06
232, 5.370928292370210e-01, 2.057266701478238e-02, -4.391721703628803e-04, 1.122175514854943e-02, -1.234349217005874e+04, 1.855647741525751e+04, 4.614152274770028e+04, 9.731890158792197e+04
233, 1.206636050096953e-01, -1.834415101746128e-02, 3.565572438661489e-04, 8.790526692123012e-04, 1.935960135234986e+06, 1.102889228562782e+04, 2.998322930661473e+05, 2.016174076299906e+06
234, 8.631313342996610e-02, 1.043432807548696e-03, 3.739466585122872e-05, 3.438487786574030e-04, 5.675260282691498e+05, 1.219142969135090e+05, 6.499556216128229e+05, 1.374168495995384e+06
235, 1.106095889232147e-01, 3.867169228305643e-02, -4.837818698946969e-04, 7.198916328185493e-04, -2.088298675165985e+06, 9.877420749717089e+04, -8.966067580569137e+04, 2.194411980742053e+06
236, 3.368165190893936e-01, -2.303432684118937e-02, 7.504084769760524e-04, 5.728787844787150e-03, 6.774617012762278e+05, 2.126947296138431e+04, 1.059764731158021e+05, 6.895739930689505e+05
237, 4.563613096953463e-01, 1.708446983760898e-02, -3.085430444965740e-04, 8.936779215979912e-03, 2.234817741601790e+04, 3.169751270362856e+04, 8.369450432357387e+04, 1.676499039253977e+05
238, 4.456318242602638e-01, 3.339027725608967e-02, -7.511667023081620e-04, 8.633564765112876e-03, -1.375149737483118e+05, 3.723370434991035e+04, 7.949295730887164e+04, 2.362490667577682e+05
239, 3.167674560681186e-01, -2.377538496304620e-02, 7.553418484497435e-04, 5.213653558989000e-03, 7.498295069867000e+05, 2.245262259401910e+04, 1.135008821662989e+05, 7.619756774063826e+05
240, 7.729445970657427e-02, -1.752507912063822e-02, 2.007012799224867e-04, 2.530240830605202e-04, 3.122105792896661e+06, -5.049953860571273e+04, 3.471670702780134e+05, 3.247695257905051e+06
241, 7.252862014581525e-02, 3.083776928798524e-02, -2.318953609183104e-04, 2.104516298478693e-04, -3.118942707787651e+06, 1.447322891427930e+05, -1.508461044656562e+05, 3.277589460948211e+06
242, 6.994351787468997e-02, 1.216950509333263e-02, -5.324976253180367e-05, 1.569007572266955e-04, -9.837246411628083e+05, 6.454908499799105e+04, 5.149751027849642e+05, 1.469583352829156e+06
243, 3.053917006442187e-01, -6.863396962825593e-03, 3.287665777600187e-04, 4.915166099838720e-03, 4.715870657180219e+05, 3.402828588261933e+04, 1.551881749100318e+05, 5.364617081755908e+05
244, 2.497228322075748e-02, 2.402640398407415e-03, 1.559338717464058e-06, -1.178306494401689e-05, 4.917016819138687e+04, -1.032866145818992e+04, -1.324605720694608e+05, 2.715203921283715e+05
245, 4.989474703054439e-01, 5.518994296698037e-02, -1.395746488062172e-03, 1.012367599484477e-02, -2.920117973245600e+05, 4.294641689458903e+04, 4.380400774118968e+04, 3.462256051328991e+05
246, 7.121518751321776e-01, 1.461646533901541e-02, -3.415870427946171e-04, 1.640184439986482e-02, -1.797700402335383e+03, 4.915076000372543e+03, 2.832239812744875e+04, 5.704116329276256e+04
247, 2.763702678740911e-01, -2.506910559727334e-02, 7.516397431671953e-04, 4.205102783536896e-03, 9.206866319486201e+05, 2.404653594499571e+04, 1.295516743757853e+05, 9.333263132986590e+05
248, 8.873382268339092e-01, 6.886167292710309e-03, -1.869438759818899e-04, 2.184040114452190e-02, -6.345647607467901e+03, -2.541473787437203e+03, 1.267754626264488e+04, 2.563888561187892e+04
249, 9.962521157247479e-02, 1.917857731232105e-02, -1.777972534548180e-04, 5.357885025183799e-04, -9.711319983506082e+05, 1.986410590744981e+05, 3.796991109816753e+05, 1.394652166455414e+06
250, 2.557921534027766e-01, -2.522121441210354e-02, 7.326378599801204e-04, 3.708359924271443e-03, 1.020500440880098e+06, 2.472737819506170e+04, 1.390835131726004e+05, 1.033895974900217e+06
251, 7.326438557664573e-01, 1.394206661633922e-02, -3.306609243589381e-04, 1.702609054292795e-02, -2.455642800922811e+03, 3.753366135954798e+03, 2.681050271376793e+04, 5.397929246514868e+04
252, 2.442929977404233e-01, -8.841725140397350e-03, 3.454801968013589e-04, 3.425611115019340e-03, 6.500796251363545e+05, 3.905498968345219e+04, 2.023642259705286e+05, 7.329094247865536e+05
253, 3.995007411905992e-02, -1.161067152476499e-02, 3.001606155017870e-05, -1.143694023760588e-06, 1.303408591445158e+06, 3.986861578661086e+05, 3.252229019166668e+05, 1.114272150574350e+06
254, 8.043751021012061e-01, -8.367426452552760e-04, 9.246052653463961e-05, 1.924364370541287e-02, 5.851607952618713e+04, -5.631187108126496e+02, 1.705779075013244e+04, 6.822187746923954e+04
255, 3.728297782793868e-02, 1.860236346633086e-02, -2.770089108745902e-05, -5.642609327051521e-06, -1.280511086206065e+06, -2.800468260449521e+05, 1.298039798081910e+05, 1.033598098177384e+06
256, 2.774419965060439e-01, 6.094102064218159e-02, -1.301119981880391e-03, 4.212120510507493e-03, -8.877477829529470e+05, 5.519890183263908e+04, 2.555768735284812e+04, 9.443311028868165e+05
257, 5.272317843002303e-01, 3.640454922558223e-02, -8.850387886665504e-04, 1.093359645087825e-02, -1.371432343462134e+05, 2.827415507070334e+04, 4.511110695284005e+04, 1.884222932764331e+05
258, 5.083404437933308e-02, 4.581799145039219e-03, -2.579641618495360e-07, 1.665181449780187e-05, 8.154997177008036e+04, 5.934235509480540e+04, 1.425429404971704e+05, 2.859495371227508e+05
259, 2.490426772084042e-01, 4.254632813443385e-02, -8.258469990175672e-04, 3.527843973065465e-03, -6.372327850536563e+05, 7.204823132248611e+04, 1.172374896102046e+05, 7.470328480542104e+05
260, 2.163684834356261e-01, -2.701678984392513e-02, 7.191454200288264e-04, 2.797278668942525e-03, 1.282362008387247e+06, 2.537524778708911e+04, 1.548678913431890e+05, 1.294585636951230e+06
261, 6.319626892584053e-01, 8.008730691405260e-03, -1.110483033081141e-04, 1.399766363829557e-02, 5.475059151718975e+04, 5.433276827867176e+03, 3.239783086167934e+04, 8.142895864699243e+04
262, 3.114372341830103e-01, 4.471426559536108e-02, -9.469310773511971e-04, 5.055377401892440e-03, -4.735428006077657e+05, 5.885176055098422e+04, 1.047946659193233e+05, 5.721640121258835e+05
263, 2.356884140172994e-01, 5.867724352032774e-02, -1.175831292660212e-03, 3.221150079277614e-03, -1.095135839650644e+06, 5.652891510797472e+04, -2.371036443849698e+02, 1.151664852387960e+06
264, 3.383946237768103e-01, 6.335780188401564e-02, -1.450007659987047e-03, 5.746541201263965e-03, -6.824872636838898e+05, 5.227690910388003e+04, 4.275923757928603e+04, 7.397241372335657e+05
265, 1.951580191969650e-01, -2.592057064462928e-02, 6.595148064260255e-04, 2.330826336767205e-03, 1.418825666533285e+06, 2.456177328788514e+04, 1.710630237859113e+05, 1.435626008553389e+06
266, 2.079444635836974e-01, 4.033501435518871e-02, -7.222721166572703e-04, 2.590468746273617e-03, -8.039963817159534e+05, 7.992535669494163e+04, 1.189366560072665e+05, 9.153695167549016e+05
267, 9.479046644594272e-01, 3.378635120195869e-03, -1.066688091831352e-04, 2.376495797764354e-02, -8.487576515147161e+03, -5.890831421727862e+03, 6.535351284798657e+03, 1.332615288607613e+04
268, 3.561712737032467e-01, 6.625002029597356e-02, -1.548319295947504e-03, 6.210752461803180e-03, -6.721184450162157e+05, 5.187127035371750e+04, 4.037879778522026e+04, 7.284798536704744e+05
269, 1.945815263806467e-01, 5.549283362653774e-02, -1.021949506384918e-03, 2.307681162348584e-03, -1.373123726792659e+06, 5.581002413450327e+04, -3.972307403962979e+04, 1.431140578344211e+06
270, 2.977936022254905e-01, 6.155964954676932e-02, -1.347624416724833e-03, 4.714028845624003e-03, -8.055337424517401e+05, 5.499382651188536e+04, 3.469489396892877e+04, 8.633207049622452e+05
271, 9.078617974799221e-01, 5.712727251364192e-03, -1.602771005486484e-04, 2.249047569672583e-02, -6.711420683637635e+03, -3.667744820168070e+03, 1.067857405187665e+04, 2.157293994539271e+04
272, 1.825817478858354e-01, -9.081920080943877e-03, 2.992483187605809e-04, 2.051352531089039e-03, 9.032438660497590e+05, 2.937517580652910e+04, 2.658322633743465e+05, 1.022894743749488e+06
273, 5.473157746337776e-01, 3.608061137762174e-02, -8.880400618519854e-04, 1.151053337894547e-02, -1.311771916177006e+05, 1.934526659827840e+04, 4.043283788178163e+04, 1.708691544547432e+05
274, 7.530731199350024e-01, 1.315212342550739e-02, -3.161765601041704e-04, 1.765188158845948e-02, -2.267275644235899e+03, 3.540448737778991e+03, 2.553444851079670e+04, 5.139807297457330e+04
275, 3.748556788994089e-01, 4.373244423133300e-02, -9.795172611798118e-04, 6.705568871990591e-03, -3.219694728764684e+05, 4.866791289641429e+04, 9.493066952332413e+04, 4.164365495452374e+05
276, 6.131640073516742e-01, 2.950211542907557e-02, -7.353803644940099e-04, 1.343294722340197e-02, -8.873713576096609e+04, 1.277416382095982e+04, 3.671260062027784e+04, 1.252828963587114e+05
277, 1.615549999513133e-01, -8.423645556320775e-03, 2.621138865214742e-04, 1.623165278623911e-03, 1.023934609889741e+06, 3.379359623238762e+04, 3.058312338644150e+05, 1.163834267133655e+06
278, 1.684665401645142e-01, 3.589271038332653e-02, -5.702831516702728e-04, 1.758245643698229e-03, -1.015336191884671e+06, 9.401106126518110e+04, 1.253569204723592e+05, 1.137325264870334e+06
279, 8.256093260179449e-01, 2.066948758989868e-02, -5.862167519394471e-04, 1.989465082649140e-02, -5.496679174597345e+04, 1.064082110123270e+03, 1.894204113033919e+04, 6.763625147664284e+04
280, 3.972985111133601e-01, 6.550630290353825e-02, -1.579542245207547e-03, 7.305874103410898e-03, -5.493869293999290e+05, 4.879776668593653e+04, 4.273413519573612e+04, 6.042596758638202e+05
281, 6.627073154653017e-01, 4.404428775768901e-02, -1.196620139932587e-03, 1.489924876351830e-02, -1.772973242838689e+05, 9.003939635014023e+03, 2.948951839533867e+04, 1.954141441107305e+05
282, 9.271803294682477e-01, 4.615123965915967e-03, -1.353397264871394e-04, 2.310439139220861e-02, -7.394953986960737e+03, -4.650899563663422e+03, 7.635234400926158e+03, 1.551505888182067e+04
283, 5.666103340334265e-01, 3.514365040522709e-02, -8.727624506443604e-04, 1.206897359592789e-02, -1.232212507036897e+05, 1.190813329341749e+04, 3.743490804064218e+04, 1.544844321589816e+05
284, 1.494596596734322e-01, 3.329163867645742e-02, -4.877682151257244e-04, 1.387987352571865e-03, -1.123985020561969e+06, 8.780318134904787e+04, 1.513025135649324e+05, 1.248999779317435e+06
285, 4.157211643825995e-01, 4.329008384804064e-02, -1.000326309094055e-03, 7.808315242259015e-03, -2.665238314211643e+05, 4.471107920214302e+04, 8.236209649796752e+04, 3.521380827869377e+05
286, 1.420183368642128e-01, -1.083000507068134e-02, 2.778802520177620e-04, 1.250128900238707e-03, 1.283545144797400e+06, 4.106630222353317e+04, 3.297779599861544e+05, 1.406686776014552e+06
287, 7.723940120715895e-01, 1.224700988885432e-02, -2.975760988030823e-04, 1.824685005507490e-02, -2.846930599207036e+03, 4.793127581901552e+03, 2.179408184955737e+04, 4.425266662780390e+04
288, 6.445256757144796e-01, 2.467441460434685e-02, -6.098242659653569e-04, 1.436392441500695e-02, -4.034341896861672e+04, 3.280435338082794e+03, 3.486051804965263e+04, 8.224392706657904e+04
289, 7.017993879083013e-02, -4.170715885725008e-03, 5.837959440040203e-05, 1.589991007863109e-04, 1.345395559885378e+06, 2.658097830293137e+05, 6.758332980892217e+05, 1.729886712133060e+06
290, 4.338321733299005e-01, 4.597778073626665e-02, -1.087468972037646e-03, 8.304404161934779e-03, -2.904324119048405e+05, 4.421357516204321e+04, 7.385749919480224e+04, 3.657972900517577e+05
291, 8.319934002905922e-02, 1.967812476964799e-02, -1.525244176210827e-04, 3.183671857029484e-04, -1.578325333893785e+06, 2.259808914087738e+05, 3.649148228151680e+05, 1.946322754916684e+06
