"PointID","x","y","Displacement_x","Displacement_y","Sxx","Syy","Sxy","Von_Mises_Stress"
0, 1.000080000000000e+00, 1.257210000000000e-03, -6.634545781187935e-05, 2.543162126624635e-02, -1.056698719433800e+04, -1.075948581095102e+04, 1.359528296224644e+03, 2.725862151749394e+03
1, 9.798550000000000e-01, 5.416750000000000e-03, -1.886943337054723e-04, 2.478311879255187e-02, -1.327820371888674e+04, -8.175790770306017e+03, 1.602237543934398e+03, 6.025220202334182e+03
2, 9.596080000000000e-01, 9.461560000000001e-03, -3.069776622837148e-04, 2.413453113844353e-02, -1.671963455784725e+04, -4.475045145791581e+03, 5.143110325110312e+03, 1.599175741233124e+04
3, 9.393450000000000e-01, 1.339430000000000e-02, -4.210416897446385e-04, 2.348676409321042e-02, -2.221018527511394e+04, -2.367978660442356e+03, 8.153940089512619e+03, 2.568384938580588e+04
4, 9.190670000000000e-01, 1.721730000000000e-02, -5.308916160100776e-04, 2.284041883121093e-02, -3.592923465083570e+04, -2.108713893313937e+03, 1.135457069615439e+04, 4.073736279002155e+04
5, 8.987730000000000e-01, 2.093270000000000e-02, -6.366198394383306e-04, 2.219560384027450e-02, -4.373184399481723e+04, -1.392338680910056e+03, 1.331075776784780e+04, 5.001338620453185e+04
6, 8.784640000000000e-01, 2.454230000000000e-02, -7.383322062644529e-04, 2.155257580718235e-02, -5.095159267024964e+04, -1.512355320667532e+03, 1.456464696521886e+04, 5.738252307623070e+04
7, 8.581410000000000e-01, 2.804760000000000e-02, -8.361398400196265e-04, 2.091140910507576e-02, -5.906765186796290e+04, -2.092084304126311e+02, 1.547457061821588e+04, 6.649936621625732e+04
8, 8.378050000000000e-01, 3.144970000000000e-02, -9.299195770452337e-04, 2.027249741298421e-02, -8.728593284848779e+04, 2.800358495416333e+03, 1.665904491615135e+04, 9.605016917305335e+04
9, 8.174540000000000e-01, 3.474970000000000e-02, -1.019157372791484e-03, 1.963550284202158e-02, -9.984396633717242e+04, 2.549147303309186e+03, 2.422261914183214e+04, 1.132752878316961e+05
10, 7.970910000000000e-01, 3.794800000000000e-02, -1.104704490433411e-03, 1.900120624542207e-02, -1.077080762276536e+05, 3.328917661913172e+03, 2.160516022881522e+04, 1.191484192345111e+05
11, 7.767150000000000e-01, 4.104500000000000e-02, -1.186154006635850e-03, 1.836979065436282e-02, -1.301285405532139e+05, 3.833418444025933e+03, 2.407181225737100e+04, 1.423503250428135e+05
12, 7.563270000000000e-01, 4.404060000000000e-02, -1.263502571895541e-03, 1.774091926497193e-02, -1.474187473163288e+05, 5.396336006900476e+03, 2.469107643859873e+04, 1.605959112613780e+05
13, 7.359270000000000e-01, 4.693450000000000e-02, -1.336761461009163e-03, 1.711503988015013e-02, -1.619689800377577e+05, 5.541839754691035e+03, 2.628920718572475e+04, 1.755686885676204e+05
14, 7.155150000000000e-01, 4.972610000000000e-02, -1.406119432182588e-03, 1.649227941174912e-02, -1.748694053908035e+05, 5.846899387720414e+03, 2.743112285318620e+04, 1.888603950455222e+05
15, 6.950930000000000e-01, 5.241420000000000e-02, -1.471528190608344e-03, 1.587272322615412e-02, -1.864388150756333e+05, 7.614828433456712e+03, 2.769216210846958e+04, 2.018024775073885e+05
16, 6.746590000000000e-01, 5.499760000000000e-02, -1.533112467417478e-03, 1.525655881818713e-02, -2.210935579925716e+05, 1.275902079653857e+04, 2.642334598341476e+04, 2.397494555951148e+05
17, 6.542150000000000e-01, 5.747460000000000e-02, -1.589815991100290e-03, 1.464349598082322e-02, -2.369822149792007e+05, 1.099480716271128e+04, 3.433157206293052e+04, 2.573076580119975e+05
18, 6.337610000000000e-01, 5.984290000000000e-02, -1.642942457528932e-03, 1.403423552306253e-02, -2.427470006132432e+05, 1.073250984640474e+04, 2.984092510961100e+04, 2.604108013667106e+05
19, 6.132970000000000e-01, 6.210030000000000e-02, -1.691852802871035e-03, 1.342885379422512e-02, -2.644505871622943e+05, 9.931019603398512e+03, 3.087343141649966e+04, 2.812435620614994e+05
20, 5.928230000000000e-01, 6.424370000000000e-02, -1.736524819749626e-03, 1.282675435916929e-02, -2.738445299987104e+05, 1.045793766439317e+04, 3.297562011211940e+04, 2.918517760892424e+05
21, 5.723410000000000e-01, 6.627000000000000e-02, -1.777072890404288e-03, 1.222896928003817e-02, -3.047588933609209e+05, 1.442387767065730e+04, 2.763921951976195e+04, 3.239341710070787e+05
22, 5.518500000000000e-01, 6.817540000000000e-02, -1.812637682593670e-03, 1.163530018239159e-02, -3.292125961505686e+05, 2.177774203580511e+04, 2.808533704719262e+04, 3.554565544878904e+05
23, 5.313510000000000e-01, 6.995570000000000e-02, -1.843800643818896e-03, 1.104622396056720e-02, -3.453936987931778e+05, 3.548562115598776e+04, 2.986078571678001e+04, 3.855330367937781e+05
24, 5.108440000000000e-01, 7.160630000000000e-02, -1.870374143237876e-03, 1.046103205194462e-02, -3.686981488939810e+05, 4.413851461897532e+04, 3.445410010702300e+04, 4.185480268705719e+05
25, 4.903300000000000e-01, 7.312210000000000e-02, -1.891927115544466e-03, 9.879688391540293e-03, -3.959686519947966e+05, 4.482647790420851e+04, 3.986545245421995e+04, 4.479479475789564e+05
26, 4.698100000000000e-01, 7.449720000000000e-02, -1.908374233322593e-03, 9.302728816222395e-03, -4.233579499074693e+05, 4.836575074678367e+04, 4.119990971079742e+04, 4.788663487860206e+05
27, 4.492840000000000e-01, 7.572540000000000e-02, -1.919575008281524e-03, 8.730999263754282e-03, -4.942771995186366e+05, 5.341106117424451e+04, 3.503093290334818e+04, 5.521513342744985e+05
28, 4.287520000000000e-01, 7.679970000000000e-02, -1.923868017771362e-03, 8.163842798456248e-03, -5.392016341210860e+05, 5.377858371580609e+04, 3.837351367189479e+04, 5.979261199780424e+05
29, 4.082160000000000e-01, 7.771220000000000e-02, -1.922513817948406e-03, 7.603365940317105e-03, -6.087015701331992e+05, 5.435161379620478e+04, 2.610474917917676e+04, 6.651055227839798e+05
30, 3.875760000000000e-01, 7.844390000000000e-02, -1.913594873960829e-03, 7.046192111978595e-03, -6.596295751414485e+05, 5.612827279889592e+04, 3.436808524096296e+04, 7.190507339685523e+05
31, 3.668650000000000e-01, 7.894160000000000e-02, -1.896920157351043e-03, 6.495032846942794e-03, -7.356108341847488e+05, 5.660527190682278e+04, 1.689927383006970e+04, 7.929367569830691e+05
32, 3.461490000000000e-01, 7.918989999999999e-02, -1.870902355129211e-03, 5.951497633840896e-03, -8.058975685309944e+05, 5.517404133253579e+04, 2.071182694187368e+04, 8.620674198773853e+05
33, 3.254310000000000e-01, 7.917720000000000e-02, -1.836123884627047e-03, 5.416875428714278e-03, -8.746717907461150e+05, 5.246168728642786e+04, 7.782012815265933e+03, 9.272641074594376e+05
34, 3.047140000000000e-01, 7.889030000000000e-02, -1.792018133330207e-03, 4.892245572427273e-03, -9.579475095727722e+05, 5.134096105024360e+04, -5.841533824521503e+03, 1.009356087316185e+06
35, 2.840020000000000e-01, 7.831420000000000e-02, -1.738151611702118e-03, 4.378621075210593e-03, -1.056661431470071e+06, 4.802446438911972e+04, -2.370940392427618e+04, 1.105703157202692e+06
36, 2.632960000000000e-01, 7.743220000000001e-02, -1.674006339191566e-03, 3.877099565636124e-03, -1.165017965007324e+06, 4.529798977539483e+04, -4.248469402129737e+04, 1.213294897090538e+06
37, 2.426010000000000e-01, 7.622460000000000e-02, -1.599247476191373e-03, 3.389334880139828e-03, -1.291992042381713e+06, 4.469674828955017e+04, -6.803694584032983e+04, 1.343597047891713e+06
38, 2.219220000000000e-01, 7.466879999999999e-02, -1.513206633645742e-03, 2.916763489821385e-03, -1.440023687726301e+06, 4.185481011675735e+04, -9.965888061421904e+04, 1.495222877135952e+06
39, 2.012640000000000e-01, 7.273780000000001e-02, -1.414922221439741e-03, 2.461864021284049e-03, -1.612430894740054e+06, 3.848207122408081e+04, -1.329311990000833e+05, 1.672183134665248e+06
40, 1.806310000000000e-01, 7.039890000000000e-02, -1.304120695190757e-03, 2.026888665877961e-03, -1.814881492281875e+06, 3.220957837733793e+04, -1.744911544341876e+05, 1.879769686746783e+06
41, 1.600330000000000e-01, 6.761140000000000e-02, -1.179002595149364e-03, 1.615361267283959e-03, -2.054327793955241e+06, 2.373863402018593e+04, -2.114345840200041e+05, 2.120655184691137e+06
42, 1.394760000000000e-01, 6.432340000000000e-02, -1.039228723416751e-03, 1.230889587532215e-03, -2.286586083774548e+06, 2.003591475217000e+04, -2.463592701767174e+05, 2.358659917006987e+06
43, 1.189730000000000e-01, 6.046550000000000e-02, -8.866509677589450e-04, 8.770696067470844e-04, -2.586942203270614e+06, -2.549441073250500e+02, -3.511176346931820e+05, 2.680314412580700e+06
44, 9.853700000000000e-02, 5.594070000000000e-02, -7.144662803502183e-04, 5.653595062609747e-04, -3.153987248685173e+06, -2.571890828217212e+04, -5.052281586855837e+05, 3.287413083091787e+06
45, 7.818849999999999e-02, 5.060340000000000e-02, -5.186907469560234e-04, 3.052907857466942e-04, -3.969246395998447e+06, -6.802685412244778e+04, -6.746813483393382e+05, 4.127989050506691e+06
46, 5.795880000000000e-02, 4.421300000000000e-02, -2.902105711638083e-04, 1.115183037817198e-04, -5.450931335169259e+06, -1.968504084969618e+05, -7.034005670322469e+05, 5.439159476870188e+06
47, 3.790390000000000e-02, 3.630690000000000e-02, 0.000000000000000e+00, 0.000000000000000e+00, -3.934598516855098e+06, -5.796821433944466e+05, 1.479729216981961e+05, 3.367944152615653e+06
48, 1.815790000000000e-02, 2.570150000000000e-02, 0.000000000000000e+00, 0.000000000000000e+00, -5.421862458325416e+05, 7.912882174519623e+04, 1.700411409018293e+04, 6.222451066766994e+05
49, 0.000000000000000e+00, 0.000000000000000e+00, 0.000000000000000e+00, 0.000000000000000e+00, 3.680853142227807e+04, -1.846110458491190e+04, -1.197158507101327e+05, 2.457280454269931e+05
50, 2.265850000000000e-02, -2.172400000000000e-02, 0.000000000000000e+00, 0.000000000000000e+00, 5.624892894898537e+05, -4.392626201846339e+04, 1.417904119389026e+05, 6.694459685309570e+05
51, 4.372870000000000e-02, -2.856010000000000e-02, 0.000000000000000e+00, 0.000000000000000e+00, 3.968523950425894e+06, 7.727609949526326e+05, 7.612192986892579e+05, 3.539875725271024e+06
52, 6.449020000000000e-02, -3.290520000000000e-02, 2.704127121653444e-04, 1.587328371764442e-04, 5.728917060677827e+06, 1.897619055003813e+05, 2.064334884530811e+05, 5.554520589011126e+06
53, 8.507679999999999e-02, -3.594290000000000e-02, 4.596948351733922e-04, 3.822606554536038e-04, 4.038987185829283e+06, 1.533635718857675e+04, 2.255072381859395e+04, 4.023903593701023e+06
54, 1.055450000000000e-01, -3.813560000000000e-02, 6.076436999831482e-04, 6.682370556950273e-04, 3.180988401029762e+06, 1.136954809884642e+04, 7.300392185118559e+04, 3.172979981543803e+06
55, 1.259250000000000e-01, -3.972410000000000e-02, 7.244883557541037e-04, 1.000855020800000e-03, 2.770547926783487e+06, -3.236727036984593e+04, 1.376387511559801e+05, 2.816400416438013e+06
56, 1.462380000000000e-01, -4.085400000000000e-02, 8.283028003114917e-04, 1.364596743876045e-03, 2.490818147767656e+06, -2.313606245147277e+03, 8.362284383959931e+04, 2.498735092584695e+06
57, 1.664980000000000e-01, -4.162220000000000e-02, 9.109160364272570e-04, 1.755249338554329e-03, 2.107890701972901e+06, 1.507262135464736e+03, 1.015126344887216e+05, 2.116145187709188e+06
58, 1.867150000000000e-01, -4.209820000000000e-02, 9.789414205166901e-04, 2.169460427112759e-03, 1.864522071579915e+06, 7.960480525822126e+03, 1.112363642867437e+05, 1.869843591409784e+06
59, 2.069000000000000e-01, -4.233380000000000e-02, 1.034971276297840e-03, 2.603402215881370e-03, 1.675541499977289e+06, 1.365321322021965e+04, 1.140211177704054e+05, 1.677461158671281e+06
60, 2.270570000000000e-01, -4.236980000000000e-02, 1.080986599966602e-03, 3.054482423462185e-03, 1.504047061535679e+06, 1.061130469927417e+04, 1.073292777360093e+05, 1.508783833169901e+06
61, 2.471950000000000e-01, -4.223880000000000e-02, 1.117217215230598e-03, 3.520796925236256e-03, 1.342596468551458e+06, 1.354924330458392e+04, 1.067519063072432e+05, 1.346087071826090e+06
62, 2.673160000000000e-01, -4.196780000000000e-02, 1.145097448616521e-03, 4.000245061382327e-03, 1.208140823483539e+06, 1.668507869525566e+04, 1.052215789092896e+05, 1.209897976881381e+06
63, 2.874270000000000e-01, -4.157950000000000e-02, 1.166007553157561e-03, 4.491632140080248e-03, 1.095053649229658e+06, 1.686746528773793e+04, 1.002989512482309e+05, 1.096688180719214e+06
64, 3.075300000000000e-01, -4.109350000000000e-02, 1.180585182825985e-03, 4.993772307139491e-03, 9.914540911748555e+05, 1.705655330236753e+04, 9.478391606437761e+04, 9.926663713403222e+05
65, 3.276300000000000e-01, -4.052670000000000e-02, 1.189554768996588e-03, 5.505720827086983e-03, 8.983152149479868e+05, 1.640097665795191e+04, 8.964355458103676e+04, 8.999536605905803e+05
66, 3.477290000000000e-01, -3.989380000000000e-02, 1.193588932560658e-03, 6.026605026141663e-03, 8.142083018425474e+05, 1.620529661599857e+04, 8.460044405121650e+04, 8.157436710666257e+05
67, 3.678290000000000e-01, -3.920820000000000e-02, 1.193257752174838e-03, 6.555659375197228e-03, 7.371154426069616e+05, 1.589574568022181e+04, 7.908598279375033e+04, 7.383604959184313e+05
68, 3.879340000000000e-01, -3.848140000000000e-02, 1.189072305097137e-03, 7.092244953383592e-03, 6.666888422940724e+05, 1.516378204623681e+04, 7.360406021245688e+04, 6.679484522401274e+05
69, 4.081110000000000e-01, -3.771960000000000e-02, 1.181452208681074e-03, 7.637511332097551e-03, 6.026774157029050e+05, 1.436281047449207e+04, 6.830695843799369e+04, 6.039680761507704e+05
70, 4.283910000000000e-01, -3.689040000000000e-02, 1.169720337519083e-03, 8.191751490688334e-03, 5.449239298301741e+05, 1.362084172789530e+04, 6.327332290746117e+04, 5.461657486459812e+05
71, 4.486760000000000e-01, -3.599200000000000e-02, 1.153972977741374e-03, 8.751808276617104e-03, 4.937384234411032e+05, 1.287064004514820e+04, 5.837860566880360e+04, 4.948394401292946e+05
72, 4.689660000000000e-01, -3.503220000000000e-02, 1.134619822706029e-03, 9.317233940306946e-03, 4.484149581788080e+05, 1.205272514608570e+04, 5.376883543770791e+04, 4.494177890055233e+05
73, 4.892610000000000e-01, -3.401800000000000e-02, 1.112033906195362e-03, 9.887662281523114e-03, 4.086274625549297e+05, 1.134750505029424e+04, 4.926793769413492e+04, 4.093173382272215e+05
74, 5.095640000000000e-01, -3.295580000000000e-02, 1.086578372858869e-03, 1.046288004507981e-02, 3.751266801158902e+05, 1.040241539539467e+04, 4.480974644204127e+04, 3.755734851939181e+05
75, 5.298740000000000e-01, -3.185120000000000e-02, 1.058602940424496e-03, 1.104261430656548e-02, 3.471094695571403e+05, 9.215759042724649e+03, 4.090081139132168e+04, 3.476545197391709e+05
76, 5.501910000000000e-01, -3.070950000000000e-02, 1.028403387448267e-03, 1.162667774301690e-02, 3.229236502717471e+05, 8.197822140188635e+03, 3.774528105641739e+04, 3.236528570261772e+05
77, 5.705160000000000e-01, -2.953530000000000e-02, 9.962270983343577e-04, 1.221496147599966e-02, 3.016172932537010e+05, 7.070303768805892e+03, 3.511169464426908e+04, 3.028023339041238e+05
78, 5.908500000000000e-01, -2.833280000000000e-02, 9.623013394976102e-04, 1.280750249516428e-02, 2.832382773160663e+05, 5.890902953720649e+03, 3.366885350721416e+04, 2.854048577926593e+05
79, 6.111930000000000e-01, -2.710560000000000e-02, 9.267441816414975e-04, 1.340425418842005e-02, 2.634532641609819e+05, 5.167038716412877e+03, 3.264074694839767e+04, 2.664084227268351e+05
80, 6.315450000000000e-01, -2.585710000000000e-02, 8.896626092884195e-04, 1.400538227052466e-02, 2.484538917949880e+05, 4.865139204045529e+03, 3.129353268736633e+04, 2.515007378538530e+05
81, 6.519070000000000e-01, -2.459010000000000e-02, 8.511235214330171e-04, 1.461055470527882e-02, 2.282311843319545e+05, 4.201229406995189e+03, 2.877350187163715e+04, 2.313030011554276e+05
82, 6.722800000000000e-01, -2.330710000000000e-02, 8.111008809903346e-04, 1.521966122846966e-02, 2.081586187000142e+05, 3.560762584053521e+03, 2.708552619286409e+04, 2.116477867680753e+05
83, 6.926620000000000e-01, -2.201020000000000e-02, 7.698209567242139e-04, 1.583263305053907e-02, 1.880927267471589e+05, 3.263106493398509e+03, 2.550687055280183e+04, 1.917404242843402e+05
84, 7.130560000000000e-01, -2.070110000000000e-02, 7.271890523547301e-04, 1.644958653456901e-02, 1.711796933861260e+05, 2.560012480032787e+03, 2.464027020700664e+04, 1.756734711115196e+05
85, 7.334610000000000e-01, -1.938120000000000e-02, 6.834479401230143e-04, 1.707025905448099e-02, 1.573086708409363e+05, 2.026961609807372e+03, 2.337261930781290e+04, 1.621651212652482e+05
86, 7.538770000000000e-01, -1.805140000000000e-02, 6.386498860801161e-04, 1.769462371560863e-02, 1.421674938535758e+05, 1.150001179927801e+03, 2.131571959387585e+04, 1.473206463710411e+05
87, 7.743050000000000e-01, -1.671250000000000e-02, 5.926943200081794e-04, 1.832254792733564e-02, 1.231401526249172e+05, -4.665159973342913e+02, 1.996984263788051e+04, 1.298991415976947e+05
88, 7.947460000000000e-01, -1.536480000000000e-02, 5.455204635259804e-04, 1.895399035691803e-02, 1.070228170638117e+05, -4.102897652689239e+01, 2.174981524641532e+04, 1.155633375338482e+05
89, 8.151990000000000e-01, -1.400830000000000e-02, 4.975278794312059e-04, 1.958896034662051e-02, 9.655398843019712e+04, -2.005140095867245e+03, 1.397044970861296e+04, 1.024431338648951e+05
90, 8.356650000000000e-01, -1.264280000000000e-02, 4.482633715900951e-04, 2.022702037153596e-02, 6.763697005061278e+04, -3.224177579222222e+03, 1.343256741261400e+04, 7.578283257173059e+04
91, 8.561440000000000e-01, -1.126750000000000e-02, 3.974793764178744e-04, 2.086805587607285e-02, 4.616452203299679e+04, -8.786856352843065e+02, 1.545949556988295e+04, 5.629429279084998e+04
92, 8.766380000000000e-01, -9.881770000000000e-03, 3.459183698536363e-04, 2.151211845313758e-02, 4.046191642548640e+04, -1.847823054379419e+03, 1.408885501490420e+04, 5.083401811167480e+04
93, 8.971450000000000e-01, -8.484230000000001e-03, 2.934012087656433e-04, 2.215886418463205e-02, 3.181330309231602e+04, -4.462524741117322e+03, 1.179711372027894e+04, 4.327381718219080e+04
94, 9.176680000000000e-01, -7.073410000000000e-03, 2.398475320370068e-04, 2.280831933276317e-02, 2.206533489823812e+04, -6.365457548396033e+03, 9.607542859965932e+03, 3.431514940034386e+04
95, 9.382060000000000e-01, -5.647530000000000e-03, 1.851734347904962e-04, 2.346023216752939e-02, 6.286511650843753e+03, -8.530717039096551e+03, 7.204420706483475e+03, 2.066796983048943e+04
96, 9.587590000000000e-01, -4.204500000000000e-03, 1.293157445055428e-04, 2.411445949480444e-02, -1.644786108290531e+03, -8.581055038872881e+03, 4.580420188951477e+03, 1.149055364666034e+04
97, 9.793290000000000e-01, -2.741940000000000e-03, 7.223475240103933e-05, 2.477054966650733e-02, -8.253828689349564e+03, -1.038100487921766e+04, 1.093986839711045e+03, 3.051574571362399e+03
98, 9.999160000000000e-01, -1.257210000000000e-03, 1.409266411771143e-05, 2.542769265704651e-02, -1.009655256604105e+04, -1.137041374277878e+04, 3.035194234770634e+02, 1.411105403331388e+03
99, 2.965208526196640e-01, -2.451291204343565e-02, 7.573845442792245e-04, 4.704286513104457e-03, 8.305068343728441e+05, 2.334238874195320e+04, 1.215069567791932e+05, 8.429532635167778e+05
100, 3.569550691458233e-01, -2.225937713288704e-02, 7.422280902448611e-04, 6.256476016659037e-03, 6.110685211867641e+05, 2.023742024083147e+04, 9.880293818170986e+04, 6.230003789873150e+05
101, 2.357521292249362e-01, -2.612922374397977e-02, 7.281766234260136e-04, 3.239105877024632e-03, 1.140751106848714e+06, 2.609725626562929e+04, 1.477056598317985e+05, 1.153135314872060e+06
102, 4.175395537093936e-01, -1.978668907414103e-02, 7.001071003757487e-04, 7.883452014149160e-03, 4.465556023345399e+05, 1.745133621668241e+04, 7.772513886065112e+04, 4.563937554833272e+05
103, 1.751367101315091e-01, -2.542483001771199e-02, 6.109038044163943e-04, 1.911021182685634e-03, 1.583724261430194e+06, 2.209019863185440e+04, 1.778102181921452e+05, 1.601613823887082e+06
104, 4.545161237720396e-01, 5.410499663149525e-02, -1.327624605307523e-03, 8.878144857214883e-03, -3.303148793054491e+05, 4.957632109103822e+04, 5.443532659136721e+04, 3.951836829413879e+05
105, 4.984928440317798e-01, -1.590850127774330e-02, 6.035444507154931e-04, 1.013859189123406e-02, 2.958363183500828e+05, 1.378344068079756e+04, 5.175275403220679e+04, 3.004450299159519e+05
106, 3.174663951753988e-01, 6.223768294924557e-02, -1.393246537615317e-03, 5.210913437492654e-03, -7.366674593145112e+05, 5.379364198154201e+04, 4.208910935057784e+04, 7.949306417328928e+05
107, 2.563717303565273e-01, 5.966322547531767e-02, -1.236160706130671e-03, 3.705996328352213e-03, -9.833785420265561e+05, 5.475022824710445e+04, 1.435568033731609e+04, 1.038525727125569e+06
108, 3.756939939814997e-01, 6.148855564182976e-02, -1.447858658961082e-03, 6.727883778637278e-03, -5.400366154534479e+05, 4.902964618727122e+04, 5.125739512542570e+04, 5.979200137339009e+05
109, 1.331764993897024e-01, 4.104774463271259e-02, -5.884912263713472e-04, 1.096135380605458e-03, -1.702111540909399e+06, 7.824510354490374e+04, -1.175404130147532e+04, 1.780511839724817e+06
110, 2.151334798234129e-01, 5.783655425665940e-02, -1.117227759878342e-03, 2.756678985326123e-03, -1.228838820586001e+06, 5.380561183033064e+04, -2.043531774642857e+04, 1.283295425400638e+06
111, 5.390439783578407e-01, -1.368921905163664e-02, 5.396392364332914e-04, 1.129585082796584e-02, 2.488191138551944e+05, 1.017602103371573e+04, 4.120455851913542e+04, 2.524713613906106e+05
112, 4.171750027518464e-01, 5.955074979533879e-02, -1.441205511252848e-03, 7.847451156765807e-03, -4.394727476472863e+05, 4.774085063467957e+04, 5.180441793349968e+04, 4.981083027019079e+05
113, 5.796418763382618e-01, -1.132888697481147e-02, 4.678248568953762e-04, 1.247062263399766e-02, 2.104719107512029e+05, 7.415669897878960e+03, 3.408438575579390e+04, 2.141934134348724e+05
114, 4.579843708690872e-01, -1.795387507594605e-02, 6.577489380292862e-04, 9.000115950723328e-03, 3.623030643507761e+05, 1.546090328449397e+04, 6.445030892716385e+04, 3.700200723965610e+05
115, 1.742940777616075e-01, 5.338799194168506e-02, -9.310563888374630e-04, 1.885677994521946e-03, -1.534984301689781e+06, 5.814617812301625e+04, -6.272375826594185e+04, 1.598061890263506e+06
116, 9.710402222757537e-02, -1.854828260839096e-02, 2.874838013094177e-04, 5.113310536632026e-04, 2.421703770870204e+06, -1.203735453558160e+04, 3.451805320650802e+05, 2.529761701101182e+06
117, 5.189774796231875e-01, 5.374676487811309e-02, -1.371761077469336e-03, 1.069573156444031e-02, -2.718251485042993e+05, 3.792210303895051e+04, 3.774813262128559e+04, 3.188150653657602e+05
118, 6.203290590016649e-01, -9.338681345593056e-03, 4.033490623321691e-04, 1.366416771919290e-02, 1.772139710668871e+05, 5.382346453429477e+03, 3.255603531071893e+04, 1.837544256825160e+05
119, 1.374487160331137e-01, -2.687496070907593e-02, 5.460066646602868e-04, 1.184893333307276e-03, 2.163047274506382e+06, -1.806588690194010e+04, 1.682406955747321e+05, 2.206915120583138e+06
120, 5.596387496012009e-01, 5.071566089060470e-02, -1.317042715837755e-03, 1.186448477458229e-02, -2.352976705764410e+05, 1.697241612776011e+04, 3.307532696088572e+04, 2.607989755731857e+05
121, 6.609827153956152e-01, -6.310240884540755e-03, 3.050928285386658e-04, 1.487185245144602e-02, 1.447862677917745e+05, 4.557709843516673e+03, 2.807251394008549e+04, 1.510506955293920e+05
122, 6.033984443620632e-01, 4.523925165445848e-02, -1.190115155209763e-03, 1.314253561600551e-02, -1.888124030698492e+05, 1.180171794127136e+04, 3.360183322072834e+04, 2.115711661173117e+05
123, 7.020103535966860e-01, -3.111390526276716e-03, 1.977850255526588e-04, 1.610520491898223e-02, 1.070289959907053e+05, 3.315125790005251e+03, 2.572294761732841e+04, 1.157723931190115e+05
124, 5.755684299532306e-02, -1.475369716728351e-02, 8.255650318059291e-05, 5.235706186755309e-05, 3.511512618735999e+06, 4.956541399792737e+05, 5.880313189489653e+05, 3.237055095630636e+06
125, 9.060053040963247e-02, 3.560010455049589e-02, -3.685611693099026e-04, 4.305626687645802e-04, -2.620606648768033e+06, 9.025252045046816e+04, -1.850647148514597e+05, 2.736010458691310e+06
126, 6.425569992028460e-01, 4.076809820674596e-02, -1.085492411601921e-03, 1.430145346249185e-02, -1.521383289553079e+05, 8.810714923873924e+03, 3.179943000111282e+04, 1.730589775747144e+05
127, 7.425676713184176e-01, -1.802184129515955e-03, 1.448797530884961e-04, 1.733927946504725e-02, 8.619867908803993e+04, 1.300501995349972e+03, 2.304987868905355e+04, 9.660687399963879e+04
128, 6.794554790031843e-01, 3.455015607646333e-02, -9.239791417302215e-04, 1.540765109540326e-02, -1.177497570924587e+05, 7.085277386467350e+03, 2.894243741550417e+04, 1.376024875049727e+05
129, 7.233793830986925e-01, 3.102487013943550e-02, -8.447616310000182e-04, 1.673848945913507e-02, -1.014321020695625e+05, 5.444044046618810e+03, 2.604891551886724e+04, 1.188978326441809e+05
130, 7.843494364326934e-01, 2.390274058805750e-03, 6.508245002430447e-07, 1.862263890744683e-02, 4.415923140998615e+04, 3.177271721303650e+02, 1.890924591196061e+04, 5.789918667540955e+04
131, 5.454676153951814e-02, 2.401897778829271e-02, -8.600924321359776e-05, 3.822760753674748e-05, -3.326518592040637e+06, -3.106912286450334e+05, 5.308278178174753e+04, 3.017695447306178e+06
132, 7.640247874542017e-01, 2.555744565522233e-02, -7.020904758407587e-04, 1.798498608193507e-02, -8.080538286941245e+04, 5.502103976109967e+03, 2.349304431004737e+04, 9.826838153447642e+04
133, 8.229295107187748e-01, 4.300233002464899e-03, -7.534145110032117e-05, 1.982021042076607e-02, 2.393012656232046e+04, -2.395878658339222e+03, 1.701865629076886e+04, 4.303018938665628e+04
134, 8.046566490081991e-01, 1.839946429817115e-02, -5.041730900185021e-04, 1.924443768059594e-02, -3.536684603831076e+04, 3.375425615112798e+02, 1.972320652979786e+04, 5.320547780591154e+04
135, 8.440270490961900e-01, 1.089332864254128e-02, -2.910817146021418e-04, 2.047661761217976e-02, -1.013218536423329e+04, -6.505903266909036e+02, 1.518788304102553e+04, 3.182118491708678e+04
136, 9.686534179528660e-01, 2.042627793953139e-03, -7.506110190337551e-05, 2.442713990839609e-02, -9.915125788503285e+03, -7.922660592121638e+03, 4.006523888718533e+03, 8.257048639936744e+03
137, 8.665349974513943e-01, 8.204479495203282e-03, -2.181190969119333e-04, 2.118469366849260e-02, -6.765115716562893e+03, -1.874834142660908e+03, 1.366800839299575e+04, 2.776999581555701e+04
138, 3.973268305362796e-01, -2.062836453280328e-02, 7.166365308468958e-04, 7.333962923940096e-03, 4.961862875897872e+05, 1.837840877078549e+04, 8.451492050989377e+04, 5.068248772669791e+05
139, 4.066700510668398e-01, -2.659281018491663e-03, 2.372052933952500e-04, 7.577973571179525e-03, 2.666905448015548e+05, 2.613232551315067e+04, 1.028906835396147e+05, 3.165663088583567e+05
140, 4.269223676397205e-01, -1.818542477264619e-03, 2.141651036515173e-04, 8.131541006599132e-03, 2.362520978977604e+05, 2.553047266147985e+04, 9.358628055083408e+04, 2.818460057754539e+05
141, 4.160748716342525e-01, 1.536155603904590e-02, -2.483526592430760e-04, 7.827137878565369e-03, 5.458047166303025e+04, 3.354746946769793e+04, 1.035828200564290e+05, 2.082306164441700e+05
142, 3.957310706537015e-01, 1.449338912604128e-02, -2.192000048220238e-04, 7.274310373694347e-03, 6.681801297397600e+04, 3.452015898083005e+04, 1.137876294103207e+05, 2.298557151776838e+05
143, 4.363670491508843e-01, 1.618760295133900e-02, -2.771863936280830e-04, 8.384523339821089e-03, 4.114960091674691e+04, 3.280152585755677e+04, 9.464250257818498e+04, 1.894690041517105e+05
144, 4.051964526601900e-01, 3.152834713834579e-02, -6.776643167376279e-04, 7.525870389187245e-03, -1.337915050319268e+05, 3.831686442560987e+04, 1.036223729711550e+05, 2.693913056466829e+05
145, 3.848128117936778e-01, 3.076188516682927e-02, -6.453483806528863e-04, 6.975582989102560e-03, -1.405289122630426e+05, 4.129754846829049e+04, 1.074557077873269e+05, 2.815098193072216e+05
146, 3.753524428032796e-01, 1.356859858717361e-02, -1.894832669973371e-04, 6.727306467622382e-03, 8.459679449272840e+04, 3.793645374398919e+04, 1.242074044612567e+05, 2.527589853809303e+05
147, 3.644173846774071e-01, 2.988645409861292e-02, -6.108870071685457e-04, 6.432119535840447e-03, -1.456819850500025e+05, 4.646109236456324e+04, 1.234235604208732e+05, 3.128137836895931e+05
148, 3.550134956621845e-01, 1.257057333110983e-02, -1.588779840573126e-04, 6.188507872888562e-03, 9.732997660374915e+04, 3.905334972463861e+04, 1.357304321005865e+05, 2.776457563753761e+05
149, 3.439974420069055e-01, 2.973245781499734e-02, -5.949104810741781e-04, 5.895336709081937e-03, -1.642232696566521e+05, 4.737459214233450e+04, 1.284496651927575e+05, 3.328226570869673e+05
150, 3.345561861413926e-01, 1.175186653708911e-02, -1.339227086409709e-04, 5.654661432332115e-03, 1.153946513177059e+05, 4.059424148893260e+04, 1.465721357785052e+05, 3.025370477433180e+05
151, 3.236084648859458e-01, 2.848484668563251e-02, -5.513957963432847e-04, 5.368321082063387e-03, -1.686613373446836e+05, 5.118325855602160e+04, 1.385667892389854e+05, 3.537437867535626e+05
152, 3.143303878446695e-01, 1.091172861632015e-02, -1.096965930153304e-04, 5.135668951511851e-03, 1.361776676376680e+05, 4.416627736923391e+04, 1.589440735456659e+05, 3.309365044843048e+05
153, 3.032408532210827e-01, 2.754866912925832e-02, -5.162927625369253e-04, 4.851115898691848e-03, -1.794689753380161e+05, 5.433314472491283e+04, 1.496085928649777e+05, 3.797293188339227e+05
154, 2.939539767717528e-01, 1.001939063924226e-02, -8.542409879320715e-05, 4.622523507811371e-03, 1.546566727832838e+05, 4.707691810480217e+04, 1.728610034358370e+05, 3.620733484420803e+05
155, 2.828296347109930e-01, 2.713220734740742e-02, -4.940396792178467e-04, 4.343057075304052e-03, -1.947983971348001e+05, 5.914116279148711e+04, 1.615267797830977e+05, 4.109122807168773e+05
156, 2.733885986292580e-01, 9.103913709920631e-03, -6.190533272937233e-05, 4.115579438498796e-03, 1.762500436609430e+05, 4.995173302606781e+04, 1.880389669178790e+05, 3.967188873590419e+05
157, 2.624180698607566e-01, 2.586783501818393e-02, -4.518858749608818e-04, 3.846600548709597e-03, -2.127488838705966e+05, 6.612247425285462e+04, 1.769270691400377e+05, 4.505352212197764e+05
158, 2.529513835064207e-01, 8.525498647222548e-03, -4.781992525815832e-05, 3.623741143269742e-03, 1.961288330535500e+05, 5.298144076957718e+04, 2.058414206708976e+05, 4.358599979040922e+05
159, 2.420041412463820e-01, 2.497529745393339e-02, -4.186066397722406e-04, 3.362851374740246e-03, -2.392376891742582e+05, 6.876474288524881e+04, 1.924498914179627e+05, 4.929638333404529e+05
160, 2.324783599824982e-01, 7.702710819772898e-03, -2.956392526702313e-05, 3.144683992576353e-03, 2.224762447260909e+05, 5.663569052936574e+04, 2.268630212776685e+05, 4.830842691593305e+05
161, 2.215823702425378e-01, 2.397561795711019e-02, -3.832936433768626e-04, 2.893279149853005e-03, -2.680736625113948e+05, 7.524495370313518e+04, 2.113536624178022e+05, 5.445632697025507e+05
162, 2.121325115698451e-01, 6.410467661081484e-03, -3.062872932702556e-06, 2.683792080587801e-03, 2.554785166361089e+05, 5.862082078091650e+04, 2.518970973386180e+05, 5.408895848580378e+05
163, 2.011663454080357e-01, 2.296567656220408e-02, -3.478833845402201e-04, 2.440121117920900e-03, -3.070649532020817e+05, 7.816901385414420e+04, 2.311332380211844e+05, 6.017437197399797e+05
164, 1.916646013131764e-01, 6.122736367823681e-03, -2.259924992425081e-07, 2.237131588355290e-03, 2.824892398884478e+05, 6.286136681190934e+04, 2.825732119852884e+05, 6.063224250832680e+05
165, 3.255525552210641e-01, -6.161447547465032e-03, 3.176409607356174e-04, 5.429764084365836e-03, 4.225313662694070e+05, 3.209801633489399e+04, 1.433787939792698e+05, 4.844255515483111e+05
166, 2.646894232509986e-01, -8.340506671611615e-03, 3.461455891976842e-04, 3.911896235651785e-03, 5.846297359846520e+05, 3.689856219610399e+04, 1.848989962640225e+05, 6.608781990787354e+05
167, 1.807269234638549e-01, 2.189447272204787e-02, -3.110717473579498e-04, 2.005112456718150e-03, -3.620734129853050e+05, 8.061351431486809e+04, 2.577343010307262e+05, 6.794700841933048e+05
168, 1.712197765907188e-01, 5.003864087505491e-03, 1.738439924135209e-05, 1.811102910349743e-03, 3.085207877071806e+05, 7.029428033531108e+04, 3.264786647529631e+05, 6.950576544216386e+05
169, 1.602426840341227e-01, 2.138865991864423e-02, -2.847653018986068e-04, 1.591084412489216e-03, -4.288802151091017e+05, 8.126077908322835e+04, 2.832682565812212e+05, 7.623696312824883e+05
170, 2.037692397470149e-01, -1.034914650557998e-02, 3.462665750581441e-04, 2.506516276944991e-03, 8.198794373931338e+05, 3.269503607220311e+04, 2.387604101760589e+05, 9.206983303736091e+05
171, 2.916999765043648e-01, 4.426039903148235e-02, -9.154985105713528e-04, 4.561783943176246e-03, -5.188809366223842e+05, 6.392264260774457e+04, 1.088136458582207e+05, 6.221106413358335e+05
172, 1.507262204296524e-01, 4.193183260823651e-03, 2.650311433178674e-05, 1.407697326854249e-03, 3.428072963985064e+05, 1.040510103798793e+05, 3.741790705724340e+05, 7.855217829769017e+05
173, 3.537537079013051e-01, 4.827208157291081e-02, -1.079091351325533e-03, 6.148105013430076e-03, -4.306262161778637e+05, 5.226908949574600e+04, 8.878811745453731e+04, 5.145106368638960e+05
174, 1.397136229518096e-01, 2.099975485568201e-02, -2.593120200629201e-04, 1.203114186444608e-03, -5.615623181657890e+05, 8.726852281697416e+04, 3.141479878840740e+05, 9.031817609854891e+05
175, 1.295462050507191e-01, 2.895094086866376e-03, 4.104342878478604e-05, 1.019462824050955e-03, 4.260929530351456e+05, 9.342159310344397e+04, 4.443344028672630e+05, 9.488953999279565e+05
176, 1.191521560559205e-01, 2.012333267723078e-02, -2.189672241954555e-04, 8.425709467368897e-04, -7.743688498817622e+05, 1.153244650098157e+05, 3.455679888157491e+05, 1.126598035742745e+06
177, 1.080886766322981e-01, -1.434166924619944e-05, 6.942239612269118e-05, 6.617627554890038e-04, 6.443719568833377e+05, 7.566625400498576e+04, 5.292683321209170e+05, 1.201634739024546e+06
178, 2.290595946644183e-01, 4.112394933858098e-02, -7.686272540695295e-04, 3.064960037049231e-03, -7.142642362560403e+05, 7.300972918835933e+04, 1.169273136546238e+05, 8.212723563961572e+05
179, 3.459241474687385e-01, -5.280135464756558e-03, 3.000260867577941e-04, 5.957465650878786e-03, 3.775905111674306e+05, 3.025251505872158e+04, 1.324590698092199e+05, 4.368355574351849e+05
180, 2.852249789379561e-01, -7.661787197075484e-03, 3.402190136363904e-04, 4.413161709624961e-03, 5.258223998927099e+05, 3.574750884897874e+04, 1.686017925311735e+05, 5.948778501595302e+05
181, 3.956003701982225e-01, 4.825293871018150e-02, -1.117111953372059e-03, 7.262576628472627e-03, -3.520577151919315e+05, 4.810909884926696e+04, 8.271924255831930e+04, 4.330165948524043e+05
182, 3.863679656039212e-01, -3.541874220538175e-03, 2.599520790077281e-04, 7.029325575953074e-03, 3.002833884245036e+05, 2.779147801668044e+04, 1.119203147926844e+05, 3.526421255194555e+05
183, 7.630082210649703e-01, -1.683932405478732e-04, 8.756571718050063e-05, 1.796572750633167e-02, 7.379640403416308e+04, 5.214361109653307e+02, 2.176596392184922e+04, 8.523056767342705e+04
184, 7.221165178549034e-01, -2.386671879896191e-03, 1.695238935958578e-04, 1.671529606296214e-02, 9.663903449294565e+04, 2.476690659187761e+03, 2.457023596153953e+04, 1.062136195461286e+05
185, 6.813490575644440e-01, -5.026272236468695e-03, 2.614687658088242e-04, 1.548239246405084e-02, 1.238593647566420e+05, 3.730874910109973e+03, 2.640011639220196e+04, 1.312201152830449e+05
186, 6.700514205024029e-01, 1.200943009480344e-02, -2.447262359972170e-04, 1.513468246453958e-02, 2.131852802342880e+04, 4.525843011615134e+03, 2.994026410513819e+04, 6.219060965007255e+04
187, 6.507436095443034e-01, 9.724469617936471e-03, -1.689585223540240e-04, 1.455818295663627e-02, 4.337340314012860e+04, 4.706904220490538e+03, 3.029525268688463e+04, 7.187703026802884e+04
188, 6.585972170885982e-01, 2.855958551875440e-02, -7.329114001351466e-04, 1.478450890543318e-02, -7.955054561384044e+04, 4.030626786332498e+03, 3.379207366303972e+04, 1.074868798950860e+05
189, 6.914402908656641e-01, 1.520975427006638e-02, -3.500992242400722e-04, 1.577688169640213e-02, 1.216263842354277e+03, 5.706925334277194e+03, 2.974209901036401e+04, 5.965346473428197e+04
190, 6.408436581122263e-01, -8.308025859652041e-03, 3.689963529010019e-04, 1.427200402107323e-02, 1.642072863976540e+05, 5.306588742140693e+03, 3.031677217360449e+04, 1.700760371584246e+05
191, 5.999777577336088e-01, -1.017319331688185e-02, 4.313614360489828e-04, 1.306506426734964e-02, 1.923360723733015e+05, 6.464301014984956e+03, 3.184992011236726e+04, 1.964840579602707e+05
192, 5.887616024017648e-01, 6.914165488212533e-03, -6.465754336042377e-05, 1.272804436717346e-02, 7.389749762803758e+04, 8.638818429887473e+03, 3.675859392886551e+04, 9.830296089740118e+04
193, 5.684052808662257e-01, 5.719726871149628e-03, -2.376521677560405e-05, 1.213531320345802e-02, 9.421306723544895e+04, 1.181926523505277e+04, 3.966482871355863e+04, 1.143762788150772e+05
194, 5.775195922504133e-01, 2.398253745901509e-02, -5.556911992414846e-04, 1.239284697125831e-02, -3.444768279613636e+04, 9.556119629939838e+03, 3.748872140988828e+04, 8.693648002850135e+04
195, 5.571515349656804e-01, 2.232351574757130e-02, -4.984211981917048e-04, 1.180199675078463e-02, -1.916175556181111e+04, 1.334693379171543e+04, 4.219182804563209e+04, 9.042906777586971e+04
196, 5.979431170668756e-01, 2.519796775079432e-02, -6.013529622889044e-04, 1.298928797417273e-02, -6.091420891809184e+04, 1.198884020791966e+04, 3.658864471435072e+04, 1.032945800127073e+05
197, 7.026714032463355e-01, 3.307350982476356e-02, -8.940572325460216e-04, 1.610893353320090e-02, -1.108962819998432e+05, 6.436248105048424e+03, 2.674554192963210e+04, 1.289504504577403e+05
198, 5.593113618335217e-01, -1.250046520892452e-02, 5.039528634716389e-04, 1.188034789361643e-02, 2.287395859277322e+05, 9.106452872414897e+03, 3.745964877933265e+04, 2.320595059082444e+05
199, 5.187649537457070e-01, -1.486169353188113e-02, 5.738959971611298e-04, 1.071505982984289e-02, 2.704962890877686e+05, 1.210862180737245e+04, 4.586860783875841e+04, 2.741895390835835e+05
200, 5.076921965629095e-01, 2.218307329771115e-03, 9.147834791106040e-05, 1.039105503004044e-02, 1.393594487897907e+05, 2.019004952167327e+04, 5.669390064832135e+04, 1.644935840840332e+05
201, 4.873986433704672e-01, 1.181039459401317e-03, 1.245855008751083e-04, 9.816284210357457e-03, 1.578847688081037e+05, 2.223674373463727e+04, 6.593322876591423e+04, 1.891802033203403e+05
202, 4.966194656028796e-01, 1.934467626271270e-02, -3.872961404280477e-04, 1.006981932917904e-02, -1.426891682310212e+03, 3.071335627455012e+04, 6.287205160246100e+04, 1.297866519698330e+05
203, 4.763431748988570e-01, 1.825370403979853e-02, -3.486137314315853e-04, 9.497966570703068e-03, 7.598839168200829e+03, 3.166752115946666e+04, 7.366620292806490e+04, 1.492854288540983e+05
204, 4.860578366563697e-01, 3.670910442424759e-02, -8.682095027144623e-04, 9.765881231588960e-03, -1.509397461640422e+05, 4.030047381959304e+04, 6.115541203775149e+04, 2.270082805216978e+05
205, 5.169176985164646e-01, 1.994335935477508e-02, -4.127128413309061e-04, 1.064675535917108e-02, -6.997588751262060e+03, 2.537288315099655e+04, 5.328472591944741e+04, 1.113772666050727e+05
206, 4.659122849665016e-01, 3.584565405751972e-02, -8.315337732678242e-04, 9.200011450587192e-03, -1.537429614016887e+05, 4.120021700218954e+04, 7.038355519061000e+04, 2.404541997372574e+05
207, 5.073801417642654e-01, 3.694836126629831e-02, -8.883255895340086e-04, 1.036962914381947e-02, -1.448509039019156e+05, 3.576562033527053e+04, 5.221326646486235e+04, 2.086318039207947e+05
208, 4.255042211984943e-01, 3.276145417967536e-02, -7.225373529507427e-04, 8.080262814594301e-03, -1.279788535529322e+05, 3.647733593845866e+04, 8.986608524402935e+04, 2.436175103936022e+05
209, 4.782031906629673e-01, -1.692800596420961e-02, 6.312403613218331e-04, 9.566010494116170e-03, 3.265126299284061e+05, 1.460360478874520e+04, 5.820547554162177e+04, 3.329245402424984e+05
210, 4.377615561649102e-01, -1.892015496718379e-02, 6.811111758586907e-04, 8.439093424960178e-03, 4.021110883960593e+05, 1.662311604537816e+04, 7.094049662744885e+04, 4.107690264297393e+05
211, 7.437995247830567e-01, 2.907365860617513e-02, -7.977099842849470e-04, 1.736270990381675e-02, -9.201479880557951e+04, 5.244011800292560e+03, 2.482825152255390e+04, 1.092018522514050e+05
212, 3.771599174236252e-01, -2.142636025480181e-02, 7.300560494909485e-04, 6.792154622179946e-03, 5.505809580836132e+05, 1.944592583059966e+04, 9.153874594917143e+04, 5.618022699546501e+05
213, 6.218943807040979e-01, 4.341022781815626e-02, -1.149502536752636e-03, 1.368812765834932e-02, -1.776182985013034e+05, 1.043592525900065e+04, 3.071018141926750e+04, 1.978303617883458e+05
214, 6.296675380922808e-01, 2.448237643370344e-02, -5.966242151976621e-04, 1.392503177297243e-02, -5.614695281894585e+04, 7.881699423003548e+03, 3.394039216851511e+04, 9.331382100273730e+04
215, 5.814676933777930e-01, 4.439866935626801e-02, -1.150440495410717e-03, 1.250048190585321e-02, -1.856609088017861e+05, 1.249749069316642e+04, 3.269913255471025e+04, 2.086712351277081e+05
216, 3.312274326488422e-01, 4.612386330115190e-02, -1.002292480848916e-03, 5.562440664614195e-03, -4.408653589669013e+05, 5.671510544761809e+04, 9.927624872980008e+04, 5.357325945043976e+05
217, 2.710279663853664e-01, 4.299515715254759e-02, -8.622612579264523e-04, 4.054431153277321e-03, -5.712804476577212e+05, 6.748917143942043e+04, 1.127833374556986e+05, 6.774267127240344e+05
218, 5.390455428341940e-01, 5.238266303217255e-02, -1.348966203027095e-03, 1.127041532690506e-02, -2.547002147311336e+05, 2.689155137134011e+04, 3.296049752102111e+04, 2.892049451929258e+05
219, 6.114472204034992e-01, 1.035802388696049e-02, -1.729659480272098e-04, 1.339239997402468e-02, 4.379385654934707e+04, 8.391080136947940e+03, 3.396850895045188e+04, 7.660806079632902e+04
220, 5.481464598881551e-01, 4.391424796774106e-03, 2.007286964421619e-05, 1.154929706362057e-02, 1.099368383040870e+05, 1.283852165978562e+04, 4.330475932577737e+04, 1.301126120566758e+05
221, 4.369713267450843e-01, 6.210740459687750e-02, -1.531043788731099e-03, 8.391129750222808e-03, -4.368951979690214e+05, 4.965582041657095e+04, 4.662672380837758e+04, 4.954070033663916e+05
222, 4.776658622515376e-01, 5.502642382875403e-02, -1.373388669582457e-03, 9.525610047572861e-03, -3.102303485189257e+05, 4.569729957768509e+04, 4.877015316917007e+04, 3.690509477567589e+05
223, 4.672216742651403e-01, 6.822137221719886e-05, 1.587579968687352e-04, 9.249304643605048e-03, 1.810366871418183e+05, 2.261486660932745e+04, 7.545209939494201e+04, 2.187911114127939e+05
224, 7.838712537706656e-01, 2.237803476451621e-02, -6.158217629585688e-04, 1.859862882557750e-02, -6.351611208608371e+04, 5.392687882572630e+03, 2.071748587841789e+04, 8.040696237024547e+04
225, 5.279391987118984e-01, 3.223725334036668e-03, 5.845162027818419e-05, 1.096873857275477e-02, 1.245814910731392e+05, 1.647157523090891e+04, 4.889077661266935e+04, 1.457703195255257e+05
226, 2.240945376964768e-01, -9.587620610872932e-03, 3.476942284948943e-04, 2.960113424121016e-03, 7.343448287155025e+05, 3.981135702273262e+04, 2.192576450407722e+05, 8.213844428383780e+05
227, 4.471002731846575e-01, -9.168098744713615e-04, 1.881971289944554e-04, 8.688652525748264e-03, 2.082118688850232e+05, 2.390473351944021e+04, 8.435579477642395e+04, 2.498654049605826e+05
228, 3.661288396845953e-01, -4.394762525783355e-03, 2.804192053010968e-04, 6.489195509063084e-03, 3.371340401615688e+05, 2.939659465496913e+04, 1.221782983003749e+05, 3.929535362727112e+05
229, 1.546440068756184e-01, -2.520108376499952e-02, 5.612317377643976e-04, 1.503332379583722e-03, 1.814316375597117e+06, -1.266260521772667e+03, 1.801029326626781e+05, 1.850969630758755e+06
230, 1.882221366659534e-01, 3.826074051584353e-02, -6.497218382843574e-04, 2.165797999869875e-03, -9.024177480541435e+05, 8.530911713404721e+04, 1.211050958287980e+05, 1.016990726190411e+06
231, 1.543914041184917e-01, 4.912107034456465e-02, -7.960663088248135e-04, 1.491733548292941e-03, -1.698975519608279e+06, 6.177724604355355e+04, -8.475329931574817e+04, 1.768893097032773e+06
232, 5.370927014694915e-01, 2.057153489439007e-02, -4.392700560556903e-04, 1.122423972296117e-02, -1.232315598302160e+04, 1.862785799125368e+04, 4.618709353204574e+04, 9.742153612927455e+04
233, 1.206636050110365e-01, -1.834415102198253e-02, 3.566576363758647e-04, 8.793350935938874e-04, 1.936433612353729e+06, 1.102520666568908e+04, 2.999672052719329e+05, 2.016709901212560e+06
234, 8.631313342926250e-02, 1.043432805688596e-03, 3.740505808817317e-05, 3.439663457608270e-04, 5.676801401099141e+05, 1.219508803454095e+05, 6.502232876117133e+05, 1.374713012966907e+06
235, 1.106095889185965e-01, 3.867169228023645e-02, -4.839228987940812e-04, 7.201237389504490e-04, -2.088819797463477e+06, 9.880861931110838e+04, -8.964017193719269e+04, 2.194962307553229e+06
236, 3.368165213239255e-01, -2.303433487990625e-02, 7.505435001486264e-04, 5.730343088607518e-03, 6.772969030554778e+05, 2.126938309543367e+04, 1.060210204643561e+05, 6.894446562749904e+05
237, 4.563612726504259e-01, 1.708420333116029e-02, -3.086447405603198e-04, 8.938969926149761e-03, 2.232250254080374e+04, 3.169909191730819e+04, 8.379949908825071e+04, 1.678610872659369e+05
238, 4.456317431566468e-01, 3.339001461812384e-02, -7.513378993342092e-04, 8.635701312865353e-03, -1.373557985757481e+05, 3.723499001029391e+04, 7.959149607870987e+04, 2.362650385716964e+05
239, 3.167674574315031e-01, -2.377538963541589e-02, 7.554880295899494e-04, 5.215089742802475e-03, 7.497123633280143e+05, 2.245271729838097e+04, 1.135485547572200e+05, 7.618921773407054e+05
240, 7.729445970665597e-02, -1.752507912106143e-02, 2.007606794275372e-04, 2.531126081568842e-04, 3.123002868695621e+06, -5.052789709841122e+04, 3.473365239305823e+05, 3.248671753942829e+06
241, 7.252862014530212e-02, 3.083776928774613e-02, -2.319643539983272e-04, 2.105255076405849e-04, -3.119830312143958e+06, 1.447900275666823e+05, -1.508381706521396e+05, 3.278529331477019e+06
242, 6.994351787411089e-02, 1.216950509271565e-02, -5.326545662795836e-05, 1.569578851185888e-04, -9.840186062880915e+05, 6.457889600604630e+04, 5.152086074702146e+05, 1.470141611771837e+06
243, 3.053917014711016e-01, -6.863402861304940e-03, 3.288184764293284e-04, 4.916531993655346e-03, 4.715298510800137e+05, 3.403353523096026e+04, 1.552708596171041e+05, 5.365064638626757e+05
244, 2.497228322075046e-02, 2.402640398398414e-03, 1.559973706188118e-06, -1.178624369406994e-05, 4.918952846196917e+04, -1.032490912934640e+04, -1.324770403509951e+05, 2.715559484939473e+05
245, 4.989473083532157e-01, 5.518919255669726e-02, -1.395968854961832e-03, 1.012603283731758e-02, -2.914200860123219e+05, 4.297941337155976e+04, 4.386182463411045e+04, 3.457144252546089e+05
246, 7.121516210256057e-01, 1.460595551967098e-02, -3.414040758643795e-04, 1.640418302891898e-02, -1.797276249679258e+03, 4.906612892746241e+03, 2.826165154326255e+04, 5.691946873825429e+04
247, 2.763702683359829e-01, -2.506910702819862e-02, 7.518032148181381e-04, 4.206294402715963e-03, 9.206675664289602e+05, 2.404713829775344e+04, 1.296067895305718e+05, 9.333380265005151e+05
248, 8.873385472785349e-01, 6.844391408278278e-03, -1.858155922067905e-04, 2.184106011538520e-02, -6.346465542176942e+03, -2.551223534681158e+03, 1.254582702742028e+04, 2.537705587934221e+04
249, 9.962521156902329e-02, 1.917857730881604e-02, -1.778499040374379e-04, 5.359654913693545e-04, -9.713930385544442e+05, 1.987073511438289e+05, 3.798750119943697e+05, 1.395118282054586e+06
250, 2.557921536609737e-01, -2.522121516525769e-02, 7.328048804004272e-04, 3.709425790862739e-03, 1.020533387128930e+06, 2.472799095221958e+04, 1.391430542751484e+05, 1.033959160347604e+06
251, 7.326436531224615e-01, 1.392908380138819e-02, -3.304031185023987e-04, 1.702832670315966e-02, -2.453739575289669e+03, 3.745690402908926e+03, 2.673888019882710e+04, 5.383589684591036e+04
252, 2.442929978870507e-01, -8.841726120787759e-03, 3.455529859639943e-04, 3.426604063246661e-03, 6.501143656349034e+05, 3.906193506623337e+04, 2.024594479153840e+05, 7.330377787704312e+05
253, 3.995007411905830e-02, -1.161067152480321e-02, 3.002512093795406e-05, -1.142446475329774e-06, 1.303808666989566e+06, 3.988584420538623e+05, 3.253645665635900e+05, 1.114622498566950e+06
254, 8.043761192319334e-01, -8.566257281116389e-04, 9.281105162418286e-05, 1.924535856652296e-02, 5.796295444052142e+04, -5.744655030276363e+02, 1.695332945945175e+04, 6.764828935523996e+04
255, 3.728297782789732e-02, 1.860236346631203e-02, -2.770897500611014e-05, -5.642741791072131e-06, -1.280896637975198e+06, -2.801620450975176e+05, 1.298839350839019e+05, 1.033899933143230e+06
256, 2.774419946245726e-01, 6.094101662917976e-02, -1.301452966127159e-03, 4.213307035890709e-03, -8.877182142117266e+05, 5.520747532147657e+04, 2.560250362074484e+04, 9.443149944527342e+05
257, 5.272315251059175e-01, 3.640340721383552e-02, -8.851764749495282e-04, 1.093605027937905e-02, -1.368145342978800e+05, 2.837414445546049e+04, 4.517389540432986e+04, 1.882817646302468e+05
258, 5.083404437921797e-02, 4.581799144869038e-03, -2.579192756440455e-07, 1.666135323984674e-05, 8.157412299559335e+04, 5.937089685161984e+04, 1.426543046053172e+05, 2.861712524711505e+05
259, 2.490426759473710e-01, 4.254632631819232e-02, -8.260684071754285e-04, 3.528859683798882e-03, -6.372651265850900e+05, 7.206371599372005e+04, 1.173180756323458e+05, 7.471288579585862e+05
260, 2.163684835035404e-01, -2.701679002700320e-02, 7.193231266864091e-04, 2.798105031447605e-03, 1.282510557797131e+06, 2.537554259790857e+04, 1.549365555659552e+05, 1.294762445950036e+06
261, 6.319627623250758e-01, 8.005179788726667e-03, -1.110822640182389e-04, 1.400022690774444e-02, 5.452499157532579e+04, 5.429013572249462e+03, 3.236897493993619e+04, 8.124910590724937e+04
262, 3.114372276557584e-01, 4.471425339351094e-02, -9.471722902329267e-04, 5.056772418302818e-03, -4.734788784383646e+05, 5.886069420121683e+04, 1.048736795023467e+05, 5.721707570363377e+05
263, 2.356884134652882e-01, 5.867724256479173e-02, -1.176143665429691e-03, 3.222083106972912e-03, -1.095211165551596e+06, 5.654001870876875e+04, -1.985665227053069e+02, 1.151751252727692e+06
264, 3.383946157052069e-01, 6.335777825715755e-02, -1.450354195812987e-03, 5.748092789389867e-03, -6.823076412408351e+05, 5.227785296820664e+04, 4.280377006735442e+04, 7.395569614507444e+05
265, 1.951580192305350e-01, -2.592057073090863e-02, 6.596833117258157e-04, 2.331525623009258e-03, 1.419037554224453e+06, 2.456141203299004e+04, 1.711390301331228e+05, 1.435868371989860e+06
266, 2.079444632386854e-01, 4.033501394168094e-02, -7.224712269530205e-04, 2.591235888504531e-03, -8.041027796958627e+05, 7.994617870332256e+04, 1.190182002679259e+05, 9.155347556629124e+05
267, 9.479046644594288e-01, 3.329224375259112e-03, -1.053258721568148e-04, 2.376454901524370e-02, -8.493200391003287e+03, -5.890395165451076e+03, 6.437203332368545e+03, 1.313487502838107e+04
268, 3.561712635176024e-01, 6.624998309437961e-02, -1.548679082664912e-03, 6.212406406067927e-03, -6.718778976482742e+05, 5.187422483556846e+04, 4.041748166463836e+04, 7.282523093655884e+05
269, 1.945815262482765e-01, 5.549283344264481e-02, -1.022229941267786e-03, 2.308368793803650e-03, -1.373319897286489e+06, 5.582358114141219e+04, -3.969516220083249e+04, 1.431346885119607e+06
270, 2.977935989933491e-01, 6.155964200056977e-02, -1.347962374853606e-03, 4.715338667695205e-03, -8.054557488223964e+05, 5.500106443067820e+04, 3.474115080821463e+04, 8.632576195502436e+05
271, 9.078621578882508e-01, 5.667274229115189e-03, -1.590407954468590e-04, 2.249080662261523e-02, -6.716685143726414e+03, -3.674024226863478e+03, 1.055154666153616e+04, 2.132131171521360e+04
272, 1.825817478992424e-01, -9.081920198856432e-03, 2.993222646771128e-04, 2.051974170877757e-03, 9.033941034735776e+05, 2.938046501199619e+04, 2.659525303995415e+05, 1.023143603762702e+06
273, 5.473154535762672e-01, 3.607904473465572e-02, -8.881577528522634e-04, 1.151303556590487e-02, -1.308154226144956e+05, 1.944164821500914e+04, 4.044342474632942e+04, 1.706454504377742e+05
274, 7.530729938319840e-01, 1.313628422854849e-02, -3.158325353828958e-04, 1.765399388209958e-02, -2.269913659407051e+03, 3.526680772796270e+03, 2.545018896909312e+04, 5.122937615530417e+04
275, 3.748556537104224e-01, 4.373238303807285e-02, -9.797511907777339e-04, 6.707334324706168e-03, -3.218192484993438e+05, 4.867130760671878e+04, 9.501225102804301e+04, 4.163803111885130e+05
276, 6.131635011745523e-01, 2.949827386178269e-02, -7.353947378399824e-04, 1.343550407463507e-02, -8.839320492344974e+04, 1.275656601114152e+04, 3.668428592770806e+04, 1.249568865498162e+05
277, 1.615549999555386e-01, -8.423645609178222e-03, 2.621813100662926e-04, 1.623665638361015e-03, 1.024134752574789e+06, 3.379991722990197e+04, 3.059659743184069e+05, 1.164140797266393e+06
278, 1.684665400829101e-01, 3.589271030097479e-02, -5.704445245284514e-04, 1.758782047458929e-03, -1.015531865731923e+06, 9.403988683021297e+04, 1.254423527686200e+05, 1.137581913339131e+06
279, 8.256084584492730e-01, 2.063599800034852e-02, -5.852171577277967e-04, 1.989609576461932e-02, -5.447834999637138e+04, 1.052788805920299e+03, 1.882532718656870e+04, 6.709157287919873e+04
280, 3.972984879188702e-01, 6.550620359910081e-02, -1.579885129648854e-03, 7.307757359123246e-03, -5.490377680191647e+05, 4.879959292697984e+04, 4.277283089307969e+04, 6.039267922467778e+05
281, 6.627065683700449e-01, 4.403640084504622e-02, -1.196457732291926e-03, 1.490173607975190e-02, -1.764715668801857e+05, 9.001595448027459e+03, 2.943575109601529e+04, 1.945922601605058e+05
282, 9.271814000509705e-01, 4.566893966412862e-03, -1.340240998972743e-04, 2.310440733818847e-02, -7.400362267295145e+03, -4.654885836369864e+03, 7.532800201667831e+03, 1.531371791387558e+04
283, 5.666099503639990e-01, 3.514156773900353e-02, -8.728548785512075e-04, 1.207150714456170e-02, -1.228335623956002e+05, 1.196833400264504e+04, 3.741855003794523e+04, 1.541821741328487e+05
284, 1.494596596362294e-01, 3.329163864126687e-02, -4.879079028840176e-04, 1.388417670464040e-03, -1.124227421834741e+06, 8.783162553699189e+04, 1.513963415545925e+05, 1.249308025772721e+06
285, 4.157211108020577e-01, 4.328993327621897e-02, -1.000550568647957e-03, 7.810301239270973e-03, -2.663102319649147e+05, 4.471103629502001e+04, 8.244463078333117e+04, 3.520265585009424e+05
286, 1.420183368662139e-01, -1.083000509133579e-02, 2.779550825241011e-04, 1.250521260067913e-03, 1.283830155584541e+06, 4.107328013426440e+04, 3.299226754226449e+05, 1.407068064633363e+06
287, 7.723941052487970e-01, 1.222809467856913e-02, -2.971401608567199e-04, 1.824882765971728e-02, -2.847027449224836e+03, 4.759784495685113e+03, 2.171928892735221e+04, 4.409958768519772e+04
288, 6.445251630204021e-01, 2.466895360166448e-02, -6.097811881019669e-04, 1.436645538197504e-02, -4.016490678914274e+04, 3.293993135311864e+03, 3.482341874854649e+04, 8.209359266100028e+04
289, 7.017993879064316e-02, -4.170715886349615e-03, 5.839654209973319e-05, 1.590568951808265e-04, 1.345792262821641e+06, 2.658956127239859e+05, 6.761214443147808e+05, 1.730531018139045e+06
290, 4.338320994818889e-01, 4.597756208071748e-02, -1.087700101393559e-03, 8.306480874265207e-03, -2.901419170394583e+05, 4.421437110573960e+04, 7.393126412752041e+04, 3.655919237130484e+05
291, 8.319934002763331e-02, 1.967812476841416e-02, -1.525696538699925e-04, 3.184760088272820e-04, -1.578773323639478e+06, 2.260604424044596e+05, 3.650910504420649e+05, 1.946943970304206e+06
