"arc_length","Displacement_Magnitude","Sxx","Sxy","Sxz","Syy","Syz","Szz","Von_Mises_Stress"
0,0,1.20387e+06,-69292.7,-6641.24,2.42193e+06,480496,1.03797e+06,1.559e+06
0.002,1.84374e-06,1.14394e+06,-63318.7,-5799.19,2.33297e+06,450450,957937,1.52179e+06
0.004,2.99161e-06,1.11133e+06,-60803.9,-4789.82,2.27702e+06,433185,919473,1.49679e+06
0.006,3.95675e-06,1.08765e+06,-59419,-3725.8,2.23186e+06,420094,894588,1.47579e+06
0.008,4.94539e-06,1.06397e+06,-58034.1,-2661.77,2.1867e+06,407004,869703,1.45478e+06
0.01,5.94582e-06,1.04029e+06,-56649.2,-1597.74,2.14154e+06,393914,844819,1.43377e+06
0.012,6.95296e-06,1.01661e+06,-55264.3,-533.711,2.09638e+06,380824,819934,1.41277e+06
0.014,7.96426e-06,992930,-53879.4,530.318,2.05122e+06,367734,795049,1.39176e+06
0.016,8.94413e-06,969237,-52077.3,1745.91,2.00492e+06,355613,771581,1.37097e+06
0.018,9.83931e-06,945514,-49223.4,3343.6,1.95575e+06,345937,751685,1.35069e+06
0.02,1.07353e-05,921791,-46369.5,4941.3,1.90657e+06,336260,731788,1.33042e+06
0.022,1.1632e-05,898068,-43515.6,6538.99,1.8574e+06,326584,711891,1.31015e+06
0.024,1.25292e-05,874345,-40661.6,8136.68,1.80823e+06,316907,691995,1.28987e+06
0.026,1.34267e-05,850622,-37807.7,9734.38,1.75905e+06,307231,672098,1.2696e+06
0.028,1.43246e-05,826899,-34953.8,11332.1,1.70988e+06,297554,652202,1.24933e+06
0.03,1.52228e-05,803176,-32099.9,12929.8,1.66071e+06,287878,632305,1.22905e+06
0.032,1.61212e-05,779453,-29246,14527.5,1.61153e+06,278202,612408,1.20878e+06
0.034,1.70198e-05,755730,-26392.1,16125.2,1.56236e+06,268525,592512,1.18851e+06
0.036,1.79186e-05,732008,-23538.2,17722.8,1.51319e+06,258849,572615,1.16823e+06
0.038,1.88175e-05,708285,-20684.3,19320.5,1.46401e+06,249172,552719,1.14796e+06
0.04,1.97165e-05,684562,-17830.4,20918.2,1.41484e+06,239496,532822,1.12769e+06
0.042,2.06156e-05,660839,-14976.5,22515.9,1.36567e+06,229819,512925,1.10741e+06
0.044,2.15148e-05,637116,-12122.6,24113.6,1.31649e+06,220143,493029,1.08714e+06
0.046,2.24141e-05,613393,-9268.71,25711.3,1.26732e+06,210466,473132,1.06687e+06
0.048,2.33134e-05,589670,-6414.81,27309,1.21814e+06,200790,453235,1.04659e+06
0.05,2.52372e-05,562260,-4241.47,29788.6,1.18313e+06,195514,421313,1.04631e+06
0.052,2.75318e-05,533520,-2313.59,32586.3,1.15322e+06,191826,385054,1.05323e+06
0.054,2.98278e-05,504780,-385.699,35384,1.12331e+06,188138,348794,1.06016e+06
0.056,3.21249e-05,476040,1542.19,38181.7,1.0934e+06,184449,312535,1.06709e+06
0.058,3.44229e-05,447301,3470.07,40979.4,1.06349e+06,180761,276275,1.07401e+06
0.06,3.67216e-05,418561,5397.96,43777.1,1.03357e+06,177073,240016,1.08094e+06
0.062,3.90209e-05,389821,7325.84,46574.8,1.00366e+06,173385,203756,1.08786e+06
0.064,4.12381e-05,385787,6707.35,46625.2,997553,176862,201269,1.08993e+06
0.066,4.34823e-05,383551,5903.59,46475.7,993175,180861,201238,1.09165e+06
0.068,4.57558e-05,381314,5099.84,46326.2,988796,184860,201207,1.09337e+06
0.07,4.80544e-05,379077,4296.08,46176.7,984417,188859,201176,1.09508e+06
0.072,5.03701e-05,374102,1715.92,46335.5,976126,187778,190512,1.09494e+06
0.074,5.26962e-05,368685,-1150.84,46543.9,967205,185878,178133,1.0945e+06
0.076,5.50315e-05,363268,-4017.58,46752.4,958283,183978,165754,1.09405e+06
0.078,5.73749e-05,357851,-6884.34,46960.8,949361,182078,153375,1.09361e+06
0.08,5.97254e-05,352435,-9751.09,47169.3,940439,180177,140996,1.09316e+06
0.082,6.20822e-05,347018,-12617.8,47377.7,931517,178277,128617,1.09272e+06
0.084,6.44447e-05,341601,-15484.6,47586.2,922595,176377,116238,1.09227e+06
0.086,6.68122e-05,336184,-18351.4,47794.6,913674,174477,103859,1.09183e+06
0.088,6.91845e-05,331978,-20903.9,47757.5,906297,173309,93251.7,1.09277e+06
0.09,7.15656e-05,334300,-21763,46397,907246,176086,92193.2,1.10121e+06
0.092,7.39544e-05,336622,-22622.1,45036.5,908195,178862,91134.6,1.10964e+06
0.094,7.63503e-05,338944,-23481.2,43675.9,909144,181639,90076.1,1.11808e+06
0.096,7.87527e-05,341266,-24340.3,42315.4,910094,184416,89017.5,1.12651e+06
0.098,8.11609e-05,343588,-25199.4,40954.9,911043,187192,87959,1.13495e+06
0.1,8.38465e-05,350121,-26625.2,40120.1,922937,190440,88288.3,1.15104e+06
0.102,8.7412e-05,370227,-29877.5,40979.8,970104,195204,93090.9,1.19181e+06
0.104,9.0979e-05,390332,-33129.7,41839.4,1.01727e+06,199968,97893.5,1.23257e+06
0.106,9.45474e-05,410438,-36382,42699.1,1.06444e+06,204732,102696,1.27334e+06
0.108,9.81171e-05,430544,-39634.2,43558.8,1.11161e+06,209497,107499,1.31411e+06
0.11,0.000101688,450649,-42886.5,44418.5,1.15878e+06,214261,112301,1.35487e+06
0.112,0.00010526,470755,-46138.8,45278.1,1.20594e+06,219025,117104,1.39564e+06
0.114,0.000108832,490861,-49391,46137.8,1.25311e+06,223789,121906,1.43641e+06
0.116,0.00011256,484528,-49663.6,44981.7,1.23547e+06,225158,119831,1.42461e+06
0.118,0.000116454,450072,-46766.5,41681.3,1.14889e+06,222916,110439,1.35689e+06
0.12,0.000120347,415615,-43869.4,38380.9,1.0623e+06,220673,101047,1.28918e+06
0.122,0.000124241,381159,-40972.4,35080.4,975721,218431,91655.6,1.22146e+06
0.124,0.000128136,346703,-38075.3,31780,889138,216188,82263.8,1.15375e+06
0.126,0.00013203,312246,-35178.2,28479.6,802555,213946,72871.9,1.08603e+06
0.128,0.000135925,277790,-32281.1,25179.2,715972,211703,63480,1.01831e+06
0.13,0.000139821,243333,-29384,21878.8,629390,209461,54088.2,950596
0.132,0.000143986,230197,-29188.8,19620.3,595339,208013,50379.7,926366
0.134,0.000148321,229675,-30592.1,17978.4,592368,207036,50033.4,927864
0.136,0.000152667,229152,-31995.4,16336.4,589396,206059,49687.2,929362
0.138,0.000157024,228629,-33398.7,14694.4,586425,205082,49341,930860
0.14,0.00016139,228106,-34802,13052.4,583453,204105,48994.8,932358
0.142,0.000165765,227584,-36205.2,11410.5,580482,203128,48648.5,933856
0.144,0.000170148,227061,-37608.5,9768.48,577510,202151,48302.3,935354
0.146,0.000174538,226538,-39011.8,8126.5,574539,201174,47956.1,936852
0.148,0.000178935,226016,-40415.1,6484.53,571567,200196,47609.9,938350
0.15,0.000183339,225493,-41818.4,4842.55,568595,199219,47263.6,939848
0.152,0.000187749,224970,-43221.6,3200.58,565624,198242,46917.4,941346
0.154,0.000192164,224448,-44624.9,1558.6,562652,197265,46571.2,942844
0.156,0.000196584,223925,-46028.2,-83.377,559681,196288,46225,944342
0.158,0.000201009,223402,-47431.5,-1725.36,556709,195311,45878.7,945840
0.16,0.000205439,222879,-48834.8,-3367.32,553738,194334,45532.5,947338
0.162,0.000209873,222357,-50238.1,-5009.3,550766,193357,45186.3,948835
0.164,0.00021431,221834,-51641.3,-6651.28,547794,192379,44840,950333
0.166,0.000218752,221311,-53044.6,-8293.25,544823,191402,44493.8,951831
0.168,0.000223197,220789,-54447.9,-9935.23,541851,190425,44147.6,953329
0.17,0.000227645,220266,-55851.2,-11577.2,538880,189448,43801.4,954827
0.172,0.000232097,219743,-57254.5,-13219.2,535908,188471,43455.1,956325
0.174,0.000236459,221424,-58201.2,-11625.3,541658,187565,42862.1,954836
0.176,0.000240774,224309,-58898.4,-8263.22,552173,186699,42134.2,951715
0.178,0.000245586,224557,-58799.9,-9684.66,553609,185186,43572.8,940491
0.18,0.000250873,223371,-58107.4,-15201,549663,183063,47512.2,924749
0.182,0.000256456,232780,-58790.7,-18351.2,577129,180635,57664.3,940276
0.184,0.000262039,242189,-59474.1,-21501.5,604595,178208,67816.6,955804
0.186,0.000267624,251598,-60157.5,-24651.8,632061,175780,77968.8,971331
0.188,0.000273209,261007,-60840.8,-27802.1,659527,173352,88121,986858
0.19,0.000278794,270416,-61524.2,-30952.3,686993,170924,98273.2,1.00239e+06
0.192,0.000284381,279826,-62207.5,-34102.6,714459,168496,108425,1.01791e+06
0.194,0.000289968,289235,-62890.9,-37252.9,741925,166069,118578,1.03344e+06
0.196,0.000295555,298644,-63574.3,-40403.1,769391,163641,128730,1.04897e+06
0.198,0.000301339,302538,-62490,-40718.1,777163,161201,132403,1.04699e+06
0.2,0.000307197,304429,-60763.5,-40003,777781,158758,133721,1.03866e+06
0.202,0.000313058,306319,-59037.1,-39287.8,778399,156314,135040,1.03032e+06
0.204,0.000318922,308209,-57310.6,-38572.7,779017,153870,136358,1.02199e+06
0.206,0.000324789,310100,-55584.1,-37857.6,779634,151426,137677,1.01365e+06
0.208,0.000330658,311990,-53857.7,-37142.4,780252,148983,138996,1.00532e+06
0.21,0.00033653,313881,-52131.2,-36427.3,780870,146539,140314,996981
0.212,0.000342405,315771,-50404.7,-35712.1,781488,144095,141633,988645
0.214,0.000348282,317662,-48678.3,-34997,782105,141651,142951,980310
0.216,0.000354161,319552,-46951.8,-34281.8,782723,139208,144270,971975
0.218,0.000360042,321443,-45225.3,-33566.7,783341,136764,145589,963640
0.22,0.000365925,323333,-43498.8,-32851.6,783959,134320,146907,955304
0.222,0.00037181,325224,-41772.4,-32136.4,784576,131876,148226,946969
0.224,0.000377696,327114,-40045.9,-31421.3,785194,129433,149544,938634
0.226,0.000384,316044,-37433.5,-24721.5,767850,126959,144171,927676
0.228,0.000390313,304669,-34800.2,-17881.3,750084,124485,138640,916657
0.23,0.000396626,293294,-32167,-11041,732317,122011,133109,905637
0.232,0.00040294,281919,-29533.8,-4200.81,714551,119537,127578,894618
0.234,0.000409254,270545,-26900.6,2639.45,696785,117063,122047,883599
0.236,0.000415568,259170,-24267.3,9479.71,679019,114589,116516,872580
0.238,0.000421883,247795,-21634.1,16320,661253,112115,110985,861560
0.24,0.000428425,245386,-21353.8,21066.3,655605,111289,110275,873272
0.242,0.000435019,244915,-21582.1,25359.9,652577,110819,110607,889897
0.244,0.000441614,244444,-21810.4,29653.6,649548,110349,110939,906523
0.246,0.000448211,243973,-22038.8,33947.3,646519,109880,111271,923148
0.248,0.00045481,243502,-22267.1,38240.9,643491,109410,111602,939774
0.25,0.00046141,243031,-22495.5,42534.6,640462,108940,111934,956399
0.252,0.000468012,242560,-22723.8,46828.2,637434,108470,112266,973025
0.254,0.000474615,242089,-22952.1,51121.9,634405,108000,112598,989650
0.256,0.00048122,241618,-23180.5,55415.6,631377,107530,112930,1.00628e+06
0.258,0.000487826,241147,-23408.8,59709.2,628348,107060,113262,1.0229e+06
0.26,0.000494433,240676,-23637.2,64002.8,625320,106590,113594,1.03953e+06
0.262,0.0005014,235690,-21809.8,66255.1,621398,110185,113458,1.04738e+06
0.264,0.000508437,229820,-19579.6,68107.4,617302,114576,113231,1.05352e+06
0.266,0.000515475,223950,-17349.4,69959.7,613205,118968,113003,1.05965e+06
0.268,0.000522513,218080,-15119.2,71812,609108,123359,112776,1.06579e+06
0.27,0.00052955,212210,-12889.1,73664.2,605011,127750,112549,1.07193e+06
0.272,0.000536589,206340,-10658.9,75516.5,600915,132142,112321,1.07806e+06
0.274,0.000543701,201568,-8251.16,76879.9,596842,136048,112138,1.08246e+06
0.276,0.000551158,201884,-5020.2,75977.3,592882,137710,112157,1.07884e+06
0.278,0.000558616,202200,-1789.24,75074.6,588921,139372,112177,1.07521e+06
0.28,0.000566074,202516,1441.71,74171.9,584961,141034,112196,1.07158e+06
0.282,0.000573828,208529,4175.8,71507.5,593458,138613,110787,1.05479e+06
0.284,0.000581695,216746,6717.68,68161.6,606774,134613,108827,1.03291e+06
0.286,0.000589563,224962,9259.56,64815.7,620091,130613,106866,1.01102e+06
0.288,0.000597431,233179,11801.4,61469.9,633407,126613,104905,989140
0.29,0.000605299,241396,14343.3,58124,646723,122613,102944,967256
0.292,0.000613168,249613,16885.2,54778.1,660040,118613,100984,945371
0.294,0.000621116,253404,16656.1,51159.1,673112,118043,100502,929797
0.296,0.000629078,256476,15976,47495.6,686145,118032,100261,915250
0.298,0.000637042,259547,15295.9,43832.2,699177,118020,100019,900703
0.3,0.000645007,262618,14615.7,40168.8,712210,118008,99778.2,886156
0.302,0.000652973,265690,13935.6,36505.4,725243,117997,99537.1,871609
0.304,0.00066094,268761,13255.5,32841.9,738275,117985,99295.9,857062
0.306,0.000668909,271833,12575.3,29178.5,751308,117973,99054.7,842515
0.308,0.000676879,274904,11895.2,25515,764341,117962,98813.5,827968
0.31,0.000684849,277975,11215.1,21851.6,777374,117950,98572.4,813421
0.312,0.000692835,280986,10462.9,17980.8,789827,117948,98459.8,799160
0.314,0.000701201,282338,7724.05,8392.57,786298,118216,101894,792786
0.316,0.000709568,283689,4985.2,-1195.7,782768,118483,105329,786411
0.318,0.000717935,285040,2246.39,-10783.8,779239,118751,108763,780037
0.32,0.000726302,286391,-492.458,-20372.1,775710,119018,112197,773663
0.322,0.000734669,287742,-3231.31,-29960.4,772181,119286,115632,767289
0.324,0.000743036,289093,-5970.16,-39548.6,768652,119553,119066,760914
0.326,0.000751424,290004,-8500.85,-48064.4,763803,119643,122358,756719
0.328,0.000759992,287059,-9209.45,-47192.1,747400,118175,124408,771602
0.33,0.00076856,284114,-9918.06,-46319.8,730997,116706,126457,786484
0.332,0.000777129,281169,-10626.7,-45447.6,714595,115238,128506,801366
0.334,0.0007857,278225,-11335.3,-44575.3,698192,113770,130555,816249
0.336,0.000794271,275280,-12043.9,-43703,681789,112301,132605,831131
0.338,0.000802842,272335,-12752.5,-42830.7,665387,110833,134654,846013
0.34,0.000811415,269390,-13461.1,-41958.5,648984,109364,136703,860896
0.342,0.000819988,266445,-14169.7,-41086.2,632581,107896,138752,875778
0.344,0.000828563,263500,-14878.3,-40213.9,616179,106428,140801,890660
0.346,0.000837137,260556,-15586.9,-39341.6,599776,104959,142851,905543
0.348,0.000845872,255091,-15854.2,-37095.8,583088,103992,142170,909205
0.35,0.000854895,245093,-15327.5,-32378.3,565888,103928,136577,892677
0.352,0.000863917,235095,-14800.8,-27660.7,548688,103863,130984,876150
0.354,0.00087294,225097,-14274.2,-22943.2,531488,103798,125391,859622
0.356,0.000881963,215098,-13747.5,-18225.6,514288,103733,119798,843094
0.358,0.000890985,205100,-13220.8,-13508.1,497087,103668,114205,826566
0.36,0.000900008,195102,-12694.1,-8790.51,479887,103603,108612,810038
0.362,0.000909031,185103,-12167.4,-4073.03,462687,103538,103019,793511
0.364,0.000918216,184181,-12235,-2872.39,465413,101945,101351,786296
0.366,0.000927432,184927,-12411.9,-2318.71,471804,100070,100406,780794
0.368,0.000936649,185674,-12588.8,-1765.04,478195,98195.4,99460.3,775292
0.37,0.000945867,186421,-12765.8,-1211.36,484586,96320.6,98514.8,769791
0.372,0.000955086,187168,-12942.7,-657.68,490976,94445.9,97569.4,764289
0.374,0.000964305,187914,-13119.6,-104.002,497367,92571.1,96624,758787
0.376,0.000973525,188661,-13296.5,449.668,503758,90696.4,95678.5,753285
0.378,0.000982746,189408,-13473.4,1003.35,510149,88821.6,94733.1,747783
0.38,0.000991968,190155,-13650.4,1557.02,516540,86946.9,93787.7,742282
0.382,0.00100121,191588,-13927.2,2018.89,525594,85503,93417.8,734522
0.384,0.00101049,195282,-14533.1,2178.34,543419,85478.2,94943.6,719328
0.386,0.00101978,198975,-15138.9,2337.79,561244,85453.4,96469.4,704134
0.388,0.00102907,202669,-15744.8,2497.24,579068,85428.6,97995.2,688940
0.39,0.00103835,206363,-16350.7,2656.69,596893,85403.8,99521,673746
0.392,0.00104764,210057,-16956.6,2816.14,614718,85379,101047,658552
0.394,0.00105713,212050,-17281.6,3423.84,627615,85741.6,103081,645762
0.396,0.00106703,210546,-17029.4,4952.71,630385,86900.1,106158,637914
0.398,0.00107693,209043,-16777.3,6481.59,633156,88058.7,109236,630065
0.4,0.00108683,207539,-16525.1,8010.46,635926,89217.2,112314,622216
0.402,0.00109672,206036,-16272.9,9539.34,638696,90375.7,115392,614367
0.404,0.00110662,204533,-16020.8,11068.2,641467,91534.3,118470,606518
0.406,0.00111652,203029,-15768.6,12597.1,644237,92692.8,121547,598669
0.408,0.00112642,201526,-15516.4,14125.9,647007,93851.3,124625,590820
0.41,0.00113641,196632,-14406.2,15251.6,641758,94607.7,124865,591274
0.412,0.00114665,188151,-12865.8,14699.1,619115,93227.8,119852,605261
0.414,0.00115689,179669,-11325.4,14146.7,596472,91847.9,114840,619248
0.416,0.00116713,171188,-9785.05,13594.2,573828,90468.1,109828,633235
0.418,0.00117737,162706,-8244.66,13041.7,551185,89088.2,104815,647222
0.42,0.0011876,154225,-6704.3,12489.3,528542,87708.3,99802.7,661209
0.422,0.00119784,145743,-5163.91,11936.8,505898,86328.5,94790.3,675196
0.424,0.00120809,137262,-3623.52,11384.3,483255,84948.6,89777.8,689182
0.426,0.00121833,128780,-2083.14,10831.8,460611,83568.7,84765.4,703169
0.428,0.00122857,120299,-542.748,10279.4,437968,82188.8,79752.9,717156
0.43,0.00123881,111817,997.638,9726.9,415325,80808.9,74740.5,731143
0.432,0.00124903,105411,643.745,8618.14,392540,78831.5,71778.4,736786
0.434,0.00125923,100804,-1353.63,7026.75,369632,76335.6,70595.3,735190
0.436,0.00126942,96197.7,-3351.04,5435.33,346724,73839.6,69412.2,733593
0.438,0.00127962,91591.3,-5348.45,3843.92,323816,71343.6,68229.1,731997
0.44,0.00128982,86984.8,-7345.86,2252.5,300908,68847.7,67046,730400
0.442,0.00130002,82378.3,-9343.27,661.09,278000,66351.7,65862.9,728804
0.444,0.00131044,82827,-15747.8,-691.083,266236,62829.2,66589.6,724639
0.446,0.00132104,87422.1,-25767.4,-1847.02,263614,58464.6,68882.9,718367
0.448,0.00133165,92017.2,-35786.9,-3002.96,260991,54100,71176.2,712095
0.45,0.00134225,96612.3,-45806.3,-4158.88,258368,49735.4,73469.5,705824
0.452,0.00135323,102488,-45182.7,-2476.41,277190,49760.1,77684.9,697346
0.454,0.00136423,108463,-43736.7,-574.573,297670,50123.9,82048.8,688697
0.456,0.00137524,114438,-42290.6,1327.26,318149,50487.8,86412.7,680048
0.458,0.00138624,120412,-40844.6,3229.09,338629,50851.6,90776.6,671400
0.46,0.00139724,126387,-39398.6,5130.92,359108,51215.4,95140.5,662751
0.462,0.00140825,132362,-37952.5,7032.76,379587,51579.3,99504.4,654103
0.464,0.00141925,138337,-36506.5,8934.56,400066,51943.1,103868,645454
0.466,0.00143026,144311,-35060.4,10836.4,420546,52307,108232,636806
0.468,0.00144126,150286,-33614.4,12738.2,441025,52670.8,112596,628157
0.47,0.00145227,156261,-32168.3,14640.1,461504,53034.6,116960,619508
0.472,0.00146327,162236,-30722.3,16541.9,481984,53398.5,121324,610860
0.474,0.00147428,168210,-29276.2,18443.7,502463,53762.3,125688,602211
0.476,0.00148529,174185,-27830.2,20345.6,522943,54126.2,130052,593563
0.478,0.00149626,179341,-24275.9,22424,541342,54806.4,134727,582896
0.48,0.00150719,183412,-17929.7,24736.4,556987,55905.7,139815,569557
0.482,0.00151812,187484,-11583.5,27048.9,572632,57004.9,144903,556217
0.484,0.00152906,191555,-5237.28,29361.3,588278,58104.1,149992,542878
0.486,0.00153999,195626,1108.92,31673.7,603923,59203.4,155080,529539
0.488,0.00155103,195942,7573.87,33230.8,613525,58893.9,156611,520946
0.49,0.00156231,187649,14311,33056.4,609275,55355.3,149988,523233
0.492,0.0015736,179355,21048.1,32882.1,605025,51816.6,143365,525520
0.494,0.00158489,171062,27785.2,32707.7,600775,48278.1,136742,527807
0.496,0.00159617,162769,34522.3,32533.4,596525,44739.5,130120,530094
0.498,0.00160746,154476,41259.4,32359,592275,41200.8,123497,532381
0.5,0.0016189,147803,44283,31864.3,588211,39109.2,116563,534654
0.502,0.00163047,142716,43706.3,30699.8,584616,37775.8,109532,537865
0.504,0.001642,139384,39324.9,26834.8,583104,33669.1,103533,547346
0.506,0.00165351,136264,35206,23186.3,581364,29852.6,97838.3,556174
0.508,0.00166497,134913,33284,21349.3,577716,28465.8,94691,559533
0.51,0.00167643,133561,31362,19512.4,574067,27079,91543.7,562893
0.512,0.00168788,132209,29440,17675.5,570419,25692.2,88396.3,566252
0.514,0.00169934,130857,27518.1,15838.6,566771,24305.5,85249.1,569611
0.516,0.00171079,129505,25596.2,14001.7,563123,22918.7,82101.8,572970
0.518,0.00172225,128153,23674.2,12164.7,559475,21531.9,78954.4,576329
0.52,0.00173371,126801,21752.2,10327.8,555827,20145.2,75807.1,579689
0.522,0.00174517,125450,19830.3,8490.85,552178,18758.4,72659.8,583048
0.524,0.00175662,124098,17908.3,6653.94,548530,17371.6,69512.5,586407
0.526,0.00176808,122746,15986.3,4816.98,544882,15984.8,66365.1,589766
0.528,0.0017796,121536,14779.4,3796.34,541977,15566.6,63867.8,593219
0.53,0.00179137,120926,16584.8,6214.2,542202,19228.1,64108.6,597065
0.532,0.00180314,120315,18390.1,8632.13,542428,22889.8,64349.5,600910
0.534,0.00181491,119705,20195.4,11050,542653,26551.4,64590.3,604756
0.536,0.00182668,119095,22000.8,13467.9,542878,30213.1,64831.1,608602
0.538,0.00183845,118484,23806.1,15885.8,543103,33874.7,65071.9,612448
0.54,0.00185022,117914,25498.9,18265,542813,37494,65328.5,615577
0.542,0.00186209,118078,25117.8,19929.7,533017,40331.9,65875.7,605492
0.544,0.00187419,117820,23003.1,19781.4,520023,42544.8,66167.4,595533
0.546,0.00188645,117234,19547.6,18230.7,504555,44274.4,66261.5,585671
0.548,0.00189871,116648,16092.1,16679.9,489088,46003.9,66355.6,575809
0.55,0.00191097,116063,12636.5,15129.2,473620,47733.5,66449.7,565947
0.552,0.00192324,115477,9181.06,13578.5,458152,49463,66543.8,556085
0.554,0.0019355,114891,5725.47,12027.7,442685,51192.6,66637.9,546223
0.556,0.0019479,114846,4386.74,13843.5,439130,51785.1,66288.3,563262
0.558,0.00196033,114928,3546.86,16452.8,438382,52109.6,65834.2,586643
0.56,0.00197276,115010,2707.01,19062,437635,52434.1,65380.1,610022
0.562,0.00198519,115093,1867.16,21671.2,436888,52758.6,64926,633402
0.564,0.00199762,115175,1027.28,24280.6,436140,53083.1,64471.9,656783
0.566,0.00201005,115257,187.426,26889.8,435393,53407.5,64017.8,680162
0.568,0.00202249,115339,-652.451,29499.1,434646,53732,63563.7,703543
0.57,0.00203492,115422,-1492.3,32108.3,433898,54056.5,63109.5,726923
0.572,0.00204735,115504,-2332.18,34717.6,433151,54381,62655.4,750303
0.574,0.0020599,114618,-2738.37,37701.2,422293,54332.9,59481.5,758230
0.576,0.00207255,111912,-3467.14,40762.5,417150,54316.2,59165.7,756196
0.578,0.00208521,109054,-4271.7,43803.4,413545,54333.7,59430.3,754156
0.58,0.00209787,106197,-5076.24,46844.2,409940,54351.1,59694.9,752116
0.582,0.00211052,103339,-5880.8,49885,406335,54368.5,59959.6,750076
0.584,0.00212318,100482,-6685.33,52925.8,402731,54385.9,60224.2,748036
0.586,0.00213583,97623.9,-7489.89,55966.7,399126,54403.3,60488.8,745996
0.588,0.00214849,94766.4,-8294.43,59007.5,395521,54420.8,60753.4,743956
0.59,0.00216115,91908.9,-9098.96,62048.3,391916,54438.2,61018,741916
0.592,0.0021738,89051.3,-9903.52,65089.2,388312,54455.6,61282.7,739876
0.594,0.00218646,86193.8,-10708.1,68130,384707,54473,61547.3,737836
0.596,0.00219928,85584.9,-11169.4,69489.9,384055,55973.4,63539.5,733930
0.598,0.00221222,86444.6,-11406.6,69752,385333,58442.3,66660,728806
0.6,0.00222515,87304.4,-11643.8,70014.1,386610,60911.3,69780.6,723682
0.602,0.00223805,88425.3,-11718.7,69303.3,386205,63587,72128.8,713507
0.604,0.00225093,89670.5,-11716.2,68129.1,384997,66361.2,74109.4,700928
0.606,0.00226382,90915.8,-11713.8,66954.9,383790,69135.5,76090.1,688348
0.608,0.0022767,92161,-11711.3,65780.7,382583,71909.8,78070.6,675769
0.61,0.00228959,93406.2,-11708.8,64606.5,381376,74684.1,80051.3,663189
0.612,0.00230247,94651.4,-11706.4,63432.3,380169,77458.3,82031.9,650610
0.614,0.00231536,95896.7,-11703.9,62258.1,378962,80232.6,84012.5,638030
0.616,0.00232824,97141.9,-11701.5,61083.9,377755,83006.9,85993.1,625451
0.618,0.00234113,98387.1,-11699,59909.7,376547,85781.1,87973.6,612872
0.62,0.00235405,98636.9,-11218.3,58100.5,373986,88494,89603.6,604920
0.622,0.0023671,95487.5,-9104.35,54123.1,366802,90997,90036.1,612770
0.624,0.00238016,92338,-6990.38,50145.5,359617,93500.1,90468.6,620620
0.626,0.00239332,89261,-5488.11,46841.7,353369,93984.6,90931.5,622265
0.628,0.0024066,86257.1,-4604.02,44218.6,348066,92428.9,91425.2,617639
0.63,0.00241987,83253.2,-3719.95,41595.5,342763,90873.3,91918.8,613013
0.632,0.00243315,80249.2,-2835.86,38972.4,337461,89317.6,92412.4,608387
0.634,0.00244643,77245.3,-1951.79,36349.4,332158,87762,92906.1,603761
0.636,0.00245977,74780.4,-1417.67,34704,327074,85939.6,93203.2,599381
0.638,0.0024733,73648.7,-1749.29,35477.2,322533,83457.6,93014.3,595612
0.64,0.00248682,72517,-2080.9,36250.5,317991,80975.6,92825.4,591842
0.642,0.00250035,71385.3,-2412.53,37023.8,313450,78493.5,92636.5,588073
0.644,0.00251387,70253.6,-2744.14,37797,308908,76011.5,92447.6,584303
0.646,0.00252748,69431.4,-2699.8,37695.4,306765,73924.9,91519,580558
0.648,0.00254124,69091.6,-2069.3,36229.6,308362,72454.9,89437.1,576850
0.65,0.00255499,68751.8,-1438.79,34763.8,309958,70985,87355.2,573142
0.652,0.00256875,68411.9,-808.257,33297.9,311555,69515,85273.2,569434
0.654,0.0025825,68072.1,-177.748,31832.1,313152,68045.1,83191.3,565726
0.656,0.00259626,67732.3,452.781,30366.3,314748,66575.1,81109.3,562018
0.658,0.00261001,67392.5,1083.29,28900.5,316345,65105.2,79027.4,558310
0.66,0.00262377,67052.7,1713.82,27434.7,317942,63635.2,76945.4,554602
0.662,0.00263753,66712.9,2344.33,25968.9,319539,62165.3,74863.5,550894
0.664,0.00265128,66373.1,2974.84,24503.1,321135,60695.3,72781.6,547186
0.666,0.00266504,66033.2,3605.37,23037.3,322732,59225.3,70699.6,543478
0.668,0.00267879,65693.4,4235.88,21571.5,324329,57755.4,68617.7,539770
0.67,0.00269255,65353.6,4866.4,20105.6,325925,56285.4,66535.7,536062
0.672,0.00270631,65013.8,5496.91,18639.8,327522,54815.5,64453.8,532354
0.674,0.00272006,64674,6127.44,17174,329119,53345.5,62371.8,528646
0.676,0.00273382,64334.2,6757.95,15708.2,330715,51875.5,60289.9,524938
0.678,0.00274758,63994.4,7388.46,14242.4,332312,50405.6,58208,521230
0.68,0.00276134,63627.3,8049.81,12677.7,333445,49147.6,55849.8,517558
0.682,0.00277527,62701.4,9343.12,9084.9,325062,52236.5,47828.1,514630
0.684,0.00278919,61775.6,10636.5,5492.02,316679,55325.4,39806.2,511702
0.686,0.00280312,60849.7,11929.8,1899.25,308297,58414.3,31784.5,508773
0.688,0.00281704,59923.8,13223.1,-1693.64,299914,61503.2,23762.5,505845
0.69,0.00283097,58998,14516.4,-5286.41,291531,64592.1,15740.8,502916
0.692,0.00284489,58072.1,15809.8,-8879.19,283149,67681,7719.12,499988
0.694,0.00285882,57146.2,17103.1,-12472.1,274766,70769.9,-302.817,497059
0.696,0.00287274,56220.4,18396.4,-16064.8,266383,73858.8,-8324.52,494131
0.698,0.00288675,55649.9,18923.6,-17946,260390,76356.3,-14466.9,489160
0.7,0.00290092,55820.6,17853,-16257.3,259379,77620.1,-16689,479930
0.702,0.0029151,55991.3,16782.3,-14568.5,258368,78884,-18911.2,470700
0.704,0.00292927,56162,15711.7,-12879.7,257357,80147.9,-21133.3,461470
0.706,0.00294345,56332.7,14641,-11191,256346,81411.7,-23355.4,452241
0.708,0.00295762,56503.4,13570.4,-9502.18,255335,82675.6,-25577.6,443010
0.71,0.0029718,56674.1,12499.7,-7813.43,254324,83939.5,-27799.7,433780
0.712,0.00298617,56269.7,13464.7,-8952.1,259815,83782.3,-30255.8,430616
0.714,0.00300073,55343.6,16276.8,-12656.3,271205,82335.9,-32924.1,432956
0.716,0.00301529,54417.3,19089,-16360.6,282596,80889.3,-35592.4,435295
0.718,0.00302985,53491.1,21901,-20064.7,293986,79442.9,-38260.6,437635
0.72,0.0030444,52564.9,24713.2,-23769,305377,77996.3,-40929,439974
0.722,0.00305896,51638.7,27525.3,-27473.2,316767,76549.9,-43597.2,442314
0.724,0.00307349,51242.5,30990.9,-29500.2,327085,75961.5,-45487.5,446874
0.726,0.00308797,52075.4,35972.3,-27638,334919,77363.2,-45573.4,456584
0.728,0.00310244,52908.2,40953.5,-25775.7,342752,78764.9,-45659.4,466293
0.73,0.00311691,53741,45934.9,-23913.4,350586,80166.6,-45745.3,476004
0.732,0.00313138,54573.8,50916.2,-22051.2,358419,81568.2,-45831.3,485713
0.734,0.00314585,55406.6,55897.6,-20188.9,366252,82969.9,-45917.2,495423
0.736,0.00316032,56239.5,60878.8,-18326.7,374086,84371.6,-46003.2,505133
0.738,0.00317479,57072.3,65860.1,-16464.4,381919,85773.3,-46089.1,514843
0.74,0.00318922,54924.8,62403.3,-20063.2,382701,84719.2,-50710.8,507018
0.742,0.00320365,52684.3,58683,-23832.5,383262,83588.5,-55474,498646
0.744,0.00321808,50443.8,54962.6,-27601.9,383824,82457.8,-60237.4,490274
0.746,0.00323251,48203.3,51242.3,-31371.2,384385,81327.1,-65000.6,481902
0.748,0.00324709,50816.8,50066.8,-29459.8,382096,81368.6,-59914.6,474406
0.75,0.00326169,53774.8,49072,-27145.3,379604,81493.3,-54129.7,466973
0.752,0.00327629,56732.8,48077.1,-24830.8,377112,81618,-48344.7,459540
0.754,0.00329089,59690.8,47082.2,-22516.3,374621,81742.8,-42559.6,452106
0.756,0.00330571,58933.8,43334.2,-22032.4,372180,81972.5,-37485.5,445979
0.758,0.00332055,57934.8,39406.7,-21667.8,369743,82209,-32457.6,439937
0.76,0.00333538,56935.8,35479.4,-21303.1,367306,82445.6,-27429.9,433894
0.762,0.00335028,55527.7,32810.9,-20649.9,364659,82502.9,-23384.9,431855
0.764,0.00336529,53379.4,32420.4,-19474.4,361632,82235.7,-21118.4,437057
0.766,0.00338029,51231.1,32029.9,-18298.9,358605,81968.5,-18851.8,442260
0.768,0.0033953,49082.7,31639.4,-17123.4,355578,81701.4,-16585.3,447463
0.77,0.00341031,46934.3,31248.9,-15947.9,352551,81434.2,-14318.7,452666
0.772,0.00342532,44786,30858.4,-14772.4,349525,81167.1,-12052.2,457869
0.774,0.00344029,43066.4,29887.3,-13676.6,344523,80738.1,-9283.17,462938
0.776,0.00345521,42205.7,27753.3,-12740.4,335566,79984.9,-5507.54,467737
0.778,0.00347012,41345,25619.3,-11804.3,326610,79231.7,-1732.03,472537
0.78,0.00348504,40484.3,23485.4,-10868.1,317653,78478.5,2043.48,477336
0.782,0.00349995,39623.6,21351.4,-9931.89,308696,77725.3,5819.1,482136
0.784,0.00351487,38762.9,19217.4,-8995.73,299739,76972.2,9594.61,486936
0.786,0.00352979,37902.2,17083.4,-8059.53,290783,76219,13370.2,491735
0.788,0.0035447,37041.6,14949.4,-7123.36,281826,75465.8,17145.7,496535
0.79,0.00355962,36180.9,12815.4,-6187.16,272869,74712.6,20921.4,501335
0.792,0.00357456,35580.9,10770.4,-5355.73,263790,73894.2,24711.4,504916
0.794,0.00358989,38948.5,10078.8,-6117.87,252843,72083.9,28722.8,489961
0.796,0.00360522,42316,9387.2,-6879.98,241896,70273.7,32734.1,475006
0.798,0.00362055,45683.5,8695.63,-7642.1,230949,68463.5,36745.3,460051
0.8,0.00363588,49051,8004.04,-8404.24,220002,66653.2,40756.7,445096
0.802,0.00365121,52418.5,7312.47,-9166.36,209055,64842.9,44768,430141
0.804,0.00366655,55786.1,6620.88,-9928.5,198108,63032.6,48779.3,415186
0.806,0.00368188,59153.6,5929.31,-10690.6,187161,61222.4,52790.6,400231
0.808,0.00369721,62521.2,5237.72,-11452.8,176214,59412.1,56802,385276
0.81,0.00371262,65254.7,4797.68,-11582.8,173233,58802.9,59841.5,377884
0.812,0.00372809,67473.7,4561.72,-11199.9,176714,59168.1,62092.5,376628
0.814,0.00374357,69692.9,4325.76,-10817,180196,59533.3,64343.6,375373
0.816,0.00375904,71912,4089.81,-10434.2,183677,59898.6,66594.6,374117
0.818,0.00377451,74131.1,3853.85,-10051.3,187159,60263.8,68845.7,372862
0.82,0.00378999,76350.2,3617.89,-9668.44,190640,60629,71096.8,371606
0.822,0.00380546,78569.3,3381.93,-9285.56,194122,60994.3,73347.9,370351
0.824,0.00382094,80788.4,3145.98,-8902.7,197603,61359.5,75598.9,369095
0.826,0.00383641,83007.5,2910.02,-8519.83,201085,61724.7,77849.9,367840
0.828,0.00385189,85226.6,2674.06,-8136.96,204566,62090,80101,366584
0.83,0.00386736,87445.7,2438.11,-7754.09,208048,62455.2,82352,365329
0.832,0.00388284,89664.8,2202.15,-7371.22,211529,62820.4,84603.1,364073
0.834,0.00389831,91883.9,1966.19,-6988.35,215011,63185.7,86854.2,362818
0.836,0.00391379,94103,1730.23,-6605.48,218492,63550.9,89105.3,361562
0.838,0.00392926,96322.1,1494.28,-6222.61,221974,63916.1,91356.3,360307
0.84,0.00394474,98541.2,1258.32,-5839.75,225455,64281.4,93607.3,359051
0.842,0.00396016,99879.7,1465.49,-5260.65,228617,64948.7,95674.1,358400
0.844,0.00397558,101144,1709.73,-4665.16,231751,65641.3,97725.4,357800
0.846,0.003991,102409,1953.98,-4069.64,234886,66333.9,99776.8,357200
0.848,0.00400642,103674,2198.22,-3474.15,238021,67026.5,101828,356599
0.85,0.00402184,104939,2442.47,-2878.64,241156,67719.1,103880,355999
0.852,0.00403749,104711,1703.11,-1654.72,237835,67864.5,102041,356259
0.854,0.00405319,104180,763.068,-302.596,233196,67898.3,99409.9,356696
0.856,0.00406892,101853,113.397,946.993,227777,67887,94957.2,356770
0.858,0.00408471,96851.3,-103.092,2043.54,221194,67808.5,87788.2,356306
0.86,0.00410049,91848.9,-319.588,3140.12,214610,67729.9,80619,355841
0.862,0.00411628,86846.6,-536.078,4236.67,208027,67651.4,73450.1,355376
0.864,0.00413206,81844.2,-752.574,5333.24,201443,67572.8,66280.9,354912
0.866,0.00414798,78706.9,-620.075,5947.79,199661,67542,61860.8,354213
0.868,0.00416399,76808.2,-255.803,6242.24,201068,67542.8,59266.2,353359
0.87,0.00418,74909.4,108.479,6536.69,202474,67543.7,56671.5,352504
0.872,0.004196,73010.6,472.75,6831.14,203880,67544.6,54077,351650
0.874,0.00421201,71111.9,837.032,7125.59,205287,67545.5,51482.3,350795
0.876,0.00422802,69213.1,1201.3,7420.03,206693,67546.3,48887.7,349941
0.878,0.00424402,67804.9,1836.5,8026.12,208957,67474.8,46747.3,348682
0.88,0.00426002,66486.9,2521.49,8689.48,211378,67390,44690.5,347350
0.882,0.00427603,65168.9,3206.5,9352.87,213799,67305.2,42633.6,346017
0.884,0.00429203,63851,3891.49,10016.2,216220,67220.4,40576.8,344684
0.886,0.00430803,62533,4576.48,10679.6,218641,67135.6,38519.9,343351
0.888,0.00432403,61215,5261.49,11343,221062,67050.8,36463,342018
0.89,0.00434003,59897,5946.48,12006.3,223483,66966,34406.2,340686
0.892,0.00435603,58579,6631.49,12669.7,225904,66881.2,32349.3,339353
0.894,0.00437203,57261,7316.48,13333.1,228325,66796.4,30292.5,338020
0.896,0.00438804,55943,8001.49,13996.5,230747,66711.6,28235.6,336687
0.898,0.00440404,54625,8686.48,14659.8,233168,66626.8,26178.7,335354
0.9,0.00442004,53307.1,9371.47,15323.2,235589,66542,24121.9,334021
0.902,0.00443604,51989.1,10056.5,15986.6,238010,66457.2,22065,332689
0.904,0.00445222,48333.5,9402.92,15579.4,238352,67900,19445.3,335824
0.906,0.00446842,44481.8,8637.1,15082.4,238521,69471,16778.3,339334
0.908,0.00448462,40630.3,7871.31,14585.5,238689,71041.9,14111.4,342844
0.91,0.00450081,36778.6,7105.49,14088.5,238857,72612.9,11444.4,346354
0.912,0.00451701,32927.1,6339.7,13591.5,239026,74183.8,8777.47,349864
0.914,0.0045332,29075.6,5573.91,13094.6,239194,75754.8,6110.55,353373
0.916,0.0045494,25223.9,4808.09,12597.6,239362,77325.7,3443.55,356883
0.918,0.0045656,21372.3,4042.3,12100.6,239531,78896.6,776.636,360393
0.92,0.00458194,19161.1,4066.07,11740,239249,80152.7,-829.283,363083
0.922,0.00459845,18712.8,4938.38,11525.9,238484,81070.4,-1294.84,364891
0.924,0.00461495,18264.5,5810.73,11311.8,237718,81988.1,-1760.42,366698
0.926,0.00463145,17816.2,6683.05,11097.7,236953,82905.8,-2225.98,368506
0.928,0.00464796,17367.9,7555.37,10883.5,236187,83823.4,-2691.54,370314
0.93,0.00466442,17908.2,8142.48,10991.2,231590,84795.6,-3023.49,367741
0.932,0.00468089,18488,8718.17,11111.6,226840,85770,-3350.1,364993
0.934,0.00469736,19067.8,9293.89,11232.1,222090,86744.5,-3676.72,362245
0.936,0.00471383,19647.6,9869.58,11352.5,217340,87718.8,-4003.32,359496
0.938,0.00473029,20227.5,10445.3,11473,212590,88693.3,-4329.94,356748
0.94,0.00474676,20807.3,11021,11593.4,207840,89667.6,-4656.55,354000
0.942,0.00476323,21387.1,11596.7,11713.9,203090,90642,-4983.15,351252
0.944,0.0047797,21966.9,12172.4,11834.4,198340,91616.4,-5309.77,348504
0.946,0.00479616,22546.7,12748.1,11954.8,193590,92590.8,-5636.38,345756
0.948,0.00481263,23126.5,13323.8,12075.3,188840,93565.2,-5962.99,343008
0.95,0.0048291,23706.3,13899.5,12195.7,184090,94539.6,-6289.6,340260
0.952,0.00484557,24286.2,14475.2,12316.2,179339,95514,-6616.22,337511
0.954,0.00486203,24866,15050.9,12436.7,174589,96488.4,-6942.83,334763
0.956,0.0048785,25445.8,15626.6,12557.1,169839,97462.8,-7269.43,332015
0.958,0.00489502,29227.8,17760.6,13169.4,172084,99492.8,-3265.78,332862
0.96,0.00491161,37069.7,21870.3,14405.3,183198,102861,6228.12,338265
0.962,0.00492829,49505.4,28871.6,16027,213622,107592,21843,359165
0.964,0.0049451,67419.7,39321.7,18108.7,267076,113949,44757.6,398547
0.966,0.00496186,79843,45641.9,19319.6,302902,117983,61590.5,423664
0.968,0.00497849,74679.4,38734.6,17741.1,282264,114577,58943.4,403092
0.97,0.00499512,69515.6,31827.2,16162.6,261625,111172,56296.2,382520
0.972,0.00501174,64351.9,24920,14584.1,240987,107767,53649.1,361949
0.974,0.00502837,59188.2,18012.8,13005.7,220349,104362,51002,341377
0.976,0.00504505,54312.3,12748.7,12379,206788,100890,49446.9,327946
0.978,0.00506174,49394.3,7778.3,11974.2,194756,97346.5,48104.6,316030
0.98,0.00507857,48851.1,7643.55,12415.1,193596,95881,49311,316076
0.982,0.0050954,48307.8,7508.8,12856,192436,94415.7,50517.2,316122
0.984,0.00511223,47764.6,7374.05,13296.9,191276,92950.2,51723.5,316169
0.986,0.00512906,47221.4,7239.3,13737.8,190116,91484.9,52929.8,316215
0.988,0.00514589,46678.1,7104.55,14178.7,188956,90019.5,54136.1,316261
0.99,0.00516272,46134.9,6969.8,14619.6,187796,88554.1,55342.4,316307
0.992,0.00517955,45591.7,6835.05,15060.5,186636,87088.7,56548.7,316353
0.994,0.00519638,45048.4,6700.3,15501.4,185476,85623.3,57755,316399
0.996,0.00521321,44505.2,6565.55,15942.3,184316,84157.9,58961.3,316445
0.998,0.00523004,43962,6430.8,16383.2,183156,82692.5,60167.6,316491
1,0.00524688,43418.7,6296.05,16824.1,181996,81227.1,61373.9,316538
1.002,0.00526371,42875.5,6161.3,17265,180836,79761.7,62580.2,316584
1.004,0.00528054,42332.3,6026.56,17705.8,179676,78296.3,63786.4,316630
1.006,0.00529737,41789,5891.8,18146.8,178516,76830.9,64992.8,316676
1.008,0.0053142,41245.8,5757.05,18587.7,177356,75365.5,66199.1,316722
1.01,0.00533103,40702.6,5622.3,19028.6,176197,73900.1,67405.4,316768
1.012,0.00534786,40159.3,5487.56,19469.4,175037,72434.8,68611.6,316814
1.014,0.00536469,39616.1,5352.8,19910.4,173877,70969.3,69818,316861
1.016,0.00538152,39072.9,5218.05,20351.3,172717,69503.9,71024.3,316907
1.018,0.00539835,38529.6,5083.3,20792.2,171557,68038.5,72230.5,316953
1.02,0.00541519,37986.4,4948.56,21233.1,170397,66573.2,73436.8,316999
1.022,0.00543202,37443.2,4813.81,21673.9,169237,65107.8,74643.1,317045
1.024,0.00544885,36899.9,4679.05,22114.9,168077,63642.3,75849.5,317091
1.026,0.00546562,37223,4151.31,22157.9,166927,61896.6,77272.1,315908
1.028,0.00548258,35477,2890.59,21977.9,164914,60412.9,73604.3,317666
1.03,0.00549964,33614.1,1780.05,22990.7,162917,59730.9,68801.4,318600
1.032,0.0055167,31751.1,669.519,24003.6,160920,59049,63998.5,319535
1.034,0.00553376,29888,-441.08,25016.4,158924,58367,59195.2,320469
1.036,0.00555082,28025.1,-1551.61,26029.3,156927,57685,54392.3,321404
1.038,0.00556788,26162.1,-2662.15,27042.1,154930,57003,49589.4,322338
1.04,0.00558494,24299.2,-3772.68,28054.9,152933,56321,44786.4,323273
1.042,0.005602,22436.1,-4883.28,29067.8,150936,55639,39983.2,324207
1.044,0.00561906,21313.8,-5499.83,30621,148000,55446.6,36576.1,323818
1.046,0.00563628,21365.9,-5055.2,31135.4,149633,56299.5,35204.5,318794
1.048,0.00565349,21414,-4604.12,31583.8,151472,57158.6,33819.3,313693
1.05,0.0056707,21462,-4153.03,32032.1,153312,58017.7,32434,308592
1.052,0.00568792,21510.1,-3701.92,32480.5,155151,58876.8,31048.7,303490
1.054,0.00570514,21558.1,-3250.84,32928.9,156990,59735.9,29663.4,298389
1.056,0.00572235,21606.2,-2799.75,33377.2,158830,60594.9,28278.2,293288
1.058,0.00573957,21654.2,-2348.67,33825.6,160669,61454,26892.9,288187
1.06,0.00575678,21702.2,-1897.58,34274,162509,62313.1,25507.6,283086
1.062,0.005774,21750.3,-1446.47,34722.4,164348,63172.2,24122.3,277984
1.064,0.00579121,21798.3,-995.388,35170.7,166188,64031.3,22737,272883
1.066,0.00580843,21846.4,-544.304,35619.1,168027,64890.4,21351.8,267782
1.068,0.00582564,21894.4,-93.2195,36067.4,169866,65749.5,19966.5,262681
1.07,0.00584286,21942.4,357.892,36515.8,171706,66608.6,18581.2,257580
1.072,0.00586007,21990.5,808.976,36964.2,173545,67467.7,17195.9,252478
1.074,0.00587731,22072.6,1610.59,36985.5,174131,67630.1,16295,245712
1.076,0.0058946,22251.3,3406.6,35795.5,171162,65816.3,16768.1,234221
1.078,0.00591189,22430,5202.61,34605.5,168193,64002.4,17241.2,222731
1.08,0.0059292,22244.4,6843.32,33752.2,164839,62258.9,17197.3,213081
1.082,0.00594663,21195.7,7544.78,33930.9,161715,61181.6,15569.3,212259
1.084,0.00596411,20873.8,7547.65,33850.9,161373,60845.5,14338.5,215653
1.086,0.0059816,20552,7550.52,33770.9,161031,60509.4,13107.8,219047
1.088,0.00599908,20230.1,7553.4,33690.9,160689,60173.3,11876.9,222442
1.09,0.00601656,19908.3,7556.27,33610.8,160347,59837.3,10646.2,225836
1.092,0.00603405,19586.4,7559.14,33530.8,160004,59501.2,9415.38,229230
1.094,0.00605153,19264.6,7562.01,33450.8,159662,59165.2,8184.62,232624
1.096,0.00606901,18942.8,7564.88,33370.8,159320,58829.1,6953.85,236018
1.098,0.0060865,18620.9,7567.76,33290.8,158978,58493,5723.01,239412
1.1,0.00610398,18299.1,7570.63,33210.7,158636,58156.9,4492.24,242806
1.102,0.00612146,17977.2,7573.5,33130.7,158293,57820.9,3261.47,246200
1.104,0.00613895,17655.4,7576.37,33050.7,157951,57484.8,2030.7,249594
1.106,0.00615643,17333.6,7579.24,32970.7,157609,57148.7,799.934,252988
1.108,0.00617392,17794.4,7605.56,32105.5,156377,56669.7,297.684,254679
1.11,0.00619141,18579.4,7641.58,30915.4,154777,56131.6,97.1455,255663
1.112,0.0062089,19364.4,7677.61,29725.2,153176,55593.4,-103.393,256648
1.114,0.00622639,20149.3,7713.63,28535,151576,55055.3,-303.931,257633
1.116,0.00624388,20934.3,7749.65,27344.8,149976,54517.1,-504.481,258618
1.118,0.00626137,21719.3,7785.68,26154.6,148376,53978.9,-705.02,259603
1.12,0.00627886,22504.2,7821.7,24964.5,146775,53440.8,-905.558,260587
1.122,0.00629645,22955.8,8761.37,22544.5,144614,53314.6,952.283,257851
1.124,0.00631406,23340.4,9882.64,19877.3,142340,53271.2,3223.81,254366
1.126,0.00633168,23725,11004,17210,140065,53227.8,5495.47,250882
1.128,0.00634929,24109.6,12125.3,14542.9,137791,53184.4,7767,247397
1.13,0.00636691,24494.2,13246.5,11875.7,135517,53141,10038.5,243913
1.132,0.00638452,24878.7,14367.8,9208.58,133243,53097.6,12310.1,240428
1.134,0.00640217,24994.1,15145,7547.9,130930,53288.7,14264.4,237280
1.136,0.00641989,24710.5,15411.9,7379.33,128558,53827.6,15748.7,234631
1.138,0.0064376,24426.9,15678.9,7210.76,126187,54366.4,17232.8,231982
1.14,0.0064553,24311.3,15528,6926.31,124544,53882,17176.5,228458
1.142,0.006473,24225.8,15302.4,6621.11,123031,53214.5,16844.4,224777
1.144,0.0064907,24140.4,15076.7,6315.89,121518,52546.9,16512.2,221095
1.146,0.0065084,24054.9,14851.1,6010.69,120006,51879.3,16180.1,217414
1.148,0.0065261,23969.4,14625.4,5705.49,118493,51211.8,15848,213733
1.15,0.0065438,23883.9,14399.7,5400.29,116981,50544.2,15515.9,210052
1.152,0.0065615,23798.4,14174.1,5095.09,115468,49876.7,15183.8,206371
1.154,0.0065792,23712.9,13948.4,4789.87,113955,49209.1,14851.6,202690
1.156,0.0065969,23627.4,13722.7,4484.67,112443,48541.5,14519.5,199009
1.158,0.0066146,23541.9,13497.1,4179.47,110930,47874,14187.4,195328
1.16,0.0066323,23456.5,13271.4,3874.27,109417,47206.4,13855.3,191647
1.162,0.00665,23371,13045.8,3569.07,107905,46538.9,13523.1,187966
1.164,0.0066677,23285.5,12820.1,3263.85,106392,45871.3,13191,184284
1.166,0.0066854,23200,12594.4,2958.65,104879,45203.7,12858.9,180603
1.168,0.0067031,22993.2,12444.6,2600.53,103964,44473.2,12570.1,177400
1.17,0.00672081,22489.9,12479.7,2113.16,104505,43589,12387.2,175361
1.172,0.00673852,21986.6,12514.9,1625.76,105047,42704.7,12204.3,173322
1.174,0.00675623,21483.4,12550,1138.39,105589,41820.4,12021.5,171284
1.176,0.00677394,20980.1,12585.2,651.025,106131,40936.2,11838.6,169245
1.178,0.0067917,19821,12257.1,270.807,105203,39937.9,10727.7,166999
1.18,0.00680957,17138.8,11085.5,139.416,100864,38675,7461.67,164270
1.182,0.00682744,14456.4,9913.8,8.01749,96524,37412,4195.47,161540
1.184,0.00684531,11774.2,8742.19,-123.373,92184.6,36149.1,929.46,158811
1.186,0.00686317,9091.96,7570.57,-254.764,87845.1,34886.2,-2336.55,156082
1.188,0.00688104,6409.73,6398.96,-386.154,83505.7,33623.3,-5602.56,153353
1.19,0.00689895,6370.17,6273.94,-287.185,83962.7,33617.9,-5371.9,152699
1.192,0.00691687,6933.74,6387.79,-135.649,85514.4,33899.4,-4343.23,152518
1.194,0.00693479,7497.3,6501.63,15.8879,87066,34180.9,-3314.56,152338
1.196,0.00695271,8060.87,6615.48,167.424,88617.7,34462.5,-2285.89,152157
1.198,0.00697063,8624.44,6729.33,318.961,90169.3,34744,-1257.22,151977
1.2,0.00698855,9188.04,6843.19,470.507,91721.1,35025.6,-228.489,151797
1.202,0.00700647,9751.6,6957.04,622.043,93272.7,35307.1,800.182,151616
1.204,0.00702439,10315.2,7070.89,773.58,94824.4,35588.6,1828.85,151436
1.206,0.00704231,10878.7,7184.74,925.116,96376.1,35870.1,2857.52,151255
1.208,0.00706023,11442.3,7298.59,1076.65,97927.7,36151.7,3886.19,151075
1.21,0.00707815,12005.9,7412.44,1228.2,99479.5,36433.2,4914.93,150894
1.212,0.00709607,12569.5,7526.29,1379.73,101031,36714.8,5943.6,150714
1.214,0.00711398,13133,7640.14,1531.27,102583,36996.3,6972.27,150534
1.216,0.00713192,13649.5,8115.73,1798.06,104886,37295.3,8632.93,151202
1.218,0.00714988,14108.8,9029.81,2204.56,108101,37615.5,11059.8,152901
1.22,0.00716783,16356.1,9918.77,2641.34,112288,38436.6,14198.8,154801
1.222,0.00718579,19883.9,10789.8,3099.82,117173,39616.4,17848.1,156845
1.224,0.00720374,23411.6,11660.8,3558.29,122057,40796.2,21497.3,158889
1.226,0.0072217,26939.4,12531.8,4016.77,126942,41976,25146.5,160933
1.228,0.00723966,30467.4,13402.9,4475.27,131827,43155.9,28796,162978
1.23,0.00725761,33995.1,14273.9,4933.75,136711,44335.7,32445.2,165022
1.232,0.00727562,36940.9,14735.6,4939.74,139064,45264,35025.6,165201
1.234,0.00729371,38795.4,14429.7,4097.14,136669,45720.7,35601.6,161883
1.236,0.0073118,39370.2,14092,3508.86,133833,45969.4,35785.2,160089
1.238,0.00732989,38538,13719.4,3200.19,130512,45989.4,35537.3,159971
1.24,0.00734797,37705.9,13346.9,2891.54,127190,46009.4,35289.4,159853
1.242,0.00736605,36873.8,12974.3,2582.89,123869,46029.4,35041.5,159735
1.244,0.00738414,36041.6,12601.8,2274.24,120548,46049.4,34793.6,159617
1.246,0.00740222,35209.5,12229.2,1965.57,117226,46069.4,34545.7,159499
1.248,0.0074203,34377.3,11856.7,1656.92,113905,46089.5,34297.8,159381
1.25,0.00743838,33545.2,11484.1,1348.27,110584,46109.5,34049.9,159263
1.252,0.00745647,32713.1,11111.6,1039.61,107262,46129.5,33802,159145
1.254,0.00747455,31880.9,10739,730.964,103941,46149.5,33554.1,159027
1.256,0.00749263,31048.7,10366.5,422.295,100620,46169.5,33306.2,158909
1.258,0.00751072,30216.6,9993.9,113.644,97298.2,46189.5,33058.3,158791
1.26,0.00752882,30001.6,9686.07,-144.476,95231.4,46002.4,33045.2,160571
1.262,0.00754693,29989.8,9399.55,-385.955,93577.7,45747.2,33109.4,162978
1.264,0.00756503,29978,9113.02,-627.449,91924,45491.8,33173.6,165384
1.266,0.00758314,29966.3,8826.5,-868.928,90270.3,45236.6,33237.9,167790
1.268,0.00760125,29954.5,8539.99,-1110.41,88616.6,44981.3,33302.1,170196
1.27,0.00761936,29942.7,8253.47,-1351.89,86962.9,44726,33366.3,172602
1.272,0.00763747,29930.9,7966.96,-1593.37,85309.3,44470.7,33430.5,175009
1.274,0.00765557,29919.2,7680.43,-1834.86,83655.5,44215.4,33494.7,177415
1.276,0.00767378,30062.2,7028.06,-2028.28,83667.6,42960.5,33998.4,179245
1.278,0.007692,30230.8,6315.24,-2213.77,83954.9,41540.5,34574.8,180979
1.28,0.00771021,30399.3,5602.43,-2399.25,84242.3,40120.4,35151.2,182713
1.282,0.00772843,30567.9,4889.61,-2584.73,84529.6,38700.4,35727.5,184448
1.284,0.00774665,30736.5,4176.75,-2770.22,84817,37280.3,36303.9,186182
1.286,0.00776487,30905.1,3463.93,-2955.71,85104.3,35860.2,36880.3,187917
1.288,0.00778309,31073.7,2751.12,-3141.19,85391.6,34440.2,37456.7,189651
1.29,0.0078013,31242.2,2038.3,-3326.67,85679,33020.2,38033,191386
1.292,0.00781958,31451.5,1963.32,-3484.61,86089.9,32378.4,38122.6,190887
1.294,0.00783787,31672.7,2076.04,-3634.43,86537,31965.6,38068.8,189732
1.296,0.00785618,31219,2298.02,-3307.51,85291.1,31547.6,36988.1,188366
1.298,0.00787448,30708.8,2529.14,-2940.7,83903.6,31129.2,35821.5,186982
1.3,0.00789279,30198.6,2760.27,-2573.89,82516,30710.8,34654.8,185598
1.302,0.0079111,29688.4,2991.41,-2207.05,81128.3,30292.3,33488.1,184214
1.304,0.00792941,29178.2,3222.53,-1840.24,79740.7,29873.9,32321.4,182830
1.306,0.00794772,28668,3453.66,-1473.43,78353.2,29455.4,31154.8,181447
1.308,0.00796603,28157.8,3684.78,-1106.62,76965.6,29037,29988.1,180063
1.31,0.00798434,27647.6,3915.91,-739.814,75578,28618.6,28821.5,178679
1.312,0.00800265,27137.3,4147.05,-372.982,74190.3,28200.1,27654.8,177295
1.314,0.00802095,26627.1,4378.17,-6.17222,72802.8,27781.7,26488.1,175911
1.316,0.00803926,26116.9,4609.3,360.638,71415.2,27363.3,25321.5,174528
1.318,0.00805757,25606.7,4840.43,727.448,70027.6,26944.8,24154.8,173144
1.32,0.00807588,25096.5,5071.56,1094.28,68639.9,26526.4,22988.1,171760
1.322,0.00809419,24701.2,5335.99,1429.02,67997.8,26213.9,22038.3,169749
1.324,0.00811248,24650.2,5700.21,1667.64,69589.9,26219.1,21738.7,165860
1.326,0.00813077,24599.3,6064.44,1906.25,71182,26224.3,21439.1,161971
1.328,0.00814907,24548.3,6428.66,2144.87,72774.2,26229.5,21139.5,158081
1.33,0.00816736,24497.4,6792.91,2383.5,74366.4,26234.7,20839.9,154192
1.332,0.00818565,24446.4,7157.13,2622.11,75958.6,26239.9,20540.3,150303
1.334,0.00820395,24395.4,7521.36,2860.73,77550.7,26245.1,20240.7,146413
1.336,0.00822224,24344.5,7885.58,3099.35,79142.9,26250.2,19941.1,142524
1.338,0.00824054,24293.5,8249.83,3337.98,80735.1,26255.4,19641.5,138634
1.34,0.00825883,24242.6,8614.05,3576.59,82327.2,26260.6,19341.9,134745
1.342,0.00827716,24025,8684.21,3881.25,81416.3,26449.9,19037.1,131098
1.344,0.00829553,23546.7,8294.22,4289.24,76588.7,26927.3,18724.1,127831
1.346,0.0083139,23068.4,7904.23,4697.22,71761.1,27404.7,18411.1,124563
1.348,0.00833228,22590.1,7514.22,5105.24,66933.2,27882.1,18098,121295
1.35,0.00835065,22111.8,7124.23,5513.23,62105.6,28359.5,17785,118028
1.352,0.00836903,21633.5,6734.24,5921.21,57278,28836.9,17472,114760
1.354,0.0083874,21155.2,6344.25,6329.2,52450.4,29314.3,17159,111493
1.356,0.00840577,20676.9,5954.26,6737.19,47622.8,29791.7,16846,108225
1.358,0.00842415,20198.6,5564.24,7145.2,42794.9,30269.1,16533,104957
1.36,0.00844256,19917.9,5355.46,7586.75,40367.3,30853.7,17029.8,105291
1.362,0.008461,19758.7,5258.01,8048.92,39414.3,31504.3,18024.3,107837
1.364,0.00847944,19599.4,5160.57,8511.08,38461.4,32154.8,19018.8,110384
1.366,0.00849789,19406.5,5088.55,8843.78,37786.7,32682.2,19611.8,112001
1.368,0.00851636,19147.4,5066.73,8920.94,37661,32966.4,19412.5,111785
1.37,0.00853483,18888.2,5044.9,8998.09,37535.3,33250.6,19213.2,111569
1.372,0.0085533,18629.1,5023.07,9075.25,37409.6,33534.8,19014,111353
1.374,0.00857177,18369.9,5001.25,9152.4,37283.9,33819,18814.7,111137
1.376,0.00859024,18110.8,4979.42,9229.56,37158.2,34103.2,18615.4,110921
1.378,0.0086087,17851.6,4957.59,9306.72,37032.5,34387.4,18416.1,110704
1.38,0.00862717,17592.5,4935.77,9383.87,36906.8,34671.6,18216.8,110488
1.382,0.00864564,17333.3,4913.94,9461.03,36781.1,34955.8,18017.6,110272
1.384,0.00866411,17074.2,4892.12,9538.18,36655.4,35240,17818.3,110056
1.386,0.00868258,16815,4870.29,9615.34,36529.7,35524.2,17619,109840
1.388,0.00870105,16555.9,4848.46,9692.5,36404,35808.4,17419.7,109624
1.39,0.00871951,16296.7,4826.64,9769.65,36278.3,36092.6,17220.4,109408
1.392,0.00873798,16037.6,4804.81,9846.81,36152.6,36376.8,17021.2,109192
1.394,0.00875646,15845.2,4780.66,9873.52,36167.3,36609.6,16798.8,108807
1.396,0.008775,16208.1,4737.22,9480.36,37350.7,36414.5,16384.7,107022
1.398,0.00879354,16571,4693.78,9087.2,38534.1,36219.3,15970.6,105236
1.4,0.00881207,16933.9,4650.33,8694.04,39717.4,36024.1,15556.4,103450
1.402,0.00883063,17268.5,4895.92,7736.78,42867.2,35781.5,16032.2,105448
1.404,0.0088492,17599.3,5180.49,6703.44,46282.3,35532.4,16628,107956
1.406,0.00886776,17930.1,5465.04,5670.15,49697.1,35283.4,17223.7,110464
1.408,0.00888632,18260.8,5749.59,4636.87,53112,35034.4,17819.5,112972
1.41,0.00890489,18591.6,6034.13,3603.58,56526.8,34785.3,18415.2,115480
1.412,0.00892345,18922.4,6318.68,2570.3,59941.6,34536.3,19010.9,117988
1.414,0.00894201,19253.2,6603.25,1536.96,63356.7,34287.2,19606.7,120496
1.416,0.00896061,19368.1,6746.34,926.671,64687.7,33980.9,19847.5,121429
1.418,0.00897923,19310.2,6776.21,654.933,64350.9,33628.6,19804.3,121102
1.42,0.00899785,19252.4,6806.09,383.195,64014.1,33276.3,19761,120774
1.422,0.00901648,19194.6,6835.96,111.441,63677.3,32924,19717.8,120447
1.424,0.0090351,19136.7,6865.84,-160.296,63340.5,32571.8,19674.6,120119
1.426,0.00905372,19078.9,6895.71,-432.034,63003.7,32219.5,19631.3,119791
1.428,0.00907234,18866.7,6879.96,-701.472,62178.5,31800.5,19498.7,119062
1.43,0.00909095,18255.8,6746.37,-964.97,60092,31209,19135.2,117295
1.432,0.00910955,17645,6612.77,-1228.48,58005.4,30617.5,18771.6,115528
1.434,0.00912816,17034.1,6479.18,-1491.98,55918.9,30026.1,18408.1,113761
1.436,0.00914677,16423.2,6345.59,-1755.48,53832.5,29434.6,18044.6,111994
1.438,0.00916538,15812.4,6212,-2018.98,51746,28843.2,17681.1,110227
1.44,0.00918399,15201.5,6078.4,-2282.49,49659.4,28251.7,17317.5,108460
1.442,0.00920259,14590.6,5944.81,-2545.99,47573,27660.2,16954,106693
1.444,0.0092212,14007.1,5828.41,-2796.77,45662.5,27085,16599.6,105000
1.446,0.00923981,13798.3,5947.74,-2873.12,46165.6,26732.9,16370.8,104322
1.448,0.00925842,13589.4,6067.07,-2949.48,46668.6,26380.7,16141.9,103644
1.45,0.00927702,13380.6,6186.41,-3025.84,47171.6,26028.5,15913,102966
1.452,0.00929563,13171.8,6305.74,-3102.2,47674.7,25676.3,15684.2,102288
1.454,0.00931424,12962.9,6425.06,-3178.55,48177.7,25324.1,15455.3,101610
1.456,0.00933284,12754.1,6544.39,-3254.91,48680.7,24971.9,15226.4,100932
1.458,0.00935145,12545.3,6663.72,-3331.27,49183.7,24619.8,14997.6,100254
1.46,0.00937006,12336.4,6783.06,-3407.63,49686.8,24267.6,14768.7,99576.5
1.462,0.00938867,12127.6,6902.39,-3483.99,50189.8,23915.4,14539.8,98898.5
1.464,0.00940727,11918.7,7021.72,-3560.34,50692.9,23563.2,14311,98220.6
1.466,0.00942588,11709.9,7141.05,-3636.7,51195.9,23211,14082.1,97542.7
1.468,0.00944449,11501.1,7260.38,-3713.06,51698.9,22858.8,13853.2,96864.8
1.47,0.0094631,11292.2,7379.71,-3789.42,52202,22506.6,13624.3,96186.8
1.472,0.0094817,11083.4,7499.04,-3865.77,52705,22154.5,13395.5,95508.9
1.474,0.00950031,10874.6,7618.37,-3942.13,53208,21802.3,13166.6,94831
1.476,0.00951892,10665.7,7737.7,-4018.49,53711,21450.1,12937.8,94153.1
1.478,0.00953753,10456.9,7857.03,-4094.85,54214.1,21097.9,12708.9,93475.1
1.48,0.00955617,10210.3,7677.13,-3680.73,53094.5,21207.2,12082.6,92300.6
1.482,0.00957484,9936.53,7282.19,-2914.14,50808.8,21648.1,11170.7,90769.3
1.484,0.00959351,9662.79,6887.25,-2147.54,48523,22089,10258.9,89238
1.486,0.00961218,9389.05,6492.31,-1380.95,46237.3,22529.9,9347.03,87706.6
1.488,0.00963085,9115.29,6097.34,-614.313,43951.4,22970.9,8435.12,86175.2
1.49,0.00964952,8841.54,5702.4,152.279,41665.7,23411.8,7523.27,84643.9
1.492,0.00966819,8567.8,5307.46,918.872,39380,23852.7,6611.41,83112.5
1.494,0.00968686,8294.06,4912.52,1685.46,37094.3,24293.6,5699.55,81581.2
1.496,0.00970555,8097.91,4788.29,2440.13,36625.6,24424.5,5073.72,81412.8
1.498,0.00972426,7950.95,4835.58,3187.16,37308.2,24359.1,4629.13,82107.8
1.5,0.00974296,7803.98,4882.86,3934.2,37990.7,24293.7,4184.54,82802.8
1.502,0.00976167,7657.02,4930.15,4681.23,38673.3,24228.2,3739.95,83497.9
1.504,0.00978038,7518.16,4987.16,5384.66,39356.7,24150.8,3316.62,84068
1.506,0.00979914,7532.22,5227.47,5266.23,40057.9,23848.6,3294.13,82285.1
1.508,0.0098179,7546.28,5467.76,5147.81,40759,23546.3,3271.64,80502.3
1.51,0.00983667,7560.34,5708.05,5029.39,41460.1,23244,3249.15,78719.5
1.512,0.00985543,7574.4,5948.34,4910.97,42161.2,22941.7,3226.66,76936.6
1.514,0.00987419,7588.46,6188.65,4792.54,42862.4,22639.4,3204.17,75153.7
1.516,0.00989293,7595.12,6209.11,4591.73,42020.8,22399.3,3581.05,73724.8
1.518,0.00991168,7600.36,6187.61,4375.2,40884.8,22171,4034.15,72363.5
1.52,0.00993042,7605.61,6166.11,4158.67,39748.8,21942.7,4487.25,71002.2
1.522,0.00994916,7610.85,6144.61,3942.14,38612.8,21714.5,4940.35,69640.9
1.524,0.0099679,7616.09,6123.11,3725.6,37476.8,21486.2,5393.48,68279.4
1.526,0.00998664,7621.34,6101.61,3509.06,36340.8,21257.9,5846.58,66918.1
1.528,0.0100054,7626.58,6080.11,3292.53,35204.8,21029.6,6299.68,65556.8
1.53,0.0100241,7631.83,6058.61,3076,34068.8,20801.3,6752.78,64195.4
1.532,0.0100429,7641.57,6046.25,2870.01,33021.3,20572.8,7163.18,62891.4
1.534,0.0100616,7721.48,6176.44,2828.43,33355.4,20341,6907.31,62480.6
1.536,0.0100803,7801.4,6306.62,2786.85,33689.5,20109.1,6651.44,62069.9
1.538,0.0100991,7881.31,6436.8,2745.28,34023.6,19877.3,6395.58,61659.2
1.54,0.0101178,7961.22,6566.99,2703.7,34357.6,19645.4,6139.71,61248.4
1.542,0.0101365,8041.13,6697.18,2662.12,34691.7,19413.5,5883.84,60837.7
1.544,0.0101553,8121.05,6827.36,2620.55,35025.8,19181.7,5627.97,60427
1.546,0.010174,8200.96,6957.54,2578.97,35359.9,18949.8,5372.11,60016.2
1.548,0.0101927,8280.87,7087.72,2537.39,35693.9,18718,5116.25,59605.5
1.55,0.0102114,8360.78,7217.9,2495.82,36028,18486.1,4860.38,59194.8
1.552,0.0102302,8440.7,7348.09,2454.24,36362.1,18254.3,4604.5,58784
1.554,0.0102489,8444.34,7365.97,2552.8,36358.7,18178.4,4764.29,58742.4
1.556,0.0102677,8403.19,7317.88,2733.68,36157.1,18194.1,5168.18,58917.6
1.558,0.0102865,8362.04,7269.79,2914.55,35955.5,18209.7,5572.08,59092.8
1.56,0.0103053,8320.88,7221.71,3095.42,35753.9,18225.4,5975.98,59268
1.562,0.0103241,8279.73,7173.62,3276.31,35552.3,18241.1,6379.9,59443.2
1.564,0.0103429,8238.58,7125.53,3457.18,35350.7,18256.8,6783.8,59618.3
1.566,0.0103617,8197.43,7077.44,3638.06,35149.1,18272.5,7187.7,59793.5
1.568,0.0103805,8156.27,7029.35,3818.93,34947.5,18288.1,7591.59,59968.7
1.57,0.0103992,8115.12,6981.26,3999.81,34745.9,18303.8,7995.52,60143.9
1.572,0.010418,8073.97,6933.18,4180.69,34544.3,18319.5,8399.41,60319.1
1.574,0.0104368,8032.82,6885.09,4361.56,34342.8,18335.2,8803.31,60494.3
1.576,0.0104556,8173.96,6845.83,4746.07,34232.4,18286.7,9016.55,60500.9
1.578,0.0104744,8469.73,6814.06,5303.31,34199.4,18183.9,9068.06,60364.6
1.58,0.0104932,8765.51,6782.29,5860.58,34166.5,18081.1,9119.57,60228.3
1.582,0.010512,9061.28,6750.53,6417.83,34133.5,17978.3,9171.08,60092
1.584,0.0105309,9357.05,6718.76,6975.07,34100.6,17875.5,9222.59,59955.7
1.586,0.0105497,9652.82,6686.99,7532.31,34067.6,17772.7,9274.1,59819.4
1.588,0.0105685,9948.6,6655.22,8089.58,34034.7,17669.9,9325.62,59683.1
1.59,0.0105873,10244.4,6623.45,8646.82,34001.7,17567.1,9377.13,59546.8
1.592,0.0106061,10540.1,6591.68,9204.06,33968.8,17464.3,9428.64,59410.5
1.594,0.0106249,10605.1,6538.54,9194.12,33765,17445.1,9598.25,59456.1
1.596,0.0106437,10620.7,6480.82,9062.79,33524.6,17443.7,9793.13,59540.5
1.598,0.0106626,10636.3,6423.1,8931.46,33284.3,17442.4,9988.03,59625
1.6,0.0106814,10651.8,6365.38,8800.13,33043.9,17441.1,10182.9,59709.5
1.602,0.0107002,10667.4,6307.67,8668.8,32803.6,17439.7,10377.8,59794
1.604,0.010719,10683,6249.95,8537.47,32563.3,17438.4,10572.7,59878.5
1.606,0.0107379,10447.2,6212.37,8311.91,31264.5,17293.9,10396.5,58945.7
1.608,0.0107567,10044,6188.19,8023.61,29261.1,17054,9973.35,57335.6
1.61,0.0107755,9640.83,6164.01,7735.32,27257.8,16814.2,9550.2,55725.6
1.612,0.0107944,9237.67,6139.84,7447.04,25254.4,16574.4,9127.05,54115.6
1.614,0.0108132,8834.51,6115.66,7158.75,23251.1,16334.5,8703.9,52505.6
1.616,0.0108321,8431.33,6091.49,6870.45,21247.7,16094.7,8280.72,50895.5
1.618,0.0108509,8028.17,6067.31,6582.17,19244.4,15854.8,7857.57,49285.5
1.62,0.0108697,7625.02,6043.14,6293.88,17241,15615,7434.42,47675.4
1.622,0.0108886,7493.08,6024.34,6072.9,16231.8,15473.1,7248.55,46743.9
1.624,0.0109074,7668.02,6011.63,5928.07,16347.3,15442.1,7331.16,46580.2
1.626,0.0109263,7842.98,5998.93,5783.24,16462.8,15411,7413.78,46416.4
1.628,0.0109451,8017.93,5986.22,5638.41,16578.3,15379.9,7496.39,46252.6
1.63,0.010964,8192.87,5973.51,5493.59,16693.9,15348.9,7579,46088.8
1.632,0.0109828,8367.82,5960.81,5348.76,16809.4,15317.8,7661.62,45925.1
1.634,0.0110017,8542.77,5948.1,5203.93,16924.9,15286.7,7744.23,45761.3
1.636,0.0110205,8717.72,5935.4,5059.1,17040.4,15255.7,7826.85,45597.5
1.638,0.0110394,8892.67,5922.69,4914.27,17156,15224.6,7909.46,45433.7
1.64,0.0110582,9067.62,5909.98,4769.45,17271.5,15193.5,7992.07,45270
1.642,0.0110771,9242.56,5897.28,4624.62,17387,15162.5,8074.69,45106.2
1.644,0.0110959,9417.52,5884.57,4479.78,17502.5,15131.4,8157.3,44942.4
1.646,0.0111148,9592.47,5871.86,4334.96,17618,15100.3,8239.92,44778.6
1.648,0.0111336,9767.41,5859.16,4190.13,17733.6,15069.3,8322.53,44614.9
1.65,0.0111525,9942.36,5846.45,4045.31,17849.1,15038.2,8405.14,44451.1
1.652,0.0111713,10117.3,5833.74,3900.48,17964.6,15007.1,8487.75,44287.3
1.654,0.0111902,10292.3,5821.04,3755.64,18080.1,14976.1,8570.37,44123.5
1.656,0.011209,10417.4,5867.59,3576.9,18235.9,14938,8683.36,43846.8
1.658,0.0112279,10517,5707.56,3167.23,17674.6,14975.1,8778.16,43205.9
1.66,0.0112468,10392.7,5423.61,2834.47,16732.1,14996.3,8565.19,42392.4
1.662,0.0112657,10268.4,5139.65,2501.71,15789.7,15017.6,8352.23,41578.9
1.664,0.0112846,10144.1,4855.68,2168.93,14847.2,15038.9,8139.25,40765.3
1.666,0.0113034,10019.8,4571.72,1836.17,13904.7,15060.1,7926.28,39951.8
1.668,0.0113223,9895.48,4287.77,1503.41,12962.3,15081.4,7713.31,39138.3
1.67,0.0113412,9771.17,4003.81,1170.65,12019.9,15102.7,7500.35,38324.8
1.672,0.0113601,9646.85,3719.84,837.87,11077.4,15123.9,7287.37,37511.2
1.674,0.011379,9522.53,3435.89,505.11,10134.9,15145.2,7074.4,36697.7
1.676,0.0113978,8999.17,2931.1,309.403,8513.33,15138.4,6312.98,35576.6
1.678,0.0114167,9064.03,2784.04,202.275,8196.17,15126.4,6234.35,35870.8
1.68,0.0114356,9148.66,2648.58,94.3046,7918.86,15114.9,6180.32,36199.9
1.682,0.0114545,9233.3,2513.11,-13.6724,7641.53,15103.4,6126.29,36529
1.684,0.0114734,9317.93,2377.65,-121.643,7364.22,15091.8,6072.25,36858.1
1.686,0.0114923,9402.57,2242.18,-229.613,7086.91,15080.3,6018.22,37187.3
1.688,0.0115111,9482.79,2096.76,-342.609,6856.37,15046.6,5966.48,37562.1
1.69,0.01153,9560.57,1945.82,-458.394,6651.73,15000.7,5916,37962.2
1.692,0.0115489,9638.35,1794.88,-574.172,6447.09,14954.7,5865.52,38362.3
1.694,0.0115678,9716.12,1643.95,-689.95,6242.46,14908.8,5815.04,38762.3
1.696,0.0115867,9793.9,1493.01,-805.728,6037.82,14862.8,5764.56,39162.4
1.698,0.0116055,9871.68,1342.08,-921.506,5833.19,14816.8,5714.09,39562.5
1.7,0.0116244,9949.46,1191.13,-1037.29,5628.54,14770.9,5663.6,39962.6
1.702,0.0116433,10027.2,1040.19,-1153.07,5423.91,14724.9,5613.13,40362.7
1.704,0.0116622,10105,889.259,-1268.85,5219.27,14679,5562.65,40762.8
1.706,0.011681,10182.8,738.323,-1384.63,5014.64,14633,5512.17,41162.9
1.708,0.0116999,10257,619.089,-1488.5,4829.92,14601.8,5446.43,41501
1.71,0.0117188,10313.9,655.861,-1533.77,4743.17,14642.7,5305.54,41534.2
1.712,0.0117377,10396.7,715.147,-1576.05,4704.7,14668.8,5198.89,41589.5
1.714,0.0117566,10613.5,890.379,-1602.9,4914.84,14618.1,5268.45,41758.2
1.716,0.0117755,10830.3,1065.61,-1629.75,5124.97,14567.4,5338.01,41926.9
1.718,0.0117944,11047.1,1240.85,-1656.61,5335.12,14516.7,5407.58,42095.6
1.72,0.0118134,11263.9,1416.09,-1683.46,5545.25,14466.1,5477.14,42264.3
1.722,0.0118323,11480.7,1591.32,-1710.31,5755.39,14415.4,5546.7,42433
1.724,0.0118512,11697.5,1766.55,-1737.16,5965.52,14364.7,5616.27,42601.7
1.726,0.0118701,11882.3,1934.45,-1763.51,6181.98,14310,5669.64,42708.9
1.728,0.011889,11721.3,2023.16,-1784.45,6466.78,14211,5548.2,42151.7
1.73,0.0119079,11560.3,2111.85,-1805.4,6751.57,14112,5426.75,41594.5
1.732,0.0119268,11399.3,2200.55,-1826.34,7036.35,14013,5305.31,41037.3
1.734,0.0119457,11238.3,2289.25,-1847.28,7321.14,13914,5183.87,40480
1.736,0.0119646,11077.3,2377.95,-1868.22,7605.93,13814.9,5062.43,39922.8
1.738,0.0119835,10916.3,2466.66,-1889.17,7890.73,13715.9,4940.98,39365.6
1.74,0.0120025,10755.4,2555.35,-1910.11,8175.51,13616.9,4819.54,38808.4
1.742,0.0120214,10594.4,2644.05,-1931.05,8460.3,13517.9,4698.1,38251.1
1.744,0.0120403,10433.4,2732.75,-1951.99,8745.09,13418.9,4576.66,37693.9
1.746,0.0120592,10272.4,2821.46,-1972.94,9029.89,13319.9,4455.21,37136.7
1.748,0.0120781,10111.4,2910.16,-1993.88,9314.67,13220.9,4333.77,36579.5
1.75,0.012097,9950.39,2998.85,-2014.82,9599.46,13121.9,4212.33,36022.2
1.752,0.0121159,9789.4,3087.55,-2035.76,9884.25,13022.9,4090.88,35465
1.754,0.0121348,9628.41,3176.25,-2056.71,10169,12923.9,3969.44,34907.8
1.756,0.0121537,9467.41,3264.96,-2077.65,10453.8,12824.9,3847.99,34350.5
1.758,0.0121726,9302.02,3348.77,-2099.14,10714.8,12725.1,3730.99,33798.7
1.76,0.0121915,9001.94,3283.13,-2137.32,10246.4,12599.1,3749.76,33412.5
1.762,0.0122104,8670.12,3222.63,-2143.4,9749.46,12420,3704.79,32999.3
1.764,0.0122294,8294.46,3169.22,-2105.15,9212.9,12167.6,3571.77,32548.8
1.766,0.0122483,7918.83,3115.82,-2066.9,8676.36,11915.2,3438.77,32098.3
1.768,0.0122672,7543.19,3062.42,-2028.65,8139.83,11662.7,3305.77,31647.8
1.77,0.0122861,7167.55,3009.02,-1990.41,7603.29,11410.3,3172.76,31197.3
1.772,0.0123051,6791.91,2955.62,-1952.16,7066.76,11157.9,3039.76,30746.8
1.774,0.012324,6416.25,2902.21,-1913.91,6530.19,10905.5,2906.74,30296.3
1.776,0.0123429,6325.53,2998.67,-1878.17,6525.01,10744.6,2956.55,29914.5
1.778,0.0123618,6294.63,3126.59,-1842.96,6631.41,10602.8,3044.75,29547.2
1.78,0.0123807,6263.73,3254.51,-1807.75,6737.81,10461.1,3132.95,29179.9
1.782,0.0123996,6232.83,3382.43,-1772.55,6844.2,10319.4,3221.15,28812.6
1.784,0.0124186,6195.78,3500.72,-1728.71,6962.69,10172.9,3309.27,28448.4
1.786,0.0124375,6138.18,3586.85,-1656.11,7121.47,10010.2,3397.14,28094.5
1.788,0.0124564,6080.59,3672.98,-1583.51,7280.26,9847.55,3485,27740.6
1.79,0.0124753,6022.99,3759.1,-1510.91,7439.04,9684.9,3572.87,27386.7
1.792,0.0124942,5965.39,3845.24,-1438.31,7597.83,9522.24,3660.74,27032.7
1.794,0.0125132,5907.8,3931.36,-1365.71,7756.61,9359.59,3748.6,26678.8
1.796,0.0125321,5850.2,4017.49,-1293.11,7915.39,9196.94,3836.47,26324.9
1.798,0.012551,5792.61,4103.62,-1220.51,8074.18,9034.29,3924.33,25971
1.8,0.0125699,5735.01,4189.74,-1147.91,8232.96,8871.64,4012.2,25617.1
1.802,0.0125889,5677.41,4275.87,-1075.31,8391.75,8708.98,4100.07,25263.2
1.804,0.0126078,5619.82,4362,-1002.71,8550.53,8546.33,4187.93,24909.3
1.806,0.0126267,5562.22,4448.13,-930.11,8709.31,8383.68,4275.8,24555.4
1.808,0.0126456,5540.36,4459.13,-871.217,8404.52,8237.79,4191.98,24138.3
1.81,0.0126646,5559.19,4384.59,-827.933,7571.83,8111,3912.66,23649.3
1.812,0.0126835,5578.03,4310.04,-784.647,6739.09,7984.19,3633.32,23160.3
1.814,0.0127024,5596.86,4235.5,-741.364,5906.39,7857.4,3353.99,22671.3
1.816,0.0127214,5615.7,4160.95,-698.08,5073.7,7730.6,3074.67,22182.3
1.818,0.0127403,5634.53,4086.41,-654.796,4241.01,7603.8,2795.35,21693.4
1.82,0.0127592,5653.36,4011.86,-611.51,3408.26,7477,2516.01,21204.3
1.822,0.0127782,5672.2,3937.32,-568.226,2575.57,7350.2,2236.69,20715.4
1.824,0.0127971,5681.59,3876.44,-537.412,1887.47,7238.1,2000.15,20284.9
1.826,0.012816,5641.27,3887.52,-572.256,1960.73,7203.41,1988.88,20162.8
1.828,0.012835,5600.96,3898.6,-607.1,2033.99,7168.72,1977.61,20040.7
1.83,0.0128539,5560.65,3909.68,-641.945,2107.26,7134.03,1966.34,19918.6
1.832,0.0128728,5520.33,3920.76,-676.789,2180.52,7099.34,1955.07,19796.5
1.834,0.0128918,5480.02,3931.84,-711.633,2253.78,7064.65,1943.81,19674.4
1.836,0.0129107,5439.71,3942.93,-746.477,2327.04,7029.96,1932.54,19552.3
1.838,0.0129296,5399.39,3954.01,-781.322,2400.3,6995.26,1921.27,19430.2
1.84,0.0129486,5359.08,3965.09,-816.166,2473.56,6960.57,1910,19308.1
1.842,0.0129675,5318.83,3972.17,-841.873,2635.4,6941.64,1916.49,19255.6
1.844,0.0129864,5278.9,3958.62,-820.43,3254.35,7004.03,2014.59,19561.7
1.846,0.0130054,5238.97,3945.07,-798.987,3873.3,7066.42,2112.7,19867.8
1.848,0.0130243,5199.04,3931.52,-777.543,4492.29,7128.81,2210.82,20174
1.85,0.0130432,5159.12,3917.97,-756.1,5111.24,7191.2,2308.92,20480.1
1.852,0.0130622,5257.08,3770.4,-803.529,5131.3,7195,2363.87,20276.3
1.854,0.0130811,5436.96,3543.2,-891.877,4795.54,7163.99,2393.18,19769.6
1.856,0.0131,5616.84,3316.01,-980.225,4459.79,7132.98,2422.49,19262.8
1.858,0.013119,5796.73,3088.8,-1068.58,4124.01,7101.97,2451.8,18756
1.86,0.0131379,6083.71,3027.36,-1129.3,4453.94,7031.74,2767.44,18632.9
1.862,0.0131568,6379.88,2980.16,-1187.64,4841.06,6958.13,3107.68,18542.8
1.864,0.0131758,6676.05,2932.95,-1245.99,5228.18,6884.53,3447.92,18452.7
1.866,0.0131947,6972.25,2885.74,-1304.34,5615.32,6810.92,3788.17,18362.5
1.868,0.0132137,7138.46,2841.04,-1252.03,5520.63,6694.71,3873.38,18139.3
1.87,0.0132326,7263.14,2797.14,-1164.36,5272,6564.89,3877.09,17873.6
1.872,0.0132515,7387.83,2753.23,-1076.7,5023.36,6435.07,3880.81,17607.8
1.874,0.0132705,7512.52,2709.33,-989.033,4774.72,6305.25,3884.52,17342
1.876,0.0132894,7637.21,2665.42,-901.363,4526.07,6175.43,3888.24,17076.3
1.878,0.0133084,7702.56,2612.3,-863.823,4513.9,6109.42,3893.26,16930.7
1.88,0.0133273,7762.77,2558.38,-830.63,4522.24,6048.94,3898.4,16795.6
1.882,0.0133463,7822.97,2504.46,-797.437,4530.58,5988.47,3903.55,16660.4
1.884,0.0133652,7883.18,2450.53,-764.244,4538.91,5927.99,3908.69,16525.3
1.886,0.0133842,7943.39,2396.61,-731.05,4547.25,5867.51,3913.83,16390.1
1.888,0.0134031,8003.59,2342.69,-697.857,4555.59,5807.04,3918.97,16255
1.89,0.013422,8063.8,2288.77,-664.664,4563.93,5746.56,3924.11,16119.8
1.892,0.013441,8124,2234.85,-631.471,4572.26,5686.08,3929.25,15984.7
1.894,0.0134599,8184.21,2180.92,-598.276,4580.6,5625.61,3934.4,15849.5
1.896,0.0134789,8244.42,2127,-565.083,4588.94,5565.13,3939.54,15714.4
1.898,0.0134978,8304.62,2073.08,-531.89,4597.28,5504.66,3944.68,15579.2
1.9,0.0135168,8364.83,2019.16,-498.697,4605.61,5444.18,3949.82,15444.1
1.902,0.0135357,8425.03,1965.24,-465.504,4613.95,5383.7,3954.96,15309
1.904,0.0135547,8485.24,1911.32,-432.309,4622.29,5323.23,3960.1,15173.8
1.906,0.0135736,8545.45,1857.39,-399.117,4630.63,5262.75,3965.24,15038.7
1.908,0.0135926,8605.65,1803.47,-365.924,4638.96,5202.27,3970.39,14903.5
1.91,0.0136115,8665.68,1747.6,-332.081,4645,5142.83,3975.13,14767.5
1.912,0.0136305,8730.4,1744.36,-315.785,4713.21,5055.53,3990.5,14654
1.914,0.0136494,8795.13,1741.11,-299.488,4781.43,4968.23,4005.86,14540.4
1.916,0.0136683,8859.85,1737.87,-283.192,4849.65,4880.92,4021.22,14426.9
1.918,0.0136873,8924.57,1734.62,-266.896,4917.86,4793.62,4036.59,14313.3
1.92,0.0137062,8989.29,1731.37,-250.6,4986.08,4706.32,4051.95,14199.8
1.922,0.0137252,9054.01,1728.13,-234.303,5054.29,4619.02,4067.31,14086.2
1.924,0.0137441,9118.73,1724.88,-218.007,5122.51,4531.72,4082.68,13972.6
1.926,0.0137631,9183.45,1721.64,-201.711,5190.72,4444.42,4098.04,13859.1
1.928,0.013782,9248.17,1718.39,-185.415,5258.94,4357.12,4113.4,13745.5
1.93,0.013801,9312.89,1715.14,-169.119,5327.15,4269.82,4128.77,13632
1.932,0.0138199,9377.61,1711.9,-152.822,5395.37,4182.51,4144.13,13518.4
1.934,0.0138389,9430.83,1728.78,-106.924,5456.56,4118.94,4150.41,13439.6
1.936,0.0138578,9477.05,1757.91,-43.0318,5513.47,4069.78,4151.16,13381.8
1.938,0.0138767,9523.28,1787.03,20.8604,5570.39,4020.63,4151.92,13324.1
1.94,0.0138957,9569.51,1816.16,84.7565,5627.31,3971.47,4152.67,13266.3
1.942,0.0139146,9710.47,1892.66,164.633,5520.99,3904.83,4137.34,13297.4
1.944,0.0139336,9898.11,1992.49,252.383,5334.26,3829.58,4114.08,13372.3
1.946,0.0139525,10085.7,2092.33,340.133,5147.53,3754.33,4090.83,13447.3
1.948,0.0139714,10273.4,2192.16,427.883,4960.8,3679.07,4067.58,13522.2
1.95,0.0139904,10461,2292,515.638,4774.06,3603.81,4044.32,13597.1
1.952,0.0140093,10648.6,2391.84,603.388,4587.34,3528.56,4021.07,13672
1.954,0.0140283,10836.3,2491.67,691.138,4400.61,3453.31,3997.81,13747
1.956,0.0140472,11023.9,2591.51,778.888,4213.88,3378.05,3974.56,13821.9
1.958,0.0140662,11211.5,2691.34,866.638,4027.15,3302.8,3951.31,13896.8
1.96,0.0140851,11399.2,2791.18,954.393,3840.42,3227.54,3928.05,13971.7
1.962,0.014104,11569.9,2891.84,1050.18,3690.3,3154.84,3902.33,14030.7
1.964,0.014123,11651.4,2996.84,1188.18,3732.61,3095.53,3863.63,14005.8
1.966,0.0141419,11733,3101.84,1326.18,3774.92,3036.22,3824.93,13980.9
1.968,0.0141609,11814.6,3206.85,1464.19,3817.23,2976.9,3786.23,13956
1.97,0.0141798,11896.2,3311.85,1602.19,3859.53,2917.59,3747.53,13931
1.972,0.0141988,11977.7,3416.85,1740.19,3901.84,2858.28,3708.83,13906.1
1.974,0.0142178,12059.3,3521.85,1878.19,3944.15,2798.97,3670.14,13881.2
1.976,0.0142367,12179.7,3560.58,1951.03,3934.69,2764.98,3658.12,13921.4
1.978,0.0142556,12314.3,3575.18,2000.15,3906.38,2740.2,3655.81,13985.2
1.98,0.0142746,12448.8,3589.79,2049.27,3878.07,2715.43,3653.5,14049
1.982,0.0142935,12583.3,3604.39,2098.38,3849.76,2690.65,3651.19,14112.9
1.984,0.0143125,12717.9,3619,2147.5,3821.46,2665.88,3648.88,14176.7
1.986,0.0143314,12852.4,3633.6,2196.61,3793.15,2641.1,3646.58,14240.6
1.988,0.0143504,12916.8,3571.44,2254.76,3754.69,2636.27,3625,14233
1.99,0.0143693,12804.2,3315.53,2335.68,3690.61,2681.79,3554.78,14045
1.992,0.0143883,12691.6,3059.61,2416.6,3626.53,2727.31,3484.56,13857
1.994,0.0144072,12578.9,2803.7,2497.52,3562.45,2772.82,3414.34,13669
1.996,0.0144262,12466.3,2547.77,2578.45,3498.37,2818.34,3344.12,13481
1.998,0.0144451,12353.6,2291.86,2659.37,3434.29,2863.86,3273.9,13293.1
2,0.014464,12241,2035.94,2740.29,3370.21,2909.38,3203.68,13105.1
