"arc_length","Displacement_Magnitude","Sxx","Sxy","Sxz","Syy","Syz","Szz","Von_Mises_Stress"
0,0,1.1981e+06,-69146.5,-6341.77,2.41118e+06,481679,1.03159e+06,1.55619e+06
0.002,1.83909e-06,1.13834e+06,-63186,-5483.56,2.32245e+06,451574,951729,1.51895e+06
0.004,2.98491e-06,1.10587e+06,-60675.6,-4461.46,2.26671e+06,434216,913431,1.49387e+06
0.006,3.9487e-06,1.08232e+06,-59292.2,-3385.82,2.22174e+06,421022,888708,1.47277e+06
0.008,4.93592e-06,1.05876e+06,-57908.8,-2310.18,2.17678e+06,407828,863985,1.45167e+06
0.01,5.93487e-06,1.03521e+06,-56525.4,-1234.54,2.13181e+06,394634,839262,1.43057e+06
0.012,6.94051e-06,1.01165e+06,-55142,-158.899,2.08685e+06,381440,814539,1.40947e+06
0.014,7.95028e-06,988098,-53758.6,916.741,2.04189e+06,368246,789816,1.38836e+06
0.016,8.92877e-06,964534,-51961.3,2137.45,1.99579e+06,356016,766508,1.36748e+06
0.018,9.82292e-06,940948,-49120.5,3723.89,1.94683e+06,346214,746767,1.34714e+06
0.02,1.07179e-05,917361,-46279.7,5310.33,1.89788e+06,336412,727025,1.32679e+06
0.022,1.16135e-05,893774,-43438.9,6896.78,1.84893e+06,326610,707284,1.30645e+06
0.024,1.25097e-05,870187,-40598.1,8483.22,1.79997e+06,316808,687543,1.2861e+06
0.026,1.34062e-05,846600,-37757.4,10069.7,1.75102e+06,307006,667802,1.26576e+06
0.028,1.43031e-05,823013,-34916.6,11656.1,1.70206e+06,297205,648060,1.24542e+06
0.03,1.52003e-05,799426,-32075.8,13242.5,1.65311e+06,287403,628319,1.22507e+06
0.032,1.60976e-05,775839,-29235,14829,1.60415e+06,277601,608578,1.20473e+06
0.034,1.69952e-05,752252,-26394.2,16415.4,1.5552e+06,267799,588837,1.18438e+06
0.036,1.78929e-05,728665,-23553.4,18001.9,1.50625e+06,257997,569096,1.16404e+06
0.038,1.87908e-05,705078,-20712.7,19588.3,1.45729e+06,248196,549354,1.1437e+06
0.04,1.96888e-05,681491,-17871.9,21174.8,1.40834e+06,238394,529613,1.12335e+06
0.042,2.05869e-05,657904,-15031.1,22761.2,1.35938e+06,228592,509872,1.10301e+06
0.044,2.14851e-05,634317,-12190.3,24347.6,1.31043e+06,218790,490131,1.08266e+06
0.046,2.23833e-05,610730,-9349.52,25934.1,1.26148e+06,208988,470390,1.06232e+06
0.048,2.32816e-05,587143,-6508.74,27520.5,1.21252e+06,199187,450648,1.04198e+06
0.05,2.51953e-05,559998,-4374.39,29986.1,1.17777e+06,193736,419022,1.0416e+06
0.052,2.74766e-05,531570,-2494.82,32768.9,1.14815e+06,189854,383109,1.04843e+06
0.054,2.97595e-05,503142,-615.257,35551.6,1.11853e+06,185972,347195,1.05525e+06
0.056,3.20434e-05,474713,1264.31,38334.3,1.08891e+06,182090,311282,1.06208e+06
0.058,3.43282e-05,446285,3143.87,41117,1.05928e+06,178208,275369,1.06891e+06
0.06,3.66138e-05,417857,5023.44,43899.7,1.02966e+06,174326,239456,1.07573e+06
0.062,3.89e-05,389428,6903.01,46682.4,1.00004e+06,170445,203543,1.08256e+06
0.064,4.11058e-05,385434,6282.8,46729.2,993957,173876,201064,1.08456e+06
0.066,4.33386e-05,383218,5480.72,46577,989591,177840,201019,1.0862e+06
0.068,4.56003e-05,381001,4678.64,46424.7,985226,181803,200973,1.08784e+06
0.07,4.78869e-05,378784,3876.57,46272.5,980860,185767,200927,1.08948e+06
0.072,5.01897e-05,373821,1330.77,46446.3,972549,184685,190282,1.08924e+06
0.074,5.25026e-05,368414,-1496.35,46672.7,963602,182790,177927,1.08869e+06
0.076,5.48247e-05,363008,-4323.46,46899,954654,180894,165573,1.08814e+06
0.078,5.71549e-05,357602,-7150.57,47125.4,945706,178999,153218,1.08758e+06
0.08,5.94921e-05,352195,-9977.68,47351.8,936759,177103,140863,1.08703e+06
0.082,6.18356e-05,346789,-12804.8,47578.2,927811,175208,128508,1.08648e+06
0.084,6.41847e-05,341382,-15631.9,47804.6,918863,173313,116153,1.08593e+06
0.086,6.65388e-05,335976,-18459,48031,909916,171417,103799,1.08538e+06
0.088,6.88978e-05,331777,-20977.7,48012.7,902517,170250,93208.7,1.08622e+06
0.09,7.1266e-05,334090,-21834,46675.3,903465,173004,92130.9,1.09458e+06
0.092,7.36419e-05,336403,-22690.4,45337.9,904414,175758,91053.1,1.10294e+06
0.094,7.60248e-05,338715,-23546.7,44000.5,905363,178513,89975.3,1.1113e+06
0.096,7.84142e-05,341028,-24403,42663.1,906311,181267,88897.5,1.11966e+06
0.098,8.08093e-05,343340,-25259.3,41325.8,907260,184022,87819.8,1.12801e+06
0.1,8.34813e-05,349870,-26694.2,40512.1,919149,187263,88120.9,1.14405e+06
0.102,8.70313e-05,369989,-29993.4,41386.1,966300,192073,92866.3,1.18485e+06
0.104,9.05829e-05,390107,-33292.6,42260.2,1.01345e+06,196883,97611.7,1.22564e+06
0.106,9.41359e-05,410226,-36591.9,43134.3,1.0606e+06,201693,102357,1.26644e+06
0.108,9.76901e-05,430345,-39891.1,44008.4,1.10775e+06,206503,107102,1.30723e+06
0.11,0.000101245,450464,-43190.4,44882.5,1.1549e+06,211312,111848,1.34803e+06
0.112,0.000104802,470583,-46489.6,45756.6,1.20206e+06,216122,116593,1.38882e+06
0.114,0.000108359,490702,-49788.9,46630.7,1.24921e+06,220932,121339,1.42962e+06
0.116,0.000112071,484446,-50086.4,45486.3,1.23172e+06,222326,119252,1.41796e+06
0.118,0.000115948,450133,-47190.9,42194.7,1.14548e+06,220085,109898,1.35049e+06
0.12,0.000119825,415820,-44295.4,38903.1,1.05924e+06,217845,100544,1.28302e+06
0.122,0.000123703,381507,-41399.8,35611.5,972993,215605,91189.8,1.21555e+06
0.124,0.000127581,347194,-38504.3,32319.9,886750,213364,81835.7,1.14808e+06
0.126,0.000131459,312881,-35608.7,29028.3,800507,211124,72481.6,1.08062e+06
0.128,0.000135338,278568,-32713.2,25736.7,714264,208883,63127.5,1.01315e+06
0.13,0.000139216,244256,-29817.7,22445.1,628022,206643,53773.5,945679
0.132,0.000143365,231170,-29617.4,20194.8,594103,205207,50082.1,921559
0.134,0.000147682,230644,-31011.8,18560.5,591140,204247,49740.9,923083
0.136,0.00015201,230117,-32406.1,16926.3,588176,203286,49399.7,924608
0.138,0.000156349,229591,-33800.4,15292,585213,202326,49058.5,926132
0.14,0.000160697,229064,-35194.7,13657.8,582249,201366,48717.3,927656
0.142,0.000165054,228538,-36589.1,12023.5,579286,200406,48376.1,929181
0.144,0.000169419,228012,-37983.4,10389.2,576322,199446,48034.9,930705
0.146,0.000173791,227485,-39377.7,8754.96,573359,198485,47693.7,932230
0.148,0.00017817,226959,-40772,7120.69,570395,197525,47352.5,933754
0.15,0.000182556,226432,-42166.4,5486.42,567432,196565,47011.3,935279
0.152,0.000186948,225906,-43560.7,3852.16,564469,195605,46670.1,936803
0.154,0.000191345,225379,-44955,2217.89,561505,194645,46328.9,938328
0.156,0.000195747,224853,-46349.3,583.618,558542,193684,45987.7,939852
0.158,0.000200154,224326,-47743.7,-1050.65,555578,192724,45646.5,941376
0.16,0.000204565,223800,-49138,-2684.91,552615,191764,45305.3,942901
0.162,0.000208981,223273,-50532.3,-4319.18,549651,190804,44964.1,944425
0.164,0.000213401,222747,-51926.6,-5953.45,546688,189844,44622.9,945950
0.166,0.000217824,222220,-53321,-7587.71,543725,188884,44281.6,947474
0.168,0.000222251,221694,-54715.3,-9221.98,540761,187923,43940.4,948999
0.17,0.000226681,221167,-56109.6,-10856.2,537798,186963,43599.2,950523
0.172,0.000231115,220641,-57503.9,-12490.5,534834,186003,43258,952048
0.174,0.000235459,222321,-58446,-10903.9,540562,185115,42665.5,950596
0.176,0.000239755,225206,-59140.8,-7557.2,551038,184266,41935.7,947518
0.178,0.000244548,225452,-59039.2,-8976.47,552465,182769,43365.3,936309
0.18,0.000249812,224268,-58346.1,-14475.2,548533,180663,47290.5,920556
0.182,0.000255374,233733,-59065.9,-17611.9,575990,178258,57440.9,936067
0.184,0.000260937,243198,-59785.8,-20748.8,603447,175853,67591.3,951578
0.186,0.0002665,252664,-60505.6,-23885.6,630905,173449,77741.8,967089
0.188,0.000272064,262129,-61225.5,-27022.3,658362,171044,87892.1,982600
0.19,0.000277629,271594,-61945.3,-30159.1,685819,168640,98042.5,998112
0.192,0.000283194,281059,-62665.2,-33295.9,713277,166235,108193,1.01362e+06
0.194,0.00028876,290524,-63385,-36432.7,740734,163830,118343,1.02913e+06
0.196,0.000294327,299989,-64104.9,-39569.5,768191,161426,128494,1.04465e+06
0.198,0.00030009,303895,-63032.4,-39889.5,775957,159003,132169,1.0427e+06
0.2,0.000305927,305780,-61308.8,-39186,776568,156574,133490,1.0344e+06
0.202,0.000311768,307665,-59585.1,-38482.6,777180,154144,134812,1.02611e+06
0.204,0.000317612,309550,-57861.5,-37779.1,777791,151715,136134,1.01782e+06
0.206,0.000323458,311435,-56137.9,-37075.7,778402,149285,137456,1.00952e+06
0.208,0.000329308,313320,-54414.3,-36372.2,779013,146856,138778,1.00123e+06
0.21,0.000335159,315205,-52690.6,-35668.8,779625,144426,140100,992937
0.212,0.000341014,317090,-50967,-34965.4,780236,141997,141422,984644
0.214,0.00034687,318975,-49243.4,-34261.9,780847,139567,142744,976351
0.216,0.000352729,320860,-47519.7,-33558.5,781459,137138,144066,968058
0.218,0.00035859,322745,-45796.1,-32855,782070,134708,145388,959765
0.22,0.000364452,324630,-44072.5,-32151.6,782681,132279,146710,951472
0.222,0.000370317,326515,-42348.9,-31448.1,783293,129849,148032,943179
0.224,0.000376183,328400,-40625.2,-30744.7,783904,127420,149354,934886
0.226,0.000382464,317360,-38016.6,-24084,766638,124938,143998,923979
0.228,0.000388755,306017,-35387.1,-17283.4,748952,122456,138485,913011
0.23,0.000395045,294674,-32757.7,-10482.9,731266,119973,132972,902043
0.232,0.000401337,283331,-30128.3,-3682.35,713580,117490,127459,891075
0.234,0.000407628,271988,-27498.8,3118.21,695895,115007,121946,880106
0.236,0.00041392,260645,-24869.4,9918.77,678209,112525,116432,869138
0.238,0.000420212,249302,-22239.9,16719.3,660523,110042,110919,858170
0.24,0.00042673,246886,-21953.4,21444,654892,109206,110220,869906
0.242,0.000433299,246399,-22173.5,25720,651867,108726,110562,886550
0.244,0.00043987,245913,-22393.5,29996,648842,108247,110903,903194
0.246,0.000446442,245426,-22613.5,34271.9,645817,107767,111245,919838
0.248,0.000453016,244939,-22833.5,38547.9,642792,107287,111586,936482
0.25,0.000459592,244453,-23053.5,42823.9,639767,106808,111928,953126
0.252,0.000466169,243966,-23273.5,47099.8,636742,106328,112269,969770
0.254,0.000472748,243479,-23493.5,51375.8,633717,105848,112611,986414
0.256,0.000479328,242993,-23713.5,55651.8,630693,105369,112952,1.00306e+06
0.258,0.00048591,242506,-23933.5,59927.7,627668,104889,113294,1.0197e+06
0.26,0.000492493,242019,-24153.5,64203.7,624643,104409,113635,1.03635e+06
0.262,0.000499436,237013,-22328.5,66438.8,620747,107999,113514,1.0442e+06
0.264,0.00050645,231121,-20102.7,68274,616681,112387,113302,1.05034e+06
0.266,0.000513465,225228,-17877,70109.1,612614,116775,113090,1.05647e+06
0.268,0.000520479,219336,-15651.2,71944.3,608548,121162,112878,1.06261e+06
0.27,0.000527494,213444,-13425.5,73779.5,604482,125550,112667,1.06875e+06
0.272,0.000534509,207552,-11199.7,75614.7,600415,129937,112455,1.07488e+06
0.274,0.000541598,202776,-8807.45,76962.5,596384,133840,112286,1.07929e+06
0.276,0.000549031,203172,-5643.17,76050.9,592512,135497,112320,1.07569e+06
0.278,0.000556463,203568,-2478.89,75139.4,588641,137154,112353,1.07209e+06
0.28,0.000563897,203964,685.396,74227.8,584769,138811,112387,1.06849e+06
0.282,0.000571625,210074,3345.46,71554.7,593312,136397,110968,1.05172e+06
0.284,0.000579467,218394,5810.47,68200.1,606656,132407,108988,1.02985e+06
0.286,0.00058731,226714,8275.48,64845.6,620001,128418,107009,1.00799e+06
0.288,0.000595152,235034,10740.5,61491.2,633346,124429,105029,986119
0.29,0.000602995,243354,13205.5,58136.6,646690,120439,103049,964253
0.292,0.000610839,251674,15670.5,54782.1,660035,116450,101069,942386
0.294,0.00061876,255520,15406.2,51168.2,673105,115894,100573,926802
0.296,0.000626696,258638,14697.5,47512.1,686130,115896,100319,912241
0.298,0.000634633,261756,13988.9,43856,699155,115899,100065,897680
0.3,0.000642572,264873,13280.3,40199.9,712180,115901,99811.5,883119
0.302,0.000650511,267991,12571.7,36543.9,725205,115903,99557.6,868558
0.304,0.000658452,271109,11863,32887.8,738230,115906,99303.7,853997
0.306,0.000666394,274227,11154.4,29231.7,751255,115908,99049.8,839436
0.308,0.000674337,277344,10445.8,25575.6,764280,115911,98795.9,824875
0.31,0.000682282,280462,9737.14,21919.5,777305,115913,98542,810314
0.312,0.000690241,283518,8957.16,18056.8,789753,115925,98417.7,796042
0.314,0.000698581,284879,6209.31,8494.73,786289,116205,101867,789730
0.316,0.000706921,286240,3461.45,-1067.31,782826,116484,105316,783418
0.318,0.000715262,287601,713.643,-10629.2,779363,116764,108765,777106
0.32,0.000723602,288962,-2034.21,-20191.2,775899,117044,112214,770794
0.322,0.000731943,290323,-4782.06,-29753.3,772436,117323,115664,764482
0.324,0.000740284,291684,-7529.92,-39315.3,768973,117603,119113,758170
0.326,0.000748646,292599,-10064.8,-47807.8,764182,117702,122419,754036
0.328,0.000757188,289608,-10735,-46938.3,747770,116221,124472,768962
0.33,0.000765731,286617,-11405.2,-46068.8,731358,114739,126524,783888
0.332,0.000774275,283626,-12075.3,-45199.3,714947,113258,128577,798814
0.334,0.00078282,280635,-12745.5,-44329.8,698535,111777,130629,813741
0.336,0.000791365,277644,-13415.7,-43460.3,682123,110296,132682,828667
0.338,0.000799912,274653,-14085.9,-42590.8,665712,108814,134735,843593
0.34,0.000808459,271661,-14756.1,-41721.3,649300,107333,136787,858520
0.342,0.000817007,268670,-15426.3,-40851.8,632888,105852,138840,873446
0.344,0.000825556,265679,-16096.5,-39982.3,616476,104370,140892,888372
0.346,0.000834105,262688,-16766.7,-39112.8,600065,102889,142945,903298
0.348,0.000842814,257203,-17013.6,-36876.4,583391,101913,142272,906993
0.35,0.00085181,247229,-16498.5,-32180,566245,101845,136694,890477
0.352,0.000860805,237256,-15983.4,-27483.5,549099,101777,131116,873961
0.354,0.000869801,227282,-15468.4,-22787.1,531953,101709,125538,857444
0.356,0.000878796,217309,-14953.3,-18090.7,514806,101641,119960,840928
0.358,0.000887792,207336,-14438.3,-13394.3,497660,101574,114382,824412
0.36,0.000896788,197362,-13923.2,-8697.87,480514,101506,108805,807895
0.362,0.000905783,187389,-13408.1,-4001.52,463368,101438,103227,791379
0.364,0.00091494,186487,-13490.5,-2807.52,466103,99841.4,101554,784192
0.366,0.000924128,187254,-13682.7,-2257.8,472495,97963.5,100599,778720
0.368,0.000933316,188021,-13875,-1708.09,478887,96085.7,99644.7,773249
0.37,0.000942505,188787,-14067.2,-1158.37,485279,94207.8,98690.1,767777
0.372,0.000951694,189554,-14259.5,-608.656,491672,92330,97735.6,762306
0.374,0.000960885,190321,-14451.7,-58.9407,498064,90452.1,96781,756834
0.376,0.000970076,191088,-14643.9,490.766,504456,88574.3,95826.5,751363
0.378,0.000979268,191855,-14836.2,1040.48,510848,86696.5,94871.9,745891
0.38,0.000988461,192622,-15028.4,1590.2,517240,84818.6,93917.4,740420
0.382,0.00099767,194085,-15325.5,2051.79,526297,83374.3,93542.9,732684
0.384,0.00100693,197841,-15967.8,2223.13,544131,83357.9,95078.6,717491
0.386,0.00101619,201597,-16610.1,2394.48,561965,83341.5,96614.4,702299
0.388,0.00102545,205353,-17252.5,2565.83,579799,83325.1,98150.2,687106
0.39,0.00103472,209108,-17894.8,2737.17,597633,83308.7,99686,671913
0.392,0.00104398,212864,-18537.1,2908.52,615467,83292.3,101222,656720
0.394,0.00105344,214902,-18901.1,3528.95,628406,83661.7,103264,643947
0.396,0.00106331,213408,-18693.3,5072.29,631284,84823.6,106349,636145
0.398,0.00107319,211913,-18485.5,6615.63,634163,85985.6,109433,628343
0.4,0.00108306,210419,-18277.7,8158.97,637042,87147.5,112517,620542
0.402,0.00109293,208925,-18069.9,9702.31,639921,88309.5,115602,612740
0.404,0.0011028,207431,-17862.1,11245.6,642800,89471.4,118686,604938
0.406,0.00111267,205936,-17654.3,12789,645679,90633.3,121770,597136
0.408,0.00112255,204442,-17446.5,14332.3,648558,91795.3,124854,589335
0.41,0.00113251,199590,-16352.6,15467,643350,92562.1,125087,589800
0.412,0.00114272,191119,-14749.2,14916.8,620609,91198.3,120053,603788
0.414,0.00115293,182648,-13145.8,14366.6,597867,89834.5,115018,617775
0.416,0.00116314,174177,-11542.4,13816.4,575126,88470.8,109984,631762
0.418,0.00117335,165705,-9938.95,13266.3,552385,87107,104950,645749
0.42,0.00118356,157235,-8335.55,12716.1,529644,85743.2,99916,659736
0.422,0.00119378,148763,-6732.12,12165.9,506902,84379.4,94881.8,673723
0.424,0.00120399,140292,-5128.7,11615.7,484161,83015.7,89847.6,687711
0.426,0.0012142,131821,-3525.27,11065.5,461420,81651.9,84813.4,701698
0.428,0.00122442,123350,-1921.85,10515.4,438678,80288.1,79779.2,715685
0.43,0.00123463,114879,-318.427,9965.17,415937,78924.3,74745,729672
0.432,0.00124482,108440,-600.748,8862.45,393121,76959.8,71778.1,735390
0.434,0.00125499,103764,-2519.15,7280.38,370242,74474.1,70604.7,733933
0.436,0.00126516,99087.6,-4437.58,5698.28,347363,71988.3,69431.2,732476
0.438,0.00127533,94411.4,-6356.01,4116.17,324483,69502.6,68257.8,731018
0.44,0.0012855,89735.1,-8274.44,2534.07,301604,67016.8,67084.4,729561
0.442,0.00129567,85058.9,-10192.9,951.972,278724,64531.1,65911,728104
0.444,0.00130606,85563.7,-16570.9,-374.158,267111,61003.2,66654.9,724175
0.446,0.00131664,90318.2,-26606.8,-1490.33,264739,56620.4,68971.6,718218
0.448,0.00132722,95072.8,-36642.8,-2606.5,262368,52237.7,71288.3,712261
0.45,0.0013378,99827.2,-46678.6,-3722.65,259996,47855,73604.9,706304
0.452,0.00134875,105769,-46111.7,-2025.17,278890,47844.7,77803.7,697795
0.454,0.00135973,111802,-44725.5,-110.249,299428,48172.2,82148,689088
0.456,0.0013707,117836,-43339.3,1804.67,319965,48499.8,86492.3,680382
0.458,0.00138168,123869,-41953,3719.6,340502,48827.4,90836.5,671676
0.46,0.00139266,129903,-40566.8,5634.52,361040,49154.9,95180.8,662970
0.462,0.00140363,135937,-39180.6,7549.45,381577,49482.5,99525,654263
0.464,0.00141461,141970,-37794.3,9464.34,402114,49810.1,103869,645557
0.466,0.00142559,148003,-36408.1,11379.3,422652,50137.6,108213,636851
0.468,0.00143657,154037,-35021.9,13294.2,443189,50465.2,112558,628144
0.47,0.00144754,160070,-33635.6,15209.1,463727,50792.8,116902,619438
0.472,0.00145852,166104,-32249.4,17124,484264,51120.3,121246,610732
0.474,0.0014695,172137,-30863.2,19039,504801,51447.9,125591,602025
0.476,0.00148048,178171,-29476.9,20953.9,525339,51775.5,129935,593319
0.478,0.00149143,183317,-25963.7,23039.3,543768,52419.4,134580,582568
0.48,0.00150233,187287,-19633.7,25350.7,559405,53482.3,139624,569109
0.482,0.00151324,191257,-13303.8,27662,575042,54545.1,144667,555650
0.484,0.00152414,195227,-6973.81,29973.3,590679,55608,149711,542191
0.486,0.00153505,199198,-643.847,32284.6,606317,56670.9,154755,528732
0.488,0.00154606,199392,5810.59,33825.9,615905,56337.2,156253,520046
0.49,0.00155732,190932,12550.4,33602.2,611628,52802.3,149624,522301
0.492,0.00156858,182473,19290.1,33378.4,607352,49267.5,142995,524555
0.494,0.00157984,174013,26029.8,33154.7,603075,45732.7,136366,526810
0.496,0.00159109,165553,32769.6,32930.9,598799,42197.9,129737,529064
0.498,0.00160235,157093,39509.3,32707.2,594522,38663.1,123108,531319
0.5,0.00161377,150399,42514.4,32164.9,590498,36589.4,116214,533584
0.502,0.00162531,145401,41904.9,30957.4,586984,35284.1,109252,536811
0.504,0.00163682,142104,37508.9,27070,585474,31196.3,103265,546341
0.506,0.00164831,139015,33376.2,23398.7,583738,27398,97584.1,555217
0.508,0.00165974,137669,31447.8,21535.5,580112,26024.1,94460.6,558611
0.51,0.00167117,136324,29519.3,19672.4,576486,24650.2,91337.2,562004
0.512,0.00168261,134978,27590.9,17809.2,572860,23276.2,88213.8,565398
0.514,0.00169404,133632,25662.4,15946,569234,21902.3,85090.4,568791
0.516,0.00170547,132286,23734,14082.9,565608,20528.5,81967,572185
0.518,0.0017169,130940,21805.6,12219.7,561982,19154.5,78843.5,575579
0.52,0.00172834,129595,19877.1,10356.6,558356,17780.6,75720.2,578972
0.522,0.00173977,128249,17948.7,8493.36,554730,16406.7,72596.7,582366
0.524,0.0017512,126903,16020.3,6630.22,551104,15032.8,69473.3,585759
0.526,0.00176264,125557,14091.8,4767.03,547477,13658.9,66349.8,589153
0.528,0.00177413,124360,12874.9,3730.28,544612,13244.4,63883.6,592634
0.53,0.00178587,123787,14655.5,6174.71,544951,16871.3,64185.8,596483
0.532,0.00179762,123215,16436.2,8619.21,545291,20498.3,64487.9,600333
0.534,0.00180936,122643,18216.7,11063.6,545630,24125.2,64790.1,604182
0.536,0.0018211,122071,19997.4,13508.1,545969,27752.2,65092.2,608031
0.538,0.00183285,121498,21778,15952.6,546309,31379.1,65394.4,611880
0.54,0.0018446,120961,23447.5,18357.7,546132,34965.8,65708.7,615019
0.542,0.00185644,121060,23068.7,20036,536451,37810,66246.5,605073
0.544,0.00186851,120711,20978.7,19896,523514,40063.4,66507.4,595261
0.546,0.00188075,120016,17565.2,18349.4,508060,41859.9,66554,585555
0.548,0.00189299,119320,14151.7,16802.9,492606,43656.3,66600.6,575849
0.55,0.00190523,118625,10738.1,15256.3,477151,45452.8,66647.3,566143
0.552,0.00191747,117929,7324.65,13709.8,461697,47249.3,66693.9,556437
0.554,0.00192971,117234,3911.08,12163.2,446242,49045.8,66740.6,546730
0.556,0.00194209,117162,2594.1,14016.4,442662,49647.6,66368.7,563979
0.558,0.00195449,117237,1771.22,16670.9,441880,49967.8,65898.1,587581
0.56,0.0019669,117312,948.358,19325.4,441098,50288,65427.5,611182
0.562,0.00197931,117387,125.499,21979.8,440316,50608.2,64956.9,634784
0.564,0.00199172,117461,-697.385,24634.3,439534,50928.5,64486.3,658386
0.566,0.00200413,117536,-1520.24,27288.7,438752,51248.7,64015.8,681987
0.568,0.00201655,117611,-2343.13,29943.2,437970,51568.9,63545.2,705589
0.57,0.00202896,117686,-3165.99,32597.7,437188,51889.1,63074.6,729190
0.572,0.00204137,117761,-3988.87,35252.2,436406,52209.3,62604,752792
0.574,0.00205389,116946,-4402.2,38286.7,425550,52124.3,59460.1,760864
0.576,0.00206652,114388,-5184.14,41377.4,420545,52059.4,59228.6,758873
0.578,0.00207916,111682,-6045.71,44444.4,417092,52029.9,59580.6,756868
0.58,0.0020918,108975,-6907.26,47511.4,413640,52000.4,59932.6,754864
0.582,0.00210443,106269,-7768.83,50578.4,410187,51970.8,60284.6,752860
0.584,0.00211707,103563,-8630.37,53645.4,406735,51941.3,60636.6,750856
0.586,0.0021297,100857,-9491.94,56712.4,403282,51911.8,60988.6,748852
0.588,0.00214234,98150.8,-10353.5,59779.4,399829,51882.3,61340.6,746848
0.59,0.00215498,95444.7,-11215,62846.4,396377,51852.7,61692.6,744844
0.592,0.00216761,92738.5,-12076.6,65913.4,392924,51823.2,62044.6,742840
0.594,0.00218025,90032.4,-12938.1,68980.4,389472,51793.7,62396.6,740836
0.596,0.00219305,89466.9,-13417.2,70352,388867,53272.3,64436.5,736884
0.598,0.00220596,90299.5,-13646.4,70616.3,390122,55735.8,67578.8,731661
0.6,0.00221888,91132.1,-13875.6,70880.6,391378,58199.4,70721.1,726438
0.602,0.00223176,92219.2,-13941.8,70166.1,390927,60876.6,73085.4,716123
0.604,0.00224462,93427.5,-13930.2,68985.5,389665,63655.5,75079.3,703384
0.606,0.00225749,94635.8,-13918.7,67804.9,388402,66434.5,77073.2,690645
0.608,0.00227035,95844.1,-13907.2,66624.3,387139,69213.4,79067,677906
0.61,0.00228321,97052.4,-13895.7,65443.7,385876,71992.3,81060.9,665167
0.612,0.00229608,98260.7,-13884.2,64263.1,384613,74771.2,83054.7,652428
0.614,0.00230894,99469,-13872.7,63082.4,383350,77550.2,85048.6,639689
0.616,0.00232181,100677,-13861.2,61901.8,382087,80329.1,87042.5,626950
0.618,0.00233467,101886,-13849.7,60721.2,380825,83108,89036.3,614211
0.62,0.00234758,102086,-13356.1,58914.2,378224,85831.6,90686.7,606142
0.622,0.00236061,98844.8,-11216.5,54968.3,371055,88366.1,91164.2,614019
0.624,0.00237365,95603.4,-9076.83,51022.3,363886,90900.6,91641.6,621897
0.626,0.0023868,92479.8,-7547.95,47748.2,357639,91400.9,92139.8,623534
0.628,0.00240005,89474.9,-6636.27,45153.2,352324,89845.3,92659,618863
0.63,0.00241331,86470,-5724.62,42558.3,347009,88289.8,93178.2,614192
0.632,0.00242657,83465.1,-4812.95,39963.2,341694,86734.1,93697.3,609521
0.634,0.00243983,80460.3,-3901.3,37368.3,336379,85178.6,94216.5,604850
0.636,0.00245316,77998.1,-3338.72,35743.8,331271,83352,94529.4,600437
0.638,0.00246667,76878.5,-3639.71,36520.2,326674,80854.9,94331.9,596663
0.64,0.00248018,75758.9,-3940.69,37296.6,322076,78357.9,94134.4,592890
0.642,0.00249369,74639.3,-4241.67,38073.1,317479,75860.8,93936.9,589116
0.644,0.0025072,73519.6,-4542.65,38849.4,312882,73363.8,93739.4,585343
0.646,0.0025208,72711.9,-4488.36,38743.4,310708,71279.1,92793.6,581600
0.648,0.00253454,72390.3,-3880.16,37261.6,312315,69837.4,90681.1,577907
0.65,0.00254828,72068.8,-3271.96,35779.7,313921,68395.7,88568.7,574214
0.652,0.00256202,71747.2,-2663.74,34297.8,315527,66954,86456.2,570520
0.654,0.00257576,71425.7,-2055.54,32815.9,317133,65512.3,84343.7,566827
0.656,0.0025895,71104.1,-1447.32,31334,318739,64070.5,82231.2,563134
0.658,0.00260324,70782.6,-839.114,29852.1,320345,62628.8,80118.8,559441
0.66,0.00261698,70461,-230.894,28370.2,321951,61187.1,78006.3,555747
0.662,0.00263072,70139.5,377.309,26888.4,323557,59745.4,75893.8,552054
0.664,0.00264446,69818,985.511,25406.5,325163,58303.7,73781.4,548361
0.666,0.0026582,69496.4,1593.73,23924.6,326770,56862,71668.9,544667
0.668,0.00267194,69174.9,2201.93,22442.7,328376,55420.3,69556.4,540974
0.67,0.00268569,68853.3,2810.15,20960.8,329982,53978.5,67443.9,537281
0.672,0.00269943,68531.8,3418.36,19478.9,331588,52536.8,65331.5,533588
0.674,0.00271317,68210.2,4026.58,17997,333194,51095.1,63219,529894
0.676,0.00272691,67888.7,4634.78,16515.2,334800,49653.4,61106.6,526201
0.678,0.00274065,67567.2,5242.98,15033.3,336406,48211.7,58994.1,522508
0.68,0.0027544,67216.7,5880.05,13451.9,337548,46983.5,56600.1,518853
0.682,0.00276832,66273.9,7108.66,9829.55,329172,50133.4,48434.9,515993
0.684,0.00278224,65331,8337.31,6207.13,320795,53283.4,40269.5,513134
0.686,0.00279615,64388.1,9565.92,2584.81,312418,56433.3,32104.3,510274
0.688,0.00281007,63445.3,10794.6,-1037.61,304041,59583.3,23938.8,507414
0.69,0.00282398,62502.4,12023.2,-4659.92,295664,62733.2,15773.6,504555
0.692,0.00283789,61559.5,13251.8,-8282.23,287288,65883.2,7608.45,501695
0.694,0.00285181,60616.7,14480.4,-11904.7,278911,69033.2,-556.999,498835
0.696,0.00286572,59673.8,15709.1,-15527,270534,72183.1,-8722.2,495975
0.698,0.00287972,59083.8,16191.4,-17427.8,264543,74725,-14968.6,491049
0.7,0.00289389,59229.7,15117.4,-15738.1,263528,75998.6,-17212.3,481814
0.702,0.00290806,59375.6,14043.3,-14048.3,262513,77272.2,-19456.2,472579
0.704,0.00292222,59521.5,12969.3,-12358.6,261499,78545.7,-21700,463344
0.706,0.00293639,59667.4,11895.3,-10668.9,260484,79819.3,-23943.8,454109
0.708,0.00295056,59813.3,10821.2,-8979.13,259469,81092.9,-26187.6,444874
0.71,0.00296473,59959.1,9747.15,-7289.42,258454,82366.4,-28431.4,435639
0.712,0.0029791,59578.9,10679.5,-8435.05,263975,82224.1,-30919.2,432457
0.714,0.00299365,58721.1,13432.2,-12153.4,275425,80796.9,-33628.3,434767
0.716,0.0030082,57863.4,16185.1,-15871.8,286875,79369.7,-36337.5,437078
0.718,0.00302275,57005.7,18937.8,-19590.1,298325,77942.5,-39046.7,439389
0.72,0.00303731,56147.9,21690.7,-23308.6,309776,76515.3,-41755.9,441700
0.722,0.00305186,55290.2,24443.4,-27026.9,321226,75088.2,-44465,444011
0.724,0.00306639,54927.4,27864.9,-29078.8,331595,74515.5,-46385.9,448535
0.726,0.00308085,55712.5,32837.3,-27266,339454,75924.6,-46479,458190
0.728,0.00309532,56497.7,37809.5,-25453.4,347314,77333.6,-46572,467846
0.73,0.00310978,57282.8,42781.8,-23640.7,355174,78742.6,-46665,477502
0.732,0.00312425,58067.9,47754,-21828,363033,80151.6,-46758.1,487157
0.734,0.00313871,58853,52726.4,-20015.3,370893,81560.6,-46851.1,496813
0.736,0.00315318,59638.1,57698.6,-18202.7,378752,82969.6,-46944.2,506468
0.738,0.00316764,60423.2,62670.8,-16390,386612,84378.6,-47037.2,516124
0.74,0.00318206,58321.9,59191.9,-20007.9,387405,83356.4,-51687.2,508373
0.742,0.00319648,56130.5,55449.2,-23795.3,387977,82258.3,-56479.4,500080
0.744,0.0032109,53939.1,51706.4,-27582.7,388550,81160.1,-61271.7,491786
0.746,0.00322532,51747.7,47963.6,-31370.1,389122,80062,-66063.9,483493
0.748,0.0032399,54271,46823.6,-29458.5,386873,80080.2,-60957.2,476062
0.75,0.00325449,57128.8,45868.4,-27142.5,384423,80177.6,-55148.1,468692
0.752,0.00326908,59986.6,44913.1,-24826.4,381974,80275.1,-49338.9,461323
0.754,0.00328367,62844.6,43957.8,-22510.3,379524,80372.5,-43529.6,453953
0.756,0.00329849,62125.8,40214,-22054.2,377204,80637.9,-38351.2,447924
0.758,0.00331332,61174.1,36288.5,-21719.2,374892,80914.4,-33213.7,441982
0.76,0.00332816,60222.3,32363,-21384.2,372581,81190.8,-28076.4,436040
0.762,0.00334305,58853.5,29705.7,-20759.4,370012,81278.6,-23933.6,434067
0.764,0.00335806,56730.1,29343,-19610.5,366980,81025.4,-21590.8,439276
0.766,0.00337306,54606.7,28980.4,-18461.6,363947,80772.1,-19247.9,444484
0.768,0.00338807,52483.2,28617.7,-17312.7,360914,80518.9,-16905,449693
0.77,0.00340308,50359.8,28255.1,-16163.8,357881,80265.6,-14562.1,454901
0.772,0.00341808,48236.3,27892.4,-15014.8,354849,80012.3,-12219.2,460110
0.774,0.00343306,46519,26960.3,-13945.9,349813,79589.2,-9379.5,465211
0.776,0.00344797,45615.4,24887.4,-13037,340764,78825.9,-5544.4,470096
0.778,0.00346289,44711.8,22814.6,-12128.2,331715,78062.5,-1709.41,474982
0.78,0.0034778,43808.1,20741.7,-11219.4,322666,77299.2,2125.58,479867
0.782,0.00349272,42904.5,18668.8,-10310.5,313617,76535.8,5960.69,484753
0.784,0.00350764,42000.9,16596,-9401.69,304568,75772.5,9795.68,489639
0.786,0.00352255,41097.2,14523.1,-8492.84,295519,75009.1,13630.8,494524
0.788,0.00353747,40193.6,12450.3,-7584.01,286471,74245.8,17465.8,499410
0.79,0.00355239,39289.9,10377.4,-6675.16,277422,73482.4,21300.9,504296
0.792,0.00356733,38642.8,8391.66,-5868.31,268253,72653,25147.8,507957
0.794,0.00358266,41898.3,7731.66,-6613.21,257255,70818.1,29177,492981
0.796,0.003598,45153.8,7071.68,-7358.08,246258,68983.2,33206,478005
0.798,0.00361333,48409.2,6411.7,-8102.96,235260,67148.4,37235,463030
0.8,0.00362867,51664.7,5751.7,-8847.85,224263,65313.4,41264.1,448054
0.802,0.003644,54920.2,5091.72,-9592.72,213265,63478.6,45293.1,433078
0.804,0.00365934,58175.7,4431.72,-10337.6,202268,61643.7,49322.2,418102
0.806,0.00367468,61431.1,3771.74,-11082.5,191270,59808.8,53351.2,403127
0.808,0.00369001,64686.7,3111.74,-11827.4,180273,57973.9,57380.4,388151
0.81,0.00370543,67383.5,2676.31,-11943.4,177290,57361.9,60439.4,380737
0.812,0.00372091,69627.1,2423.07,-11549.1,180811,57742.1,62711.3,379460
0.814,0.00373639,71870.7,2169.83,-11154.9,184332,58122.3,64983.4,378182
0.816,0.00375187,74114.3,1916.59,-10760.6,187853,58502.5,67255.3,376904
0.818,0.00376735,76357.9,1663.35,-10366.4,191374,58882.8,69527.4,375626
0.82,0.00378283,78601.5,1410.11,-9972.13,194895,59263,71799.3,374349
0.822,0.00379831,80845.1,1156.86,-9577.87,198416,59643.2,74071.3,373071
0.824,0.00381379,83088.7,903.627,-9183.62,201937,60023.4,76343.3,371793
0.826,0.00382927,85332.2,650.39,-8789.37,205458,60403.6,78615.3,370515
0.828,0.00384476,87575.9,397.145,-8395.1,208979,60783.9,80887.3,369238
0.83,0.00386024,89819.4,143.908,-8000.85,212500,61164.1,83159.2,367960
0.832,0.00387572,92063.1,-109.337,-7606.59,216021,61544.3,85431.3,366682
0.834,0.0038912,94306.6,-362.574,-7212.34,219542,61924.5,87703.2,365404
0.836,0.00390668,96550.3,-615.818,-6818.08,223063,62304.7,89975.3,364127
0.838,0.00392216,98793.8,-869.056,-6423.83,226584,62685,92247.2,362849
0.84,0.00393764,101037,-1122.29,-6029.58,230105,63065.2,94519.2,361571
0.842,0.00395307,102398,-934.535,-5438.65,233305,63735,96611.7,360894
0.844,0.00396849,103684,-709.886,-4831.28,236477,64429,98689.1,360268
0.846,0.00398392,104971,-485.23,-4223.89,239649,65123.1,100767,359641
0.848,0.00399934,106257,-260.581,-3616.52,242822,65817.1,102844,359014
0.85,0.00401476,107544,-35.9253,-3009.13,245994,66511.2,104922,358388
0.852,0.00403042,107364,-772.2,-1715.03,242646,66613.9,103082,358640
0.854,0.00404613,106885,-1704.53,-280.815,237966,66596,100443,359071
0.856,0.00406187,104631,-2358.56,1041.88,232532,66539.9,95997.3,359131
0.858,0.00407766,99729.5,-2597.42,2198.12,225972,66426.8,88855.3,358635
0.86,0.00409346,94827.4,-2836.28,3354.41,219412,66313.6,81713.1,358139
0.862,0.00410925,89925.5,-3075.14,4510.65,212852,66200.5,74571,357643
0.864,0.00412505,85023.4,-3314.01,5666.93,206291,66087.4,67428.8,357147
0.866,0.00414098,81937.4,-3197.24,6302.95,204539,66042.9,63014.6,356414
0.868,0.004157,80057.2,-2844.29,6593.47,205980,66044,60412,355524
0.87,0.00417302,78177,-2491.34,6883.99,207421,66045,57809.4,354633
0.872,0.00418904,76296.8,-2138.39,7174.51,208861,66046.1,55206.9,353743
0.874,0.00420506,74416.6,-1785.43,7465.03,210302,66047.1,52604.2,352853
0.876,0.00422108,72536.5,-1432.49,7755.55,211743,66048.2,50001.7,351962
0.878,0.00423709,71131,-806.458,8369.13,214037,65969.5,47842.1,350669
0.88,0.00425311,69812.9,-130.239,9042.09,216489,65876.1,45764.1,349301
0.882,0.00426913,68494.8,546.001,9715.07,218940,65782.6,43686,347933
0.884,0.00428514,67176.7,1222.22,10388,221392,65689.2,41608,346565
0.886,0.00430116,65858.6,1898.44,11061,223843,65595.8,39530,345197
0.888,0.00431717,64540.4,2574.68,11734,226295,65502.4,37451.9,343829
0.89,0.00433319,63222.3,3250.9,12406.9,228746,65409,35373.9,342462
0.892,0.0043492,61904.2,3927.14,13079.9,231197,65315.6,33295.8,341094
0.894,0.00436522,60586.1,4603.36,13752.9,233649,65222.1,31217.8,339726
0.896,0.00438123,59267.9,5279.6,14425.9,236100,65128.7,29139.7,338358
0.898,0.00439725,57949.8,5955.81,15098.8,238552,65035.3,27061.6,336990
0.9,0.00441327,56631.7,6632.03,15771.8,241003,64941.9,24983.6,335622
0.902,0.00442928,55313.6,7308.27,16444.8,243455,64848.5,22905.5,334255
0.904,0.00444548,51583.9,6608.83,16043.7,243787,66336.4,20166.9,337483
0.906,0.0044617,47651.9,5794.02,15552.7,243941,67957,17372.8,341096
0.908,0.00447791,43720,4979.24,15061.6,244096,69577.5,14578.7,344710
0.91,0.00449412,39788.1,4164.43,14570.5,244250,71198,11784.6,348324
0.912,0.00451034,35856.2,3349.65,14079.4,244405,72818.5,8990.58,351937
0.914,0.00452655,31924.3,2534.87,13588.4,244559,74439,6196.55,355551
0.916,0.00454276,27992.3,1720.06,13097.3,244714,76059.6,3402.43,359164
0.918,0.00455898,24060.4,905.275,12606.2,244869,77680.1,608.395,362778
0.92,0.00457534,21804,904.724,12244.8,244583,78980.2,-1072.36,365546
0.922,0.00459187,21348.3,1779.23,12022.6,243823,79936,-1556.55,367405
0.924,0.0046084,20892.6,2653.77,11800.4,243063,80891.7,-2040.75,369265
0.926,0.00462493,20437,3528.28,11578.3,242304,81847.5,-2524.95,371124
0.928,0.00464146,19981.3,4402.79,11356.1,241544,82803.2,-3009.14,372983
0.93,0.00465795,20559.6,5022.82,11450.2,236972,83799,-3307.37,370431
0.932,0.00467444,21179.3,5632.67,11556.9,232248,84796.3,-3598.15,367702
0.934,0.00469093,21799,6242.54,11663.6,227524,85793.6,-3888.95,364974
0.936,0.00470742,22418.6,6852.39,11770.3,222800,86791,-4179.74,362245
0.938,0.00472391,23038.3,7462.25,11877,218075,87788.3,-4470.53,359516
0.94,0.0047404,23658,8072.1,11983.7,213351,88785.7,-4761.32,356788
0.942,0.00475689,24277.6,8681.95,12090.4,208627,89783,-5052.1,354059
0.944,0.00477338,24897.3,9291.82,12197.1,203903,90780.4,-5342.9,351330
0.946,0.00478987,25517,9901.67,12303.8,199179,91777.7,-5633.69,348602
0.948,0.00480636,26136.7,10511.5,12410.5,194454,92775.1,-5924.48,345873
0.95,0.00482285,26756.3,11121.4,12517.1,189730,93772.4,-6215.27,343144
0.952,0.00483934,27376,11731.2,12623.8,185006,94769.7,-6506.06,340415
0.954,0.00485583,27995.7,12341.1,12730.5,180282,95767.1,-6796.85,337687
0.956,0.00487231,28615.3,12950.9,12837.2,175557,96764.4,-7087.64,334958
0.958,0.00488886,32488.1,15104.6,13394.3,178059,98843.5,-2945.47,335887
0.96,0.00490547,40485.4,19215.6,14522.5,189721,102294,6817.15,341455
0.962,0.00492218,53176.8,26102,15998.4,221223,107154,22869.5,362718
0.964,0.00493901,71466.3,36298.5,17889,276386,113696,46423,402702
0.966,0.00495579,84135.9,42436.4,18958.7,313358,117866,63702.6,428246
0.968,0.00497244,78805.7,35575.7,17398.8,292065,114445,60887,407542
0.97,0.00498909,73475.3,28714.7,15839,270770,111024,58071.3,386837
0.972,0.00500573,68145,21853.9,14279.1,249477,107602,55255.7,366133
0.974,0.00502238,62814.8,14993.2,12719.3,228184,104181,52440.1,345430
0.976,0.00503909,57859.1,9712.56,12086.5,214293,100666,50819.9,331923
0.978,0.00505581,52999.7,4837.75,11691.7,202304,97126.9,49506.7,320265
0.98,0.00507267,52345.7,4567.86,12092.5,200842,95579.7,50682.2,320026
0.982,0.00508953,51809.5,4427.03,12515.5,199675,94088.3,51927.4,320107
0.984,0.00510639,51273.3,4286.2,12938.5,198508,92596.9,53172.6,320188
0.986,0.00512325,50737.1,4145.37,13361.6,197341,91105.5,54417.8,320269
0.988,0.00514011,50201,4004.54,13784.6,196174,89614.2,55663,320350
0.99,0.00515698,49664.8,3863.71,14207.7,195007,88122.8,56908.2,320431
0.992,0.00517384,49128.6,3722.89,14630.7,193840,86631.4,58153.4,320512
0.994,0.0051907,48592.4,3582.06,15053.7,192674,85140,59398.6,320594
0.996,0.00520756,48056.2,3441.23,15476.8,191507,83648.6,60643.8,320675
0.998,0.00522442,47520,3300.4,15899.8,190340,82157.2,61889,320756
1,0.00524128,46983.8,3159.57,16322.9,189173,80665.9,63134.2,320837
1.002,0.00525815,46447.7,3018.74,16745.9,188006,79174.5,64379.4,320918
1.004,0.00527501,45911.5,2877.92,17168.9,186839,77683.2,65624.6,320999
1.006,0.00529187,45375.3,2737.08,17592,185672,76191.7,66869.9,321080
1.008,0.00530873,44839.1,2596.25,18015,184505,74700.4,68115.1,321161
1.01,0.00532559,44302.9,2455.43,18438.1,183339,73209,69360.2,321242
1.012,0.00534246,43766.7,2314.6,18861.1,182172,71717.6,70605.4,321323
1.014,0.00535932,43230.5,2173.76,19284.2,181005,70226.2,71850.7,321404
1.016,0.00537618,42694.4,2032.94,19707.2,179838,68734.8,73095.9,321485
1.018,0.00539304,42158.2,1892.11,20130.2,178671,67243.5,74341.1,321566
1.02,0.00540991,41622,1751.28,20553.3,177504,65752.1,75586.3,321647
1.022,0.00542677,41085.8,1610.46,20976.3,176337,64260.7,76831.4,321728
1.024,0.00544364,40470.1,1504.57,21436.3,175173,62794.7,78057,321922
1.026,0.00546044,40876.9,949.055,21420.9,173971,61002.2,79535.5,320657
1.028,0.00547743,39122.8,-327.912,21292.2,171862,59491.3,75769.3,322506
1.03,0.00549452,37302.9,-1483.5,22397.3,169820,58782.2,70888.7,323501
1.032,0.00551162,35483,-2639.08,23502.4,167779,58073,66008.1,324495
1.034,0.00552872,33662.9,-3794.74,24607.6,165737,57363.8,61127.2,325490
1.036,0.00554581,31843,-4950.32,25712.7,163696,56654.7,56246.7,326485
1.038,0.00556291,30023.1,-6105.91,26817.8,161654,55945.5,51366.1,327480
1.04,0.00558001,28203.1,-7261.49,27922.9,159612,55236.4,46485.5,328475
1.042,0.00559711,26383.1,-8417.15,29028.1,157571,54527.2,41604.6,329470
1.044,0.00561421,25302.8,-9049.7,30669,154586,54315.8,38174.9,329102
1.046,0.00563146,25312.2,-8594.61,31227.8,156237,55177.4,36762.1,323959
1.048,0.00564872,25314.7,-8133.88,31719.4,158097,56045.6,35331.7,318737
1.05,0.00566597,25317.3,-7673.15,32211,159957,56913.8,33901.4,313515
1.052,0.00568323,25319.8,-7212.39,32702.6,161818,57782,32470.9,308293
1.054,0.00570048,25322.3,-6751.66,33194.2,163678,58650.2,31040.5,303071
1.056,0.00571774,25324.8,-6290.93,33685.9,165538,59518.4,29610.1,297849
1.058,0.00573499,25327.3,-5830.2,34177.5,167398,60386.7,28179.7,292627
1.06,0.00575224,25329.9,-5369.47,34669.1,169259,61254.9,26749.3,287405
1.062,0.0057695,25332.4,-4908.71,35160.7,171119,62123.1,25318.9,282182
1.064,0.00578676,25334.9,-4447.98,35652.3,172979,62991.3,23888.5,276960
1.066,0.00580401,25337.4,-3987.25,36144,174839,63859.5,22458.1,271738
1.068,0.00582126,25340,-3526.52,36635.6,176700,64727.7,21027.7,266516
1.07,0.00583852,25342.5,-3065.77,37127.2,178560,65596,19597.2,261294
1.072,0.00585577,25345,-2605.04,37618.8,180420,66464.2,18166.8,256072
1.074,0.00587305,25344.9,-1779.72,37687.1,180988,66628.3,17214,249128
1.076,0.00589039,25337.4,79.8514,36554.3,177890,64795.2,17616,237301
1.078,0.00590772,25329.9,1939.42,35421.6,174792,62962,18017.9,225474
1.08,0.00592508,24978.9,3634.31,34617.8,171295,61202.9,17904.6,215528
1.082,0.00594255,23883.9,4338.82,34808.2,168045,60125.3,16241.7,214621
1.084,0.00596009,23597.7,4312.46,34720.8,167688,59793.4,15026.6,218043
1.086,0.00597762,23311.5,4286.1,34633.4,167331,59461.5,13811.6,221466
1.088,0.00599515,23025.3,4259.75,34546,166974,59129.5,12596.4,224889
1.09,0.00601268,22739.1,4233.39,34458.7,166616,58797.6,11381.3,228311
1.092,0.00603021,22453,4207.03,34371.3,166259,58465.7,10166.3,231734
1.094,0.00604774,22166.8,4180.68,34283.9,165902,58133.8,8951.2,235156
1.096,0.00606527,21880.6,4154.32,34196.5,165545,57801.9,7736.13,238579
1.098,0.0060828,21594.4,4127.96,34109.1,165188,57470,6520.99,242001
1.1,0.00610033,21308.2,4101.61,34021.7,164831,57138.1,5305.92,245424
1.102,0.00611786,21022.1,4075.25,33934.4,164474,56806.2,4090.85,248847
1.104,0.00613539,20735.9,4048.9,33847,164117,56474.3,2875.78,252269
1.106,0.00615292,20449.7,4022.54,33759.6,163760,56142.4,1660.72,255692
1.108,0.00617046,20923.6,4044.44,32871.5,162502,55670.2,1181.8,257403
1.11,0.006188,21712.1,4086.33,31651.8,160873,55140,1007.76,258406
1.112,0.00620553,22500.7,4128.21,30432.2,159243,54609.7,833.713,259410
1.114,0.00622307,23289.2,4170.09,29212.5,157613,54079.5,659.67,260413
1.116,0.00624061,24077.8,4211.98,27992.8,155983,53549.3,485.616,261416
1.118,0.00625814,24866.4,4253.86,26773.1,154353,53019,311.572,262419
1.12,0.00627568,25654.9,4295.74,25553.5,152723,52488.8,137.529,263422
1.122,0.00629332,26093,5294.49,23052.7,150560,52372.7,2092.49,260578
1.124,0.00631099,26460.7,6485.54,20294.4,148290,52339.8,4475.32,256960
1.126,0.00632866,26828.4,7676.67,17535.9,146020,52306.8,6858.3,253342
1.128,0.00634632,27196.1,8867.72,14777.6,143750,52273.9,9241.13,249724
1.13,0.00636399,27563.7,10058.8,12019.3,141480,52241,11624,246106
1.132,0.00638165,27931.4,11249.8,9261.06,139210,52208.1,14006.8,242488
1.134,0.00639935,28034.9,12069.8,7548.9,136910,52409.5,16065.6,239226
1.136,0.00641712,27746.6,12339.5,7387.64,134567,52958.3,17644.2,236490
1.138,0.00643488,27458.4,12609.2,7226.39,132223,53507,19222.7,233755
1.14,0.00645263,27321.3,12463,6903.88,130553,53038.7,19140.2,230241
1.142,0.00647039,27211.2,12242.4,6552.49,129004,52388.2,18760.2,226588
1.144,0.00648814,27101.2,12021.8,6201.08,127455,51737.7,18380.3,222935
1.146,0.00650589,26991.1,11801.2,5849.7,125906,51087.3,18000.4,219282
1.148,0.00652365,26881.1,11580.6,5498.31,124357,50436.8,17620.5,215629
1.15,0.0065414,26771,11360,5146.93,122808,49786.4,17240.5,211976
1.152,0.00655915,26660.9,11139.4,4795.54,121259,49135.9,16860.6,208324
1.154,0.00657691,26550.9,10918.8,4444.14,119710,48485.4,16480.7,204670
1.156,0.00659466,26440.8,10698.2,4092.75,118160,47835,16100.7,201017
1.158,0.00661241,26330.8,10477.6,3741.37,116611,47184.5,15720.8,197365
1.16,0.00663017,26220.7,10257,3389.98,115062,46534.1,15340.9,193712
1.162,0.00664792,26110.6,10036.4,3038.6,113513,45883.6,14961,190059
1.164,0.00666567,26000.6,9815.78,2687.19,111964,45233.1,14581,186405
1.166,0.00668343,25890.5,9595.17,2335.81,110415,44582.7,14201.1,182753
1.168,0.00670118,25661.9,9451.81,1931.87,109466,43867.9,13868.7,179571
1.17,0.00671895,25143.6,9497.11,1399.59,109984,42996,13652.4,177539
1.172,0.00673671,24625.4,9542.4,867.274,110501,42124.1,13436,175507
1.174,0.00675448,24107.2,9587.69,334.991,111019,41252.3,13219.6,173475
1.176,0.00677224,23588.9,9632.98,-197.293,111536,40380.4,13003.3,171443
1.178,0.00679005,22350.3,9330.05,-600.233,110529,39387.6,11835.5,169196
1.18,0.00680798,19438.8,8218.48,-702.809,105982,38113.9,8458.44,166449
1.182,0.00682591,16527.2,7106.84,-805.392,101434,36840.2,5081.15,163701
1.184,0.00684383,13615.7,5995.26,-907.968,96886.6,35566.5,1704.05,160953
1.186,0.00686176,10704.2,4883.69,-1010.54,92339.1,34292.8,-1673.04,158206
1.188,0.00687968,7792.7,3772.11,-1113.12,87791.7,33019.1,-5050.14,155458
1.19,0.00689765,7729.35,3627.39,-1001.09,88236,32999,-4823.38,154764
1.192,0.00691563,8316.02,3703.33,-840.079,89819.6,33265.1,-3774.14,154539
1.194,0.00693361,8902.69,3779.28,-679.073,91403.1,33531.1,-2724.9,154314
1.196,0.00695159,9489.36,3855.22,-518.066,92986.6,33797.2,-1675.66,154088
1.198,0.00696957,10076,3931.17,-357.06,94570.2,34063.2,-626.425,153863
1.2,0.00698755,10662.7,4007.11,-196.044,96153.8,34329.3,422.876,153638
1.202,0.00700553,11249.4,4083.06,-35.0369,97737.3,34595.3,1472.11,153412
1.204,0.00702351,11836.1,4159,125.97,99320.9,34861.3,2521.35,153187
1.206,0.00704149,12422.7,4234.95,286.976,100904,35127.4,3570.59,152962
1.208,0.00705947,13009.4,4310.9,447.983,102488,35393.4,4619.83,152736
1.21,0.00707746,13596.1,4386.84,608.999,104072,35659.5,5669.13,152511
1.212,0.00709544,14182.8,4462.79,770.006,105655,35925.5,6718.37,152286
1.214,0.00711342,14769.5,4538.73,931.012,107239,36191.5,7767.61,152060
1.216,0.00713141,15340,4956.48,1214.04,109603,36461.1,9448.08,152685
1.218,0.00714943,15890.9,5788.55,1644.98,112914,36735.1,11893.8,154338
1.22,0.00716745,18158.7,6619.01,2121.04,117183,37539.2,15035.1,156219
1.222,0.00718546,21656,7448.35,2629.44,122137,38723,18674.5,158263
1.224,0.00720348,25153.3,8277.68,3137.84,127091,39906.8,22314,160307
1.226,0.0072215,28650.6,9107.02,3646.23,132045,41090.6,25953.5,162350
1.228,0.00723952,32148.1,9936.41,4154.66,137000,42274.4,29593.1,164394
1.23,0.00725754,35645.4,10765.7,4663.06,141954,43458.2,33232.6,166438
1.232,0.00727561,38576.2,11234.5,4700.38,144317,44401.7,35800.9,166591
1.234,0.00729377,40444.7,11027,3854.24,141821,44894.3,36360.2,163199
1.236,0.00731193,41057,10769.6,3278.96,138898,45167.9,36545.7,161377
1.238,0.00733008,40287.9,10457.3,3001.47,135506,45200.6,36320,161282
1.24,0.00734823,39518.9,10145.1,2724,132115,45233.4,36094.4,161186
1.242,0.00736638,38749.9,9832.78,2446.53,128723,45266.1,35868.7,161091
1.244,0.00738453,37980.8,9520.51,2169.06,125332,45298.8,35643,160995
1.246,0.00740268,37211.8,9208.23,1891.57,121940,45331.5,35417.4,160900
1.248,0.00742082,36442.7,8895.96,1614.1,118548,45364.2,35191.7,160804
1.25,0.00743897,35673.7,8583.69,1336.63,115156,45396.9,34966,160709
1.252,0.00745712,34904.7,8271.42,1059.15,111765,45429.6,34740.4,160613
1.254,0.00747527,34135.7,7959.15,781.682,108373,45462.3,34514.7,160518
1.256,0.00749342,33366.6,7646.86,504.193,104981,45495,34289,160423
1.258,0.00751157,32597.6,7334.59,226.721,101590,45527.7,34063.4,160327
1.26,0.00752974,32399,7072.65,-24.2107,99467,45360.8,34052.9,162205
1.262,0.00754792,32388.4,6827.29,-266.403,97762.1,45128.2,34113.4,164733
1.264,0.00756609,32377.7,6581.91,-508.609,96057,44895.6,34173.8,167261
1.266,0.00758427,32367.1,6336.55,-750.801,94352,44663,34234.3,169789
1.268,0.00760244,32356.4,6091.18,-992.993,92647,44430.4,34294.7,172317
1.27,0.00762061,32345.8,5845.82,-1235.19,90942.1,44197.8,34355.1,174845
1.272,0.00763879,32335.1,5600.45,-1477.38,89237.1,43965.2,34415.6,177373
1.274,0.00765696,32324.4,5355.07,-1719.58,87532,43732.5,34476,179901
1.276,0.00767524,32424.1,4679.9,-1953.14,87562.6,42509.3,34980.6,181887
1.278,0.00769353,32542.1,3933.71,-2185.27,87879.9,41122.4,35558.7,183784
1.28,0.00771182,32660,3187.52,-2417.39,88197.2,39735.6,36136.7,185680
1.282,0.0077301,32777.9,2441.33,-2649.52,88514.5,38348.7,36714.7,187577
1.284,0.0077484,32895.9,1695.09,-2881.66,88831.8,36961.7,37292.7,189473
1.286,0.00776668,33013.8,948.904,-3113.79,89149.1,35574.8,37870.7,191370
1.288,0.00778497,33131.8,202.714,-3345.92,89466.5,34187.9,38448.8,193267
1.29,0.00780326,33249.7,-543.477,-3578.04,89783.8,32801,39026.8,195163
1.292,0.00782161,33440.4,-620.822,-3749.31,90207.2,32154.3,39092.8,194664
1.294,0.00783998,33652.5,-501.354,-3902.66,90661.9,31725.4,39008.3,193461
1.296,0.00785837,33158.8,-269.2,-3629.08,89426.8,31307.1,37910.4,192083
1.298,0.00787675,32606.1,-27.6177,-3319.77,88050.4,30889.8,36727.8,190690
1.3,0.00789513,32053.4,213.965,-3010.47,86673.9,30472.4,35545.1,189297
1.302,0.00791352,31500.7,455.562,-2701.15,85297.4,30055.1,34362.4,187904
1.304,0.0079319,30948,697.144,-2391.85,83920.9,29637.7,33179.8,186511
1.306,0.00795029,30395.3,938.727,-2082.55,82544.4,29220.4,31997.1,185119
1.308,0.00796867,29842.6,1180.31,-1773.25,81168,28803,30814.5,183726
1.31,0.00798706,29289.9,1421.89,-1463.95,79791.5,28385.7,29631.8,182333
1.312,0.00800545,28737.2,1663.49,-1154.63,78415,27968.3,28449.1,180940
1.314,0.00802383,28184.5,1905.07,-845.326,77038.5,27551,27266.5,179547
1.316,0.00804222,27631.8,2146.65,-536.025,75662.1,27133.6,26083.8,178154
1.318,0.0080606,27079.1,2388.24,-226.724,74285.6,26716.3,24901.2,176762
1.32,0.00807899,26526.3,2629.83,82.5963,72909.1,26298.9,23718.5,175369
1.322,0.00809737,26097.5,2898.63,383.969,72284.2,25982.5,22747.9,173317
1.324,0.00811573,26039.8,3249.02,661.577,73912,25968.6,22413.3,169289
1.326,0.0081341,25982.2,3599.41,939.185,75539.9,25954.6,22078.6,165261
1.328,0.00815247,25924.6,3949.79,1216.79,77167.8,25940.7,21743.9,161233
1.33,0.00817084,25866.9,4300.2,1494.42,78795.8,25926.8,21409.1,157205
1.332,0.00818921,25809.3,4650.59,1772.03,80423.6,25912.8,21074.4,153178
1.334,0.00820758,25751.6,5000.98,2049.63,82051.5,25898.9,20739.7,149150
1.336,0.00822594,25694,5351.36,2327.24,83679.4,25885,20405,145122
1.338,0.00824431,25636.3,5701.77,2604.87,85307.4,25871,20070.3,141094
1.34,0.00826268,25578.7,6052.16,2882.47,86935.2,25857.1,19735.6,137066
1.342,0.00828108,25336.4,6134.48,3235.93,85955.3,26034.7,19384.8,133267
1.344,0.00829953,24805.2,5797.37,3708.09,80894.9,26512,19008.7,129826
1.346,0.00831798,24274,5460.25,4180.24,75834.5,26989.3,18632.6,126385
1.348,0.00833643,23742.8,5123.12,4652.42,70773.8,27466.6,18256.4,122944
1.35,0.00835489,23211.6,4786,5124.57,65713.4,27943.9,17880.3,119503
1.352,0.00837334,22680.4,4448.89,5596.72,60653,28421.2,17504.2,116062
1.354,0.00839179,22149.2,4111.77,6068.87,55592.6,28898.5,17128.1,112621
1.356,0.00841024,21618,3774.65,6541.03,50532.2,29375.8,16752,109180
1.358,0.00842869,21086.7,3437.52,7013.21,45471.5,29853.2,16375.9,105738
1.36,0.00844718,20795.1,3257.35,7508.57,42934.3,30446,16889.9,106054
1.362,0.00846569,20650.6,3173.62,8018.2,41947.4,31109.9,17951,108679
1.364,0.00848421,20506.2,3089.89,8527.83,40960.6,31773.8,19012,111304
1.366,0.00850274,20319,3027.56,8895,40252.2,32318.4,19655.3,112984
1.368,0.00852129,20047.6,3007.46,8980.96,40093.3,32627.7,19474.3,112800
1.37,0.00853984,19776.2,2987.36,9066.92,39934.4,32936.9,19293.2,112616
1.372,0.00855839,19504.8,2967.27,9152.89,39775.5,33246.1,19112.2,112432
1.374,0.00857695,19233.3,2947.17,9238.85,39616.6,33555.4,18931.2,112248
1.376,0.0085955,18961.9,2927.07,9324.82,39457.7,33864.6,18750.1,112064
1.378,0.00861405,18690.5,2906.97,9410.79,39298.9,34173.8,18569.1,111881
1.38,0.0086326,18419,2886.87,9496.75,39140,34483.1,18388.1,111697
1.382,0.00865116,18147.6,2866.78,9582.72,38981.1,34792.3,18207,111513
1.384,0.00866971,17876.2,2846.68,9668.68,38822.2,35101.5,18026,111329
1.386,0.00868826,17604.7,2826.58,9754.65,38663.3,35410.8,17844.9,111145
1.388,0.00870681,17333.3,2806.48,9840.62,38504.4,35720,17663.9,110961
1.39,0.00872537,17061.9,2786.38,9926.58,38345.6,36029.3,17482.9,110777
1.392,0.00874392,16790.5,2766.29,10012.5,38186.7,36338.5,17301.8,110594
1.394,0.00876248,16586.8,2742.2,10047.3,38171.6,36595.5,17093.7,110235
1.396,0.0087811,16947,2684.91,9655.55,39353.2,36417.8,16660.1,108427
1.398,0.00879972,17307.2,2627.63,9263.82,40534.8,36240,16226.6,106618
1.4,0.00881833,17667.4,2570.35,8872.09,41716.4,36062.2,15793,104809
1.402,0.00883698,18155,2717.73,7972.57,45111,35843.4,16331,106932
1.404,0.00885563,18659.7,2892.72,7004.54,48804.1,35619,17000,109584
1.406,0.00887428,19164.4,3067.69,6036.57,52496.9,35394.7,17669,112237
1.408,0.00889293,19669.1,3242.66,5068.61,56189.8,35170.3,18338,114890
1.41,0.00891158,20173.8,3417.63,4100.64,59882.7,34946,19007,117542
1.412,0.00893023,20678.5,3592.61,3132.67,63575.5,34721.6,19676,120195
1.414,0.00894888,21183.2,3767.59,2164.65,67268.6,34497.2,20345,122848
1.416,0.00896756,21368.3,3868.85,1569.67,68722,34210.6,20611.5,123854
1.418,0.00898627,21297.6,3911.11,1273.22,68383.1,33874.1,20555.8,123543
1.42,0.00900498,21226.9,3953.38,976.775,68044.2,33537.6,20500.1,123231
1.422,0.00902369,21156.1,3995.64,680.309,67705.2,33201.1,20444.5,122920
1.424,0.0090424,21085.4,4037.91,383.86,67366.3,32864.6,20388.8,122608
1.426,0.00906111,21014.7,4080.17,87.4106,67027.4,32528.1,20333.1,122297
1.428,0.00907982,20732,4079.1,-224.124,66162.7,32118.7,20171.9,121580
1.43,0.00909851,19901.6,3966.14,-574.619,63940.1,31521.1,19738,119817
1.432,0.00911721,19071.1,3853.17,-925.134,61717.4,30923.5,19304,118054
1.434,0.00913591,18240.7,3740.21,-1275.63,59494.9,30326,18870.1,116291
1.436,0.00915461,17410.3,3627.24,-1626.12,57272.3,29728.4,18436.2,114527
1.438,0.0091733,16579.9,3514.28,-1976.62,55049.7,29130.8,18002.3,112764
1.44,0.009192,15749.5,3401.31,-2327.13,52827,28533.2,17568.3,111001
1.442,0.0092107,14919.1,3288.35,-2677.63,50604.5,27935.7,17134.4,109238
1.444,0.0092294,14132.5,3189.25,-3010.35,48570.5,27355,16714.6,107549
1.446,0.0092481,13947.3,3280.2,-3099.4,49122.5,27006.4,16488.4,106871
1.448,0.0092668,13762.1,3371.15,-3188.45,49674.6,26657.8,16262.2,106193
1.45,0.0092855,13576.9,3462.1,-3277.51,50226.6,26309.1,16036,105515
1.452,0.0093042,13391.7,3553.05,-3366.56,50778.7,25960.5,15809.8,104837
1.454,0.0093229,13206.5,3644,-3455.61,51330.7,25611.8,15583.6,104160
1.456,0.00934161,13021.4,3734.96,-3544.66,51882.8,25263.2,15357.4,103482
1.458,0.00936031,12836.2,3825.91,-3633.72,52434.8,24914.5,15131.2,102804
1.46,0.00937901,12651,3916.86,-3722.77,52986.9,24565.9,14905,102126
1.462,0.00939771,12465.8,4007.81,-3811.82,53538.9,24217.2,14678.8,101448
1.464,0.00941641,12280.6,4098.76,-3900.87,54090.9,23868.6,14452.5,100770
1.466,0.00943511,12095.4,4189.71,-3989.93,54643,23520,14226.3,100092
1.468,0.00945382,11910.2,4280.67,-4078.98,55195.1,23171.3,14000.1,99414.6
1.47,0.00947252,11725,4371.62,-4168.03,55747.1,22822.7,13773.9,98736.8
1.472,0.00949122,11539.8,4462.57,-4257.08,56299.1,22474,13547.7,98058.9
1.474,0.00950992,11354.6,4553.52,-4346.14,56851.2,22125.4,13321.5,97381.1
1.476,0.00952862,11169.4,4644.47,-4435.19,57403.2,21776.7,13095.3,96703.3
1.478,0.00954732,10984.2,4735.43,-4524.24,57955.3,21428.1,12869.1,96025.4
1.48,0.00956606,10733.1,4565.87,-4096.83,56794.9,21538.4,12236,94818.4
1.482,0.00958483,10434.6,4209.09,-3298.26,54403.9,21978.4,11310.5,93231.2
1.484,0.00960359,10136.1,3852.31,-2499.69,52012.9,22418.5,10385,91644.1
1.486,0.00962235,9837.58,3495.53,-1701.12,49621.9,22858.6,9459.47,90056.9
1.488,0.00964112,9539.08,3138.73,-902.498,47230.7,23298.6,8533.91,88469.6
1.49,0.00965988,9240.59,2781.96,-103.928,44839.7,23738.7,7608.4,86882.4
1.492,0.00967864,8942.1,2425.18,694.642,42448.7,24178.8,6682.89,85295.3
1.494,0.00969741,8643.61,2068.4,1493.21,40057.7,24618.8,5757.38,83708.1
1.496,0.00971619,8447,1941.62,2254.3,39572.1,24723.8,5150.65,83501
1.498,0.00973499,8314.95,1960.53,2991.57,40293.6,24616.5,4745.92,84168.3
1.5,0.00975379,8182.91,1979.45,3728.85,41015.1,24509.2,4341.19,84835.5
1.502,0.00977259,8050.86,1998.37,4466.12,41736.5,24401.9,3936.45,85502.8
1.504,0.00979139,7926.71,2026.82,5161.08,42460.2,24286.5,3550.28,86047.5
1.506,0.00981025,7951.46,2234.88,5058.5,43225.5,24018.5,3513.9,84281.7
1.508,0.00982911,7976.2,2442.93,4955.94,43990.6,23750.5,3477.52,82516.1
1.51,0.00984796,8000.95,2650.98,4853.37,44755.8,23482.4,3441.14,80750.4
1.512,0.00986682,8025.69,2859.03,4750.8,45521,23214.4,3404.75,78984.8
1.514,0.00988568,8050.44,3067.09,4648.22,46286.3,22946.3,3368.37,77219
1.516,0.00990452,8007.54,3102.99,4429.77,45417,22741.8,3786.41,75756.7
1.518,0.00992336,7951.74,3106.04,4189.21,44235.8,22549.4,4291.17,74352.3
1.52,0.0099422,7895.93,3109.1,3948.64,43054.7,22357,4795.94,72948
1.522,0.00996104,7840.13,3112.15,3708.07,41873.5,22164.5,5300.7,71543.6
1.524,0.00997989,7784.32,3115.2,3467.49,40692.2,21972.1,5805.5,70139.1
1.526,0.00999872,7728.51,3118.25,3226.93,39511,21779.7,6310.26,68734.7
1.528,0.0100176,7672.7,3121.31,2986.36,38329.9,21587.2,6815.03,67330.3
1.53,0.0100364,7616.9,3124.36,2745.79,37148.7,21394.8,7319.79,65925.9
1.532,0.0100552,7567.07,3135.09,2517.5,36057.9,21201.4,7777.21,64583
1.534,0.0100741,7610.53,3265.7,2480.74,36377.3,20991.7,7495.86,64199
1.536,0.0100929,7653.98,3396.3,2443.97,36696.7,20782,7214.53,63815
1.538,0.0101117,7697.44,3526.9,2407.21,37016.2,20572.4,6933.19,63431
1.54,0.0101306,7740.9,3657.5,2370.45,37335.6,20362.7,6651.86,63047.1
1.542,0.0101494,7784.36,3788.11,2333.68,37655,20153,6370.51,62663.1
1.544,0.0101682,7827.82,3918.71,2296.92,37974.4,19943.4,6089.18,62279.1
1.546,0.0101871,7871.27,4049.31,2260.16,38293.9,19733.7,5807.85,61895.2
1.548,0.0102059,7914.73,4179.91,2223.4,38613.3,19524.1,5526.52,61511.2
1.55,0.0102247,7958.19,4310.51,2186.63,38932.7,19314.4,5245.19,61127.3
1.552,0.0102436,8001.65,4441.12,2149.87,39252.1,19104.7,4963.84,60743.3
1.554,0.0102624,7999.59,4466.47,2244.77,39227.9,19032.3,5124.49,60707.7
1.556,0.0102813,7970.79,4430.02,2417.01,39001.9,19040.3,5544.74,60876.7
1.558,0.0103002,7942,4393.57,2589.25,38775.8,19048.4,5964.98,61045.6
1.56,0.0103191,7913.2,4357.11,2761.49,38549.8,19056.5,6385.23,61214.6
1.562,0.010338,7884.41,4320.66,2933.74,38323.8,19064.6,6805.5,61383.6
1.564,0.0103569,7855.62,4284.2,3105.97,38097.7,19072.7,7225.74,61552.6
1.566,0.0103758,7826.82,4247.75,3278.21,37871.7,19080.8,7645.99,61721.6
1.568,0.0103947,7798.03,4211.29,3450.45,37645.7,19088.9,8066.23,61890.6
1.57,0.0104136,7769.23,4174.84,3622.7,37419.6,19097,8486.5,62059.6
1.572,0.0104325,7740.44,4138.38,3794.94,37193.6,19105.1,8906.75,62228.6
1.574,0.0104514,7711.65,4101.93,3967.17,36967.5,19113.2,9326.99,62397.6
1.576,0.0104703,7821.74,4037.27,4352.18,36806.7,19041,9518.73,62361.3
1.578,0.0104892,8049.63,3948.68,4917.66,36701.2,18900.7,9516.63,62150.9
1.58,0.0105081,8277.54,3860.08,5483.17,36595.6,18760.4,9514.54,61940.5
1.582,0.010527,8505.44,3771.49,6048.65,36490.1,18620.2,9512.45,61730.1
1.584,0.0105459,8733.34,3682.9,6614.12,36384.6,18479.9,9510.35,61519.7
1.586,0.0105648,8961.24,3594.31,7179.6,36279.1,18339.6,9508.26,61309.3
1.588,0.0105837,9189.15,3505.71,7745.11,36173.5,18199.3,9506.16,61098.9
1.59,0.0106027,9417.04,3417.12,8310.59,36068,18059,9504.07,60888.5
1.592,0.0106216,9644.94,3328.53,8876.07,35962.5,17918.7,9501.98,60678.1
1.594,0.0106405,9697.35,3274.67,8873.01,35702.8,17886.1,9663.28,60711.6
1.596,0.0106594,9712.21,3228.25,8748.26,35410.2,17876.4,9859.55,60797.2
1.598,0.0106783,9727.07,3181.81,8623.51,35117.5,17866.8,10055.8,60882.9
1.6,0.0106973,9741.92,3135.39,8498.77,34824.9,17857.2,10252.1,60968.5
1.602,0.0107162,9756.78,3088.96,8374.02,34532.3,17847.6,10448.4,61054.2
1.604,0.0107351,9771.64,3042.53,8249.28,34239.6,17837.9,10644.6,61139.8
1.606,0.010754,9523.31,3017.77,8020.58,32862.5,17726.6,10442.1,60143.8
1.608,0.010773,9099.75,3007.43,7722.66,30763.3,17547.6,9974,58427.6
1.61,0.0107919,8676.22,2997.09,7424.76,28664.2,17368.6,9505.95,56711.5
1.612,0.0108109,8252.69,2986.76,7126.86,26565.1,17189.6,9037.89,54995.3
1.614,0.0108298,7829.16,2976.42,6828.96,24466,17010.6,8569.83,53279.2
1.616,0.0108488,7405.6,2966.08,6531.04,22366.8,16831.5,8101.75,51563
1.618,0.0108677,6982.07,2955.75,6233.13,20267.7,16652.5,7633.69,49846.9
1.62,0.0108867,6558.54,2945.41,5935.23,18168.6,16473.5,7165.63,48130.8
1.622,0.0109056,6420.89,2940.67,5718.32,17114.7,16380,6966.17,47171
1.624,0.0109246,6606.7,2942.27,5593.06,17243.2,16383.3,7070.61,47067
1.626,0.0109435,6792.53,2943.87,5467.8,17371.8,16386.6,7175.06,46963.1
1.628,0.0109625,6978.34,2945.47,5342.54,17500.3,16389.9,7279.5,46859.1
1.63,0.0109814,7164.16,2947.07,5217.27,17628.9,16393.2,7383.94,46755.1
1.632,0.0110004,7349.97,2948.67,5092.01,17757.4,16396.5,7488.38,46651.2
1.634,0.0110193,7535.78,2950.27,4966.75,17886,16399.8,7592.83,46547.2
1.636,0.0110383,7721.61,2951.87,4841.49,18014.6,16403.1,7697.27,46443.3
1.638,0.0110573,7907.42,2953.47,4716.23,18143.1,16406.4,7801.72,46339.3
1.64,0.0110762,8093.24,2955.07,4590.96,18271.7,16409.7,7906.16,46235.4
1.642,0.0110952,8279.05,2956.67,4465.7,18400.2,16413,8010.6,46131.4
1.644,0.0111141,8464.88,2958.27,4340.44,18528.8,16416.3,8115.05,46027.4
1.646,0.0111331,8650.69,2959.87,4215.18,18657.3,16419.6,8219.49,45923.5
1.648,0.011152,8836.51,2961.47,4089.91,18785.9,16423,8323.93,45819.5
1.65,0.011171,9022.32,2963.07,3964.65,18914.5,16426.3,8428.38,45715.6
1.652,0.01119,9208.14,2964.68,3839.39,19043,16429.6,8532.82,45611.6
1.654,0.0112089,9393.96,2966.28,3714.13,19171.6,16432.9,8637.27,45507.6
1.656,0.0112279,9506.74,3012.64,3547.3,19366.6,16419.5,8756.87,45285.5
1.658,0.0112469,9524.62,2887.49,3181.75,18756.1,16441.6,8849.78,44691.9
1.66,0.0112659,9351.48,2660.49,2893.95,17764.3,16462,8667.21,43920
1.662,0.0112849,9178.34,2433.48,2606.14,16772.5,16482.4,8484.63,43148.1
1.664,0.0113039,9005.18,2206.46,2318.32,15780.6,16502.9,8302.05,42376.1
1.666,0.0113228,8832.04,1979.45,2030.51,14788.8,16523.3,8119.47,41604.2
1.668,0.0113418,8658.9,1752.44,1742.7,13797,16543.8,7936.9,40832.3
1.67,0.0113608,8485.76,1525.43,1454.9,12805.2,16564.2,7754.32,40060.4
1.672,0.0113798,8312.61,1298.41,1167.07,11813.3,16584.6,7571.74,39288.4
1.674,0.0113988,8139.46,1071.4,879.268,10821.5,16605.1,7389.16,38516.5
1.676,0.0114178,7625.92,662.865,729.987,9150.38,16622.6,6715.67,37426.7
1.678,0.0114368,7694.65,543.826,615.696,8790.76,16608.2,6641.02,37715.2
1.68,0.0114558,7781.9,434.23,499.436,8471.14,16593.2,6588.14,38038.1
1.682,0.0114748,7869.15,324.628,383.17,8151.51,16578.2,6535.25,38361
1.684,0.0114938,7956.4,215.032,266.91,7831.89,16563.2,6482.37,38683.9
1.686,0.0115128,8043.64,105.436,150.651,7512.28,16548.2,6429.49,39006.8
1.688,0.0115318,8128.34,-13.5836,29.1279,7238.09,16505.4,6376.07,39368.6
1.69,0.0115508,8211.63,-137.83,-95.3173,6989.05,16447.3,6322.34,39752
1.692,0.0115698,8294.92,-262.069,-219.755,6740.02,16389.1,6268.62,40135.3
1.694,0.0115887,8378.21,-386.308,-344.193,6490.99,16330.9,6214.89,40518.6
1.696,0.0116077,8461.49,-510.547,-468.631,6241.96,16272.7,6161.17,40902
1.698,0.0116267,8544.78,-634.786,-593.069,5992.94,16214.6,6107.45,41285.3
1.7,0.0116457,8628.07,-759.032,-717.514,5743.9,16156.4,6053.72,41668.7
1.702,0.0116647,8711.36,-883.271,-841.952,5494.87,16098.2,6000,42052.1
1.704,0.0116837,8794.65,-1007.51,-966.39,5245.84,16040,5946.27,42435.4
1.706,0.0117027,8877.93,-1131.75,-1090.83,4996.81,15981.9,5892.55,42818.8
1.708,0.0117217,8948.69,-1234.49,-1199.42,4774.12,15938.8,5823.43,43136.2
1.71,0.0117407,8957.82,-1231.43,-1230.03,4681,15970.2,5678.57,43129.5
1.712,0.0117597,8980.5,-1201.91,-1265.67,4629.11,15987.9,5570.89,43139
1.714,0.0117787,9072.98,-1036.12,-1327.21,4789.53,15935.5,5654.61,43231.6
1.716,0.0117977,9165.46,-870.336,-1388.75,4949.94,15883.2,5738.32,43324.3
1.718,0.0118168,9257.94,-704.538,-1450.29,5110.37,15830.9,5822.04,43416.9
1.72,0.0118358,9350.42,-538.75,-1511.83,5270.79,15778.5,5905.76,43509.5
1.722,0.0118548,9442.9,-372.962,-1573.37,5431.21,15726.2,5989.48,43602.2
1.724,0.0118738,9535.38,-207.175,-1634.91,5591.62,15673.8,6073.19,43694.8
1.726,0.0118929,9611.04,-48.0648,-1692.4,5766.57,15616.4,6140.15,43731.1
1.728,0.0119119,9505.01,38.9126,-1706.04,6098.48,15503.5,6026.1,43158.6
1.73,0.0119309,9398.99,125.885,-1719.68,6430.37,15390.6,5912.05,42586.2
1.732,0.0119499,9292.97,212.857,-1733.32,6762.26,15277.8,5798,42013.8
1.734,0.011969,9186.95,299.829,-1746.96,7094.14,15164.9,5683.95,41441.4
1.736,0.011988,9080.93,386.802,-1760.6,7426.03,15052.1,5569.91,40869
1.738,0.012007,8974.9,473.779,-1774.24,7757.94,14939.2,5455.85,40296.6
1.74,0.012026,8868.88,560.751,-1787.88,8089.83,14826.4,5341.8,39724.2
1.742,0.012045,8762.86,647.724,-1801.52,8421.72,14713.5,5227.75,39151.8
1.744,0.0120641,8656.84,734.696,-1815.16,8753.6,14600.7,5113.71,38579.4
1.746,0.0120831,8550.81,821.673,-1828.8,9085.51,14487.8,4999.65,38006.9
1.748,0.0121021,8444.79,908.645,-1842.44,9417.4,14375,4885.6,37434.5
1.75,0.0121211,8338.77,995.618,-1856.08,9749.29,14262.1,4771.55,36862.1
1.752,0.0121402,8232.75,1082.59,-1869.72,10081.2,14149.3,4657.51,36289.7
1.754,0.0121592,8126.73,1169.56,-1883.36,10413.1,14036.4,4543.46,35717.3
1.756,0.0121782,8020.7,1256.54,-1897,10745,13923.6,4429.4,35144.8
1.758,0.0121972,7906.63,1339.47,-1912.96,11050,13810.8,4318.71,34579.4
1.76,0.0122163,7546.2,1298.64,-2000,10532.7,13700.7,4310.85,34227.9
1.762,0.0122353,7159.19,1234.8,-2050.9,9990.72,13511.1,4213.65,33809.6
1.764,0.0122543,6735.48,1139.16,-2051.91,9414.53,13211.8,3993.09,33298.9
1.766,0.0122734,6311.79,1043.53,-2052.92,8838.37,12912.5,3772.54,32788.3
1.768,0.0122924,5888.1,947.9,-2053.92,8262.22,12613.3,3552,32277.6
1.77,0.0123114,5464.41,852.269,-2054.93,7686.06,12314,3331.45,31766.9
1.772,0.0123305,5040.72,756.637,-2055.93,7109.9,12014.7,3110.9,31256.3
1.774,0.0123495,4617,661,-2056.94,6533.71,11715.4,2890.34,30745.6
1.776,0.0123685,4477.31,708.181,-2052.48,6540.05,11548.6,2912.78,30333.8
1.778,0.0123876,4397.25,785.35,-2046.87,6668.71,11409.6,2986.24,29942.7
1.78,0.0124066,4317.19,862.519,-2041.27,6797.37,11270.7,3059.71,29551.6
1.782,0.0124256,4237.13,939.688,-2035.66,6926.03,11131.7,3133.17,29160.5
1.784,0.0124447,4154.71,1011.11,-2020.28,7069.94,10990.6,3209.51,28779.3
1.786,0.0124637,4064.44,1063.35,-1972.3,7264.67,10842.6,3295.41,28431
1.788,0.0124827,3974.18,1115.59,-1924.32,7459.4,10694.5,3381.3,28082.7
1.79,0.0125018,3883.91,1167.83,-1876.35,7654.14,10546.4,3467.2,27734.4
1.792,0.0125208,3793.64,1220.08,-1828.36,7848.88,10398.3,3553.1,27386.2
1.794,0.0125398,3703.38,1272.32,-1780.39,8043.62,10250.2,3639,27037.9
1.796,0.0125589,3613.11,1324.56,-1732.41,8238.35,10102.2,3724.9,26689.6
1.798,0.0125779,3522.84,1376.8,-1684.43,8433.09,9954.1,3810.8,26341.3
1.8,0.012597,3432.58,1429.04,-1636.45,8627.82,9806.02,3896.69,25993.1
1.802,0.012616,3342.31,1481.28,-1588.47,8822.57,9657.94,3982.6,25644.8
1.804,0.012635,3252.04,1533.53,-1540.5,9017.3,9509.86,4068.49,25296.5
1.806,0.0126541,3161.78,1585.77,-1492.52,9212.04,9361.79,4154.39,24948.2
1.808,0.0126731,3024.9,1602.89,-1445.89,8862.67,9250.51,4019.15,24491.7
1.81,0.0126922,2834.94,1580.04,-1400.79,7893.71,9181.15,3632.07,23912
1.812,0.0127112,2644.97,1557.18,-1355.7,6924.69,9111.78,3244.96,23332.3
1.814,0.0127303,2455.02,1534.32,-1310.6,5955.73,9042.42,2857.88,22752.6
1.816,0.0127493,2265.06,1511.46,-1265.51,4986.77,8973.05,2470.8,22172.8
1.818,0.0127684,2075.1,1488.6,-1220.41,4017.8,8903.69,2083.73,21593.1
1.82,0.0127874,1885.13,1465.74,-1175.31,3048.78,8834.32,1696.62,21013.4
1.822,0.0128065,1695.18,1442.89,-1130.22,2079.82,8764.96,1309.54,20433.7
1.824,0.0128255,1532.68,1426.56,-1098.85,1276.62,8698.69,975.514,19926.2
1.826,0.0128446,1514.77,1444.61,-1139.78,1346.23,8648.7,920.818,19799.5
1.828,0.0128636,1496.85,1462.67,-1180.7,1415.84,8598.72,866.121,19672.8
1.83,0.0128827,1478.94,1480.73,-1221.63,1485.45,8548.73,811.422,19546.1
1.832,0.0129017,1461.02,1498.79,-1262.55,1555.06,8498.75,756.725,19419.3
1.834,0.0129208,1443.11,1516.84,-1303.48,1624.67,8448.76,702.029,19292.6
1.836,0.0129398,1425.2,1534.9,-1344.4,1694.28,8398.78,647.333,19165.9
1.838,0.0129589,1407.28,1552.96,-1385.33,1763.9,8348.79,592.633,19039.2
1.84,0.012978,1389.37,1571.02,-1426.26,1833.51,8298.81,537.937,18912.4
1.842,0.012997,1404.63,1585.1,-1454.57,2019.61,8254.32,512.251,18870.4
1.844,0.0130161,1591.07,1578.65,-1417.78,2806.95,8238.2,636.284,19265.7
1.846,0.0130351,1777.51,1572.19,-1381,3594.28,8222.08,760.317,19660.9
1.848,0.0130542,1963.96,1565.74,-1344.21,4381.66,8205.95,884.357,20056.2
1.85,0.0130732,2150.4,1559.29,-1307.43,5169,8189.83,1008.39,20451.4
1.852,0.0130923,2253.19,1449.74,-1351.73,5084.77,8183.93,1044.1,20249.5
1.854,0.0131113,2306.29,1278.92,-1444.22,4482.72,8184.11,1027.34,19692.9
1.856,0.0131304,2359.38,1108.11,-1536.7,3880.67,8184.29,1010.58,19136.2
1.858,0.0131494,2412.48,937.282,-1629.19,3278.59,8184.47,993.82,18579.5
1.86,0.0131685,2694.03,831.965,-1636.87,3602.92,8090.6,1391.41,18397.6
1.862,0.0131875,2995.21,732.274,-1637.26,4006.83,7988.64,1824.6,18247.9
1.864,0.0132066,3296.39,632.584,-1637.66,4410.74,7886.69,2257.78,18098.3
1.866,0.0132257,3597.59,532.887,-1638.05,4814.67,7784.73,2690.99,17948.6
1.868,0.0132447,3657.45,472.498,-1558.18,4742.8,7651.52,2802.27,17650.1
1.87,0.0132638,3640.21,424.665,-1452.66,4518.9,7508.33,2810.68,17304.1
1.872,0.0132828,3622.97,376.833,-1347.14,4295,7365.14,2819.1,16958.1
1.874,0.0133019,3605.73,329,-1241.63,4071.1,7221.95,2827.52,16612.1
1.876,0.013321,3588.49,281.165,-1136.1,3847.19,7078.75,2835.93,16266.1
1.878,0.01334,3658.25,241.781,-1080.55,3821.84,7003.84,2845.81,16135
1.88,0.0133591,3735.55,203.13,-1029.34,3813.72,6934.84,2855.81,16022.6
1.882,0.0133781,3812.84,164.479,-978.123,3805.59,6865.84,2865.82,15910.1
1.884,0.0133972,3890.14,125.827,-926.907,3797.46,6796.84,2875.82,15797.7
1.886,0.0134163,3967.45,87.1739,-875.689,3789.34,6727.84,2885.82,15685.2
1.888,0.0134353,4044.75,48.5226,-824.473,3781.21,6658.84,2895.83,15572.8
1.89,0.0134544,4122.05,9.87135,-773.258,3773.08,6589.85,2905.83,15460.4
1.892,0.0134735,4199.35,-28.7799,-722.042,3764.96,6520.85,2915.84,15347.9
1.894,0.0134925,4276.65,-67.4335,-670.823,3756.83,6451.85,2925.84,15235.5
1.896,0.0135116,4353.95,-106.085,-619.608,3748.7,6382.85,2935.84,15123
1.898,0.0135307,4431.25,-144.736,-568.392,3740.58,6313.85,2945.85,15010.6
1.9,0.0135497,4508.55,-183.387,-517.177,3732.45,6244.85,2955.85,14898.1
1.902,0.0135688,4585.85,-222.039,-465.961,3724.32,6175.85,2965.85,14785.7
1.904,0.0135879,4663.15,-260.692,-414.743,3716.2,6106.85,2975.86,14673.3
1.906,0.0136069,4740.45,-299.343,-363.527,3708.07,6037.85,2985.86,14560.8
1.908,0.013626,4817.75,-337.995,-312.312,3699.94,5968.86,2995.87,14448.4
1.91,0.0136451,4894.82,-377.943,-260.564,3689.36,5900.57,3004.99,14335.5
1.912,0.0136641,4978.07,-382.843,-223.179,3745.2,5812.94,3037.81,14234
1.914,0.0136832,5061.32,-387.742,-185.791,3801.04,5725.3,3070.63,14132.4
1.916,0.0137022,5144.57,-392.641,-148.406,3856.87,5637.66,3103.44,14030.9
1.918,0.0137213,5227.82,-397.54,-111.021,3912.71,5550.03,3136.26,13929.4
1.92,0.0137404,5311.06,-402.44,-73.6351,3968.55,5462.39,3169.07,13827.8
1.922,0.0137594,5394.32,-407.339,-36.2475,4024.39,5374.75,3201.89,13726.3
1.924,0.0137785,5477.57,-412.238,1.13795,4080.22,5287.12,3234.7,13624.8
1.926,0.0137976,5560.81,-417.137,38.5234,4136.06,5199.48,3267.52,13523.2
1.928,0.0138166,5644.06,-422.037,75.9088,4191.9,5111.84,3300.34,13421.7
1.93,0.0138357,5727.31,-426.936,113.294,4247.73,5024.21,3333.15,13320.2
1.932,0.0138548,5810.56,-431.835,150.682,4303.57,4936.57,3365.97,13218.6
1.934,0.0138738,5861.27,-421.29,190.576,4361.96,4861.49,3397.75,13113.6
1.936,0.0138929,5892.19,-401.357,231.994,4421.91,4794.06,3428.91,13006.5
1.938,0.0139119,5923.12,-381.424,273.412,4481.85,4726.62,3460.07,12899.3
1.94,0.013931,5954.04,-361.49,314.833,4541.8,4659.17,3491.23,12792.2
1.942,0.0139501,5968.14,-284.343,367.748,4446.83,4570.05,3482.86,12634.3
1.944,0.0139691,5973.94,-179.014,426.325,4275.55,4470.24,3455.03,12451.3
1.946,0.0139882,5979.75,-73.6855,484.902,4104.26,4370.44,3427.2,12268.4
1.948,0.0140073,5985.56,31.6433,543.479,3932.98,4270.63,3399.36,12085.4
1.95,0.0140263,5991.36,136.979,602.06,3761.68,4170.82,3371.53,11902.5
1.952,0.0140454,5997.17,242.307,660.637,3590.4,4071.01,3343.7,11719.5
1.954,0.0140645,6002.97,347.636,719.214,3419.12,3971.2,3315.86,11536.6
1.956,0.0140835,6008.78,452.965,777.792,3247.83,3871.4,3288.03,11353.6
1.958,0.0141026,6014.59,558.294,836.369,3076.55,3771.59,3260.2,11170.7
1.96,0.0141217,6020.39,663.629,894.95,2905.25,3671.78,3232.36,10987.7
1.962,0.0141407,6026.46,766.746,953.099,2769.5,3571.48,3209.83,10807.2
1.964,0.0141598,6033.86,858.239,1009,2820.45,3468.6,3215.14,10639.1
1.966,0.0141789,6041.27,949.732,1064.9,2871.4,3365.73,3220.46,10471.1
1.968,0.0141979,6048.68,1041.23,1120.81,2922.36,3262.85,3225.78,10303.1
1.97,0.014217,6056.09,1132.72,1176.71,2973.31,3159.97,3231.1,10135
1.972,0.0142361,6063.5,1224.22,1232.61,3024.27,3057.1,3236.41,9966.99
1.974,0.0142552,6070.91,1315.71,1288.52,3075.22,2954.22,3241.73,9798.95
1.976,0.0142742,6062.81,1335.95,1282.41,2949.36,2913.46,3214.69,9649.11
1.978,0.0142933,6049.07,1330.25,1253.72,2759.11,2895.3,3175.86,9505.88
1.98,0.0143124,6035.33,1324.55,1225.04,2568.88,2877.14,3137.04,9362.65
1.982,0.0143314,6021.59,1318.85,1196.35,2378.64,2858.99,3098.21,9219.43
1.984,0.0143505,6007.85,1313.14,1167.67,2188.41,2840.83,3059.39,9076.21
1.986,0.0143696,5994.12,1307.44,1138.98,1998.17,2822.68,3020.57,8932.98
1.988,0.0143886,6043.96,1266.47,1135.22,1861.73,2793.93,3002.11,8815.35
1.99,0.0144077,6254.29,1136.48,1194.35,1861.11,2738.47,3035.05,8762.35
1.992,0.0144268,6464.62,1006.49,1253.48,1860.49,2683.01,3067.99,8709.36
1.994,0.0144458,6674.96,876.504,1312.61,1859.87,2627.55,3100.93,8656.36
1.996,0.0144649,6885.3,746.507,1371.74,1859.25,2572.08,3133.88,8603.36
1.998,0.014484,7095.63,616.518,1430.87,1858.64,2516.62,3166.82,8550.36
2,0.014503,7305.96,486.528,1490.01,1858.02,2461.16,3199.76,8497.36
