"arc_length","Displacement_Magnitude","Sxx","Sxy","Sxz","Syy","Syz","Szz","Von_Mises_Stress"
0,0,1.19795e+06,-69050,-6459.13,2.41113e+06,483974,1.0317e+06,1.55825e+06
0.002,1.8399e-06,1.13818e+06,-63096.8,-5614.19,2.32241e+06,453885,951865,1.52096e+06
0.004,2.98749e-06,1.1057e+06,-60592,-4603.9,2.26667e+06,436539,913566,1.49586e+06
0.006,3.95341e-06,1.08213e+06,-59213.5,-3539.6,2.22171e+06,423355,888834,1.47474e+06
0.008,4.94276e-06,1.05857e+06,-57835,-2475.3,2.17675e+06,410171,864102,1.45362e+06
0.01,5.94384e-06,1.035e+06,-56456.6,-1411,2.13178e+06,396987,839370,1.4325e+06
0.012,6.9516e-06,1.01143e+06,-55078.1,-346.701,2.08682e+06,383803,814639,1.41138e+06
0.014,7.9635e-06,987867,-53699.6,717.6,2.04186e+06,370620,789907,1.39026e+06
0.016,8.94411e-06,964289,-51907.4,1927.48,1.99576e+06,358397,766585,1.36935e+06
0.018,9.84043e-06,940684,-49072.1,3504.38,1.9468e+06,348598,746816,1.34897e+06
0.02,1.07376e-05,917079,-46236.8,5081.29,1.89783e+06,338799,727047,1.32859e+06
0.022,1.16354e-05,893474,-43401.5,6658.19,1.84887e+06,329000,707279,1.30821e+06
0.024,1.25337e-05,869869,-40566.2,8235.09,1.79991e+06,319202,687510,1.28783e+06
0.026,1.34324e-05,846265,-37730.8,9811.99,1.75095e+06,309403,667741,1.26745e+06
0.028,1.43315e-05,822660,-34895.5,11388.9,1.70199e+06,299604,647973,1.24707e+06
0.03,1.52308e-05,799055,-32060.2,12965.8,1.65303e+06,289805,628204,1.22669e+06
0.032,1.61304e-05,775450,-29224.9,14542.7,1.60406e+06,280006,608435,1.20631e+06
0.034,1.70301e-05,751845,-26389.6,16119.6,1.5551e+06,270207,588667,1.18593e+06
0.036,1.793e-05,728240,-23554.3,17696.5,1.50614e+06,260409,568898,1.16555e+06
0.038,1.883e-05,704635,-20718.9,19273.4,1.45718e+06,250610,549129,1.14517e+06
0.04,1.97302e-05,681030,-17883.6,20850.3,1.40822e+06,240811,529361,1.12479e+06
0.042,2.06304e-05,657425,-15048.3,22427.2,1.35926e+06,231012,509592,1.10441e+06
0.044,2.15308e-05,633820,-12213,24004.1,1.31029e+06,221213,489823,1.08403e+06
0.046,2.24312e-05,610216,-9377.69,25581,1.26133e+06,211414,470055,1.06365e+06
0.048,2.33317e-05,586611,-6542.37,27157.9,1.21237e+06,201615,450286,1.04327e+06
0.05,2.52459e-05,559398,-4395.03,29613.3,1.17749e+06,196158,418634,1.04275e+06
0.052,2.75273e-05,530884,-2495.8,32385.6,1.1477e+06,192266,382696,1.0494e+06
0.054,2.98101e-05,502371,-596.574,35157.9,1.1179e+06,188374,346758,1.05605e+06
0.056,3.2094e-05,473857,1302.65,37930.2,1.0881e+06,184482,310820,1.06269e+06
0.058,3.43788e-05,445344,3201.88,40702.5,1.0583e+06,180590,274883,1.06934e+06
0.06,3.66644e-05,416830,5101.1,43474.7,1.0285e+06,176698,238945,1.07599e+06
0.062,3.89506e-05,388316,7000.33,46247,998705,172806,203007,1.08264e+06
0.064,4.11582e-05,384319,6383.7,46291.2,992630,176219,200548,1.08464e+06
0.066,4.33926e-05,382105,5584.05,46136.8,988281,180165,200524,1.08631e+06
0.068,4.5656e-05,379891,4784.38,45982.5,983932,184110,200501,1.08797e+06
0.07,4.79441e-05,377677,3984.73,45828.1,979582,188055,200478,1.08964e+06
0.072,5.02486e-05,372742,1434,45994.8,971343,186968,189888,1.08946e+06
0.074,5.25633e-05,367368,-1399.24,46213.3,962475,185068,177593,1.08898e+06
0.076,5.48872e-05,361994,-4232.47,46431.8,953608,183169,165298,1.08851e+06
0.078,5.7219e-05,356620,-7065.71,46650.2,944741,181269,153003,1.08803e+06
0.08,5.95579e-05,351246,-9898.94,46868.7,935873,179370,140708,1.08755e+06
0.082,6.1903e-05,345872,-12732.2,47087.2,927006,177470,128414,1.08708e+06
0.084,6.42537e-05,340498,-15565.4,47305.7,918138,175571,116119,1.0866e+06
0.086,6.66094e-05,335124,-18398.6,47524.2,909271,173671,103824,1.08613e+06
0.088,6.897e-05,330953,-20922.2,47498.1,901941,172498,93287.6,1.08703e+06
0.09,7.13396e-05,333265,-21776.5,46154.3,902900,175243,92229.2,1.09539e+06
0.092,7.37169e-05,335576,-22630.9,44810.4,903858,177988,91170.8,1.10376e+06
0.094,7.61012e-05,337887,-23485.3,43466.5,904817,180732,90112.4,1.11212e+06
0.096,7.84919e-05,340199,-24339.6,42122.6,905775,183477,89054,1.12048e+06
0.098,8.08884e-05,342510,-25194,40778.7,906734,186222,87995.6,1.12884e+06
0.1,8.3561e-05,349009,-26615.8,39957.8,918568,189449,88306.5,1.14482e+06
0.102,8.7109e-05,369001,-29866.5,40822.4,965453,194233,93030.5,1.18539e+06
0.104,9.06586e-05,388993,-33117.3,41687,1.01234e+06,199016,97754.5,1.22595e+06
0.106,9.42096e-05,408986,-36368.1,42551.5,1.05922e+06,203799,102479,1.26652e+06
0.108,9.77618e-05,428978,-39618.8,43416.1,1.10611e+06,208583,107203,1.30708e+06
0.11,0.000101315,448971,-42869.6,44280.7,1.15299e+06,213366,111927,1.34765e+06
0.112,0.000104869,468963,-46120.3,45145.3,1.19988e+06,218150,116651,1.38821e+06
0.114,0.000108425,488955,-49371.1,46009.8,1.24676e+06,222933,121375,1.42877e+06
0.116,0.000112134,482653,-49651.4,44867,1.22919e+06,224316,119280,1.41704e+06
0.118,0.000116008,448380,-46771.9,41588.7,1.14305e+06,222083,109931,1.34967e+06
0.12,0.000119882,414107,-43892.4,38310.5,1.05691e+06,219850,100583,1.2823e+06
0.122,0.000123756,379833,-41012.9,35032.2,970767,217616,91234.6,1.21493e+06
0.124,0.000127631,345560,-38133.4,31754,884627,215383,81886.2,1.14755e+06
0.126,0.000131506,311287,-35253.9,28475.7,798486,213149,72537.8,1.08018e+06
0.128,0.000135382,277014,-32374.4,25197.4,712344,210916,63189.4,1.01281e+06
0.13,0.000139257,242740,-29494.9,21919.2,626204,208683,53841,945441
0.132,0.000143402,229671,-29299.5,19677.4,592331,207245,50149.7,921331
0.134,0.000147715,229146,-30692,18048.8,589380,206279,49805.1,922816
0.136,0.00015204,228621,-32084.5,16420.2,586429,205312,49460.5,924301
0.138,0.000156375,228096,-33477.1,14791.6,583479,204346,49115.9,925786
0.14,0.000160719,227571,-34869.6,13163,580528,203379,48771.3,927270
0.142,0.000165072,227047,-36262.1,11534.3,577577,202412,48426.8,928755
0.144,0.000169433,226522,-37654.6,9905.75,574626,201446,48082.2,930240
0.146,0.000173801,225997,-39047.2,8277.14,571676,200479,47737.6,931725
0.148,0.000178176,225472,-40439.7,6648.54,568725,199513,47393,933209
0.15,0.000182558,224947,-41832.2,5019.93,565774,198546,47048.5,934694
0.152,0.000186945,224422,-43224.7,3391.34,562823,197580,46703.9,936179
0.154,0.000191338,223897,-44617.3,1762.73,559873,196613,46359.3,937664
0.156,0.000195736,223372,-46009.8,134.122,556922,195647,46014.7,939149
0.158,0.000200139,222848,-47402.3,-1494.48,553971,194680,45670.1,940633
0.16,0.000204546,222323,-48794.8,-3123.08,551021,193713,45325.6,942118
0.162,0.000208957,221798,-50187.4,-4751.69,548070,192747,44981,943603
0.164,0.000213373,221273,-51579.9,-6380.29,545119,191780,44636.4,945088
0.166,0.000217792,220748,-52972.4,-8008.89,542168,190814,44291.8,946572
0.168,0.000222215,220223,-54365,-9637.5,539218,189847,43947.3,948057
0.17,0.00022664,219698,-55757.5,-11266.1,536267,188881,43602.7,949542
0.172,0.000231069,219173,-57150,-12894.7,533316,187914,43258.1,951027
0.174,0.00023541,220847,-58090.1,-11309.3,539032,187021,42667.2,949557
0.176,0.000239703,223721,-58783,-7967.8,549484,186167,41941.7,946472
0.178,0.00024449,223967,-58684.6,-9377.25,550908,184667,43370.1,935329
0.18,0.000249749,222786,-57996.1,-14853.6,546975,182556,47285.7,919684
0.182,0.000255302,232168,-58682,-17977.1,574230,180144,57388.9,935050
0.184,0.000260856,241550,-59367.9,-21100.8,601485,177733,67492.2,950415
0.186,0.00026641,250932,-60053.8,-24224.4,628741,175321,77595.4,965781
0.188,0.000271966,260314,-60739.7,-27348,655996,172909,87698.6,981146
0.19,0.000277521,269696,-61425.6,-30471.6,683251,170498,97801.8,996511
0.192,0.000283078,279078,-62111.5,-33595.2,710506,168086,107905,1.01188e+06
0.194,0.000288635,288460,-62797.4,-36718.8,737761,165674,118008,1.02724e+06
0.196,0.000294193,297842,-63483.3,-39842.4,765016,163263,128112,1.04261e+06
0.198,0.000299946,301723,-62404.8,-40154.7,772730,160841,131766,1.04063e+06
0.2,0.000305773,303606,-60685.4,-39445.5,773344,158416,133077,1.03235e+06
0.202,0.000311603,305489,-58966,-38736.4,773957,155990,134388,1.02408e+06
0.204,0.000317436,307372,-57246.5,-38027.3,774571,153565,135700,1.0158e+06
0.206,0.000323271,309255,-55527.1,-37318.1,775184,151140,137011,1.00752e+06
0.208,0.00032911,311138,-53807.7,-36609,775798,148714,138322,999243
0.21,0.000334951,313021,-52088.3,-35899.8,776412,146289,139633,990966
0.212,0.000340794,314904,-50368.8,-35190.7,777025,143864,140945,982688
0.214,0.00034664,316787,-48649.4,-34481.6,777639,141438,142256,974411
0.216,0.000352488,318670,-46929.9,-33772.4,778253,139013,143567,966133
0.218,0.000358338,320553,-45210.5,-33063.3,778866,136587,144878,957856
0.22,0.00036419,322436,-43491.1,-32354.1,779480,134162,146190,949578
0.222,0.000370043,324319,-41771.7,-31645,780094,131737,147501,941300
0.224,0.000375899,326202,-40052.2,-30935.8,780707,129311,148812,933023
0.226,0.000382167,315179,-37454.1,-24297.9,763396,126855,143459,922072
0.228,0.000388446,303852,-34835.4,-17520.7,745664,124398,137949,911058
0.23,0.000394724,292525,-32216.6,-10743.5,727932,121941,132439,900043
0.232,0.000401003,281199,-29597.9,-3966.38,710200,119483,126929,889029
0.234,0.000407282,269872,-26979.2,2810.8,692468,117026,121419,878015
0.236,0.000413562,258545,-24360.4,9587.98,674736,114569,115909,867001
0.238,0.000419841,247218,-21741.7,16365.2,657004,112112,110399,855987
0.24,0.000426347,244814,-21462.2,21071.8,651382,111291,109696,867575
0.242,0.000432904,244339,-21688.5,25330.8,648378,110824,110033,884049
0.244,0.000439462,243864,-21914.8,29589.8,645373,110357,110370,900523
0.246,0.000446022,243388,-22141.1,33848.8,642369,109889,110706,916997
0.248,0.000452583,242913,-22367.4,38107.8,639365,109422,111043,933471
0.25,0.000459147,242438,-22593.7,42366.8,636360,108955,111379,949945
0.252,0.000465711,241962,-22820,46625.8,633356,108488,111716,966420
0.254,0.000472278,241487,-23046.3,50884.8,630351,108021,112053,982894
0.256,0.000478845,241012,-23272.6,55143.8,627347,107553,112389,999368
0.258,0.000485414,240536,-23498.9,59402.8,624343,107086,112726,1.01584e+06
0.26,0.000491984,240061,-23725.2,63661.8,621338,106619,113063,1.03232e+06
0.262,0.000498912,235087,-21923,65893.5,617424,110193,112936,1.04007e+06
0.264,0.00050591,229231,-19723.2,67728,613331,114559,112718,1.04612e+06
0.266,0.000512907,223375,-17523.4,69562.5,609238,118925,112501,1.05216e+06
0.268,0.000519906,217519,-15323.7,71397,605146,123291,112283,1.05821e+06
0.27,0.000526904,211664,-13123.9,73231.5,601053,127657,112065,1.06426e+06
0.272,0.000533902,205808,-10924.1,75066,596960,132023,111848,1.0703e+06
0.274,0.000540974,201049,-8549.17,76416.4,592886,135908,111672,1.07463e+06
0.276,0.000548388,201378,-5361.91,75522.5,588898,137565,111688,1.07097e+06
0.278,0.000555803,201707,-2174.66,74628.5,584910,139221,111704,1.06731e+06
0.28,0.000563218,202036,1012.59,73734.6,580921,140878,111720,1.06365e+06
0.282,0.000570926,208049,3714.23,71091.7,589324,138480,110309,1.04699e+06
0.284,0.000578747,216260,6228.01,67772.2,602519,134513,108345,1.0253e+06
0.286,0.000586569,224472,8741.78,64452.7,615715,130546,106382,1.00361e+06
0.288,0.000594391,232684,11255.5,61133.3,628911,126579,104419,981923
0.29,0.000602213,240896,13769.3,57813.8,642106,122612,102456,960234
0.292,0.000610035,249108,16283.1,54494.3,655302,118645,100492,938544
0.294,0.000617937,252901,16050.1,50903.3,668280,118081,100005,923125
0.296,0.000625852,255976,15369.9,47268,681224,118071,99757.3,908726
0.298,0.000633769,259051,14689.7,43632.7,694167,118060,99509.9,894327
0.3,0.000641687,262125,14009.5,39997.4,707110,118050,99262.6,879928
0.302,0.000649606,265200,13329.4,36362.2,720053,118040,99015.2,865530
0.304,0.000657526,268275,12649.2,32726.9,732996,118029,98767.9,851131
0.306,0.000665448,271349,11969,29091.6,745939,118019,98520.5,836732
0.308,0.000673371,274424,11288.9,25456.3,758882,118009,98273.1,822334
0.31,0.000681294,277499,10608.7,21821,771826,117998,98025.8,807935
0.312,0.000689233,280511,9857.04,17980.5,784191,117997,97905.8,793817
0.314,0.000697549,281810,7133.98,8481.42,780607,118255,101297,787436
0.316,0.000705864,283109,4410.92,-1017.69,777024,118512,104688,781056
0.318,0.00071418,284408,1687.91,-10516.6,773441,118769,108078,774676
0.32,0.000722496,285707,-1035.15,-20015.7,769858,119026,111469,768296
0.322,0.000730813,287007,-3758.21,-29514.8,766275,119284,114860,761916
0.324,0.000739129,288306,-6481.27,-39014,762692,119541,118251,755535
0.326,0.000747466,289170,-8996.11,-47450.7,757809,119621,121503,751315
0.328,0.000755982,286224,-9688.32,-46588.4,741544,118156,123538,766001
0.33,0.000764498,283278,-10380.5,-45726.1,725278,116691,125573,780686
0.332,0.000773016,280333,-11072.7,-44863.8,709013,115225,127608,795372
0.334,0.000781534,277387,-11765,-44001.5,692747,113760,129644,810057
0.336,0.000790053,274442,-12457.2,-43139.2,676482,112295,131679,824743
0.338,0.000798573,271496,-13149.4,-42276.9,660216,110830,133714,839429
0.34,0.000807093,268550,-13841.6,-41414.6,643951,109364,135749,854114
0.342,0.000815615,265605,-14533.8,-40552.3,627685,107899,137784,868800
0.344,0.000824137,262659,-15226,-39690,611420,106434,139819,883486
0.346,0.00083266,259714,-15918.2,-38827.8,595155,104968,141855,898171
0.348,0.000841341,254275,-16178.9,-36607.8,578584,104004,141179,901741
0.35,0.000850307,244351,-15663,-31944.8,561463,103943,135627,885307
0.352,0.000859273,234426,-15147,-27281.7,544342,103881,130074,868874
0.354,0.000868239,224502,-14631.1,-22618.7,527221,103820,124522,852441
0.356,0.000877205,214577,-14115.2,-17955.6,510100,103758,118969,836007
0.358,0.000886171,204653,-13599.2,-13292.6,492979,103697,113417,819574
0.36,0.000895137,194728,-13083.3,-8629.54,475858,103635,107864,803140
0.362,0.000904103,184804,-12567.4,-3966.56,458738,103574,102312,786707
0.364,0.00091323,183898,-12638.6,-2779.41,461423,101993,100654,779556
0.366,0.000922388,184651,-12817.7,-2231.66,467751,100133,99712.4,774113
0.368,0.000931547,185405,-12996.9,-1683.92,474080,98273.3,98770.9,768669
0.37,0.000940706,186158,-13176,-1136.17,480408,96413.3,97829.4,763226
0.372,0.000949866,186911,-13355.2,-588.431,486737,94553.3,96887.9,757782
0.374,0.000959027,187664,-13534.3,-40.6875,493065,92693.3,95946.4,752339
0.376,0.000968189,188417,-13713.5,507.048,499394,90833.4,95004.9,746895
0.378,0.000977351,189170,-13892.7,1054.79,505722,88973.4,94063.4,741452
0.38,0.000986514,189923,-14071.8,1602.54,512051,87113.4,93121.9,736008
0.382,0.000995693,191363,-14351.4,2060.58,521024,85680.5,92751.4,728334
0.384,0.00100492,195061,-14962,2223.22,538708,85654.3,94261.7,713314
0.386,0.00101415,198760,-15572.5,2385.85,556392,85628,95772,698294
0.388,0.00102338,202459,-16183.1,2548.48,574076,85601.8,97282.2,683274
0.39,0.00103261,206158,-16793.6,2711.11,591760,85575.5,98792.5,668254
0.392,0.00104184,209857,-17404.1,2873.75,609444,85549.3,100303,653233
0.394,0.00105127,211847,-17739.6,3481.72,622218,85907,102310,640577
0.396,0.0010611,210327,-17509.7,5004.91,624904,87053.6,105340,632777
0.398,0.00107094,208807,-17279.8,6528.1,627589,88200.3,108370,624978
0.4,0.00108077,207287,-17049.9,8051.28,630275,89347,111399,617179
0.402,0.0010906,205767,-16820,9574.47,632960,90493.7,114429,609379
0.404,0.00110044,204246,-16590.1,11097.7,635646,91640.4,117458,601580
0.406,0.00111027,202726,-16360.2,12620.8,638331,92787,120488,593780
0.408,0.0011201,201206,-16130.3,14144,641016,93933.7,123518,585981
0.41,0.00113003,196366,-15034.7,15267.4,635783,94683.8,123747,586376
0.412,0.0011402,187991,-13480.8,14725,613372,93321.1,118791,600138
0.414,0.00115037,179617,-11926.8,14182.6,590961,91958.4,113836,613900
0.416,0.00116054,171243,-10372.9,13640.2,568550,90595.6,108881,627663
0.418,0.00117071,162869,-8818.9,13097.8,546138,89232.9,103926,641425
0.42,0.00118088,154495,-7264.96,12555.4,523727,87870.2,98970.6,655188
0.422,0.00119106,146121,-5711,12013,501316,86507.4,94015.4,668950
0.424,0.00120123,137747,-4157.04,11470.6,478905,85144.7,89060.2,682712
0.426,0.0012114,129373,-2603.08,10928.2,456494,83782,84105,696475
0.428,0.00122158,120999,-1049.12,10385.8,434082,82419.2,79149.8,710237
0.43,0.00123175,112625,504.838,9843.39,411671,81056.5,74194.5,724000
0.432,0.0012419,106257,177.988,8748.88,389102,79098.1,71258.3,729527
0.434,0.00125203,101630,-1780.66,7175.36,366398,76623.1,70073.9,727910
0.436,0.00126216,97003.5,-3739.34,5601.82,343693,74148,68889.4,726293
0.438,0.00127229,92376.6,-5698.01,4028.28,320988,71672.9,67704.9,724675
0.44,0.00128242,87749.7,-7656.69,2454.73,298283,69197.9,66520.4,723058
0.442,0.00129255,83122.9,-9615.37,881.194,275578,66722.8,65335.9,721440
0.444,0.0013029,83528.1,-15947.4,-451.151,263897,63226.6,66035.1,717303
0.446,0.00131344,88061,-25866.7,-1585.66,261259,58892.9,68279.3,711099
0.448,0.00132397,92593.9,-35785.9,-2720.16,258621,54559.2,70523.5,704895
0.45,0.0013345,97126.6,-45705,-3854.65,255983,50225.5,72767.8,698691
0.452,0.0013454,102969,-45103.3,-2187.8,274611,50239.2,76930.9,690309
0.454,0.00135633,108913,-43688.6,-304.468,294883,50588.9,81242.3,681759
0.456,0.00136725,114857,-42273.8,1578.87,315155,50938.6,85553.7,673208
0.458,0.00137818,120801,-40859,3462.2,335426,51288.3,89865.2,664658
0.46,0.00138911,126744,-39444.2,5345.54,355698,51637.9,94176.6,656108
0.462,0.00140004,132688,-38029.5,7228.88,375970,51987.6,98488,647557
0.464,0.00141097,138632,-36614.7,9112.19,396241,52337.3,102799,639007
0.466,0.0014219,144576,-35199.9,10995.5,416513,52687,107111,630457
0.468,0.00143282,150520,-33785.2,12878.9,436785,53036.7,111422,621906
0.47,0.00144375,156463,-32370.4,14762.2,457056,53386.4,115734,613356
0.472,0.00145468,162407,-30955.6,16645.5,477328,53736,120045,604806
0.474,0.00146561,168351,-29540.8,18528.9,497600,54085.7,124357,596255
0.476,0.00147654,174295,-28126.1,20412.2,517871,54435.4,128668,587705
0.478,0.00148744,179402,-24624.3,22467.4,536076,55098,133283,577154
0.48,0.0014983,183401,-18358.9,24750.2,551544,56175,138300,563954
0.482,0.00150915,187400,-12093.5,27032.9,567012,57252,143318,550755
0.484,0.00152001,191399,-5828.15,29315.7,582480,58329.1,148335,537555
0.486,0.00153087,195398,437.232,31598.5,597948,59406.1,153353,524355
0.488,0.00154183,195668,6821.66,33130.1,607412,59094.2,154856,515823
0.49,0.00155304,187394,13478.9,32939.9,603113,55598.7,148304,517987
0.492,0.00156424,179119,20136.2,32749.6,598814,52103.2,141752,520151
0.494,0.00157545,170844,26793.4,32559.4,594516,48607.8,135201,522315
0.496,0.00158665,162570,33450.7,32369.2,590217,45112.3,128649,524479
0.498,0.00159786,154295,40108,32178.9,585919,41616.8,122097,526643
0.5,0.00160922,147669,43090,31672.4,581828,39552.3,115247,528810
0.502,0.00162071,142651,42511,30506.1,578229,38238.3,108309,531925
0.504,0.00163215,139381,38180.3,26684.6,576746,34186.9,102388,541293
0.506,0.00164359,136316,34108.7,23076.3,575037,30422,96767.5,550015
0.508,0.00165496,134973,32206.3,21251.8,571429,29055.5,93660.9,553329
0.51,0.00166634,133631,30303.9,19427.4,567821,27689,90554.4,556643
0.512,0.00167771,132289,28401.5,17602.9,564213,26322.4,87447.8,559957
0.514,0.00168909,130947,26499.2,15778.5,560606,24955.9,84341.3,563271
0.516,0.00170047,129604,24596.8,13954.1,556998,23589.4,81234.8,566585
0.518,0.00171184,128262,22694.4,12129.7,553390,22222.8,78128.3,569898
0.52,0.00172322,126920,20792,10305.3,549783,20856.3,75021.8,573212
0.522,0.0017346,125578,18889.6,8480.83,546175,19489.8,71915.2,576526
0.524,0.00174597,124235,16987.3,6656.43,542567,18123.3,68808.7,579840
0.526,0.00175735,122893,15084.8,4831.97,538959,16756.7,65702.1,583154
0.528,0.00176878,121694,13888.4,3815.49,536083,16344.7,63239.9,586555
0.53,0.00178047,121100,15665.6,6202.43,536286,19953.3,63491.9,590323
0.532,0.00179215,120506,17442.8,8589.45,536489,23562,63743.9,594091
0.534,0.00180384,119912,19220,10976.4,536692,27170.6,63995.9,597858
0.536,0.00181552,119318,20997.3,13363.4,536895,30779.4,64248,601626
0.538,0.0018272,118724,22774.5,15750.3,537098,34388,64500,605394
0.54,0.00183889,118166,24440.7,18099.1,536790,37955.3,64766,608455
0.542,0.00185068,118272,24061.9,19742.7,527054,40759,65289.7,598476
0.544,0.00186268,117953,21977.1,19598.7,514172,42951.2,65558.1,588647
0.546,0.00187486,117305,18572.8,18072.2,498856,44670.4,65629.3,578935
0.548,0.00188703,116658,15168.6,16545.6,483541,46389.5,65700.4,569223
0.55,0.0018992,116011,11764.2,15019.1,468225,48108.7,65771.5,559510
0.552,0.00191137,115363,8359.99,13492.5,452910,49827.8,65842.6,549798
0.554,0.00192354,114716,4955.64,11965.9,437594,51546.9,65913.7,540085
0.556,0.00193585,114664,3640.49,13763.2,434080,52126.6,65565.1,556874
0.558,0.00194819,114754,2817.67,16344,433349,52437.6,65117.6,579909
0.56,0.00196052,114843,1994.88,18924.7,432617,52748.7,64670.1,602944
0.562,0.00197286,114933,1172.1,21505.3,431885,53059.8,64222.6,625979
0.564,0.0019852,115022,349.283,24086.1,431154,53370.8,63775,649015
0.566,0.00199754,115112,-473.505,26666.8,430422,53681.9,63327.5,672050
0.568,0.00200988,115201,-1296.32,29247.5,429690,53993,62880,695085
0.57,0.00202222,115290,-2119.11,31828.2,428958,54304,62432.5,718120
0.572,0.00203456,115380,-2941.92,34409,428227,54615.1,61985,741156
0.574,0.00204701,114526,-3341.84,37357.7,417500,54552,58866.9,748917
0.576,0.00205957,111878,-4073.03,40376.3,412389,54521.7,58572.2,746847
0.578,0.00207213,109081,-4880.23,43374.1,408793,54525.9,58849.4,744773
0.58,0.00208469,106283,-5687.4,46371.8,405198,54530.1,59126.6,742700
0.582,0.00209725,103485,-6494.59,49369.5,401603,54534.3,59403.8,740626
0.584,0.00210981,100687,-7301.77,52367.2,398008,54538.5,59681,738553
0.586,0.00212237,97889.5,-8108.96,55365,394413,54542.7,59958.3,736479
0.588,0.00213493,95091.8,-8916.13,58362.6,390818,54546.9,60235.5,734406
0.59,0.00214749,92294,-9723.31,61360.3,387223,54551.1,60512.7,732332
0.592,0.00216005,89496.2,-10530.5,64358.1,383627,54555.3,60789.9,730259
0.594,0.00217261,86698.5,-11337.7,67355.8,380032,54559.5,61067.1,728185
0.596,0.00218534,86096.3,-11798.7,68694.6,379375,56025.9,63035.1,724306
0.598,0.00219817,86928.2,-12033.5,68950,380638,58447.3,66107.3,719248
0.6,0.002211,87760,-12268.4,69205.3,381900,60868.8,69179.6,714190
0.602,0.0022238,88850,-12342,68500.6,381507,63495.2,71489.6,704161
0.604,0.00223659,90062.8,-12338.8,67338.8,380326,66219.3,73436.6,691766
0.606,0.00224937,91275.7,-12335.6,66176.9,379145,68943.5,75383.8,679371
0.608,0.00226216,92488.5,-12332.4,65015,377964,71667.5,77330.8,666976
0.61,0.00227494,93701.4,-12329.3,63853.1,376783,74391.7,79277.9,654581
0.612,0.00228773,94914.3,-12326.1,62691.3,375603,77115.8,81225,642186
0.614,0.00230052,96127.1,-12322.9,61529.4,374422,79840,83172.1,629791
0.616,0.0023133,97340,-12319.7,60367.5,373241,82564,85119.2,617396
0.618,0.00232609,98552.8,-12316.5,59205.6,372060,85288.1,87066.3,605001
0.62,0.00233891,98778.6,-11843.9,57420.3,369536,87952.9,88670.7,597154
0.622,0.00235186,95633.7,-9768.31,53506,362425,90414.6,89104.8,604838
0.624,0.00236481,92488.7,-7692.69,49591.7,355314,92876.4,89538.9,612522
0.626,0.00237787,89424.3,-6214.34,46341.1,349101,93351.4,89994.4,614077
0.628,0.00239105,86441,-5339.56,43761.3,343795,91818.3,90471.7,609439
0.63,0.00240422,83457.9,-4464.81,41181.6,338490,90285.3,90949,604801
0.632,0.00241739,80474.7,-3590.04,38601.8,333184,88752.2,91426.3,600163
0.634,0.00243056,77491.5,-2715.29,36022,327879,87219.2,91903.6,595525
0.636,0.0024438,75045.3,-2182.67,34404.1,322803,85422.3,92187.6,591138
0.638,0.00245722,73927.3,-2496.46,35165.5,318294,82972.4,91993.6,587371
0.64,0.00247063,72809.3,-2810.24,35926.9,313785,80522.6,91799.6,583603
0.642,0.00248405,71691.3,-3124.04,36688.3,309276,78072.7,91605.6,579836
0.644,0.00249747,70573.3,-3437.82,37449.7,304767,75622.9,91411.6,576069
0.646,0.00251097,69765.9,-3387.64,37348.6,302639,73565.7,90490.3,572345
0.648,0.00252461,69442.8,-2770,35902.6,304225,72120.8,88435.3,568689
0.65,0.00253826,69119.7,-2152.35,34456.7,305810,70675.9,86380.2,565032
0.652,0.0025519,68796.5,-1534.68,33010.8,307396,69231,84325,561376
0.654,0.00256554,68473.4,-917.032,31564.8,308982,67786.2,82269.9,557720
0.656,0.00257919,68150.2,-299.365,30118.8,310567,66341.2,80214.8,554064
0.658,0.00259283,67827.1,318.283,28672.9,312153,64896.4,78159.7,550407
0.66,0.00260647,67503.9,935.95,27227,313739,63451.5,76104.6,546751
0.662,0.00262012,67180.8,1553.6,25781,315324,62006.6,74049.5,543095
0.664,0.00263376,66857.7,2171.25,24335.1,316910,60561.7,71994.4,539439
0.666,0.00264741,66534.5,2788.91,22889.1,318496,59116.8,69939.3,535783
0.668,0.00266105,66211.4,3406.56,21443.2,320081,57671.9,67884.2,532126
0.67,0.0026747,65888.3,4024.23,19997.2,321667,56227,65829,528470
0.672,0.00268834,65565.1,4641.88,18551.3,323253,54782.2,63774,524814
0.674,0.00270199,65242,5259.54,17105.3,324838,53337.3,61718.8,521158
0.676,0.00271563,64918.8,5877.19,15659.4,326424,51892.4,59663.7,517501
0.678,0.00272928,64595.7,6494.84,14213.5,328010,50447.5,57608.6,513845
0.68,0.00274293,64244.5,7142.01,12670.2,329136,49211.3,55280.5,510224
0.682,0.00275674,63317.6,8394.09,9131.93,320835,52254.1,47354.8,507328
0.684,0.00277055,62390.6,9646.2,5593.55,312534,55297,39428.9,504431
0.686,0.00278436,61463.7,10898.3,2055.27,304234,58339.9,31503.2,501535
0.688,0.00279817,60536.8,12150.4,-1483.11,295933,61382.8,23577.2,498638
0.69,0.00281198,59609.9,13402.5,-5021.38,287632,64425.6,15651.5,495742
0.692,0.0028258,58683,14654.5,-8559.66,279332,67468.5,7725.85,492845
0.694,0.00283961,57756,15906.7,-12098,271031,70511.4,-200.089,489949
0.696,0.00285342,56829.1,17158.7,-15636.3,262731,73554.2,-8125.79,487052
0.698,0.00286731,56251.1,17663.3,-17490.7,256793,76012.5,-14194.9,482156
0.7,0.00288137,56400.6,16608.7,-15833.1,255784,77251.3,-16391.4,473090
0.702,0.00289542,56550.1,15554,-14175.4,254774,78490.2,-18588,464024
0.704,0.00290948,56699.6,14499.4,-12517.8,253765,79729,-20784.5,454958
0.706,0.00292354,56849.1,13444.8,-10860.1,252756,80967.9,-22981,445892
0.708,0.0029376,56998.7,12390.2,-9202.42,251747,82206.8,-25177.5,436826
0.71,0.00295165,57148.2,11335.6,-7544.78,250737,83445.6,-27374,427760
0.712,0.00296591,56764.3,12275.7,-8663.64,256143,83287.9,-29790.6,424636
0.714,0.00298034,55896.3,15025.7,-12301.8,267369,81863.1,-32406.8,426902
0.716,0.00299478,55028.3,17775.8,-15940.1,278595,80438.3,-35023,429169
0.718,0.00300921,54160.4,20525.8,-19578.2,289821,79013.5,-37639.2,431436
0.72,0.00302365,53292.4,23275.9,-23216.5,301047,77588.7,-40255.5,433702
0.722,0.00303808,52424.4,26025.9,-26854.6,312273,76163.9,-42871.6,435969
0.724,0.00305249,52058.9,29420.5,-28849.7,322411,75580.2,-44728.8,440400
0.726,0.00306684,52858.8,34310.4,-27034.4,330026,76947.3,-44825.7,449851
0.728,0.00308119,53658.5,39200.1,-25219,337641,78314.4,-44922.6,459301
0.73,0.00309553,54458.3,44090,-23403.7,345256,79681.5,-45019.5,468752
0.732,0.00310988,55258.1,48979.8,-21588.3,352871,81048.6,-45116.4,478203
0.734,0.00312423,56057.9,53869.6,-19773,360487,82415.7,-45213.3,487654
0.736,0.00313858,56857.7,58759.4,-17957.7,368101,83782.7,-45310.3,497104
0.738,0.00315293,57657.5,63649.1,-16142.3,375716,85149.8,-45407.2,506555
0.74,0.00316724,55567.9,60257.9,-19677.2,376518,84115.7,-49936.1,498885
0.742,0.00318154,53388.1,56608.1,-23379.1,377107,83006.7,-54603.3,490680
0.744,0.00319585,51208.2,52958.3,-27081.1,377695,81897.7,-59270.7,482475
0.746,0.00321015,49028.4,49308.5,-30783,378284,80788.6,-63938,474270
0.748,0.00322462,51550.6,48161.7,-28905.5,375972,80822.7,-58954.1,466871
0.75,0.00323909,54406.4,47192.6,-26632,373455,80938,-53285.5,459528
0.752,0.00325356,57262.2,46223.4,-24358.5,370938,81053.2,-47616.8,452186
0.754,0.00326803,60118,45254.3,-22084.9,368421,81168.4,-41948,444843
0.756,0.00328273,59351.1,41572,-21614.4,365960,81399.5,-36955,438776
0.758,0.00329743,58348.2,37712.9,-21261.3,363503,81638.1,-32005.9,432792
0.76,0.00331214,57345.3,33853.9,-20908.3,361045,81876.7,-27057,426809
0.762,0.00332691,55945.3,31232.6,-20271.5,358395,81937.7,-23072.5,424757
0.764,0.00334178,53827.2,30851.1,-19121.6,355396,81677.1,-20833.4,429820
0.766,0.00335666,51709,30469.5,-17971.6,352397,81416.6,-18594.3,434884
0.768,0.00337153,49590.7,30088,-16821.7,349398,81156,-16355.1,439947
0.77,0.00338641,47472.5,29706.4,-15671.7,346399,80895.5,-14116,445010
0.772,0.00340128,45354.3,29324.8,-14521.7,343400,80634.9,-11876.8,450074
0.774,0.00341613,43654.7,28378.6,-13450.5,338467,80214.3,-9144.44,455016
0.776,0.00343091,42793.5,26301.2,-12537.2,329661,79473.1,-5423.79,459716
0.778,0.0034457,41932.4,24223.9,-11623.8,320856,78731.9,-1703.25,464417
0.78,0.00346048,41071.3,22146.6,-10710.5,312050,77990.6,2017.28,469117
0.782,0.00347527,40210.1,20069.2,-9797.08,303245,77249.4,5737.93,473817
0.784,0.00349006,39349,17991.9,-8883.73,294439,76508.2,9458.46,478517
0.786,0.00350484,38487.9,15914.5,-7970.35,285633,75766.9,13179.1,483217
0.788,0.00351963,37626.8,13837.2,-7057,276828,75025.7,16899.6,487917
0.79,0.00353441,36765.6,11759.8,-6143.62,268022,74284.5,20620.3,492617
0.792,0.00354923,36157.7,9768.84,-5332.15,259093,73479.3,24353.2,496120
0.794,0.00356442,39403.3,9091.92,-6070.9,248284,71701.9,28274.6,481409
0.796,0.00357961,42648.7,8415.02,-6809.62,237475,69924.6,32195.8,466699
0.798,0.00359481,45894.2,7738.12,-7548.35,226667,68147.2,36117.1,451988
0.8,0.00361,49139.7,7061.2,-8287.1,215858,66369.8,40038.5,437277
0.802,0.00362519,52385.1,6384.3,-9025.82,205049,64592.5,43959.7,422567
0.804,0.00364039,55630.7,5707.38,-9764.57,194240,62815.1,47881.1,407856
0.806,0.00365558,58876.1,5030.48,-10503.3,183431,61037.7,51802.4,393145
0.808,0.00367077,62121.7,4353.56,-11242,172622,59260.3,55723.7,378434
0.81,0.00368604,64777,3922.44,-11364.9,169674,58660.3,58698.9,371163
0.812,0.00370138,66953.5,3690.74,-10988,173102,59015.5,60906.4,369927
0.814,0.00371671,69130.1,3459.04,-10611.1,176531,59370.8,63113.9,368691
0.816,0.00373204,71306.6,3227.34,-10234.2,179960,59726,65321.4,367455
0.818,0.00374738,73483.2,2995.64,-9857.28,183389,60081.3,67529,366219
0.82,0.00376271,75659.7,2763.94,-9480.39,186818,60436.5,69736.5,364983
0.822,0.00377805,77836.3,2532.23,-9103.48,190247,60791.8,71944,363746
0.824,0.00379338,80012.8,2300.54,-8726.58,193675,61147,74151.5,362510
0.826,0.00380872,82189.4,2068.84,-8349.69,197104,61502.3,76359,361274
0.828,0.00382405,84366,1837.14,-7972.78,200533,61857.5,78566.5,360038
0.83,0.00383939,86542.5,1605.44,-7595.89,203962,62212.7,80774,358802
0.832,0.00385472,88719.1,1373.73,-7218.98,207391,62568,82981.6,357566
0.834,0.00387006,90895.6,1142.04,-6842.09,210819,62923.2,85189,356330
0.836,0.00388539,93072.2,910.331,-6465.18,214248,63278.5,87396.6,355094
0.838,0.00390073,95248.7,678.634,-6088.29,217677,63633.7,89604.1,353858
0.84,0.00391606,97425.2,446.936,-5711.39,221106,63989,91811.6,352622
0.842,0.00393134,98743.3,647.121,-5143.98,224222,64636.8,93842.3,351981
0.844,0.00394662,99989.4,883.435,-4560.65,227312,65309,95858.1,351388
0.846,0.00396191,101236,1119.75,-3977.3,230402,65981.3,97874,350796
0.848,0.00397719,102482,1356.07,-3393.97,233492,66653.6,99889.9,350204
0.85,0.00399247,103728,1592.39,-2810.62,236583,67325.9,101906,349612
0.852,0.00400797,103515,878.169,-1600.12,233300,67454.9,100114,349828
0.854,0.00402353,103005,-29.9853,-261.65,228717,67473,97545.6,350208
0.856,0.00403911,100741,-663.498,972.597,223372,67446.7,93200.9,350229
0.858,0.00405475,95861.8,-887.296,2051.29,216890,67354.1,86206.9,349716
0.86,0.00407039,90982.7,-1111.1,3130.02,210409,67261.6,79212.7,349204
0.862,0.00408602,86103.8,-1334.9,4208.71,203928,67169,72218.7,348691
0.864,0.00410166,81224.8,-1558.7,5287.44,197446,67076.4,65224.5,348178
0.866,0.00411743,78163.4,-1437.61,5889.04,195686,67035.7,60910.5,347462
0.868,0.00413329,76309.1,-1087.47,6173.8,197062,67029.4,58376.3,346612
0.87,0.00414914,74454.8,-737.315,6458.56,198438,67023.1,55842.1,345762
0.872,0.004165,72600.5,-387.173,6743.32,199813,67016.8,53307.9,344912
0.874,0.00418086,70746.2,-37.0198,7028.08,201189,67010.5,50773.7,344062
0.876,0.00419672,68891.9,313.123,7312.84,202565,67004.2,48239.5,343212
0.878,0.00421257,67518.4,931.703,7905.94,204783,66925.4,46146.1,341972
0.88,0.00422842,66233.3,1599.62,8555.71,207156,66833.2,44133.9,340659
0.882,0.00424427,64948.1,2267.55,9205.51,209529,66741,42121.6,339347
0.884,0.00426012,63663,2935.47,9855.29,211902,66648.8,40109.4,338035
0.886,0.00427597,62377.8,3603.39,10505.1,214275,66556.6,38097.2,336723
0.888,0.00429182,61092.7,4271.32,11154.9,216648,66464.4,36084.9,335411
0.89,0.00430767,59807.6,4939.24,11804.6,219021,66372.3,34072.6,334099
0.892,0.00432352,58522.4,5607.18,12454.4,221394,66280.1,32060.4,332787
0.894,0.00433937,57237.3,6275.09,13104.2,223767,66187.9,30048.1,331475
0.896,0.00435522,55952.1,6943.03,13754,226141,66095.7,28035.8,330163
0.898,0.00437107,54667,7610.94,14403.8,228514,66003.5,26023.6,328851
0.9,0.00438692,53381.9,8278.86,15053.6,230887,65911.3,24011.4,327539
0.902,0.00440277,52096.7,8946.8,15703.3,233260,65819.1,21999.1,326227
0.904,0.0044188,48519.3,8296.77,15311.1,233537,67218.9,19415,329250
0.906,0.00443484,44749.6,7536.22,14831.5,233638,68743.8,16782.8,332637
0.908,0.00445088,40980.1,6775.69,14351.9,233739,70268.6,14150.8,336024
0.91,0.00446692,37210.4,6015.13,13872.2,233841,71793.5,11518.6,339411
0.912,0.00448296,33440.8,5254.6,13392.6,233942,73318.4,8886.56,342798
0.914,0.004499,29671.2,4494.07,12913,234043,74843.2,6254.5,346184
0.916,0.00451505,25901.5,3733.52,12433.4,234145,76368.1,3622.35,349571
0.918,0.00453109,22131.9,2972.99,11953.7,234246,77893,990.28,352958
0.92,0.00454727,19969,2989.12,11603.5,233947,79111.3,-593.442,355553
0.922,0.00456361,19532.8,3839.94,11392.3,233216,80000.3,-1050.4,357297
0.924,0.00457996,19096.7,4690.78,11181.1,232486,80889.2,-1507.38,359041
0.926,0.0045963,18660.5,5541.59,10969.9,231756,81778.1,-1964.34,360785
0.928,0.00461264,18224.3,6392.4,10758.7,231026,82667,-2421.3,362529
0.93,0.00462895,18749.8,6974.63,10860,226540,83609.1,-2744.62,360000
0.932,0.00464525,19313.7,7546.1,10973.9,221903,84553.4,-3062.6,357301
0.934,0.00466156,19877.5,8117.58,11087.7,217266,85497.6,-3380.59,354601
0.936,0.00467786,20441.4,8689.05,11201.5,212630,86441.8,-3698.56,351901
0.938,0.00469417,21005.3,9260.54,11315.3,207993,87386.1,-4016.55,349201
0.94,0.00471047,21569.2,9832.01,11429.2,203357,88330.3,-4334.53,346502
0.942,0.00472678,22133,10403.5,11543,198720,89274.5,-4652.5,343802
0.944,0.00474309,22696.9,10975,11656.8,194084,90218.8,-4970.49,341102
0.946,0.00475939,23260.8,11546.4,11770.6,189447,91163,-5288.46,338403
0.948,0.0047757,23824.7,12117.9,11884.5,184811,92107.3,-5606.45,335703
0.95,0.004792,24388.5,12689.4,11998.3,180174,93051.5,-5924.43,333003
0.952,0.00480831,24952.4,13260.9,12112.1,175537,93995.8,-6242.41,330304
0.954,0.00482462,25516.3,13832.3,12225.9,170901,94940,-6560.39,327604
0.956,0.00484092,26080.2,14403.8,12339.7,166264,95884.2,-6878.37,324904
0.958,0.00485728,29756.8,16480.8,12923.2,168445,97857.5,-2968.65,325695
0.96,0.0048737,37380.1,20466.6,14102,179268,101135,6301.27,330910
0.962,0.00489022,49479.1,27223.3,15645.2,208953,105739,21553.6,351199
0.964,0.00490685,66915.6,37284.5,17623,261134,111923,43940.3,389466
0.966,0.00492345,79002.7,43361.9,18767.9,296087,115848,60379.1,413860
0.968,0.00493991,73955.9,36679.5,17245.2,275862,112538,57766.3,393819
0.97,0.00495637,68908.8,29997,15722.5,255636,109228,55153.5,373778
0.972,0.00497283,63862,23314.6,14199.8,235411,105918,52540.7,353737
0.974,0.00498929,58815.1,16632.3,12677.1,215186,102607,49927.9,333696
0.976,0.0050058,54056.3,11519.8,12071,201884,99224.9,48393.8,320579
0.978,0.00502232,49258.2,6685.81,11678.6,190077,95770.4,47070.2,308931
0.98,0.00503898,48730.1,6550.73,12101.7,188951,94335.8,48246.4,308944
0.982,0.00505564,48202.1,6415.65,12524.8,187825,92901.2,49422.6,308956
0.984,0.0050723,47674,6280.57,12947.8,186699,91466.6,50598.9,308969
0.986,0.00508896,47146,6145.49,13370.9,185574,90032,51775.1,308981
0.988,0.00510562,46617.9,6010.42,13794,184448,88597.4,52951.3,308993
0.99,0.00512228,46089.9,5875.34,14217.1,183322,87162.8,54127.5,309006
0.992,0.00513894,45561.8,5740.26,14640.1,182196,85728.2,55303.7,309018
0.994,0.0051556,45033.8,5605.18,15063.2,181070,84293.6,56479.9,309030
0.996,0.00517226,44505.7,5470.1,15486.3,179944,82859,57656.1,309043
0.998,0.00518892,43977.7,5335.02,15909.4,178818,81424.4,58832.4,309055
1,0.00520558,43449.6,5199.95,16332.4,177693,79989.8,60008.6,309067
1.002,0.00522224,42921.6,5064.87,16755.5,176567,78555.2,61184.8,309080
1.004,0.0052389,42393.5,4929.79,17178.6,175441,77120.6,62360.9,309092
1.006,0.00525556,41865.5,4794.71,17601.7,174315,75686,63537.2,309104
1.008,0.00527222,41337.4,4659.63,18024.8,173189,74251.4,64713.4,309117
1.01,0.00528888,40809.4,4524.56,18447.8,172063,72816.8,65889.6,309129
1.012,0.00530554,40281.3,4389.48,18870.9,170938,71382.2,67065.8,309142
1.014,0.0053222,39753.2,4254.4,19294,169812,69947.5,68242.1,309154
1.016,0.00533887,39225.2,4119.32,19717.1,168686,68513,69418.3,309166
1.018,0.00535553,38697.2,3984.25,20140.1,167560,67078.4,70594.5,309179
1.02,0.00537219,38169.1,3849.17,20563.2,166434,65643.8,71770.7,309191
1.022,0.00538885,37641.1,3714.09,20986.3,165308,64209.2,72946.9,309203
1.024,0.00540551,37035.4,3613.58,21445,164182,62799.5,74103.8,309325
1.026,0.00542211,37427.7,3068.23,21445.7,163063,61069.1,75509.3,308039
1.028,0.00543889,35727,1834.15,21276.2,161047,59615.4,71929.9,309694
1.03,0.00545578,33924.8,744.08,22265.9,159022,58935.6,67258.6,310527
1.032,0.00547266,32122.6,-345.988,23255.5,156997,58255.7,62587.3,311361
1.034,0.00548954,30320.3,-1436.12,24245.3,154972,57575.9,57915.8,312195
1.036,0.00550643,28518.1,-2526.19,25234.9,152946,56896,53244.5,313029
1.038,0.00552331,26715.9,-3616.26,26224.6,150921,56216.2,48573.2,313862
1.04,0.00554019,24913.7,-4706.33,27214.2,148896,55536.3,43901.9,314696
1.042,0.00555708,23111.4,-5796.46,28203.9,146871,54856.5,39230.3,315530
1.044,0.00557397,22028.9,-6396.34,29717.3,143951,54653.4,35925.3,315085
1.046,0.005591,22073.1,-5961.53,30217.7,145536,55473.4,34596.7,310194
1.048,0.00560803,22112.8,-5520.92,30653.8,147323,56299.6,33254,305230
1.05,0.00562507,22152.4,-5080.32,31090,149109,57125.9,31911.3,300265
1.052,0.0056421,22192.1,-4639.69,31526.2,150896,57952.1,30568.5,295300
1.054,0.00565913,22231.7,-4199.08,31962.4,152683,58778.4,29225.8,290336
1.056,0.00567617,22271.3,-3758.48,32398.5,154469,59604.6,27883.2,285371
1.058,0.0056932,22311,-3317.87,32834.7,156256,60430.8,26540.5,280407
1.06,0.00571023,22350.6,-2877.27,33270.9,158042,61257,25197.8,275442
1.062,0.00572727,22390.3,-2436.64,33707.1,159829,62083.3,23855,270478
1.064,0.0057443,22429.9,-1996.03,34143.2,161616,62909.5,22512.3,265513
1.066,0.00576134,22469.6,-1555.43,34579.4,163402,63735.8,21169.7,260549
1.068,0.00577837,22509.2,-1114.82,35015.6,165189,64562,19827,255584
1.07,0.00579541,22548.9,-674.192,35451.8,166975,65388.3,18484.2,250620
1.072,0.00581244,22588.5,-233.587,35887.9,168762,66214.5,17141.5,245655
1.074,0.00582949,22649.4,544.352,35913.8,169316,66366.3,16262.3,239061
1.076,0.0058466,22770.4,2279.24,34775.4,166375,64604.7,16698,227842
1.078,0.00586371,22891.4,4014.14,33637.1,163434,62843.1,17133.7,216623
1.08,0.00588084,22667.5,5598.83,32821.6,160114,61149.4,17070.2,207185
1.082,0.00589808,21644.3,6274.82,32992.7,157024,60098.6,15482.1,206317
1.084,0.00591537,21341.2,6274.59,32910.7,156680,59763.2,14286.4,209572
1.086,0.00593267,21038,6274.37,32828.7,156336,59427.8,13090.6,212828
1.088,0.00594996,20734.8,6274.14,32746.8,155991,59092.4,11894.8,216084
1.09,0.00596726,20431.7,6273.92,32664.8,155647,58757,10699,219339
1.092,0.00598455,20128.5,6273.69,32582.8,155303,58421.7,9503.25,222595
1.094,0.00600185,19825.3,6273.47,32500.8,154959,58086.3,8307.49,225851
1.096,0.00601914,19522.2,6273.24,32418.9,154614,57750.9,7111.73,229107
1.098,0.00603643,19219,6273.02,32336.9,154270,57415.5,5915.9,232362
1.1,0.00605373,18915.8,6272.79,32254.9,153926,57080.1,4720.14,235618
1.102,0.00607102,18612.7,6272.57,32173,153582,56744.8,3524.38,238874
1.104,0.00608832,18309.5,6272.35,32091,153237,56409.4,2328.62,242129
1.106,0.00610561,18006.3,6272.12,32009,152893,56074,1132.87,245385
1.108,0.00612291,18447.7,6299.73,31168.4,151688,55602.5,639.161,247000
1.11,0.00614021,19197.2,6338.86,30013.7,150128,55074.7,436.209,247935
1.112,0.00615751,19946.7,6377.99,28859.1,148567,54546.8,233.256,248870
1.114,0.00617481,20696.3,6417.13,27704.4,147006,54019,30.3041,249805
1.116,0.00619211,21445.8,6456.26,26549.6,145446,53491.1,-172.66,250740
1.118,0.00620941,22195.4,6495.39,25394.9,143885,52963.3,-375.613,251674
1.12,0.00622671,22944.9,6534.53,24240.3,142324,52435.5,-578.565,252609
1.122,0.00624411,23360,7443.27,21894.6,140169,52308.6,1217.89,249885
1.124,0.00626153,23707.8,8526.78,19309.6,137894,52262.2,3416.19,246424
1.126,0.00627895,24055.6,9610.36,16724.4,135619,52215.9,5614.62,242963
1.128,0.00629637,24403.4,10693.9,14139.4,133345,52169.5,7812.91,239503
1.13,0.00631379,24751.3,11777.4,11554.4,131070,52123.2,10011.2,236043
1.132,0.00633121,25099.1,12860.9,8969.41,128795,52076.8,12209.5,232582
1.134,0.00634867,25193.9,13608.2,7360.37,126495,52256.8,14107.4,229459
1.136,0.00636619,24913.8,13857,7198.22,124158,52772.3,15560.2,226834
1.138,0.0063837,24633.7,14105.9,7036.08,121821,53287.8,17012.9,224210
1.14,0.00640121,24515.1,13962.2,6752.86,120219,52824.8,16957.4,220809
1.142,0.00641871,24425.3,13748.2,6447.96,118748,52186.7,16632,217270
1.144,0.00643621,24335.5,13534.2,6143.05,117277,51548.6,16306.5,213730
1.146,0.00645372,24245.8,13320.2,5838.16,115805,50910.5,15981.1,210190
1.148,0.00647122,24156,13106.3,5533.26,114334,50272.4,15655.7,206651
1.15,0.00648872,24066.3,12892.3,5228.37,112863,49634.3,15330.2,203111
1.152,0.00650623,23976.5,12678.3,4923.48,111392,48996.2,15004.8,199571
1.154,0.00652373,23886.8,12464.3,4618.56,109921,48358.1,14679.3,196032
1.156,0.00654123,23797,12250.4,4313.67,108450,47720,14353.9,192492
1.158,0.00655874,23707.2,12036.4,4008.78,106979,47081.9,14028.5,188952
1.16,0.00657624,23617.5,11822.4,3703.88,105508,46443.8,13703,185413
1.162,0.00659374,23527.7,11608.5,3398.99,104037,45805.7,13377.6,181873
1.164,0.00661125,23438,11394.5,3094.08,102566,45167.6,13052.1,178333
1.166,0.00662875,23348.2,11180.5,2789.18,101095,44529.5,12726.7,174794
1.168,0.00664626,23143.1,11039.1,2433.62,100202,43829.9,12444.1,171713
1.17,0.00666377,22656.3,11075,1954.32,100720,42980.2,12266.2,169753
1.172,0.00668129,22169.5,11110.8,1474.99,101238,42130.4,12088.2,167794
1.174,0.0066988,21682.7,11146.7,995.688,101757,41280.6,11910.3,165834
1.176,0.00671631,21195.9,11182.5,516.386,102275,40430.9,11732.4,163874
1.178,0.00673387,20062.1,10867.5,146.987,101362,39469.7,10661.4,161702
1.18,0.00675154,17426.1,9737.63,32.8097,97124.6,38249.5,7516.66,159037
1.182,0.0067692,14790,8607.68,-81.3748,92887.1,37029.2,4371.71,156371
1.184,0.00678687,12153.9,7477.81,-195.553,88649.9,35809.1,1226.96,153705
1.186,0.00680453,9517.94,6347.93,-309.73,84412.6,34588.9,-1917.8,151039
1.188,0.0068222,6881.93,5218.05,-423.908,80175.4,33368.7,-5062.56,148374
1.19,0.0068399,6836.25,5091.49,-322.621,80600.4,33349.9,-4839.62,147719
1.192,0.00685762,7381.76,5193.93,-172.167,82089.4,33605.3,-3848.1,147522
1.194,0.00687533,7927.28,5296.38,-21.712,83578.5,33860.6,-2856.58,147326
1.196,0.00689305,8472.79,5398.82,128.743,85067.5,34116,-1865.05,147130
1.198,0.00691076,9018.3,5501.26,279.197,86556.5,34371.4,-873.531,146934
1.2,0.00692848,9563.84,5603.71,429.661,88045.6,34626.7,118.051,146738
1.202,0.00694619,10109.4,5706.15,580.115,89534.6,34882.1,1109.57,146542
1.204,0.00696391,10654.9,5808.59,730.57,91023.7,35137.5,2101.1,146346
1.206,0.00698162,11200.4,5911.03,881.024,92512.7,35392.9,3092.62,146150
1.208,0.00699934,11745.9,6013.47,1031.48,94001.7,35648.2,4084.14,145954
1.21,0.00701705,12291.4,6115.92,1181.94,95490.8,35903.6,5075.72,145758
1.212,0.00703477,12836.9,6218.36,1332.4,96979.9,36159,6067.25,145561
1.214,0.00705248,13382.5,6320.8,1482.85,98468.9,36414.3,7058.77,145365
1.216,0.00707021,13889.1,6764.15,1744.59,100666,36683.6,8651.11,145965
1.218,0.00708797,14348.7,7620.74,2141.23,103720,36969.7,10971.8,147530
1.22,0.00710572,16484.9,8447.86,2569.95,107673,37740.2,13960,149287
1.222,0.00712346,19821.8,9253.9,3021.67,112270,38857.5,17426.2,151181
1.224,0.00714121,23158.7,10059.9,3473.39,116867,39974.8,20892.4,153074
1.226,0.00715896,26495.6,10866,3925.11,121464,41092.1,24358.6,154968
1.228,0.00717671,29832.7,11672.1,4376.85,126061,42209.4,27825,156862
1.23,0.00719446,33169.6,12478.1,4828.57,130658,43326.7,31291.3,158756
1.232,0.00721226,35954.2,12907.2,4844.62,132832,44206.3,33737.2,158871
1.234,0.00723014,37703.1,12629.2,4043.63,130460,44639.8,34269.8,155650
1.236,0.00724802,38247.5,12323.4,3487.68,127699,44873.4,34437.6,153895
1.238,0.0072659,37467.6,11986.8,3201.13,124509,44887.2,34204.6,153750
1.24,0.00728377,36687.8,11650.4,2914.6,121320,44901,33971.5,153606
1.242,0.00730164,35908,11313.9,2628.07,118130,44914.8,33738.4,153461
1.244,0.00731951,35128.2,10977.4,2341.53,114941,44928.6,33505.3,153317
1.246,0.00733738,34348.3,10640.9,2054.98,111751,44942.4,33272.2,153172
1.248,0.00735525,33568.5,10304.4,1768.45,108561,44956.2,33039.1,153028
1.25,0.00737312,32788.7,9967.9,1481.92,105372,44970,32806.1,152883
1.252,0.00739099,32008.9,9631.41,1195.39,102182,44983.8,32573,152739
1.254,0.00740887,31229.1,9294.92,908.853,98992.9,44997.6,32339.9,152594
1.256,0.00742674,30449.2,8958.41,622.303,95803.2,45011.4,32106.8,152450
1.258,0.00744461,29669.4,8621.92,335.771,92613.7,45025.2,31873.7,152305
1.26,0.0074625,29468.9,8342.27,91.6593,90639.4,44845.4,31861.8,153973
1.262,0.00748039,29459.2,8081.34,-138.482,89065.3,44601.9,31922.7,156238
1.264,0.00749829,29449.4,7820.4,-368.636,87491.2,44358.3,31983.5,158503
1.266,0.00751618,29439.7,7559.47,-598.777,85917.1,44114.8,32044.4,160768
1.268,0.00753408,29429.9,7298.54,-828.918,84343,43871.2,32105.3,163033
1.27,0.00755198,29420.2,7037.62,-1059.06,82769,43627.7,32166.1,165298
1.272,0.00756987,29410.4,6776.69,-1289.2,81194.9,43384.1,32227,167563
1.274,0.00758777,29400.7,6515.75,-1519.36,79620.7,43140.6,32287.9,169828
1.276,0.00760575,29511.9,5875.36,-1717.4,79620.3,41950.4,32761.9,171521
1.278,0.00762375,29643.1,5172.28,-1910.15,79879.9,40603.8,33304.2,173120
1.28,0.00764175,29774.2,4469.2,-2102.9,80139.5,39257.2,33846.4,174719
1.282,0.00765975,29905.4,3766.12,-2295.64,80399.1,37910.6,34388.7,176319
1.284,0.00767776,30036.6,3062.99,-2488.4,80658.7,36563.9,34931,177918
1.286,0.00769576,30167.8,2359.91,-2681.15,80918.3,35217.4,35473.3,179517
1.288,0.00771376,30298.9,1656.83,-2873.89,81177.9,33870.8,36015.5,181116
1.29,0.00773176,30430.1,953.745,-3066.64,81437.5,32524.2,36557.8,182716
1.292,0.00774981,30619,877.424,-3223,81835.3,31908.5,36632.1,182211
1.294,0.00776788,30824.8,985.532,-3368.64,82273.7,31507.9,36568.6,181089
1.296,0.00778597,30366.4,1191.28,-3073.6,81041,31106.1,35529.3,179739
1.298,0.00780405,29852.6,1405.19,-2741.68,79668.4,30704.2,34408.4,178370
1.3,0.00782214,29338.7,1619.1,-2409.75,78295.8,30302.3,33287.4,177001
1.302,0.00784023,28824.7,1833.03,-2077.81,76923.2,29900.4,32166.5,175632
1.304,0.00785832,28310.9,2046.94,-1745.89,75550.6,29498.5,31045.5,174263
1.306,0.0078764,27797,2260.86,-1413.97,74178,29096.6,29924.6,172894
1.308,0.00789449,27283.1,2474.77,-1082.05,72805.4,28694.7,28803.7,171525
1.31,0.00791258,26769.2,2688.68,-750.125,71432.8,28292.8,27682.8,170156
1.312,0.00793066,26255.3,2902.61,-418.183,70060.2,27890.9,26561.8,168787
1.314,0.00794875,25741.4,3116.52,-86.2615,68687.6,27489,25440.8,167418
1.316,0.00796684,25227.5,3330.43,245.66,67315,27087.1,24319.9,166049
1.318,0.00798493,24713.6,3544.35,577.582,65942.5,26685.2,23199,164680
1.32,0.00800301,24199.7,3758.27,909.524,64569.8,26283.2,22078,163311
1.322,0.0080211,23801.9,4005.04,1217.21,63925.3,25980.5,21163.1,161364
1.324,0.00803917,23752.2,4350.28,1452.26,65463,25975.2,20865.6,157686
1.326,0.00805724,23702.5,4695.53,1687.3,67000.8,25969.8,20568.1,154009
1.328,0.00807531,23652.8,5040.77,1922.35,68538.5,25964.5,20270.6,150331
1.33,0.00809339,23603.1,5386.04,2157.4,70076.3,25959.1,19973.1,146653
1.332,0.00811146,23553.4,5731.28,2392.45,71614.1,25953.8,19675.6,142975
1.334,0.00812953,23503.7,6076.52,2627.5,73151.8,25948.5,19378.1,139297
1.336,0.0081476,23454,6421.76,2862.54,74689.6,25943.1,19080.6,135619
1.338,0.00816568,23404.3,6767.03,3097.6,76227.4,25937.8,18783.1,131941
1.34,0.00818375,23354.6,7112.27,3332.64,77765.1,25932.4,18485.6,128263
1.342,0.00820185,23143.3,7182.39,3630.29,76900.1,26100.8,18181.1,124801
1.344,0.00822,22679.3,6821.99,4025.9,72275.1,26541.1,17865.5,121675
1.346,0.00823815,22215.2,6461.6,4421.5,67650.2,26981.4,17549.9,118549
1.348,0.0082563,21751.2,6101.19,4817.13,63025,27421.8,17234.3,115423
1.35,0.00827445,21287.1,5740.79,5212.74,58400.1,27862.1,16918.8,112297
1.352,0.00829259,20823.1,5380.4,5608.34,53775.2,28302.4,16603.2,109171
1.354,0.00831074,20359.1,5020.01,6003.95,49150.3,28742.7,16287.6,106045
1.356,0.00832889,19895,4659.62,6399.55,44525.3,29183,15972.1,102919
1.358,0.00834704,19431,4299.2,6795.18,39900.1,29623.3,15656.5,99792.5
1.36,0.00836523,19166.2,4109.62,7219.72,37593,30166.5,16122.2,100062
1.362,0.00838344,19023.9,4024.98,7662.03,36710.2,30772.9,17068,102417
1.364,0.00840165,18881.6,3940.35,8104.35,35827.3,31379.2,18013.8,104773
1.366,0.00841987,18702.3,3877.65,8423.54,35201.4,31868.7,18580,106269
1.368,0.0084381,18450,3858.22,8499.7,35082.5,32127.5,18397,106067
1.37,0.00845634,18197.6,3838.8,8575.86,34963.6,32386.2,18214.1,105866
1.372,0.00847458,17945.2,3819.38,8652.02,34844.7,32645,18031.1,105665
1.374,0.00849282,17692.9,3799.96,8728.17,34725.8,32903.7,17848.2,105463
1.376,0.00851106,17440.5,3780.53,8804.34,34606.8,33162.5,17665.2,105262
1.378,0.0085293,17188.1,3761.11,8880.5,34487.9,33421.2,17482.2,105061
1.38,0.00854753,16935.8,3741.69,8956.65,34369,33680,17299.3,104860
1.382,0.00856577,16683.4,3722.26,9032.81,34250.1,33938.7,17116.3,104658
1.384,0.00858401,16431,3702.84,9108.97,34131.2,34197.5,16933.4,104457
1.386,0.00860225,16178.6,3683.42,9185.13,34012.3,34456.2,16750.4,104256
1.388,0.00862049,15926.3,3664,9261.29,33893.4,34715,16567.4,104054
1.39,0.00863872,15673.9,3644.57,9337.45,33774.5,34973.7,16384.5,103853
1.392,0.00865696,15421.5,3625.15,9413.61,33655.6,35232.5,16201.5,103652
1.394,0.00867521,15232.4,3603.48,9442.59,33668.1,35443.3,15996.2,103294
1.396,0.00869351,15569.8,3563.1,9078.88,34775,35254.9,15605.2,101632
1.398,0.00871181,15907.2,3522.73,8715.18,35881.9,35066.5,15214.1,99971
1.4,0.00873011,16244.6,3482.35,8351.47,36988.7,34878.1,14823.1,98309.6
1.402,0.00874844,16567.3,3679.44,7477.17,39921,34645.8,15273,100130
1.404,0.00876676,16888,3908.55,6533.99,43099.6,34407.6,15836.3,102420
1.406,0.00878509,17208.8,4137.65,5590.87,46277.9,34169.4,16399.5,104710
1.408,0.00880342,17529.5,4366.75,4647.75,49456.3,33931.2,16962.7,107000
1.41,0.00882174,17850.3,4595.85,3704.63,52634.6,33693,17526,109290
1.412,0.00884007,18171,4824.95,2761.51,55812.9,33454.8,18089.2,111580
1.414,0.0088584,18491.8,5054.06,1818.33,58991.5,33216.6,18652.5,113870
1.416,0.00887675,18606.3,5176.83,1253.38,60236.5,32926.8,18874.9,114706
1.418,0.00889514,18555.8,5214.49,991.108,59934.1,32595.8,18824.5,114378
1.42,0.00891352,18505.4,5252.16,728.834,59631.7,32264.8,18774.1,114050
1.422,0.0089319,18454.9,5289.82,466.545,59329.3,31933.7,18723.7,113722
1.424,0.00895028,18404.4,5327.49,204.271,59026.9,31602.6,18673.3,113394
1.426,0.00896866,18353.9,5365.15,-58.0027,58724.5,31271.6,18623,113066
1.428,0.00898704,18131.7,5353.15,-323.154,57932.4,30878.3,18480.6,112353
1.43,0.00900541,17466.2,5212.9,-595.738,55875.7,30324,18100.6,110645
1.432,0.00902378,16800.6,5072.63,-868.338,53818.9,29769.8,17720.6,108938
1.434,0.00904214,16135,4932.38,-1140.92,51762.2,29215.5,17340.6,107230
1.436,0.00906051,15469.5,4792.13,-1413.5,49705.6,28661.3,16960.6,105523
1.438,0.00907888,14803.9,4651.87,-1686.09,47648.9,28107,16580.6,103815
1.44,0.00909725,14138.4,4511.61,-1958.69,45592.1,27552.8,16200.6,102108
1.442,0.00911562,13472.8,4371.35,-2231.27,43535.4,26998.5,15820.6,100400
1.444,0.00913399,12839.4,4247.96,-2490.62,41651.4,26459.1,15452,98764.3
1.446,0.00915235,12647.1,4355.7,-2568.56,42135.9,26123.1,15238.7,98109.5
1.448,0.00917072,12454.7,4463.44,-2646.5,42620.3,25787,15025.4,97454.6
1.45,0.00918909,12262.4,4571.19,-2724.44,43104.8,25451,14812,96799.7
1.452,0.00920746,12070,4678.93,-2802.38,43589.2,25114.9,14598.8,96144.9
1.454,0.00922583,11877.7,4786.67,-2880.32,44073.7,24778.9,14385.5,95490
1.456,0.0092442,11685.3,4894.42,-2958.25,44558.1,24442.9,14172.2,94835.1
1.458,0.00926257,11493,5002.16,-3036.19,45042.5,24106.8,13958.9,94180.3
1.46,0.00928094,11300.6,5109.91,-3114.13,45527,23770.8,13745.6,93525.4
1.462,0.00929931,11108.3,5217.65,-3192.07,46011.5,23434.7,13532.3,92870.5
1.464,0.00931768,10915.9,5325.39,-3270.01,46495.9,23098.7,13319,92215.7
1.466,0.00933605,10723.6,5433.13,-3347.95,46980.3,22762.7,13105.7,91560.8
1.468,0.00935442,10531.2,5540.88,-3425.89,47464.8,22426.6,12892.4,90905.9
1.47,0.00937278,10338.9,5648.63,-3503.83,47949.3,22090.6,12679.1,90251
1.472,0.00939115,10146.5,5756.37,-3581.76,48433.7,21754.5,12465.8,89596.2
1.474,0.00940952,9954.19,5864.11,-3659.7,48918.1,21418.5,12252.5,88941.3
1.476,0.00942789,9761.84,5971.85,-3737.64,49402.6,21082.4,12039.2,88286.5
1.478,0.00944626,9569.48,6079.6,-3815.58,49887.1,20746.4,11825.9,87631.6
1.48,0.00946466,9345.08,5912.89,-3432.42,48829.8,20830.3,11250.5,86507.3
1.482,0.00948309,9097.64,5548.95,-2717.89,46664.6,21216.1,10414.9,85045.6
1.484,0.00950151,8850.2,5185.01,-2003.35,44499.4,21601.9,9579.38,83584
1.486,0.00951994,8602.76,4821.08,-1288.82,42334.2,21987.7,8743.82,82122.4
1.488,0.00953837,8355.31,4457.11,-574.251,40168.9,22373.5,7908.22,80660.7
1.49,0.00955679,8107.87,4093.18,140.28,38003.7,22759.3,7072.66,79199.1
1.492,0.00957522,7860.44,3729.24,854.81,35838.5,23145.1,6237.1,77737.4
1.494,0.00959364,7613,3365.3,1569.34,33673.3,23530.9,5401.55,76275.8
1.496,0.00961209,7427.15,3244.79,2264.02,33225.4,23626.5,4842.84,76061.7
1.498,0.00963055,7280.34,3278.5,2946.06,33865.4,23538.4,4459.56,76637.9
1.5,0.00964901,7133.53,3312.21,3628.1,34505.4,23450.2,4076.28,77214.1
1.502,0.00966746,6986.71,3345.92,4310.13,35145.4,23362.1,3693,77790.4
1.504,0.00968592,6847.72,3388.66,4952.41,35785.7,23264.4,3328.07,78256
1.506,0.00970444,6856.16,3601.69,4845.12,36432.1,22986.8,3309.03,76636.9
1.508,0.00972295,6864.61,3814.7,4737.84,37078.5,22709.3,3289.99,75017.9
1.51,0.00974145,6873.05,4027.71,4630.57,37724.9,22431.8,3270.95,73398.9
1.512,0.00975996,6881.49,4240.72,4523.29,38371.2,22154.2,3251.92,71779.9
1.514,0.00977847,6889.93,4453.74,4416.01,39017.7,21876.7,3232.88,70160.9
1.516,0.00979697,6851.54,4467.39,4223.22,38189.8,21658.2,3578.94,68816.4
1.518,0.00981546,6804.21,4442.99,4014.12,37080.6,21451,3994.68,67524.4
1.52,0.00983395,6756.88,4418.59,3805.02,35971.4,21243.8,4410.41,66232.4
1.522,0.00985244,6709.55,4394.19,3595.92,34862.2,21036.5,4826.15,64940.4
1.524,0.00987094,6662.22,4369.79,3386.81,33753,20829.3,5241.91,63648.3
1.526,0.00988943,6614.89,4345.39,3177.71,32643.8,20622.1,5657.65,62356.3
1.528,0.00990792,6567.56,4320.99,2968.61,31534.6,20414.9,6073.39,61064.3
1.53,0.00992641,6520.23,4296.59,2759.51,30425.4,20207.6,6489.12,59772.3
1.532,0.00994491,6479.28,4280.81,2560.86,29401,20000,6865.61,58534.5
1.534,0.00996339,6537.93,4399.6,2525.35,29700.1,19785.3,6629.73,58142.1
1.536,0.00998187,6596.58,4518.38,2489.85,29999.1,19570.6,6393.86,57749.8
1.538,0.0100004,6655.23,4637.16,2454.35,30298.2,19356,6158,57357.5
1.54,0.0100188,6713.88,4755.93,2418.84,30597.3,19141.3,5922.13,56965.1
1.542,0.0100373,6772.53,4874.72,2383.34,30896.4,18926.7,5686.25,56572.8
1.544,0.0100558,6831.18,4993.5,2347.83,31195.5,18712,5450.38,56180.4
1.546,0.0100743,6889.83,5112.27,2312.33,31494.5,18497.3,5214.51,55788.1
1.548,0.0100928,6948.48,5231.05,2276.82,31793.6,18282.7,4978.64,55395.8
1.55,0.0101113,7007.13,5349.83,2241.32,32092.7,18068,4742.77,55003.5
1.552,0.0101297,7065.79,5468.61,2205.81,32391.8,17853.4,4506.89,54611.1
1.554,0.0101483,7067.38,5487.09,2292.12,32387.3,17772.5,4651.21,54552
1.556,0.0101668,7035.47,5446.65,2449.96,32204.4,17770.3,5018.81,54688.6
1.558,0.0101853,7003.55,5406.21,2607.81,32021.6,17768.1,5386.42,54825.2
1.56,0.0102039,6971.64,5365.77,2765.66,31838.8,17765.9,5754.02,54961.8
1.562,0.0102224,6939.72,5325.32,2923.51,31656,17763.7,6121.65,55098.4
1.564,0.0102409,6907.81,5284.88,3081.36,31473.2,17761.5,6489.25,55235
1.566,0.0102595,6875.89,5244.44,3239.2,31290.4,17759.3,6856.86,55371.6
1.568,0.010278,6843.98,5204,3397.05,31107.6,17757.1,7224.46,55508.2
1.57,0.0102965,6812.06,5163.56,3554.9,30924.8,17754.9,7592.09,55644.8
1.572,0.0103151,6780.15,5123.12,3712.75,30741.9,17752.7,7959.69,55781.4
1.574,0.0103336,6748.23,5082.68,3870.59,30559.1,17750.5,8327.29,55917.9
1.576,0.0103521,6848.59,5027.46,4212.04,30415.2,17683.9,8508.01,55867.5
1.578,0.0103707,7061.15,4959.71,4709.22,30304.3,17562.8,8530.19,55658.3
1.58,0.0103893,7273.71,4891.95,5206.44,30193.3,17441.7,8552.38,55449.1
1.582,0.0104078,7486.27,4824.2,5703.62,30082.4,17320.6,8574.57,55239.9
1.584,0.0104264,7698.82,4756.45,6200.8,29971.4,17199.5,8596.75,55030.7
1.586,0.0104449,7911.38,4688.69,6697.98,29860.5,17078.4,8618.94,54821.6
1.588,0.0104635,8123.94,4620.94,7195.19,29749.5,16957.3,8641.13,54612.4
1.59,0.010482,8336.5,4553.18,7692.38,29638.6,16836.2,8663.32,54403.2
1.592,0.0105006,8549.05,4485.43,8189.56,29527.6,16715.1,8685.5,54194
1.594,0.0105191,8596.52,4434.03,8182.73,29325.5,16683.6,8833.01,54209.3
1.596,0.0105377,8608.66,4386.13,8068.04,29103.9,16671.3,9007.34,54272.6
1.598,0.0105563,8620.8,4338.22,7953.33,28882.3,16659,9181.68,54335.9
1.6,0.0105748,8632.93,4290.32,7838.64,28660.7,16646.6,9356.02,54399.2
1.602,0.0105934,8645.07,4242.42,7723.94,28439.1,16634.3,9530.35,54462.5
1.604,0.010612,8657.21,4194.51,7609.25,28217.5,16622,9704.68,54525.8
1.606,0.0106305,8423.12,4156.68,7407.38,27015,16493.9,9527.66,53653.1
1.608,0.0106491,8025.1,4125.54,7147.48,25159.3,16288.6,9116.73,52157.3
1.61,0.0106677,7627.1,4094.41,6887.58,23303.8,16083.3,8705.81,50661.5
1.612,0.0106863,7229.09,4063.27,6627.69,21448.3,15878.1,8294.9,49165.7
1.614,0.0107049,6831.09,4032.14,6367.8,19592.8,15672.8,7883.99,47670
1.616,0.0107234,6433.07,4001,6107.9,17737.1,15467.5,7473.05,46174.1
1.618,0.010742,6035.07,3969.86,5848.01,15881.6,15262.2,7062.13,44678.4
1.62,0.0107606,5637.06,3938.73,5588.11,14026.1,15057,6651.22,43182.6
1.622,0.0107792,5502.28,3920,5393.17,13096.7,14935.7,6471.29,42322.6
1.624,0.0107978,5665.32,3915.3,5271.72,13215.2,14909.3,6552.73,42182
1.626,0.0108164,5828.37,3910.6,5150.26,13333.8,14883,6634.16,42041.3
1.628,0.0108349,5991.42,3905.9,5028.8,13452.3,14856.6,6715.6,41900.7
1.63,0.0108535,6154.46,3901.2,4907.35,13570.9,14830.3,6797.03,41760.1
1.632,0.0108721,6317.5,3896.5,4785.89,13689.4,14803.9,6878.46,41619.4
1.634,0.0108907,6480.55,3891.8,4664.44,13808,14777.6,6959.89,41478.8
1.636,0.0109093,6643.6,3887.1,4542.98,13926.5,14751.2,7041.33,41338.2
1.638,0.0109279,6806.64,3882.41,4421.52,14045,14724.9,7122.76,41197.5
1.64,0.0109465,6969.68,3877.71,4300.07,14163.6,14698.5,7204.19,41056.9
1.642,0.0109651,7132.73,3873.01,4178.61,14282.1,14672.2,7285.63,40916.3
1.644,0.0109837,7295.78,3868.31,4057.15,14400.7,14645.8,7367.06,40775.6
1.646,0.0110023,7458.82,3863.61,3935.69,14519.2,14619.5,7448.5,40635
1.648,0.0110208,7621.86,3858.91,3814.24,14637.7,14593.1,7529.93,40494.4
1.65,0.0110394,7784.91,3854.21,3692.79,14756.3,14566.8,7611.36,40353.7
1.652,0.011058,7947.95,3849.51,3571.33,14874.8,14540.4,7692.79,40213.1
1.654,0.0110766,8111,3844.81,3449.87,14993.4,14514.1,7774.23,40072.5
1.656,0.0110952,8198.79,3885.67,3296.29,15126.3,14474.2,7870.15,39814.1
1.658,0.0111138,8225.77,3741.56,2949.79,14575.6,14489.2,7949.25,39242.9
1.66,0.0111324,8091.51,3503.04,2673.63,13722.9,14497.1,7780.11,38535.2
1.662,0.0111511,7957.24,3264.53,2397.46,12870.1,14504.9,7610.96,37827.6
1.664,0.0111697,7822.97,3025.99,2121.28,12017.3,14512.7,7441.8,37119.9
1.666,0.0111883,7688.71,2787.48,1845.11,11164.6,14520.6,7272.65,36412.2
1.668,0.0112069,7554.44,2548.96,1568.94,10311.9,14528.4,7103.51,35704.6
1.67,0.0112255,7420.18,2310.44,1292.77,9459.13,14536.2,6934.36,34996.9
1.672,0.0112441,7285.91,2071.91,1016.59,8606.34,14544.1,6765.2,34289.3
1.674,0.0112628,7151.64,1833.39,740.424,7753.6,14551.9,6596.06,33581.6
1.676,0.0112814,6730.03,1426.62,589.587,6362.57,14546.9,5984.52,32630.8
1.678,0.0113,6805.59,1308.31,489.75,6093.33,14521.4,5909.9,32854.1
1.68,0.0113186,6896.89,1199.16,388.529,5857.48,14495.8,5854.83,33106.1
1.682,0.0113372,6988.19,1090.01,287.301,5621.62,14470.1,5799.77,33358.1
1.684,0.0113559,7079.49,980.86,186.079,5385.77,14444.5,5744.7,33610.1
1.686,0.0113745,7170.79,871.714,84.8568,5149.92,14418.9,5689.64,33862.1
1.688,0.0113931,7261.16,754.53,-20.5812,4959.05,14371.3,5635.32,34150.1
1.69,0.0114117,7351.01,632.888,-128.361,4793.08,14311.5,5581.41,34458
1.692,0.0114303,7440.85,511.253,-236.134,4627.11,14251.7,5527.5,34765.8
1.694,0.0114489,7530.7,389.618,-343.908,4461.15,14191.9,5473.6,35073.7
1.696,0.0114676,7620.54,267.982,-451.681,4295.19,14132.1,5419.69,35381.6
1.698,0.0114862,7710.39,146.347,-559.454,4129.22,14072.3,5365.78,35689.5
1.7,0.0115048,7800.24,24.7049,-667.234,3963.25,14012.5,5311.87,35997.4
1.702,0.0115234,7890.08,-96.9302,-775.007,3797.29,13952.7,5257.96,36305.3
1.704,0.011542,7979.93,-218.565,-882.78,3631.32,13892.9,5204.05,36613.2
1.706,0.0115606,8069.77,-340.2,-990.554,3465.36,13833.1,5150.15,36921.1
1.708,0.0115793,8143.91,-439.024,-1086.54,3307.81,13787.3,5083.03,37173.6
1.71,0.0115979,8140.79,-425.598,-1124.51,3191.67,13810.7,4950.9,37153.7
1.712,0.0116165,8153.48,-393.36,-1163.02,3116.03,13821.1,4849.07,37149.7
1.714,0.0116352,8247.58,-264.245,-1204.3,3248.87,13765,4903.17,37227.3
1.716,0.0116538,8341.68,-135.129,-1245.58,3381.71,13708.8,4957.28,37304.9
1.718,0.0116724,8435.79,-6.00586,-1286.86,3514.55,13652.7,5011.39,37382.5
1.72,0.0116911,8529.89,123.11,-1328.14,3647.39,13596.5,5065.49,37460.1
1.722,0.0117097,8623.99,252.225,-1369.42,3780.23,13540.4,5119.6,37537.8
1.724,0.0117284,8718.1,381.341,-1410.7,3913.07,13484.2,5173.71,37615.4
1.726,0.011747,8793.92,506.8,-1449.85,4057.54,13424.6,5214.94,37644.2
1.728,0.0117657,8672.3,592.779,-1465.96,4327.64,13326.8,5117.11,37145.8
1.73,0.0117843,8550.69,678.752,-1482.08,4597.72,13229.1,5019.29,36647.3
1.732,0.0118029,8429.08,764.725,-1498.19,4867.8,13131.4,4921.47,36148.9
1.734,0.0118216,8307.47,850.698,-1514.3,5137.88,13033.6,4823.65,35650.5
1.736,0.0118402,8185.86,936.671,-1530.41,5407.96,12935.9,4725.82,35152.1
1.738,0.0118589,8064.25,1022.65,-1546.53,5678.06,12838.2,4628,34653.6
1.74,0.0118775,7942.64,1108.62,-1562.64,5948.14,12740.5,4530.17,34155.2
1.742,0.0118961,7821.03,1194.59,-1578.75,6218.22,12642.7,4432.35,33656.8
1.744,0.0119148,7699.42,1280.57,-1594.86,6488.3,12545,4334.53,33158.4
1.746,0.0119334,7577.8,1366.55,-1610.98,6758.4,12447.3,4236.7,32660
1.748,0.0119521,7456.19,1452.52,-1627.09,7028.48,12349.6,4138.88,32161.5
1.75,0.0119707,7334.58,1538.49,-1643.2,7298.56,12251.8,4041.06,31663.1
1.752,0.0119894,7212.97,1624.46,-1659.31,7568.64,12154.1,3943.24,31164.7
1.754,0.012008,7091.36,1710.44,-1675.43,7838.72,12056.4,3845.42,30666.3
1.756,0.0120266,6969.74,1796.42,-1691.54,8108.81,11958.7,3747.59,30167.8
1.758,0.0120453,6841.81,1878.02,-1709.12,8356.59,11860.6,3652.47,29676
1.76,0.0120639,6520.14,1826.05,-1771.48,7921.69,11751.6,3639.94,29384.2
1.762,0.0120826,6173.44,1765.93,-1804.15,7460.21,11587,3558.77,29041.7
1.764,0.0121012,5792.16,1694.59,-1795.82,6961.99,11345.6,3382.8,28629.3
1.766,0.0121199,5410.9,1623.25,-1787.49,6463.8,11104.3,3206.84,28217
1.768,0.0121385,5029.64,1551.9,-1779.15,5965.61,10862.9,3030.88,27804.6
1.77,0.0121572,4648.38,1480.56,-1770.82,5467.42,10621.6,2854.92,27392.2
1.772,0.0121758,4267.13,1409.22,-1762.49,4969.23,10380.2,2678.97,26979.9
1.774,0.0121945,3885.84,1337.88,-1754.16,4471.02,10138.8,2503,26567.5
1.776,0.0122131,3756.38,1394.36,-1739.96,4451.32,9990.98,2526.87,26203.4
1.778,0.0122318,3679.78,1477.68,-1724.53,4532.09,9862.76,2592.7,25849.4
1.78,0.0122504,3603.18,1561,-1709.1,4612.87,9734.54,2658.54,25495.4
1.782,0.0122691,3526.59,1644.32,-1693.67,4693.64,9606.32,2724.37,25141.5
1.784,0.0122877,3447.19,1722.84,-1669.99,4788.6,9474.96,2792.11,24795.1
1.786,0.0123064,3358.48,1785.31,-1618.81,4930.84,9333.12,2866.19,24474.4
1.788,0.012325,3269.76,1847.78,-1567.63,5073.08,9191.28,2940.26,24153.7
1.79,0.0123437,3181.05,1910.25,-1516.45,5215.31,9049.44,3014.34,23833
1.792,0.0123623,3092.33,1972.72,-1465.27,5357.56,8907.59,3088.41,23512.3
1.794,0.012381,3003.62,2035.19,-1414.09,5499.8,8765.75,3162.49,23191.5
1.796,0.0123996,2914.91,2097.66,-1362.91,5642.03,8623.91,3236.56,22870.8
1.798,0.0124183,2826.19,2160.13,-1311.73,5784.27,8482.07,3310.64,22550.1
1.8,0.0124369,2737.48,2222.59,-1260.55,5926.51,8340.23,3384.71,22229.4
1.802,0.0124556,2648.76,2285.07,-1209.36,6068.75,8198.39,3458.79,21908.6
1.804,0.0124742,2560.05,2347.54,-1158.18,6210.99,8056.55,3532.87,21587.9
1.806,0.0124929,2471.33,2410,-1107,6353.23,7914.71,3606.94,21267.2
1.808,0.0125115,2380.98,2422.58,-1061.96,6076.58,7798.3,3509.97,20876.8
1.81,0.0125302,2288.75,2378.35,-1023.9,5322.93,7710.86,3218.23,20407
1.812,0.0125489,2196.51,2334.11,-985.841,4569.22,7623.41,2926.46,19937.2
1.814,0.0125675,2104.28,2289.88,-947.783,3815.57,7535.97,2634.72,19467.4
1.816,0.0125862,2012.05,2245.65,-909.724,3061.91,7448.53,2342.97,18997.7
1.818,0.0126048,1919.81,2201.42,-871.666,2308.25,7361.09,2051.23,18527.9
1.82,0.0126235,1827.58,2157.18,-833.606,1554.55,7273.64,1759.46,18058.1
1.822,0.0126422,1735.35,2112.95,-795.547,800.897,7186.2,1467.71,17588.3
1.824,0.0126608,1653.9,2078.89,-770.099,178.139,7104.84,1216.04,17172.8
1.826,0.0126795,1629.28,2098.44,-811.049,244.623,7055.52,1175.36,17042.7
1.828,0.0126982,1604.65,2117.99,-851.998,311.107,7006.21,1134.68,16912.7
1.83,0.0127168,1580.03,2137.53,-892.95,377.595,6956.88,1094,16782.7
1.832,0.0127355,1555.4,2157.08,-933.899,444.079,6907.56,1053.32,16652.6
1.834,0.0127542,1530.78,2176.63,-974.849,510.562,6858.25,1012.64,16522.6
1.836,0.0127728,1506.15,2196.17,-1015.8,577.046,6808.93,971.957,16392.5
1.838,0.0127915,1481.53,2215.72,-1056.75,643.534,6759.6,931.275,16262.5
1.84,0.0128102,1456.9,2235.27,-1097.7,710.018,6710.29,890.594,16132.5
1.842,0.0128288,1450.09,2254.98,-1129.27,864.928,6668.69,870.134,16070.4
1.844,0.0128475,1535.22,2275.53,-1112.45,1476.19,6666.94,954.024,16359
1.846,0.0128661,1620.36,2296.09,-1095.63,2087.45,6665.19,1037.91,16647.6
1.848,0.0128848,1705.49,2316.65,-1078.81,2698.74,6663.44,1121.81,16936.2
1.85,0.0129035,1790.62,2337.2,-1061.99,3310,6661.69,1205.7,17224.8
1.852,0.0129221,1898.83,2222.55,-1105.43,3305.71,6646.92,1245.32,17034.6
1.854,0.0129408,2020.75,2027.57,-1184.67,2935.7,6624.42,1258.65,16560.1
1.856,0.0129595,2142.66,1832.59,-1263.92,2565.69,6601.92,1271.98,16085.5
1.858,0.0129781,2264.59,1637.59,-1343.16,2195.66,6579.41,1285.31,15610.9
1.86,0.0129968,2491.19,1551.6,-1363.61,2480.41,6489.41,1594.47,15450.7
1.862,0.0130155,2726.8,1474.98,-1379,2821.42,6393.61,1929.04,15317.6
1.864,0.0130341,2962.4,1398.35,-1394.4,3162.42,6297.8,2263.62,15184.5
1.866,0.0130528,3198.01,1321.72,-1409.8,3503.45,6202,2598.21,15051.3
1.868,0.0130715,3256.98,1269.6,-1342.38,3448.48,6079.12,2672.48,14798.9
1.87,0.0130901,3259.51,1225.3,-1248.5,3266.98,5947.6,2663.59,14508.4
1.872,0.0131088,3262.03,1181.01,-1154.63,3085.49,5816.07,2654.69,14217.8
1.874,0.0131274,3264.56,1136.71,-1060.75,2904,5684.55,2645.79,13927.3
1.876,0.0131461,3267.09,1092.42,-966.866,2722.49,5553.02,2636.89,13636.7
1.878,0.0131648,3333.59,1051.53,-920.117,2722.1,5486.41,2640.84,13521
1.88,0.0131835,3405.64,1010.93,-877.455,2737.41,5425.42,2645.9,13420.4
1.882,0.0132021,3477.69,970.336,-834.793,2752.71,5364.44,2650.95,13319.8
1.884,0.0132208,3549.74,929.741,-792.131,2768.02,5303.46,2656.01,13219.2
1.886,0.0132395,3621.79,889.143,-749.467,2783.33,5242.48,2661.07,13118.6
1.888,0.0132581,3693.84,848.548,-706.804,2798.64,5181.5,2666.13,13018
1.89,0.0132768,3765.89,807.953,-664.142,2813.95,5120.52,2671.19,12917.4
1.892,0.0132955,3837.94,767.357,-621.48,2829.26,5059.54,2676.24,12816.8
1.894,0.0133142,3909.99,726.76,-578.816,2844.57,4998.55,2681.3,12716.1
1.896,0.0133328,3982.04,686.165,-536.154,2859.87,4937.57,2686.36,12615.5
1.898,0.0133515,4054.09,645.569,-493.491,2875.18,4876.59,2691.42,12514.9
1.9,0.0133702,4126.14,604.974,-450.829,2890.49,4815.61,2696.47,12414.3
1.902,0.0133888,4198.19,564.379,-408.167,2905.8,4754.63,2701.53,12313.7
1.904,0.0134075,4270.24,523.781,-365.503,2921.11,4693.64,2706.59,12213.1
1.906,0.0134262,4342.29,483.186,-322.84,2936.42,4632.66,2711.65,12112.5
1.908,0.0134449,4414.34,442.591,-280.178,2951.72,4571.68,2716.71,12011.9
1.91,0.0134635,4486.39,401.996,-237.516,2967.03,4510.7,2721.76,11911.3
1.912,0.0134822,4555.91,394.088,-207.069,3022.23,4431.13,2741.32,11819.5
1.914,0.0135009,4625.33,387.487,-177.109,3079.02,4350.8,2761.46,11727.9
1.916,0.0135195,4694.74,380.886,-147.151,3135.81,4270.48,2781.6,11636.4
1.918,0.0135382,4764.16,374.285,-117.192,3192.6,4190.17,2801.73,11544.8
1.92,0.0135569,4833.58,367.684,-87.2337,3249.38,4109.85,2821.87,11453.3
1.922,0.0135756,4903,361.083,-57.2734,3306.18,4029.53,2842.01,11361.8
1.924,0.0135942,4972.41,354.482,-27.3149,3362.96,3949.21,2862.15,11270.2
1.926,0.0136129,5041.83,347.881,2.64355,3419.75,3868.89,2882.28,11178.7
1.928,0.0136316,5111.24,341.28,32.602,3476.54,3788.57,2902.42,11087.2
1.93,0.0136502,5180.66,334.679,62.5605,3533.33,3708.25,2922.56,10995.6
1.932,0.0136689,5250.08,328.078,92.5208,3590.12,3627.93,2942.7,10904.1
1.934,0.0136876,5287.81,338.48,129.916,3642.35,3563.24,2954.29,10816.8
1.936,0.0137063,5306.27,359.22,171.831,3691.82,3508.04,2960.7,10732.1
1.938,0.0137249,5324.73,379.959,213.747,3741.28,3452.84,2967.1,10647.4
1.94,0.0137436,5343.19,400.699,255.665,3790.75,3397.64,2973.51,10562.6
1.942,0.0137623,5372.54,467.017,309.198,3714.39,3324.41,2961.84,10467.4
1.944,0.0137809,5407.25,555.787,368.454,3576.05,3242.29,2941.26,10366.8
1.946,0.0137996,5441.97,644.557,427.711,3437.71,3160.18,2920.68,10266.3
1.948,0.0138183,5476.68,733.327,486.967,3299.38,3078.07,2900.11,10165.8
1.95,0.0138369,5511.39,822.102,546.227,3161.03,2995.95,2879.53,10065.3
1.952,0.0138556,5546.1,910.872,605.484,3022.69,2913.84,2858.95,9964.82
1.954,0.0138743,5580.81,999.642,664.74,2884.36,2831.72,2838.37,9864.31
1.956,0.013893,5615.52,1088.41,723.997,2746.02,2749.61,2817.8,9763.8
1.958,0.0139116,5650.23,1177.18,783.253,2607.68,2667.5,2797.22,9663.3
1.96,0.0139303,5684.95,1265.96,842.513,2469.34,2585.38,2776.64,9562.79
1.962,0.013949,5714.06,1354.39,904.193,2359.21,2504.06,2757.85,9459.86
1.964,0.0139677,5713.79,1441.04,978.613,2397.38,2426.9,2748.47,9344.19
1.966,0.0139863,5713.52,1527.69,1053.03,2435.54,2349.75,2739.08,9228.53
1.968,0.014005,5713.25,1614.34,1127.46,2473.7,2272.59,2729.7,9112.86
1.97,0.0140237,5712.97,1700.99,1201.88,2511.86,2195.43,2720.32,8997.19
1.972,0.0140424,5712.7,1787.64,1276.3,2550.03,2118.27,2710.93,8881.53
1.974,0.014061,5712.43,1874.29,1350.72,2588.19,2041.12,2701.55,8765.87
1.976,0.0140797,5707.92,1896.33,1361.12,2505.65,2011.69,2678.49,8675.36
1.978,0.0140984,5701.87,1894.86,1348.21,2379.17,1999.64,2650.45,8594.01
1.98,0.014117,5695.81,1893.38,1335.3,2252.69,1987.58,2622.4,8512.67
1.982,0.0141357,5689.76,1891.91,1322.39,2126.21,1975.53,2594.36,8431.33
1.984,0.0141544,5683.71,1890.43,1309.48,1999.73,1963.48,2566.32,8349.99
1.986,0.0141731,5677.65,1888.96,1296.58,1873.25,1951.43,2538.28,8268.64
1.988,0.0141917,5716.21,1846.16,1305.83,1787.46,1932.96,2521.44,8188.17
1.99,0.0142104,5867.37,1699.09,1371.03,1804.39,1898.29,2532.88,8109.91
1.992,0.0142291,6018.53,1552.01,1436.23,1821.32,1863.62,2544.31,8031.65
1.994,0.0142478,6169.69,1404.94,1501.43,1838.25,1828.95,2555.75,7953.39
1.996,0.0142664,6320.86,1257.85,1566.63,1855.18,1794.28,2567.18,7875.13
1.998,0.0142851,6472.02,1110.77,1631.83,1872.1,1759.61,2578.62,7796.87
2,0.0143038,6623.18,963.698,1697.03,1889.03,1724.94,2590.05,7718.61
