"arc_length","Displacement_Magnitude","Sxx","Sxy","Sxz","Syy","Syz","Szz","Von_Mises_Stress"
0,0,1.34887e+06,-84280.8,-9327.02,2.68431e+06,373939,1.18993e+06,1.57472e+06
0.002,1.93397e-06,1.28479e+06,-77652,-8288.45,2.58954e+06,345046,1.10489e+06,1.53952e+06
0.004,3.07859e-06,1.24905e+06,-74735.2,-7127.46,2.52843e+06,329893,1.0623e+06,1.51716e+06
0.006,4.01084e-06,1.22257e+06,-73031.1,-5926.46,2.47832e+06,319230,1.03357e+06,1.49899e+06
0.008,4.96811e-06,1.19608e+06,-71327,-4725.47,2.42821e+06,308566,1.00485e+06,1.48083e+06
0.01,5.93833e-06,1.1696e+06,-69622.9,-3524.48,2.3781e+06,297902,976127,1.46267e+06
0.012,6.91605e-06,1.14311e+06,-67918.7,-2323.49,2.32799e+06,287238,947404,1.4445e+06
0.014,7.89848e-06,1.11663e+06,-66214.6,-1122.49,2.27788e+06,276574,918681,1.42634e+06
0.016,8.8448e-06,1.09014e+06,-64002.2,388.404,2.22663e+06,267106,891606,1.40829e+06
0.018,9.69358e-06,1.06365e+06,-60508.4,2680.59,2.17247e+06,260654,868685,1.39056e+06
0.02,1.05431e-05,1.03717e+06,-57014.6,4972.79,2.11832e+06,254201,845763,1.37282e+06
0.022,1.13932e-05,1.01068e+06,-53520.8,7264.98,2.06416e+06,247749,822842,1.35509e+06
0.024,1.22437e-05,984186,-50026.9,9557.17,2.01001e+06,241296,799920,1.33735e+06
0.026,1.30946e-05,957697,-46533.1,11849.4,1.95586e+06,234844,776999,1.31961e+06
0.028,1.39457e-05,931207,-43039.3,14141.6,1.9017e+06,228392,754077,1.30188e+06
0.03,1.47972e-05,904718,-39545.5,16433.7,1.84755e+06,221939,731156,1.28414e+06
0.032,1.56488e-05,878228,-36051.7,18725.9,1.79339e+06,215487,708234,1.2664e+06
0.034,1.65006e-05,851739,-32557.9,21018.1,1.73924e+06,209034,685313,1.24867e+06
0.036,1.73525e-05,825249,-29064.1,23310.3,1.68509e+06,202582,662391,1.23093e+06
0.038,1.82045e-05,798760,-25570.3,25602.5,1.63093e+06,196129,639470,1.2132e+06
0.04,1.90567e-05,772271,-22076.5,27894.7,1.57678e+06,189677,616548,1.19546e+06
0.042,1.9909e-05,745781,-18582.6,30186.9,1.52262e+06,183225,593627,1.17772e+06
0.044,2.07613e-05,719292,-15088.8,32479.1,1.46847e+06,176772,570705,1.15999e+06
0.046,2.16137e-05,692802,-11595,34771.3,1.41432e+06,170320,547784,1.14225e+06
0.048,2.24662e-05,666313,-8101.21,37063.5,1.36016e+06,163867,524862,1.12452e+06
0.05,2.46174e-05,634446,-5407.36,40365.7,1.32272e+06,163365,486506,1.13052e+06
0.052,2.72372e-05,600641,-3002.02,44032.2,1.29131e+06,165008,442584,1.14509e+06
0.054,2.98574e-05,566835,-596.675,47698.7,1.2599e+06,166652,398661,1.15966e+06
0.056,3.24778e-05,533029,1808.67,51365.2,1.22849e+06,168295,354738,1.17423e+06
0.058,3.50983e-05,499224,4214,55031.7,1.19708e+06,169939,310816,1.1888e+06
0.06,3.77191e-05,465418,6619.34,58698.2,1.16567e+06,171582,266893,1.20337e+06
0.062,4.03399e-05,431612,9024.68,62364.7,1.13426e+06,173225,222971,1.21795e+06
0.064,4.27771e-05,426727,8314.72,62644.4,1.12729e+06,178409,219756,1.22147e+06
0.066,4.52472e-05,423945,7378.11,62677.7,1.1221e+06,183849,219504,1.2242e+06
0.068,4.7758e-05,421163,6441.49,62711.1,1.11691e+06,189290,219251,1.22692e+06
0.07,5.03034e-05,418381,5504.88,62744.4,1.11172e+06,194731,218999,1.22965e+06
0.072,5.28759e-05,412162,2235.7,62775.7,1.10144e+06,193896,206296,1.22987e+06
0.074,5.54634e-05,405388,-1409.8,62806.8,1.09034e+06,192049,191584,1.22968e+06
0.076,5.80637e-05,398614,-5055.28,62837.8,1.07925e+06,190202,176873,1.22949e+06
0.078,6.0675e-05,391840,-8700.78,62868.9,1.06815e+06,188354,162162,1.2293e+06
0.08,6.32961e-05,385066,-12346.3,62899.9,1.05705e+06,186507,147451,1.22911e+06
0.082,6.59257e-05,378292,-15991.8,62931,1.04595e+06,184660,132739,1.22892e+06
0.084,6.85629e-05,371517,-19637.3,62962.1,1.03485e+06,182812,118028,1.22873e+06
0.086,7.12069e-05,364743,-23282.8,62993.1,1.02375e+06,180965,103317,1.22854e+06
0.088,7.38547e-05,359442,-26514.6,62752,1.0145e+06,179983,90748.8,1.22997e+06
0.09,7.64999e-05,362082,-27516.9,61044.3,1.01519e+06,183665,89734.7,1.24017e+06
0.092,7.91549e-05,364721,-28519.2,59336.6,1.01589e+06,187346,88720.7,1.25037e+06
0.094,8.18188e-05,367360,-29521.5,57628.9,1.01658e+06,191027,87706.6,1.26057e+06
0.096,8.44909e-05,369999,-30523.9,55921.1,1.01728e+06,194709,86692.5,1.27077e+06
0.098,8.71702e-05,372638,-31526.2,54213.4,1.01797e+06,198390,85678.4,1.28097e+06
0.1,9.01662e-05,380295,-33219.4,53085.8,1.03177e+06,202246,86566.7,1.29995e+06
0.102,9.41648e-05,404123,-37139.5,53828.2,1.08781e+06,206660,93586.3,1.34725e+06
0.104,9.81652e-05,427952,-41059.5,54570.5,1.14384e+06,211075,100606,1.39456e+06
0.106,0.000102167,451780,-44979.6,55312.9,1.19988e+06,215490,107626,1.44186e+06
0.108,0.000106171,475609,-48899.6,56055.2,1.25592e+06,219905,114645,1.48916e+06
0.11,0.000110175,499438,-52819.7,56797.6,1.31195e+06,224320,121665,1.53646e+06
0.112,0.000114181,523266,-56739.7,57539.9,1.36799e+06,228735,128685,1.58377e+06
0.114,0.000118188,547095,-60659.8,58282.3,1.42402e+06,233150,135704,1.63107e+06
0.116,0.000122379,540330,-60937.8,56733.9,1.40537e+06,234161,134199,1.61823e+06
0.118,0.000126765,501020,-57341.7,52748.8,1.30727e+06,231551,123625,1.54142e+06
0.12,0.000131152,461711,-53745.5,48763.7,1.20917e+06,228940,113051,1.4646e+06
0.122,0.00013554,422401,-50149.3,44778.6,1.11107e+06,226330,102477,1.38779e+06
0.124,0.000139927,383091,-46553.2,40793.5,1.01297e+06,223719,91903,1.31097e+06
0.126,0.000144316,343782,-42957,36808.4,914872,221109,81329.1,1.23416e+06
0.128,0.000148704,304472,-39360.8,32823.3,816771,218498,70755.1,1.15735e+06
0.13,0.000153093,265163,-35764.7,28838.2,718671,215888,60181.2,1.08053e+06
0.132,0.000157784,250267,-35469.8,26085.2,679962,214128,56008,1.0532e+06
0.134,0.000162666,249814,-37128,24061.1,676391,212872,55621.6,1.05514e+06
0.136,0.000167562,249361,-38786.3,22037,672819,211615,55235.3,1.05709e+06
0.138,0.000172471,248908,-40444.5,20012.9,669247,210359,54848.9,1.05903e+06
0.14,0.000177392,248455,-42102.7,17988.8,665675,209102,54462.5,1.06097e+06
0.142,0.000182323,248003,-43761,15964.7,662103,207846,54076.1,1.06292e+06
0.144,0.000187264,247550,-45419.2,13940.7,658532,206590,53689.7,1.06486e+06
0.146,0.000192215,247097,-47077.4,11916.6,654960,205333,53303.3,1.0668e+06
0.148,0.000197174,246644,-48735.7,9892.48,651388,204077,52917,1.06874e+06
0.15,0.000202141,246191,-50393.9,7868.39,647816,202820,52530.6,1.07069e+06
0.152,0.000207115,245739,-52052.1,5844.32,644244,201564,52144.2,1.07263e+06
0.154,0.000212096,245286,-53710.4,3820.23,640673,200307,51757.8,1.07457e+06
0.156,0.000217083,244833,-55368.6,1796.14,637101,199051,51371.4,1.07652e+06
0.158,0.000222076,244380,-57026.8,-227.945,633529,197795,50985,1.07846e+06
0.16,0.000227075,243927,-58685.1,-2252.02,629957,196538,50598.7,1.0804e+06
0.162,0.000232079,243475,-60343.3,-4276.11,626385,195282,50212.3,1.08234e+06
0.164,0.000237088,243022,-62001.5,-6300.2,622814,194025,49825.9,1.08429e+06
0.166,0.000242101,242569,-63659.8,-8324.27,619242,192769,49439.5,1.08623e+06
0.168,0.000247118,242116,-65318,-10348.4,615670,191513,49053.1,1.08817e+06
0.17,0.000252139,241663,-66976.2,-12372.4,612098,190256,48666.8,1.09012e+06
0.172,0.000257165,241210,-68634.5,-14396.5,608526,189000,48280.4,1.09206e+06
0.174,0.000262075,243093,-69797.4,-12627,615113,187753,47660.7,1.0902e+06
0.176,0.000266923,246252,-70689.8,-8784.57,627250,186511,46913.6,1.08626e+06
0.178,0.000272359,246499,-70575.9,-10655.1,629009,184744,48647,1.07268e+06
0.18,0.000278356,245165,-69733.2,-17418,624794,182467,53237.8,1.05389e+06
0.182,0.00028471,255559,-70883.5,-21374.7,658507,179773,64873.5,1.07427e+06
0.184,0.000291065,265953,-72033.9,-25331.4,692220,177079,76509.3,1.09465e+06
0.186,0.000297422,276348,-73184.2,-29288.1,725933,174385,88145.1,1.11503e+06
0.188,0.000303779,286742,-74334.5,-33244.7,759645,171691,99780.8,1.13541e+06
0.19,0.000310137,297136,-75484.9,-37201.4,793358,168997,111417,1.15579e+06
0.192,0.000316496,307530,-76635.2,-41158.1,827071,166304,123052,1.17617e+06
0.194,0.000322856,317924,-77785.6,-45114.8,860784,163610,134688,1.19655e+06
0.196,0.000329216,328318,-78935.9,-49071.5,894496,160916,146324,1.21692e+06
0.198,0.000335809,332535,-77843.9,-49583.3,903985,158100,150577,1.21521e+06
0.2,0.00034249,334508,-75937.2,-48843.6,904673,155240,152149,1.20546e+06
0.202,0.000349175,336481,-74030.5,-48103.9,905360,152381,153720,1.19572e+06
0.204,0.000355863,338454,-72123.9,-47364.2,906048,149521,155291,1.18597e+06
0.206,0.000362555,340426,-70217.2,-46624.4,906736,146661,156863,1.17623e+06
0.208,0.00036925,342399,-68310.5,-45884.7,907423,143801,158434,1.16649e+06
0.21,0.000375948,344372,-66403.8,-45145,908111,140941,160005,1.15674e+06
0.212,0.000382649,346345,-64497.2,-44405.3,908798,138082,161576,1.147e+06
0.214,0.000389353,348318,-62590.5,-43665.5,909486,135222,163148,1.13725e+06
0.216,0.000396059,350291,-60683.8,-42925.8,910174,132362,164719,1.12751e+06
0.218,0.000402768,352263,-58777.1,-42186.1,910861,129502,166290,1.11776e+06
0.22,0.00040948,354236,-56870.4,-41446.4,911549,126642,167862,1.10802e+06
0.222,0.000416193,356209,-54963.8,-40706.7,912237,123783,169433,1.09827e+06
0.224,0.000422909,358182,-53057.1,-39966.9,912924,120923,171004,1.08853e+06
0.226,0.00043013,345754,-49935,-31634.8,895018,117742,165116,1.07764e+06
0.228,0.000437363,332988,-46784.5,-23124.4,876675,114554,159053,1.06673e+06
0.23,0.000444597,320222,-43633.9,-14613.9,858332,111366,152989,1.05582e+06
0.232,0.000451831,307456,-40483.3,-6103.58,839989,108177,146926,1.0449e+06
0.234,0.000459065,294690,-37332.7,2406.84,821646,104989,140863,1.03399e+06
0.236,0.0004663,281924,-34182.1,10917.3,803302,101801,134799,1.02307e+06
0.238,0.000473535,269158,-31031.6,19427.7,784959,98612.5,128736,1.01216e+06
0.24,0.000481035,266545,-30637.6,25203.9,778642,97443.3,127830,1.02773e+06
0.242,0.000488595,266126,-30839.5,30389.2,774925,96710.5,128038,1.04903e+06
0.244,0.000496157,265708,-31041.5,35574.4,771208,95977.8,128247,1.07033e+06
0.246,0.000503721,265289,-31243.4,40759.7,767490,95245,128456,1.09163e+06
0.248,0.000511288,264871,-31445.4,45944.9,763773,94512.3,128664,1.11293e+06
0.25,0.000518856,264453,-31647.4,51130.1,760056,93779.5,128873,1.13423e+06
0.252,0.000526426,264034,-31849.3,56315.4,756338,93046.8,129082,1.15552e+06
0.254,0.000533998,263616,-32051.3,61500.6,752621,92314.1,129290,1.17682e+06
0.256,0.000541571,263198,-32253.2,66685.8,748904,91581.3,129499,1.19812e+06
0.258,0.000549146,262779,-32455.2,71871,745186,90848.6,129708,1.21942e+06
0.26,0.000556723,262361,-32657.1,77056.2,741469,90115.8,129916,1.24072e+06
0.262,0.00056474,257045,-29952.8,79742.5,737407,94264.4,129551,1.25138e+06
0.264,0.000572843,250770,-26679,81939,733278,99369.4,129073,1.25995e+06
0.266,0.000580946,244494,-23405.1,84135.6,729149,104474,128594,1.26852e+06
0.268,0.000589049,238219,-20131.3,86332.1,725019,109579,128116,1.27709e+06
0.27,0.000597153,231944,-16857.5,88528.7,720890,114684,127638,1.28567e+06
0.272,0.000605257,225668,-13583.6,90725.2,716761,119789,127160,1.29424e+06
0.274,0.000613451,220558,-10177,92309.4,712848,124310,126784,1.30079e+06
0.276,0.000622059,220850,-6154.18,91054.7,709938,126123,126880,1.29794e+06
0.278,0.000630668,221141,-2131.38,89800.1,707029,127936,126976,1.2951e+06
0.28,0.000639278,221432,1891.41,88545.5,704119,129749,127072,1.29226e+06
0.282,0.00064825,227813,4871.7,85145.1,715512,126708,125624,1.27142e+06
0.284,0.000657363,236550,7448.71,80914.7,732438,121789,123579,1.24361e+06
0.286,0.000666475,245287,10025.7,76684.3,749364,116870,121535,1.21581e+06
0.288,0.000675588,254024,12602.7,72453.9,766289,111951,119490,1.18801e+06
0.29,0.0006847,262761,15179.7,68223.5,783215,107032,117445,1.16021e+06
0.292,0.000693814,271497,17756.7,63993.1,800141,102113,115401,1.1324e+06
0.294,0.000703014,275537,17271.8,59566.2,816015,101586,114993,1.11218e+06
0.296,0.000712231,278812,16288.3,55107.4,831719,101773,114851,1.0932e+06
0.298,0.000721449,282087,15304.9,50648.5,847422,101960,114710,1.07421e+06
0.3,0.000730669,285362,14321.5,46189.7,863126,102147,114568,1.05523e+06
0.302,0.00073989,288637,13338,41730.9,878829,102334,114426,1.03624e+06
0.304,0.000749113,291913,12354.6,37272,894532,102521,114285,1.01726e+06
0.306,0.000758337,295188,11371.2,32813.2,910236,102708,114143,998270
0.308,0.000767563,298463,10387.7,28354.3,925939,102895,114002,979284
0.31,0.00077679,301738,9404.27,23895.5,941643,103082,113860,960298
0.312,0.000786036,305007,8341.52,19169,956739,103292,113896,941770
0.314,0.000795781,308119,5091.41,7059.35,955096,104142,118809,935844
0.316,0.000805527,311231,1841.3,-5050.25,953453,104991,123723,929919
0.318,0.000815273,314343,-1408.76,-17159.7,951811,105841,128636,923993
0.32,0.000825019,317456,-4658.87,-29269.3,950168,106690,133549,918068
0.322,0.000834765,320568,-7908.97,-41378.9,948525,107540,138463,912142
0.324,0.000844512,323680,-11159.1,-53488.5,946882,108389,143376,906217
0.326,0.000854284,326156,-14154.3,-64230.9,943306,108987,148035,903061
0.328,0.000864279,323064,-14917.8,-63005.5,922808,107374,150463,924147
0.33,0.000874275,319972,-15681.3,-61780,902310,105761,152891,945234
0.332,0.000884271,316880,-16444.9,-60554.7,881813,104148,155319,966321
0.334,0.000894269,313788,-17208.4,-59329.2,861315,102535,157746,987407
0.336,0.000904268,310696,-17972,-58103.8,840818,100922,160174,1.00849e+06
0.338,0.000914268,307605,-18735.5,-56878.4,820320,99309.6,162602,1.02958e+06
0.34,0.000924269,304513,-19499.1,-55653,799823,97696.7,165030,1.05067e+06
0.342,0.00093427,301421,-20262.6,-54427.6,779325,96083.9,167458,1.07175e+06
0.344,0.000944273,298329,-21026.2,-53202.2,758827,94471,169886,1.09284e+06
0.346,0.000954277,295237,-21789.7,-51976.8,738330,92858.2,172313,1.11393e+06
0.348,0.000964483,288893,-21974.8,-48974.6,718154,91738.2,171481,1.1205e+06
0.35,0.000975053,276698,-21118.9,-42775,698558,91505,164782,1.10094e+06
0.352,0.000985622,264503,-20263,-36575.5,678961,91271.8,158082,1.08138e+06
0.354,0.000996192,252308,-19407.1,-30375.9,659364,91038.7,151383,1.06182e+06
0.356,0.00100676,240113,-18551.2,-24176.3,639768,90805.5,144684,1.04226e+06
0.358,0.00101733,227918,-17695.3,-17976.7,620171,90572.3,137985,1.0227e+06
0.36,0.0010279,215723,-16839.4,-11777.2,600575,90339.1,131285,1.00315e+06
0.362,0.00103847,203528,-15983.5,-5577.67,580978,90106,124586,983588
0.364,0.00104924,202140,-16084.3,-4049.06,584840,88061.6,122563,974768
0.366,0.00106004,202740,-16361.2,-3379.69,593018,85684.1,121401,967924
0.368,0.00107084,203339,-16638,-2710.33,601195,83306.6,120239,961080
0.37,0.00108164,203939,-16914.9,-2040.97,609372,80929.2,119076,954236
0.372,0.00109244,204539,-17191.7,-1371.6,617550,78551.7,117914,947392
0.374,0.00110324,205139,-17468.6,-702.24,625727,76174.2,116752,940548
0.376,0.00111405,205739,-17745.4,-32.8869,633905,73796.7,115590,933704
0.378,0.00112485,206338,-18022.3,636.476,642082,71419.2,114427,926860
0.38,0.00113566,206938,-18299.1,1305.84,650259,69041.7,113265,920016
0.382,0.00114649,208289,-18720.1,1823.53,661666,67255.3,112840,910087
0.384,0.00115737,212113,-19615.5,1841.65,683709,67415.8,114846,889996
0.386,0.00116826,215937,-20511,1859.78,705751,67576.3,116852,869905
0.388,0.00117914,219761,-21406.4,1877.91,727794,67736.8,118858,849814
0.39,0.00119003,223586,-22301.9,1896.03,749836,67897.3,120864,829723
0.392,0.00120092,227410,-23197.4,1914.16,771879,68057.8,122869,809632
0.394,0.00121207,229659,-23600.6,2495.17,788604,68694.5,125692,793186
0.396,0.00122376,228670,-22992.4,4232.95,794402,70309.8,130194,784231
0.398,0.00123545,227681,-22384.1,5970.74,800200,71925.1,134696,775275
0.4,0.00124714,226692,-21775.8,7708.53,805998,73540.3,139198,766320
0.402,0.00125884,225703,-21167.6,9446.31,811796,75155.6,143700,757365
0.404,0.00127053,224714,-20559.3,11184.1,817593,76770.9,148202,748409
0.406,0.00128222,223725,-19951,12921.9,823391,78386.1,152704,739454
0.408,0.00129391,222736,-19342.8,14659.6,829189,80001.4,157206,730498
0.41,0.00130572,216344,-17872.8,15870.9,823468,81074.2,157599,732693
0.412,0.00131783,204582,-16144.7,15031.2,793173,79338.3,150643,753002
0.414,0.00132994,192821,-14416.7,14191.5,762877,77602.4,143687,773312
0.416,0.00134206,181059,-12688.7,13351.8,732581,75866.5,136731,793621
0.418,0.00135417,169297,-10960.7,12512.1,702285,74130.6,129774,813931
0.42,0.00136629,157536,-9232.69,11672.5,671990,72394.7,122818,834240
0.422,0.00137841,145774,-7504.68,10832.8,641694,70658.8,115862,854549
0.424,0.00139052,134012,-5776.66,9993.08,611398,68922.9,108906,874859
0.426,0.00140264,122251,-4048.64,9153.39,581102,67187,101950,895168
0.428,0.00141476,110489,-2320.63,8313.69,550806,65451.1,94993.4,915478
0.43,0.00142688,98727.4,-592.611,7474,520510,63715.2,88037.1,935787
0.432,0.00143897,91113.4,-1020.35,5988.36,491227,61359.9,84292.5,945167
0.434,0.00145103,87098.1,-3318.44,3942.33,462821,58467.1,83334.3,945066
0.436,0.00146309,83082.7,-5616.56,1896.26,434415,55574.3,82376.1,944964
0.438,0.00147515,79067.3,-7914.69,-149.801,406009,52681.5,81417.8,944862
0.44,0.00148722,75051.9,-10212.8,-2195.87,377603,49788.7,80459.6,944760
0.442,0.00149928,71036.5,-12510.9,-4241.93,349197,46895.9,79501.4,944658
0.444,0.00151164,73689.1,-20619.2,-5978.12,336214,42712.4,81287.8,941295
0.446,0.00152425,81811.3,-33493.3,-7460.13,335882,37470.1,85325.5,935257
0.448,0.00153685,89933.4,-46367.4,-8942.13,335549,32227.8,89363.2,929219
0.45,0.00154946,98055.4,-59241.2,-10424.1,335217,26985.6,93400.8,923181
0.452,0.00156255,105277,-58508.3,-8169.39,360045,27148.9,99013.3,911863
0.454,0.00157568,112429,-56723.8,-5625.88,386816,27730,104748,900136
0.456,0.00158881,119582,-54939.3,-3082.38,413588,28311.1,110482,888409
0.458,0.00160194,126734,-53154.8,-538.867,440360,28892.2,116216,876682
0.46,0.00161507,133886,-51370.3,2004.64,467132,29473.2,121950,864955
0.462,0.0016282,141038,-49585.9,4548.15,493904,30054.3,127684,853229
0.464,0.00164133,148190,-47801.4,7091.62,520675,30635.4,133418,841502
0.466,0.00165447,155343,-46016.9,9635.13,547447,31216.5,139153,829775
0.468,0.0016676,162495,-44232.4,12178.6,574219,31797.6,144887,818048
0.47,0.00168073,169647,-42447.9,14722.1,600991,32378.7,150621,806322
0.472,0.00169386,176799,-40663.4,17265.7,627762,32959.8,156355,794595
0.474,0.001707,183952,-38878.9,19809.2,654534,33540.8,162089,782868
0.476,0.00172013,191104,-37094.5,22352.7,681306,34121.9,167824,771141
0.478,0.00173322,197499,-32424.1,25175.1,705450,35117.4,174023,756654
0.48,0.00174625,202891,-23932.1,28366.9,726115,36661.6,180840,738510
0.482,0.00175929,208283,-15440.1,31558.8,746780,38205.7,187657,720367
0.484,0.00177232,213675,-6948.05,34750.6,767445,39749.9,194473,702223
0.486,0.00178535,219067,1543.96,37942.5,788110,41294.1,201290,684080
0.488,0.00179853,219710,10237.4,40143.2,801433,40946.2,203345,672982
0.49,0.00181205,209470,19392.4,40072.2,797928,36261.2,194488,678035
0.492,0.00182557,199230,28547.4,40001.2,794423,31576.2,185630,683088
0.494,0.00183908,188990,37702.3,39930.3,790918,26891.4,176773,688141
0.496,0.0018526,178750,46857.3,39859.3,787412,22206.4,167916,693194
0.498,0.00186612,168510,56012.3,39788.3,783907,17521.4,159058,698247
0.5,0.00187985,160103,60164,39242.9,780406,14851.3,149887,703052
0.502,0.00189374,153461,59453,37722,777074,13229.1,140633,708822
0.504,0.00190757,148613,53535.4,32311.2,774838,7693.37,132529,722291
0.506,0.00192139,144125,47984.6,27210.3,772348,2547.64,124855,734882
0.508,0.00193512,142652,45504.1,24704,767733,667.299,120782,740109
0.51,0.00194885,141179,43023.6,22197.6,763118,-1212.99,116709,745336
0.512,0.00196258,139706,40543.1,19691.3,758502,-3093.34,112635,750563
0.514,0.0019763,138233,38062.7,17184.9,753887,-4973.63,108562,755790
0.516,0.00199003,136760,35582.3,14678.6,749272,-6853.91,104489,761017
0.518,0.00200376,135287,33101.7,12172.2,744657,-8734.26,100416,766244
0.52,0.00201749,133814,30621.3,9665.93,740041,-10614.5,96342.3,771471
0.522,0.00203122,132341,28140.8,7159.54,735426,-12494.9,92268.9,776698
0.524,0.00204495,130868,25660.4,4653.23,730811,-14375.2,88195.6,781925
0.526,0.00205868,129395,23179.9,2146.84,726196,-16255.5,84122.3,787152
0.528,0.00207249,127997,21657.6,784.73,722732,-16821,80875.9,792498
0.53,0.00208665,126918,24171.5,4242.57,724122,-11847.9,81112.8,798343
0.532,0.00210081,125838,26685.5,7700.52,725512,-6874.71,81349.7,804188
0.534,0.00211497,124758,29199.5,11158.4,726901,-1901.62,81586.6,810033
0.536,0.00212913,123679,31713.5,14616.3,728291,3071.61,81823.6,815878
0.538,0.00214328,122599,34227.4,18074.2,729681,8044.7,82060.5,821723
0.54,0.00215745,121646,36597.9,21474.6,730431,12959.7,82347.5,826627
0.542,0.00217176,123015,36323.8,23816,719397,16802.4,83557.1,814190
0.544,0.00218636,124007,33666.8,23584.3,703427,19885.5,84455.2,801094
0.546,0.0022012,124708,29166.9,21362.6,683641,22380.9,85112.3,787490
0.548,0.00221603,125409,24666.9,19140.8,663854,24876.3,85769.3,773887
0.55,0.00223087,126109,20166.9,16919,644067,27371.7,86426.4,760282
0.552,0.0022457,126810,15666.9,14697.2,624280,29867.1,87083.5,746678
0.554,0.00226054,127511,11166.9,12475.4,604493,32362.6,87740.6,733074
0.556,0.00227556,127533,9314.83,15084.9,599622,33293.7,87359.8,757970
0.558,0.00229063,127395,8086.83,18833.3,598267,33856.2,86734.3,791941
0.56,0.0023057,127258,6858.86,22581.5,596912,34418.6,86108.9,825911
0.562,0.00232077,127121,5630.89,26329.7,595557,34981.1,85483.5,859881
0.564,0.00233584,126983,4402.89,30078,594202,35543.5,84858.1,893852
0.566,0.00235091,126846,3174.92,33826.2,592848,36106,84232.6,927822
0.568,0.00236599,126708,1946.92,37574.5,591493,36668.4,83607.2,961793
0.57,0.00238106,126571,718.954,41322.7,590138,37230.9,82981.8,995763
0.572,0.00239613,126433,-509.049,45071,588783,37793.3,82356.4,1.02973e+06
0.574,0.00241137,125170,-1111.67,49371.5,574189,37773.6,77884.7,1.04283e+06
0.576,0.00242675,121789,-2058.87,53828.1,568715,37732.1,77496.2,1.04176e+06
0.578,0.00244214,118232,-3100.14,58259.9,565462,37735,77933.7,1.04059e+06
0.58,0.00245753,114675,-4141.38,62691.6,562209,37737.8,78371.1,1.03943e+06
0.582,0.00247292,111118,-5182.65,67123.4,558956,37740.7,78808.6,1.03826e+06
0.584,0.00248831,107561,-6223.89,71555,555703,37743.5,79246.1,1.0371e+06
0.586,0.00250369,104004,-7265.17,75986.8,552450,37746.4,79683.6,1.03593e+06
0.588,0.00251908,100447,-8306.41,80418.5,549197,37749.2,80121.1,1.03477e+06
0.59,0.00253447,96890.5,-9347.65,84850.1,545944,37752.1,80558.5,1.0336e+06
0.592,0.00254986,93333.6,-10388.9,89281.9,542691,37754.9,80996,1.03243e+06
0.594,0.00256525,89776.7,-11430.2,93713.6,539438,37757.8,81433.5,1.03127e+06
0.596,0.00258087,89304.3,-11958.4,95770.2,539097,40013.8,84334.5,1.02615e+06
0.598,0.00259664,90846.5,-12151.5,96275.5,540658,43741.4,88844.3,1.01845e+06
0.6,0.00261241,92388.7,-12344.7,96780.9,542219,47469,93354.3,1.01074e+06
0.602,0.00262813,94231.2,-12340.6,95913.9,541204,51494.4,96766.7,995540
0.604,0.00264383,96216.7,-12242.6,94393.5,538962,55661.6,99656.5,976766
0.606,0.00265953,98202.2,-12144.6,92873,536720,59828.9,102546,957992
0.608,0.00267522,100188,-12046.6,91352.5,534478,63996.1,105436,939218
0.61,0.00269092,102173,-11948.6,89832.1,532236,68163.4,108326,920444
0.612,0.00270662,104159,-11850.6,88311.6,529995,72330.6,111216,901670
0.614,0.00272232,106144,-11752.6,86791.1,527753,76498,114106,882896
0.616,0.00273802,108130,-11654.6,85270.7,525511,80665.2,116996,864122
0.618,0.00275372,110115,-11556.6,83750.3,523269,84832.4,119885,845349
0.62,0.00276947,110796,-10700.1,81328.1,519447,88949.1,122240,833625
0.622,0.00278542,107020,-7253.78,75827.4,510233,92892.9,122769,845977
0.624,0.00280137,103245,-3807.33,70326.5,501018,96836.9,123297,858329
0.626,0.00281748,99588.7,-1363.99,65749.6,493671,97727,124082,862197
0.628,0.00283376,96052.6,65.6458,62106.3,488212,95530.6,125127,857491
0.63,0.00285003,92516.5,1495.24,58463.2,482754,93334.3,126172,852784
0.632,0.00286631,88980.3,2924.88,54819.9,477295,91137.9,127217,848077
0.634,0.00288259,85444.3,4354.48,51176.8,471837,88941.6,128262,843371
0.636,0.00289896,82521.9,5201.01,48898.3,466278,86349.3,128974,838896
0.638,0.00291559,81117.8,4605.07,49995.8,460469,82777.1,128863,834992
0.64,0.00293222,79713.8,4009.15,51093.4,454661,79205.1,128751,831089
0.642,0.00294885,78309.7,3413.21,52190.9,448852,75632.9,128640,827185
0.644,0.00296548,76905.7,2817.28,53288.5,443044,72060.9,128529,823282
0.646,0.00298223,75740.3,2766.17,53117.6,440262,69097.9,127288,818943
0.648,0.00299918,74947,3564.52,50969.2,442199,67084.6,124284,813924
0.65,0.00301614,74153.8,4362.87,48820.7,444136,65071.4,121281,808906
0.652,0.00303309,73360.5,5161.24,46672.1,446073,63058.1,118277,803887
0.654,0.00305004,72567.3,5959.59,44523.6,448010,61044.9,115274,798869
0.656,0.003067,71774,6757.97,42375.1,449947,59031.6,112270,793850
0.658,0.00308395,70980.7,7556.32,40226.6,451884,57018.4,109267,788832
0.66,0.0031009,70187.5,8354.69,38078.1,453822,55005.1,106263,783813
0.662,0.00311786,69394.2,9153.04,35929.6,455759,52991.9,103259,778795
0.664,0.00313481,68601,9951.39,33781.1,457696,50978.7,100256,773776
0.666,0.00315177,67807.7,10749.8,31632.5,459633,48965.4,97252.4,768758
0.668,0.00316872,67014.4,11548.1,29484,461570,46952.2,94248.9,763739
0.67,0.00318568,66221.2,12346.5,27335.5,463507,44938.9,91245.3,758720
0.672,0.00320263,65427.9,13144.8,25187,465444,42925.7,88241.8,753702
0.674,0.00321959,64634.6,13943.2,23038.5,467381,40912.4,85238.2,748683
0.676,0.00323654,63841.4,14741.6,20890,469318,38899.2,82234.8,743665
0.678,0.0032535,63048.1,15539.9,18741.5,471255,36886,79231.3,738646
0.68,0.00327047,62234.8,16395.5,16443.1,472596,35184.1,75830.3,733690
0.682,0.00328767,61009.2,18425.3,11072.6,461720,39866.4,64281.8,730015
0.684,0.00330488,59783.6,20455.1,5701.85,450843,44548.8,52732.9,726341
0.686,0.00332208,58558.1,22484.9,331.305,439967,49231.1,41184.3,722666
0.688,0.00333929,57332.5,24514.7,-5039.4,429090,53913.6,29635.4,718991
0.69,0.00335649,56107,26544.5,-10410,418214,58595.9,18086.9,715316
0.692,0.00337369,54881.4,28574.3,-15780.5,407338,63278.2,6538.33,711641
0.694,0.0033909,53655.8,30604.1,-21151.2,396461,67960.6,-5010.56,707966
0.696,0.0034081,52430.3,32633.9,-26521.8,385585,72642.9,-16559.1,704291
0.698,0.00342543,51867,33502,-29318.5,377890,76464.9,-25324,697326
0.7,0.00344301,52685.1,31947.3,-26747.1,376832,78492,-28282.2,683500
0.702,0.00346059,53503.2,30392.6,-24175.5,375773,80519.2,-31240.5,669674
0.704,0.00347816,54321.2,28837.9,-21604.1,374715,82546.3,-34198.8,655847
0.706,0.00349574,55139.3,27283.2,-19032.6,373657,84573.4,-37157,642021
0.708,0.00351332,55957.4,25728.5,-16461.1,372599,86600.6,-40115.3,628195
0.71,0.0035309,56775.4,24173.8,-13889.6,371540,88627.7,-43073.6,614369
0.712,0.00354878,55820.3,25604.8,-15633.3,379490,88549.8,-46854.3,609877
0.714,0.00356693,53256.3,29745,-21292.5,395613,86561.9,-51381.2,613857
0.716,0.00358508,50692.2,33885.3,-26951.8,411736,84573.9,-55908.2,617836
0.718,0.00360323,48128.2,38025.4,-32611,427859,82586,-60435,621816
0.72,0.00362138,45564.2,42165.7,-38270.3,443982,80598,-64962.1,625795
0.722,0.00363953,43000.1,46305.8,-43929.5,460105,78610,-69488.9,629775
0.724,0.00365765,41564.9,51424.7,-47030,475515,77951.2,-72598.5,637456
0.726,0.00367567,42747.3,58813.5,-44196.8,489271,80374.7,-72421.5,653722
0.728,0.0036937,43929.7,66202.1,-41363.8,503026,82798.1,-72244.5,669988
0.73,0.00371172,45112.2,73590.9,-38530.6,516782,85221.6,-72067.5,686254
0.732,0.00372974,46294.6,80979.5,-35697.5,530538,87645,-71890.5,702520
0.734,0.00374777,47477,88368.3,-32864.4,544294,90068.5,-71713.4,718786
0.736,0.00376579,48659.4,95756.9,-30031.3,558049,92491.9,-71536.4,735052
0.738,0.00378382,49841.8,103145,-27198.2,571804,94915.3,-71359.4,751318
0.74,0.00380177,46581.3,97851.9,-32714.5,572243,93484.1,-78820.7,739638
0.742,0.00381972,43182.1,92162.4,-38491.5,572266,91932.6,-86520.4,727085
0.744,0.00383767,39782.7,86472.7,-44268.6,572289,90381,-94220.3,714532
0.746,0.00385563,36383.5,80783.2,-50045.6,572312,88829.5,-101920,701979
0.748,0.00387383,41073.6,79121.3,-47192.6,570929,88893.2,-93945.3,692303
0.75,0.00389204,46337.8,77745.2,-43727.1,569446,89071.5,-84858.2,682832
0.752,0.00391026,51601.9,76369.2,-40261.7,567963,89249.8,-75771.2,673361
0.754,0.00392848,56866.2,74993.1,-36796.1,566481,89428.1,-66683.9,663889
0.756,0.00394706,56921,69604.9,-36143.1,565426,89810,-58774.2,656850
0.758,0.00396565,56636.4,63955.2,-35673.3,564400,90205,-50940.9,649969
0.76,0.00398425,56351.8,58305.6,-35203.5,563373,90600.1,-43107.8,643088
0.762,0.00400294,55197.7,54513,-34304,561336,90719.6,-36826.3,641933
0.764,0.00402178,52470.2,54080.8,-32627.1,557471,90340.4,-33352.5,651138
0.766,0.00404063,49742.7,53648.5,-30950.2,553606,89961.2,-29878.7,660344
0.768,0.00405947,47015.2,53216.3,-29273.3,549741,89582,-26404.8,669549
0.77,0.00407832,44287.7,52784.1,-27596.4,545876,89202.9,-22931.1,678755
0.772,0.00409716,41560.1,52351.8,-25919.4,542011,88823.7,-19457.2,687960
0.774,0.00411596,39437.2,50985.1,-24337.5,534926,88180.9,-15259,696840
0.776,0.00413465,38525.5,47746.4,-22945.7,521391,87009.9,-9609.55,705065
0.778,0.00415334,37613.7,44507.8,-21553.9,507855,85839,-3960.26,713291
0.78,0.00417204,36702,41269.1,-20162.1,494320,84668.1,1689.02,721516
0.782,0.00419073,35790.2,38030.4,-18770.3,480784,83497.2,7338.48,729742
0.784,0.00420942,34878.4,34791.8,-17378.5,467248,82326.3,12987.8,737968
0.786,0.00422812,33966.7,31553.1,-15986.7,453712,81155.4,18637.2,746194
0.788,0.00424681,33054.9,28314.5,-14594.9,440177,79984.5,24286.5,754419
0.79,0.0042655,32143.2,25075.7,-13203.1,426641,78813.5,29936,762645
0.792,0.00428424,31668.6,21983.8,-11975.7,413012,77539.7,35641.6,769019
0.794,0.0043036,37845.8,21124,-13250.1,397966,74699.7,42204.6,747229
0.796,0.00432295,44022.8,20264.1,-14524.4,382919,71859.8,48767.4,725440
0.798,0.00434231,50199.9,19404.3,-15798.7,367873,69019.8,55330.2,703650
0.8,0.00436167,56377.1,18544.5,-17073,352826,66179.8,61893.2,681860
0.802,0.00438103,62554.1,17684.6,-18347.3,337780,63339.9,68456,660070
0.804,0.00440039,68731.4,16824.8,-19621.7,322733,60499.9,75018.9,638280
0.806,0.00441975,74908.4,15964.9,-20896,307687,57659.9,81581.7,616491
0.808,0.0044391,81085.6,15105.1,-22170.3,292640,54819.9,88144.7,594701
0.81,0.00445859,85825.1,14462.9,-22396.9,288764,53930.7,93098.5,583840
0.812,0.00447817,89398.1,13997.3,-21773.3,293951,54624.2,96746.6,581846
0.814,0.00449775,92971.3,13531.7,-21149.7,299138,55317.8,100395,579853
0.816,0.00451734,96544.3,13066.1,-20526.1,304325,56011.3,104043,577859
0.818,0.00453692,100117,12600.5,-19902.6,309512,56704.9,107691,575866
0.82,0.00455651,103690,12134.9,-19279,314699,57398.4,111339,573873
0.822,0.00457609,107264,11669.3,-18655.4,319887,58092,114988,571879
0.824,0.00459567,110837,11203.7,-18031.8,325074,58785.6,118636,569886
0.826,0.00461526,114410,10738.1,-17408.3,330261,59479.1,122284,567892
0.828,0.00463484,117983,10272.5,-16784.7,335448,60172.7,125932,565899
0.83,0.00465443,121556,9806.92,-16161.1,340635,60866.2,129580,563906
0.832,0.00467401,125129,9341.31,-15537.5,345822,61559.8,133229,561912
0.834,0.0046936,128702,8875.72,-14914,351009,62253.3,136877,559919
0.836,0.00471318,132275,8410.12,-14290.4,356196,62946.9,140525,557925
0.838,0.00473277,135848,7944.52,-13666.8,361383,63640.5,144173,555932
0.84,0.00475235,139421,7478.93,-13043.3,366571,64334,147821,553939
0.842,0.00477184,141449,7752.86,-12061.1,371225,65518.1,151105,552721
0.844,0.00479133,143347,8088.66,-11048.9,375836,66743.3,154358,551569
0.846,0.00481082,145246,8424.46,-10036.7,380446,67968.5,157611,550416
0.848,0.0048303,147144,8760.25,-9024.59,385056,69193.6,160864,549263
0.85,0.00484979,149043,9096.06,-8012.4,389666,70418.8,164118,548111
0.852,0.00486966,148841,7758.13,-5967.36,385215,70661,161060,549470
0.854,0.00488961,148210,6078.7,-3711.59,378915,70702.7,156715,551343
0.856,0.00490961,144744,5032.32,-1558.56,371407,70710,149390,552650
0.858,0.0049297,137049,4930.27,441.046,362098,70666.1,137621,553113
0.86,0.00494979,129354,4828.23,2440.71,352790,70622.2,125852,553577
0.862,0.00496988,121659,4726.18,4440.31,343481,70578.3,114083,554041
0.864,0.00498997,113963,4624.14,6439.98,334173,70534.3,102313,554505
0.866,0.00501028,109073,4994.9,7590.1,331892,70608.5,95037.5,553835
0.868,0.00503074,106046,5679.67,8176.06,334279,70761,90745.9,552413
0.87,0.00505119,103019,6364.46,8762.04,336666,70913.6,86454.3,550990
0.872,0.00507165,99992.6,7049.23,9348,339053,71066.2,82162.7,549567
0.874,0.00509211,96965.6,7734.02,9933.98,341440,71218.7,77871,548145
0.876,0.00511256,93938.7,8418.79,10519.9,343827,71371.3,73579.4,546722
0.878,0.00513301,91541.4,9457.98,11577.7,347463,71430.4,70014.8,544535
0.88,0.00515345,89260,10562.3,12722.1,351329,71472.4,66583.8,542207
0.882,0.00517389,86978.5,11666.7,13866.6,355194,71514.3,63152.8,539879
0.884,0.00519433,84697.1,12771,15011,359059,71556.2,59721.9,537550
0.886,0.00521477,82415.6,13875.3,16155.5,362925,71598.2,56291,535222
0.888,0.00523521,80134.1,14979.7,17299.9,366790,71640.1,52860,532894
0.89,0.00525565,77852.7,16084,18444.4,370656,71682.1,49429.1,530566
0.892,0.00527609,75571.2,17188.4,19588.9,374521,71724,45998.1,528238
0.894,0.00529653,73289.8,18292.7,20733.3,378387,71765.9,42567.2,525910
0.896,0.00531698,71008.3,19397.1,21877.8,382252,71807.9,39136.1,523582
0.898,0.00533742,68726.8,20501.4,23022.2,386118,71849.8,35705.2,521254
0.9,0.00535786,66445.4,21605.7,24166.7,389983,71891.8,32274.3,518926
0.902,0.0053783,64163.9,22710.1,25311.1,393848,71933.7,28843.3,516597
0.904,0.00539905,57989.2,21674.6,24618.1,395960,74866,24613.6,523311
0.906,0.00541983,51487.9,20459.6,23770.9,397924,78040.8,20316.7,530783
0.908,0.00544061,44986.7,19244.6,22923.7,399888,81215.5,16020,538254
0.91,0.0054614,38485.4,18029.6,22076.6,401853,84390.3,11723.2,545726
0.912,0.00548218,31984.2,16814.6,21229.4,403817,87565,7426.44,553197
0.914,0.00550296,25483.1,15599.7,20382.3,405781,90739.7,3129.72,560669
0.916,0.00552374,18981.8,14384.7,19535.1,407745,93914.5,-1167.13,568140
0.918,0.00554452,12480.6,13169.7,18688,409710,97089.2,-5463.85,575612
0.92,0.00556555,8714.2,13259.8,18092.5,409913,99649.9,-8066.9,581318
0.922,0.00558687,7887,14752.5,17767.6,408224,101551,-8849.62,585126
0.924,0.00560818,7059.78,16245.3,17442.6,406535,103451,-9632.35,588934
0.926,0.0056295,6232.59,17738,17117.7,404847,105352,-10415.1,592741
0.928,0.00565081,5405.4,19230.7,16792.8,403158,107253,-11197.8,596549
0.93,0.00567206,6679.88,20231.7,16982.9,395763,109161,-11539.2,592884
0.932,0.00569331,8038.31,21213.1,17193.6,388141,111069,-11862.9,588920
0.934,0.00571456,9396.79,22194.5,17404.4,380519,112977,-12186.7,584956
0.936,0.00573581,10755.2,23175.8,17615.1,372897,114886,-12510.4,580993
0.938,0.00575706,12113.7,24157.2,17825.8,365274,116794,-12834.2,577029
0.94,0.00577831,13472.1,25138.5,18036.5,357652,118702,-13157.9,573065
0.942,0.00579956,14830.6,26119.9,18247.3,350030,120611,-13481.7,569101
0.944,0.0058208,16189.1,27101.3,18458,342408,122519,-13805.5,565137
0.946,0.00584205,17547.5,28082.6,18668.7,334786,124427,-14129.2,561173
0.948,0.0058633,18906,29064,18879.4,327163,126336,-14453,557210
0.95,0.00588455,20264.4,30045.3,19090.1,319541,128244,-14776.7,553246
0.952,0.0059058,21622.9,31026.7,19300.9,311919,130152,-15100.5,549282
0.954,0.00592705,22981.3,32008,19511.6,304297,132061,-15424.2,545318
0.956,0.0059483,24339.8,32989.4,19722.3,296674,133969,-15748,541354
0.958,0.00596964,31640.2,36893.6,20800.4,302331,137816,-8326.41,544254
0.96,0.00599111,46474.4,44503.6,22978.1,324824,144121,8915.27,555855
0.962,0.00601275,69525.8,57545.2,25946.6,381987,153087,37014.3,595824
0.964,0.0060346,102377,77064.3,29858.3,480499,165226,78061.5,669626
0.966,0.00605638,125230,88889.1,32113.8,547073,173004,108252,717334
0.968,0.00607791,116062,76070.4,29065.2,511351,166816,103666,681470
0.97,0.00609945,106893,63251.4,26016.6,475629,160628,99079.4,645604
0.972,0.00612098,97723.9,50432.8,22968,439907,154440,94493.5,609740
0.974,0.00614251,88555.2,37614.1,19919.4,404185,148252,89907.5,573875
0.976,0.00616415,80099.1,28048.8,18634.5,381734,141988,87381.1,551535
0.978,0.0061858,71626.2,19085.4,17757.6,362227,135602,85267.4,532115
0.98,0.00620771,70687.1,18922.9,18570.8,360116,133070,87530.1,533514
0.982,0.00622962,69748,18760.4,19384,358005,130538,89792.6,534914
0.984,0.00625152,68808.9,18597.9,20197.2,355895,128006,92055.3,536314
0.986,0.00627343,67869.8,18435.5,21010.4,353784,125474,94317.9,537713
0.988,0.00629534,66930.7,18273,21823.6,351673,122941,96580.5,539113
0.99,0.00631724,65991.6,18110.5,22636.9,349563,120409,98843.1,540513
0.992,0.00633915,65052.5,17948.1,23450.1,347452,117877,101106,541913
0.994,0.00636106,64113.4,17785.6,24263.3,345341,115345,103368,543312
0.996,0.00638296,63174.3,17623.1,25076.5,343231,112813,105631,544712
0.998,0.00640487,62235.2,17460.6,25889.7,341120,110280,107894,546112
1,0.00642678,61296.1,17298.2,26702.9,339009,107748,110156,547511
1.002,0.00644868,60357,17135.7,27516.1,336899,105216,112419,548911
1.004,0.00647059,59417.9,16973.2,28329.4,334788,102684,114681,550311
1.006,0.0064925,58478.7,16810.8,29142.6,332677,100152,116944,551711
1.008,0.00651441,57539.7,16648.3,29955.8,330567,97619.4,119207,553110
1.01,0.00653631,56600.6,16485.8,30769,328456,95087.3,121469,554510
1.012,0.00655822,55661.5,16323.4,31582.2,326345,92555.1,123732,555910
1.014,0.00658013,54722.3,16160.9,32395.5,324235,90022.8,125995,557309
1.016,0.00660204,53783.3,15998.4,33208.7,322124,87490.6,128257,558709
1.018,0.00662394,52844.2,15835.9,34021.9,320013,84958.4,130520,560109
1.02,0.00664585,51905.1,15673.5,34835.1,317903,82426.3,132782,561509
1.022,0.00666776,50966,15511,35648.3,315792,79894.1,135045,562908
1.024,0.00668968,49887.3,15420.1,36528.9,313696,77410.1,137276,564524
1.026,0.00671147,50604.1,14408.1,36543,311409,74304.5,139918,563362
1.028,0.0067336,47683.9,12306.5,36383.2,309025,71820.1,133300,568641
1.03,0.00675594,44583.3,10337.6,38623.2,307739,70896.7,124490,572746
1.032,0.00677828,41482.8,8368.56,40863.2,306453,69973.2,115680,576852
1.034,0.00680062,38382.1,6399.44,43103.3,305167,69049.7,106870,580957
1.036,0.00682296,35281.5,4430.44,45343.3,303881,68126.3,98060.4,585063
1.038,0.0068453,32181,2461.45,47583.2,302595,67202.9,89250.7,589168
1.04,0.00686764,29080.5,492.452,49823.2,301309,66279.4,80441,593274
1.042,0.00688998,25979.7,-1476.66,52063.3,300023,65355.9,71630.8,597379
1.044,0.00691233,24176.7,-2659.13,55302.6,296486,65304.2,65340.7,598685
1.046,0.00693495,24150.1,-1878.77,56524.2,299549,67094.8,62491,589067
1.048,0.00695758,24106.9,-1079.04,57620.5,302962,68895.8,59608.8,579249
1.05,0.00698022,24063.7,-279.321,58716.7,306375,70696.7,56726.5,569432
1.052,0.00700285,24020.5,520.45,59813.1,309788,72497.8,53844.1,559614
1.054,0.00702548,23977.3,1320.17,60909.4,313202,74298.7,50961.9,549796
1.056,0.00704811,23934.1,2119.9,62005.7,316615,76099.6,48079.6,539979
1.058,0.00707074,23890.9,2919.62,63101.9,320028,77900.6,45197.4,530161
1.06,0.00709338,23847.6,3719.34,64198.2,323441,79701.5,42315.1,520343
1.062,0.00711601,23804.4,4519.12,65294.6,326854,81502.6,39432.7,510525
1.064,0.00713864,23761.2,5318.84,66390.9,330268,83303.5,36550.5,500708
1.066,0.00716127,23718,6118.56,67487.1,333681,85104.5,33668.2,490890
1.068,0.00718391,23674.8,6918.29,68583.4,337094,86905.4,30786,481073
1.07,0.00720654,23631.6,7718.06,69679.8,340507,88706.5,27903.6,471255
1.072,0.00722917,23588.4,8517.78,70776,343920,90507.4,25021.3,461437
1.074,0.00725184,23723.3,10108,70993,345308,90950.9,23142.1,448687
1.076,0.00727463,24363.2,13940.8,68715.3,340948,87543.7,24108.3,427620
1.078,0.00729742,25003.2,17773.5,66437.7,336589,84136.5,25074.5,406553
1.08,0.00732025,24868.3,21250.9,64846.7,331601,80897.6,25047.4,389272
1.082,0.00734331,22808.5,22627.9,65363.6,326870,79084.8,21993.9,389344
1.084,0.00736647,22138.4,22492.4,65359.3,326478,78750,19734.2,396655
1.086,0.00738964,21468.3,22356.8,65355,326086,78415.1,17474.4,403965
1.088,0.00741281,20798.1,22221.3,65350.8,325694,78080.3,15214.5,411276
1.09,0.00743597,20128,22085.7,65346.5,325302,77745.4,12954.8,418586
1.092,0.00745914,19457.9,21950.2,65342.2,324910,77410.6,10695.1,425896
1.094,0.0074823,18787.8,21814.6,65337.9,324518,77075.7,8435.33,433207
1.096,0.00750547,18117.7,21679.1,65333.7,324126,76740.9,6175.59,440517
1.098,0.00752864,17447.6,21543.5,65329.4,323734,76406,3915.72,447828
1.1,0.0075518,16777.5,21408,65325.1,323342,76071.2,1655.98,455138
1.102,0.00757497,16107.3,21272.4,65320.8,322950,75736.3,-603.762,462448
1.104,0.00759813,15437.2,21136.8,65316.6,322558,75401.5,-2863.5,469759
1.106,0.0076213,14767.1,21001.3,65312.3,322166,75066.6,-5123.24,477069
1.108,0.00764448,15857,20935.2,63691.7,320041,74413,-5858.5,480906
1.11,0.00766766,17675.6,20898,61402.1,317200,73627.5,-5962.43,483304
1.112,0.00769084,19494.2,20860.7,59112.4,314359,72842,-6066.37,485702
1.114,0.00771402,21312.8,20823.4,56822.7,311518,72056.5,-6170.3,488101
1.116,0.0077372,23131.5,20786.1,54532.8,308676,71271,-6274.24,490499
1.118,0.00776038,24950.1,20748.8,52243.2,305835,70485.5,-6378.17,492897
1.12,0.00778356,26768.7,20711.6,49953.5,302994,69700,-6482.1,495295
1.122,0.00780696,28338,22874.2,44954.4,301005,69697.4,-2191.59,491720
1.124,0.00783041,29857.1,25478.9,39410.8,299187,69852.1,2982.1,486945
1.126,0.00785386,31376.3,28083.8,33866.9,297370,70006.9,8156.1,482170
1.128,0.00787731,32895.5,30688.5,28323.3,295552,70161.7,13329.8,477394
1.13,0.00790076,34414.6,33293.2,22779.8,293735,70316.4,18503.5,472619
1.132,0.00792421,35933.8,35897.9,17236.2,291917,70471.2,23677.2,467843
1.134,0.00794774,36723.6,37761.3,13805,289671,71074,27975.1,463501
1.136,0.0079714,36432.3,38525.7,13505.3,286788,72341.3,30974.9,459799
1.138,0.00799505,36140.9,39290.1,13205.6,283905,73608.4,33974.5,456098
1.14,0.00801868,36053.8,38998.6,12636.6,281076,72685.3,33771.6,449398
1.142,0.00804231,36003.2,38518,12019.4,278257,71370.1,32995.4,442161
1.144,0.00806594,35952.7,38037.4,11402.1,275437,70054.9,32219.1,434924
1.146,0.00808956,35902.1,37556.8,10784.9,272618,68739.7,31442.9,427687
1.148,0.00811319,35851.5,37076.3,10167.7,269798,67424.5,30666.7,420450
1.15,0.00813682,35801,36595.7,9550.47,266979,66109.3,29890.4,413213
1.152,0.00816044,35750.4,36115.1,8933.25,264160,64794.2,29114.2,405976
1.154,0.00818407,35699.8,35634.6,8315.99,261340,63478.9,28338,398739
1.156,0.0082077,35649.3,35154,7698.77,258521,62163.7,27561.7,391502
1.158,0.00823132,35598.7,34673.4,7081.55,255701,60848.5,26785.5,384265
1.16,0.00825495,35548.1,34192.8,6464.33,252882,59533.4,26009.3,377028
1.162,0.00827858,35497.6,33712.3,5847.11,250062,58218.2,25233.1,369792
1.164,0.00830221,35447,33231.7,5229.85,247243,56902.9,24456.8,362554
1.166,0.00832583,35396.4,32751.1,4612.63,244423,55587.7,23680.6,355318
1.168,0.00834946,35062.7,32440.6,3874.97,242739,54162.8,22997.1,348998
1.17,0.00837311,34037.5,32545.5,2843.16,243827,52469.9,22540,344918
1.172,0.00839676,33012.3,32650.3,1811.29,244915,50777,22082.9,340837
1.174,0.00842041,31987.1,32755.2,779.483,246003,49084.1,21625.8,336757
1.176,0.00844405,30961.9,32860,-252.326,247091,47391.2,21168.7,332677
1.178,0.00846781,28617.6,32342.3,-1111.38,245322,45436.1,18625.1,328412
1.18,0.00849181,23210,30378.8,-1569.26,236916,42872.1,11236,323718
1.182,0.00851581,17802.2,28415.3,-2027.17,228509,40307.9,3846.44,319024
1.184,0.00853982,12394.7,26451.8,-2485.05,220104,37743.9,-3542.65,314330
1.186,0.00856382,6987.18,24488.4,-2942.93,211698,35179.9,-10931.7,309635
1.188,0.00858782,1579.66,22524.9,-3400.81,203292,32615.9,-18320.8,304941
1.19,0.00861192,1577.17,22299.2,-3256.42,204576,32871.4,-17811.9,303919
1.192,0.00863604,2808.26,22470.1,-2974.59,208072,33770.4,-15500.5,303735
1.194,0.00866016,4039.34,22641,-2692.76,211568,34669.4,-13189.1,303550
1.196,0.00868428,5270.43,22812,-2410.94,215064,35568.4,-10877.6,303366
1.198,0.00870839,6501.51,22982.9,-2129.11,218559,36467.4,-8566.21,303182
1.2,0.00873251,7732.67,23153.8,-1847.26,222055,37366.5,-6254.64,302997
1.202,0.00875663,8963.76,23324.7,-1565.43,225551,38265.5,-3943.21,302813
1.204,0.00878075,10194.8,23495.6,-1283.6,229047,39164.5,-1631.78,302629
1.206,0.00880487,11425.9,23666.5,-1001.78,232543,40063.5,679.645,302445
1.208,0.00882899,12657,23837.4,-719.947,236038,40962.5,2991.07,302260
1.21,0.00885311,13888.2,24008.4,-438.102,239534,41861.5,5302.64,302076
1.212,0.00887722,15119.3,24179.3,-156.273,243030,42760.5,7614.07,301892
1.214,0.00890134,16350.3,24350.2,125.555,246526,43659.5,9925.5,301707
1.216,0.0089255,17506.3,25322.8,673.262,252228,44581.1,13734.4,303934
1.218,0.00894971,18571.4,27267.1,1543.28,260605,45530.3,19358.8,309083
1.22,0.00897392,24128,29458,2473.83,272042,47655.2,26862.3,314889
1.222,0.00899813,32901,31825.5,3447.76,285669,50622.1,35711.7,321165
1.224,0.00902234,41674,34192.9,4421.69,299296,53589.1,44561.2,327442
1.226,0.00904656,50447,36560.4,5395.62,312923,56556,53410.6,333719
1.228,0.00907077,59220.6,38928,6369.6,326551,59523.2,62260.6,339996
1.23,0.00909498,67993.6,41295.5,7343.53,340178,62490.1,71110,346273
1.232,0.00911932,75475.7,42692.6,7270.76,347846,64897,77494.5,348133
1.234,0.00914387,80536.8,42269.9,5235.03,344338,66253.5,79256.2,341709
1.236,0.00916841,82309.5,41587.4,3827.83,338953,67075.1,79952.7,338791
1.238,0.00919293,80466.6,40619.3,3111.67,331504,67308.5,79477.9,339727
1.24,0.00921744,78623.8,39651.3,2395.55,324055,67541.9,79003.2,340664
1.242,0.00924196,76780.9,38683.2,1679.42,316606,67775.3,78528.5,341601
1.244,0.00926647,74938.1,37715.1,963.299,309158,68008.6,78053.8,342538
1.246,0.00929099,73095.2,36747,247.134,301709,68242,77579,343475
1.248,0.0093155,71252.3,35779,-468.99,294260,68475.4,77104.3,344411
1.25,0.00934002,69409.5,34810.9,-1185.11,286811,68708.8,76629.6,345348
1.252,0.00936453,67566.7,33842.9,-1901.24,279363,68942.1,76154.9,346285
1.254,0.00938905,65723.9,32874.8,-2617.36,271914,69175.5,75680.2,347222
1.256,0.00941356,63880.9,31906.7,-3333.52,264465,69408.9,75205.4,348158
1.258,0.00943808,62038.1,30938.6,-4049.65,257017,69642.3,74730.7,349095
1.26,0.00946264,61530,30159.3,-4674.82,251983,69328.5,74743.2,354988
1.262,0.00948722,61461.4,29442.1,-5270.04,247745,68834.6,74916,362513
1.264,0.00951179,61392.8,28724.9,-5865.29,243507,68340.7,75088.9,370039
1.266,0.00953637,61324.2,28007.7,-6460.51,239270,67846.8,75261.7,377564
1.268,0.00956094,61255.6,27290.5,-7055.73,235032,67352.9,75434.6,385089
1.27,0.00958552,61187,26573.3,-7650.95,230794,66859,75607.4,392614
1.272,0.0096101,61118.4,25856.1,-8246.17,226556,66365.1,75780.3,400139
1.274,0.00963467,61049.8,25138.9,-8841.42,222318,65871.2,75953.2,407665
1.276,0.00965949,61812.2,23958.1,-9235.28,223007,62917.6,77411.2,414901
1.278,0.00968434,62711.9,22700.7,-9595.87,224510,59557.6,79081.6,422090
1.28,0.0097092,63611.7,21443.3,-9956.46,226013,56197.6,80752.1,429279
1.282,0.00973405,64511.4,20185.9,-10317,227516,52837.6,82422.5,436468
1.284,0.0097589,65411.2,18928.4,-10677.7,229019,49477.4,84093,443657
1.286,0.00978376,66310.9,17670.9,-11038.2,230522,46117.5,85763.4,450846
1.288,0.00980861,67210.7,16413.5,-11398.8,232025,42757.5,87433.9,458035
1.29,0.00983347,68110.4,15156.1,-11759.4,233528,39397.5,89104.3,465223
1.292,0.00985847,68751.6,15101.9,-12084.6,234422,37924.7,89513.5,465101
1.294,0.00988351,69316.8,15401.8,-12399.4,235137,37007.3,89551.5,462827
1.296,0.00990861,68821.9,16141.4,-11555.5,233839,36093.5,87253.5,461082
1.298,0.0099337,68238.3,16917.8,-10614.7,232373,35180,84760.1,459381
1.3,0.0099588,67654.6,17694.2,-9673.8,230906,34266.5,82266.7,457680
1.302,0.0099839,67071,18470.6,-8732.88,229439,33352.9,79773.1,455979
1.304,0.010009,66487.3,19247,-7792.02,227973,32439.4,77279.6,454278
1.306,0.0100341,65903.7,20023.4,-6851.16,226506,31525.9,74786.2,452577
1.308,0.0100592,65320.1,20799.8,-5910.3,225040,30612.4,72292.8,450876
1.31,0.0100843,64736.4,21576.2,-4969.44,223573,29698.9,69799.3,449175
1.312,0.0101094,64152.8,22352.7,-4028.52,222106,28785.3,67305.7,447474
1.314,0.0101345,63569.1,23129.1,-3087.66,220640,27871.8,64812.3,445773
1.316,0.0101596,62985.5,23905.5,-2146.8,219173,26958.3,62318.8,444072
1.318,0.0101847,62401.9,24681.9,-1205.94,217707,26044.8,59825.4,442371
1.32,0.0102098,61818.2,25458.3,-265.027,216240,25131.2,57331.8,440670
1.322,0.0102349,61336.6,26244.9,591.722,215964,24481,55302,436594
1.324,0.0102599,61161.1,27062.1,1196.35,219255,24620.1,54661.9,425401
1.326,0.010285,60985.6,27879.2,1800.98,222547,24759.2,54021.8,414207
1.328,0.01031,60810.1,28696.4,2405.61,225838,24898.2,53381.7,403014
1.33,0.0103351,60634.5,29513.6,3010.28,229130,25037.3,52741.6,391820
1.332,0.0103601,60459,30330.8,3614.91,232422,25176.4,52101.5,380626
1.334,0.0103852,60283.5,31147.9,4219.54,235713,25315.5,51461.4,369433
1.336,0.0104103,60107.9,31965.1,4824.17,239005,25454.6,50821.3,358239
1.338,0.0104353,59932.4,32782.3,5428.84,242296,25593.7,50181.2,347045
1.34,0.0104604,59756.9,33599.5,6033.47,245588,25732.8,49541.1,335852
1.342,0.0104855,59196.2,33767.1,6886.82,242887,26391.6,48860.4,325809
1.344,0.0105108,58032.8,32918.3,8129.35,230811,27863.9,48116.1,317567
1.346,0.0105361,56869.4,32069.6,9371.88,218734,29336.1,47371.8,309325
1.348,0.0105613,55706,31220.8,10614.5,206656,30808.4,46627.5,301082
1.35,0.0105866,54542.6,30372.1,11857,194580,32280.6,45883.2,292839
1.352,0.0106119,53379.2,29523.3,13099.5,182503,33752.9,45138.9,284597
1.354,0.0106372,52215.8,28674.6,14342.1,170426,35225.1,44394.6,276355
1.356,0.0106625,51052.4,27825.9,15584.6,158349,36697.3,43650.3,268112
1.358,0.0106877,49889,26977.1,16827.2,146272,38169.6,42906,259869
1.36,0.0107131,49096.6,26425.5,18162.3,139663,39936.2,44385.2,262257
1.362,0.0107386,48532.2,26056.6,19554.3,136413,41883.6,47230.7,271175
1.364,0.0107641,47967.8,25687.7,20946.3,133163,43831.1,50076.2,280094
1.366,0.0107896,47393.3,25418.8,21921.9,130807,45512.6,51765.8,285715
1.368,0.0108151,46798.7,25347.4,22075.7,130215,46668.9,51174,284827
1.37,0.0108407,46204,25276,22229.5,129622,47825.2,50582.3,283940
1.372,0.0108662,45609.4,25204.6,22383.3,129029,48981.6,49990.5,283053
1.374,0.0108918,45014.8,25133.1,22537.1,128437,50137.9,49398.7,282165
1.376,0.0109173,44420.2,25061.7,22690.9,127844,51294.3,48806.9,281278
1.378,0.0109429,43825.5,24990.3,22844.7,127252,52450.6,48215.2,280391
1.38,0.0109684,43230.9,24918.9,22998.5,126659,53606.9,47623.4,279503
1.382,0.010994,42636.3,24847.5,23152.3,126066,54763.3,47031.7,278616
1.384,0.0110195,42041.7,24776.1,23306.1,125474,55919.6,46439.9,277729
1.386,0.0110451,41447.1,24704.6,23459.9,124881,57076,45848.1,276841
1.388,0.0110706,40852.4,24633.2,23613.7,124289,58232.3,45256.4,275954
1.39,0.0110962,40257.8,24561.8,23767.5,123696,59388.7,44664.6,275067
1.392,0.0111218,39663.2,24490.4,23921.3,123103,60545,44072.9,274179
1.394,0.0111473,39247.3,24401.3,23926.3,122934,61551,43411.4,272744
1.396,0.0111731,40319.1,24164.9,22692.9,126284,61305.2,42170.3,266750
1.398,0.0111989,41390.8,23928.6,21459.5,129633,61059.5,40929.2,260756
1.4,0.0112246,42462.6,23692.3,20226.1,132983,60813.8,39688.1,254762
1.402,0.0112505,44483.3,24566.7,17295.2,144652,60464.1,41431.3,262919
1.404,0.0112763,46632.1,25590.9,14135.2,157443,60100.3,43576.9,272984
1.406,0.0113022,48780.7,26615.1,10975.5,170233,59736.6,45722.3,283048
1.408,0.0113281,50929.4,27639.2,7815.72,183023,59372.9,47867.8,293112
1.41,0.0113539,53078,28663.3,4655.97,195813,59009.2,50013.2,303176
1.412,0.0113798,55226.6,29687.5,1496.22,208603,58645.5,52158.6,313241
1.414,0.0114056,57375.4,30711.7,-1663.72,221394,58281.8,54304.2,323305
1.416,0.0114316,58105.4,31107.1,-3487.11,226306,57624.7,55329.3,327880
1.418,0.0114576,57700,30999.3,-4240.95,224912,56732.7,55457.8,328061
1.42,0.0114837,57294.6,30891.6,-4994.79,223519,55840.7,55586.3,328242
1.422,0.0115098,56889.2,30783.8,-5748.67,222125,54948.6,55714.8,328423
1.424,0.0115358,56483.9,30676,-6502.51,220732,54056.6,55843.3,328605
1.426,0.0115619,56078.5,30568.2,-7256.34,219339,53164.6,55971.8,328786
1.428,0.0115879,55649.4,30558,-7998.59,217368,52039.4,55981.2,328090
1.43,0.0116139,55159.2,30799.5,-8710.9,213908,50312.1,55683,325128
1.432,0.0116399,54669,31041.1,-9423.25,210448,48584.8,55384.7,322166
1.434,0.0116659,54178.8,31282.6,-10135.6,206987,46857.5,55086.4,319204
1.436,0.0116919,53688.6,31524.1,-10847.9,203527,45130.2,54788.2,316243
1.438,0.011718,53198.4,31765.7,-11560.2,200067,43402.9,54489.9,313281
1.44,0.011744,52708.1,32007.2,-12272.5,196606,41675.5,54191.7,310319
1.442,0.01177,52217.9,32248.8,-12984.8,193146,39948.2,53893.4,307357
1.444,0.011796,51727,32489.5,-13658.6,190017,38284.8,53569.9,304506
1.446,0.011822,51226.1,32719.3,-13803.7,191426,37497.3,52900,303171
1.448,0.011848,50725.1,32949.2,-13948.8,192836,36709.7,52230.2,301836
1.45,0.011874,50224.2,33179,-14093.9,194246,35922,51560.3,300501
1.452,0.0119,49723.2,33408.8,-14239,195655,35134.5,50890.4,299166
1.454,0.011926,49222.3,33638.6,-14384.1,197065,34346.9,50220.6,297831
1.456,0.011952,48721.4,33868.4,-14529.2,198474,33559.3,49550.7,296496
1.458,0.0119781,48220.4,34098.2,-14674.3,199884,32771.7,48880.9,295161
1.46,0.0120041,47719.5,34328,-14819.4,201294,31984.1,48210.9,293826
1.462,0.0120301,47218.6,34557.8,-14964.5,202703,31196.5,47541.1,292491
1.464,0.0120561,46717.6,34787.6,-15109.6,204113,30408.9,46871.2,291156
1.466,0.0120821,46216.7,35017.4,-15254.7,205523,29621.3,46201.4,289820
1.468,0.0121081,45715.7,35247.3,-15399.8,206932,28833.7,45531.5,288485
1.47,0.0121341,45214.8,35477.1,-15545,208342,28046.1,44861.6,287150
1.472,0.0121601,44713.9,35706.9,-15690.1,209752,27258.5,44191.8,285815
1.474,0.0121861,44212.9,35936.7,-15835.2,211161,26470.9,43521.9,284480
1.476,0.0122121,43712,36166.5,-15980.3,212571,25683.4,42852,283145
1.478,0.0122381,43211,36396.3,-16125.4,213981,24895.7,42182.1,281810
1.48,0.0122643,42348.1,35899.5,-14737.3,210891,25758.6,39986.8,279031
1.482,0.0122905,41225,34880.5,-12247.3,204567,27807.5,36695.3,275215
1.484,0.0123168,40101.9,33861.5,-9757.42,198243,29856.4,33403.8,271398
1.486,0.012343,38978.7,32842.5,-7267.5,191919,31905.3,30112.3,267581
1.488,0.0123693,37855.6,31823.5,-4777.43,185594,33954.3,26820.6,263765
1.49,0.0123955,36732.4,30804.5,-2287.51,179271,36003.2,23529,259948
1.492,0.0124218,35609.3,29785.5,202.411,172947,38052.1,20237.5,256131
1.494,0.012448,34486.2,28766.5,2692.33,166623,40100.9,16946,252315
1.496,0.0124743,33978.9,28515.2,5214.71,165524,41083.1,14362,253126
1.498,0.0125007,33861.7,28750.2,7757.39,167736,41389.5,12226.3,256867
1.5,0.0125271,33744.6,28985.2,10300.1,169948,41695.8,10090.7,260609
1.502,0.0125535,33627.4,29220.2,12842.8,172160,42002.2,7955.09,264351
1.504,0.0125799,33534.6,29483.1,15241.9,174412,42253.4,5918.49,267565
1.506,0.0126064,33900.3,30270.8,14935.7,177407,41465.4,5748.2,260838
1.508,0.012633,34266.1,31058.5,14629.5,180403,40677.4,5577.93,254111
1.51,0.0126596,34631.9,31846.3,14323.3,183398,39889.4,5407.65,247385
1.512,0.0126862,34997.6,32634,14017,186394,39101.4,5237.37,240658
1.514,0.0127128,35363.4,33421.7,13710.8,189389,38313.4,5067.08,233931
1.516,0.0127393,36540.9,33796.2,13149.3,188397,37669.7,6783,230116
1.518,0.0127658,37873.2,34091.8,12539.1,186644,37053.5,8858.89,226856
1.52,0.0127924,39205.5,34387.4,11928.9,184891,36437.4,10934.8,223597
1.522,0.0128189,40537.9,34683,11318.7,183137,35821.2,13010.7,220338
1.524,0.0128454,41870.3,34978.6,10708.4,181384,35204.9,15086.7,217078
1.526,0.0128719,43202.6,35274.2,10098.2,179631,34588.8,17162.6,213819
1.528,0.0128985,44534.9,35569.8,9487.99,177878,33972.6,19238.5,210560
1.53,0.012925,45867.3,35865.4,8877.77,176125,33356.4,21314.4,207301
1.532,0.0129515,47145.1,36171.6,8293.18,174556,32735.3,23199.6,204228
1.534,0.012978,47572.8,36642.5,8108.36,175865,32038.3,22109.3,204075
1.536,0.0130045,48000.4,37113.4,7923.55,177175,31341.2,21019,203922
1.538,0.0130309,48428.1,37584.4,7738.75,178485,30644.2,19928.8,203768
1.54,0.0130574,48855.8,38055.3,7553.94,179794,29947.1,18838.6,203615
1.542,0.0130839,49283.5,38526.2,7369.12,181104,29250,17748.3,203461
1.544,0.0131104,49711.1,38997.1,7184.31,182413,28553,16658.1,203308
1.546,0.0131369,50138.8,39468.1,6999.5,183723,27856,15567.8,203154
1.548,0.0131633,50566.5,39939,6814.69,185033,27158.9,14477.6,203001
1.55,0.0131898,50994.1,40409.9,6629.88,186342,26461.9,13387.4,202848
1.552,0.0132163,51421.8,40880.9,6445.07,187652,25764.8,12297.1,202694
1.554,0.0132429,51396.7,40952.8,6909.1,187518,25778.1,12899.2,203102
1.556,0.0132696,51105.7,40790.3,7754.2,186537,26208.6,14495.3,203841
1.558,0.0132963,50814.7,40627.9,8599.31,185556,26639,16091.4,204579
1.56,0.013323,50523.8,40465.5,9444.41,184575,27069.5,17687.5,205318
1.562,0.0133497,50232.8,40303,10289.6,183593,27500,19283.7,206056
1.564,0.0133764,49941.8,40140.6,11134.7,182612,27930.5,20879.8,206794
1.566,0.0134031,49650.8,39978.1,11979.8,181631,28361,22475.9,207533
1.568,0.0134298,49359.8,39815.7,12824.9,180650,28791.4,24072,208271
1.57,0.0134565,49068.8,39653.3,13670,179669,29221.9,25668.1,209009
1.572,0.0134832,48777.8,39490.8,14515.1,178687,29652.4,27264.2,209748
1.574,0.0135099,48486.8,39328.4,15360.2,177706,30082.9,28860.3,210486
1.576,0.0135367,49768.8,39581,17121.6,178580,30343.4,29879.8,211893
1.578,0.0135635,52385,40185.7,19660.3,181027,30459.8,30410.2,213868
1.58,0.0135904,55001.4,40790.5,22199,183475,30576.3,30940.7,215842
1.582,0.0136172,57617.6,41395.2,24737.7,185922,30692.7,31471.1,217817
1.584,0.013644,60233.9,41999.9,27276.3,188369,30809.1,32001.5,219791
1.586,0.0136709,62850.1,42604.6,29814.9,190817,30925.5,32531.9,221766
1.588,0.0136977,65466.5,43209.4,32353.7,193264,31042,33062.4,223740
1.59,0.0137245,68082.7,43814.1,34892.3,195712,31158.4,33592.8,225715
1.592,0.0137514,70698.9,44418.8,37430.9,198159,31274.8,34123.2,227689
1.594,0.0137782,71208.8,44320.8,37380.9,197506,31446.5,34851.1,228495
1.596,0.0138051,71267.8,44072.4,36776.8,196190,31629.9,35621.3,229051
1.598,0.013832,71326.9,43824,36172.7,194874,31813.4,36391.6,229607
1.6,0.0138589,71385.9,43575.6,35568.6,193558,31996.9,37161.8,230163
1.602,0.0138858,71445,43327.2,34964.5,192242,32180.3,37932,230719
1.604,0.0139127,71504.1,43078.8,34360.5,190925,32363.8,38702.2,231274
1.606,0.0139396,71402.4,43214.4,33366.3,186402,31910.4,38481.6,228232
1.608,0.0139666,71193.8,43605.8,32112.3,179743,31032.9,37601.2,222794
1.61,0.0139936,70985.2,43997.2,30858.4,173085,30155.6,36720.9,217357
1.612,0.0140206,70776.7,44388.6,29604.5,166426,29278.2,35840.6,211920
1.614,0.0140475,70568.1,44779.9,28350.6,159768,28400.8,34960.3,206482
1.616,0.0140745,70359.5,45171.3,27096.7,153109,27523.4,34079.9,201044
1.618,0.0141015,70150.9,45562.7,25842.8,146451,26646,33199.6,195607
1.62,0.0141285,69942.3,45954,24588.9,139792,25768.6,32319.3,190169
1.622,0.0141555,70128.9,46093.8,23582.2,136328,25352.2,32035.9,186979
1.624,0.0141825,70762.7,45949,22855.2,136477,25457.4,32427.8,186332
1.626,0.0142095,71396.5,45804.2,22128.1,136627,25562.6,32819.8,185685
1.628,0.0142365,72030.3,45659.4,21401.1,136777,25667.8,33211.7,185038
1.63,0.0142635,72664.1,45514.6,20674.1,136927,25773,33603.7,184391
1.632,0.0142905,73297.9,45369.7,19947.1,137077,25878.2,33995.6,183744
1.634,0.0143175,73931.7,45224.9,19220.1,137226,25983.3,34387.6,183097
1.636,0.0143445,74565.6,45080.1,18493.1,137376,26088.5,34779.5,182450
1.638,0.0143715,75199.4,44935.3,17766.1,137526,26193.7,35171.5,181803
1.64,0.0143985,75833.2,44790.5,17039.1,137676,26298.9,35563.4,181155
1.642,0.0144255,76467,44645.6,16312.1,137825,26404.1,35955.4,180508
1.644,0.0144525,77100.8,44500.8,15585,137975,26509.3,36347.4,179861
1.646,0.0144795,77734.6,44356,14858,138125,26614.5,36739.3,179214
1.648,0.0145065,78368.4,44211.2,14131,138275,26719.7,37131.2,178567
1.65,0.0145335,79002.2,44066.4,13404,138424,26824.9,37523.2,177920
1.652,0.0145605,79636,43921.5,12677,138574,26930.1,37915.1,177273
1.654,0.0145875,80269.8,43776.7,11950,138724,27035.3,38307.1,176626
1.656,0.0146147,81728.3,44034.8,11074.6,140316,27235.4,39126.1,176497
1.658,0.0146419,84025.8,43798.5,9056.39,139826,27847.2,39824.3,175184
1.66,0.0146692,84073,42620.9,7291.11,136080,28283.4,38476.1,172267
1.662,0.0146964,84120.3,41443.2,5525.83,132334,28719.5,37127.9,169350
1.664,0.0147236,84167.5,40265.5,3760.45,128588,29155.6,35779.6,166433
1.666,0.0147508,84214.7,39087.8,1995.17,124842,29591.7,34431.4,163517
1.668,0.014778,84262,37910.1,229.892,121096,30027.8,33083.2,160600
1.67,0.0148053,84309.2,36732.5,-1535.39,117351,30463.9,31734.9,157683
1.672,0.0148325,84356.4,35554.8,-3300.77,113605,30900.1,30386.7,154767
1.674,0.0148597,84403.6,34377.1,-5066.05,109859,31336.2,29038.4,151850
1.676,0.0148869,80440.8,31521.9,-6380.6,100311,31459.2,24043.4,146077
1.678,0.0149142,79935.4,30727.2,-6788.79,97753.1,31832.2,23752.5,149168
1.68,0.0149414,79578.4,30007.1,-7187.16,95450.3,32216.3,23628.5,152497
1.682,0.0149686,79221.4,29287,-7585.56,93147.4,32600.5,23504.5,155825
1.684,0.0149958,78864.4,28566.9,-7983.93,90844.6,32984.6,23380.5,159154
1.686,0.015023,78507.5,27846.8,-8382.3,88541.8,33368.8,23256.5,162482
1.688,0.0150503,77990.9,27051.1,-8818.48,86259.7,33665.1,23137.4,166075
1.69,0.0150775,77385.9,26213.4,-9275.63,83988.9,33912.8,23021,169815
1.692,0.0151047,76781,25375.7,-9732.75,81718.2,34160.5,22904.6,173554
1.694,0.0151319,76176.1,24538,-10189.9,79447.6,34408.2,22788.2,177294
1.696,0.0151591,75571.1,23700.3,-10647,77176.9,34655.9,22671.8,181033
1.698,0.0151863,74966.2,22862.6,-11104.1,74906.2,34903.6,22555.4,184773
1.7,0.0152136,74361.2,22024.9,-11561.3,72635.4,35151.3,22438.9,188512
1.702,0.0152408,73756.2,21187.2,-12018.4,70364.8,35398.9,22322.5,192252
1.704,0.015268,73151.3,20349.6,-12475.5,68094.1,35646.6,22206.1,195992
1.706,0.0152952,72546.3,19511.9,-12932.6,65823.5,35894.3,22089.7,199731
1.708,0.0153224,72413.6,18884.8,-13340.4,64241.2,36201.1,21921.2,203193
1.71,0.0153497,74604.6,19294.3,-13505.3,66046.6,36798.4,21496.2,205290
1.712,0.015377,77065.8,19922.1,-13625.5,68092.4,37340.1,21293,207624
1.714,0.0154044,80919.2,21674,-13515.5,71377.2,37595.3,22232.1,211181
1.716,0.0154319,84772.6,23425.9,-13405.5,74661.9,37850.6,23171.1,214737
1.718,0.0154593,88626.2,25177.9,-13295.5,77946.9,38105.9,24110.2,218294
1.72,0.0154867,92479.6,26929.8,-13185.5,81231.6,38361.2,25049.2,221850
1.722,0.0155142,96333,28681.7,-13075.5,84516.4,38616.4,25988.2,225406
1.724,0.0155416,100186,30433.6,-12965.6,87801.1,38871.7,26927.2,228963
1.726,0.015569,103627,32045.7,-12882.3,90902.5,39095.4,27700.3,231979
1.728,0.0155964,102605,32147.7,-13087.9,92023.1,38977.8,26681.1,229160
1.73,0.0156238,101583,32249.7,-13293.6,93143.7,38860.2,25661.9,226341
1.732,0.0156513,100561,32351.7,-13499.2,94264.2,38742.6,24642.7,223522
1.734,0.0156787,99538.9,32453.7,-13704.8,95384.7,38625,23623.5,220703
1.736,0.0157061,98517,32555.8,-13910.4,96505.3,38507.4,22604.3,217884
1.738,0.0157335,97495,32657.8,-14116.1,97625.9,38389.8,21585,215065
1.74,0.0157609,96473,32759.8,-14321.7,98746.4,38272.2,20565.9,212246
1.742,0.0157883,95451.1,32861.8,-14527.3,99866.9,38154.6,19546.7,209427
1.744,0.0158157,94429.2,32963.9,-14732.9,100987,38037,18527.5,206609
1.746,0.0158431,93407.2,33065.9,-14938.6,102108,37919.4,17508.2,203789
1.748,0.0158705,92385.2,33167.9,-15144.2,103229,37801.8,16489,200971
1.75,0.0158979,91363.3,33269.9,-15349.8,104349,37684.3,15469.8,198152
1.752,0.0159253,90341.3,33371.9,-15555.4,105470,37566.7,14450.6,195333
1.754,0.0159527,89319.4,33474,-15761.1,106590,37449.1,13431.5,192514
1.756,0.0159801,88297.4,33576,-15966.7,107711,37331.5,12412.2,189695
1.758,0.0160075,87319.6,33667.4,-16157.2,108749,37202.9,11458,186898
1.76,0.0160349,87691.7,33433.3,-15883.6,107280,36739,12492,184765
1.762,0.0160623,87900.2,33387.1,-15471.2,105850,36028.2,13367.5,182958
1.764,0.0160899,87882.8,33600.4,-14867,104474,34976.4,14024.1,181601
1.766,0.0161174,87865.3,33813.7,-14262.8,103098,33924.6,14680.6,180243
1.768,0.0161449,87847.8,34027,-13658.7,101722,32872.9,15337.2,178886
1.77,0.0161724,87830.4,34240.3,-13054.6,100346,31821.1,15993.8,177528
1.772,0.0161999,87812.9,34453.6,-12450.4,98970.1,30769.3,16650.3,176171
1.774,0.0162274,87795.4,34666.9,-11846.2,97594.2,29717.5,17307,174814
1.776,0.016255,88994.1,35731.8,-11425.2,98808.2,29107.2,18171.2,173847
1.778,0.0162825,90448.2,36975.5,-11042.5,100566,28589.6,19078.9,172962
1.78,0.01631,91902.3,38219.1,-10659.9,102324,28072,19986.7,172077
1.782,0.0163375,93356.4,39462.8,-10277.2,104082,27554.5,20894.5,171192
1.784,0.016365,94685.3,40547.9,-9864.73,105754,27006.6,21749.5,170161
1.786,0.0163925,95596.3,41104,-9352.75,107140,26358.1,22428,168638
1.788,0.0164201,96507.2,41660.1,-8840.77,108526,25709.6,23106.6,167116
1.79,0.0164476,97418.2,42216.2,-8328.79,109912,25061.1,23785.1,165594
1.792,0.0164752,98329.2,42772.3,-7816.78,111298,24412.5,24463.7,164072
1.794,0.0165027,99240.1,43328.4,-7304.8,112684,23764,25142.2,162549
1.796,0.0165302,100151,43884.5,-6792.82,114071,23115.5,25820.7,161027
1.798,0.0165578,101062,44440.6,-6280.84,115457,22467,26499.3,159505
1.8,0.0165853,101973,44996.7,-5768.86,116843,21818.5,27177.8,157983
1.802,0.0166128,102884,45552.8,-5256.85,118229,21169.9,27856.4,156460
1.804,0.0166404,103795,46108.9,-4744.87,119615,20521.4,28534.9,154938
1.806,0.0166679,104706,46665,-4232.89,121001,19872.9,29213.4,153416
1.808,0.0166955,106159,46751.1,-3876.65,119447,19112.5,29128.1,152133
1.81,0.0167231,108228,46301.9,-3697.75,114544,18224.8,28172.7,151122
1.812,0.0167508,110298,45852.8,-3518.84,109641,17337.1,27217.4,150111
1.814,0.0167784,112368,45403.6,-3339.95,104739,16449.4,26262,149101
1.816,0.016806,114438,44954.5,-3161.05,99836.3,15561.7,25306.7,148090
1.818,0.0168337,116507,44505.4,-2982.15,94933.7,14674,24351.4,147079
1.82,0.0168613,118577,44056.2,-2803.25,90030.8,13786.2,23396,146068
1.822,0.016889,120647,43607.1,-2624.35,85128.2,12898.5,22440.7,145058
1.824,0.0169166,122326,43181.5,-2445.79,81045.8,12225.5,21760.8,144303
1.826,0.0169442,121950,42880.2,-2269.04,81282.4,12682.9,22531.4,144900
1.828,0.0169718,121575,42578.8,-2092.28,81519,13140.2,23301.9,145497
1.83,0.0169995,121199,42277.4,-1915.51,81755.7,13597.5,24072.6,146094
1.832,0.0170271,120823,41976,-1738.76,81992.3,14054.9,24843.1,146691
1.834,0.0170547,120447,41674.7,-1562,82228.9,14512.2,25613.7,147287
1.836,0.0170823,120071,41373.3,-1385.24,82465.5,14969.5,26384.2,147884
1.838,0.01711,119696,41071.9,-1208.48,82702.1,15426.9,27154.8,148481
1.84,0.0171376,119320,40770.5,-1031.72,82938.7,15884.2,27925.4,149078
1.842,0.0171652,118615,40253.9,-804.527,83563.6,16543.3,28747.6,149792
1.844,0.0171928,116213,38626.8,-317.051,86192.7,18243.5,29836.7,151115
1.846,0.0172205,113810,36999.8,170.424,88821.8,19943.8,30925.8,152437
1.848,0.0172481,111408,35372.6,657.928,91451,21644.1,32014.9,153759
1.85,0.0172757,109005,33745.5,1145.4,94080.1,23344.4,33104,155081
1.852,0.0173033,108647,32946.2,1050.56,93659.7,24012.8,33570.8,154867
1.854,0.0173309,109504,32638.9,609.729,91427.4,24068.2,33667.9,153738
1.856,0.0173585,110360,32331.6,168.902,89195.2,24123.6,33765,152610
1.858,0.0173861,111217,32024.2,-271.952,86962.9,24179,33862.1,151482
1.86,0.0174138,114397,32662.6,-1272.37,89668.2,24756.7,35467.9,153346
1.862,0.0174415,117777,33382.3,-2320.86,92797.7,25379.3,37203.4,155466
1.864,0.0174693,121158,34101.9,-3369.36,95927.3,26001.9,38938.9,157586
1.866,0.017497,124538,34821.6,-4417.91,99057,26624.5,40674.4,159707
1.868,0.0175247,128274,35005.5,-4755.46,98265.6,26711.8,41671.2,161189
1.87,0.0175524,132124,35018.2,-4865.85,96221.4,26628,42431.9,162467
1.872,0.0175801,135974,35030.9,-4976.23,94177.2,26544.2,43192.6,163745
1.874,0.0176078,139824,35043.6,-5086.62,92133,26460.4,43953.4,165023
1.876,0.0176355,143674,35056.3,-5197.01,90088.7,26376.6,44714.1,166301
1.878,0.0176633,143594,34737.2,-5331.14,89219.3,26253.9,44678,165796
1.88,0.0176911,143172,34389.3,-5467.34,88451.8,26127.9,44572.8,165137
1.882,0.0177189,142751,34041.4,-5603.53,87684.3,26001.8,44467.6,164478
1.884,0.0177467,142330,33693.5,-5739.72,86916.7,25875.8,44362.4,163819
1.886,0.0177745,141908,33345.6,-5875.92,86149.1,25749.8,44257.2,163160
1.888,0.0178024,141487,32997.7,-6012.11,85381.6,25623.7,44152,162501
1.89,0.0178302,141066,32649.8,-6148.3,84614,25497.7,44046.8,161842
1.892,0.017858,140644,32301.9,-6284.49,83846.5,25371.7,43941.6,161183
1.894,0.0178858,140223,31954,-6420.69,83078.9,25245.6,43836.4,160524
1.896,0.0179136,139801,31606.1,-6556.88,82311.4,25119.6,43731.2,159865
1.898,0.0179414,139380,31258.2,-6693.07,81543.8,24993.5,43626,159206
1.9,0.0179692,138959,30910.4,-6829.26,80776.3,24867.5,43520.8,158546
1.902,0.017997,138537,30562.5,-6965.45,80008.7,24741.5,43415.6,157887
1.904,0.0180248,138116,30214.6,-7101.65,79241.2,24615.4,43310.3,157228
1.906,0.0180526,137695,29866.7,-7237.84,78473.6,24489.4,43205.1,156569
1.908,0.0180804,137273,29518.8,-7374.03,77706.1,24363.3,43099.9,155910
1.91,0.0181082,136852,29170.9,-7510.22,76938.5,24237.3,42994.7,155251
1.912,0.018136,136763,29304.9,-7771.46,77043.9,23918.4,42828.4,154918
1.914,0.0181638,136687,29458.3,-8037.71,77184.2,23591.7,42659.6,154598
1.916,0.0181916,136611,29611.6,-8303.95,77324.5,23265,42490.8,154278
1.918,0.0182195,136535,29764.9,-8570.18,77464.8,22938.4,42322,153958
1.92,0.0182473,136459,29918.3,-8836.42,77605.1,22611.7,42153.3,153638
1.922,0.0182751,136384,30071.6,-9102.67,77745.4,22285,41984.5,153318
1.924,0.0183029,136308,30224.9,-9368.91,77885.7,21958.4,41815.7,152998
1.926,0.0183307,136232,30378.2,-9635.15,78026,21631.7,41646.9,152677
1.928,0.0183585,136156,30531.6,-9901.38,78166.2,21305.1,41478.1,152357
1.93,0.0183863,136080,30684.9,-10167.6,78306.5,20978.4,41309.3,152037
1.932,0.0184141,136004,30838.2,-10433.9,78446.8,20651.7,41140.6,151717
1.934,0.0184419,136587,31046.7,-10155.5,78740.5,20798.1,41068.5,152126
1.936,0.0184696,137569,31288.8,-9546.1,79127.3,21231.9,41055.3,152979
1.938,0.0184973,138552,31530.8,-8936.7,79514.2,21665.8,41042.1,153831
1.94,0.018525,139535,31772.9,-8327.25,79901,22099.7,41028.9,154684
1.942,0.0185528,143027,32409.2,-7516.57,79345.6,22507.2,40837.7,157564
1.944,0.0185805,147754,33239.6,-6606.75,78326.1,22901.8,40558.9,161443
1.946,0.0186083,152482,34070,-5696.93,77306.5,23296.3,40280.1,165321
1.948,0.0186361,157210,34900.4,-4787.1,76286.9,23690.9,40001.3,169200
1.95,0.0186639,161938,35730.9,-3877.22,75267.3,24085.5,39722.4,173079
1.952,0.0186917,166665,36561.4,-2967.4,74247.7,24480,39443.6,176958
1.954,0.0187194,171393,37391.8,-2057.58,73228.1,24874.6,39164.8,180837
1.956,0.0187472,176121,38222.2,-1147.75,72208.6,25269.2,38886,184715
1.958,0.018775,180848,39052.6,-237.93,71189,25663.7,38607.1,188594
1.96,0.0188028,185576,39883.1,671.948,70169.4,26058.3,38328.3,192473
1.962,0.0188306,190000,40671.1,1728.95,69416.3,26589.5,38051.9,196033
1.964,0.0188585,192827,41235.6,3559.45,70064.1,27838.4,37788.5,197920
1.966,0.0188864,195654,41800.2,5389.94,70711.9,29087.4,37525.1,199808
1.968,0.0189143,198481,42364.8,7220.54,71359.7,30336.4,37261.6,201695
1.97,0.0189422,201308,42929.4,9051.04,72007.4,31585.4,36998.2,203582
1.972,0.0189701,204135,43493.9,10881.5,72655.2,32834.4,36734.8,205469
1.974,0.018998,206962,44058.5,12712,73303,34083.3,36471.3,207357
1.976,0.0190258,211699,44692.8,14413.9,75953,34483.7,37186.6,210223
1.978,0.0190537,217133,45352.6,16069,79332.2,34575.2,38258.2,213446
1.98,0.0190815,222566,46012.3,17724.1,82711.2,34666.6,39329.7,216669
1.982,0.0191094,227999,46672,19379.1,86090.2,34758.1,40401.2,219891
1.984,0.0191372,233432,47331.8,21034.2,89469.2,34849.6,41472.8,223114
1.986,0.0191651,238865,47991.5,22689.2,92848.2,34941,42544.3,226337
1.988,0.0191929,240443,47558.9,24036,94174.7,36295.8,42391.2,228237
1.99,0.0192207,232290,44369.5,24604.3,90320.1,40839.2,39147.1,226798
1.992,0.0192485,224138,41180,25172.7,86465.5,45382.5,35902.9,225359
1.994,0.0192763,215985,37990.6,25741,82610.8,49925.9,32658.8,223920
1.996,0.0193041,207832,34800.9,26309.4,78756,54469.5,29414.4,222481
1.998,0.0193319,199679,31611.5,26877.7,74901.4,59012.8,26170.3,221042
2,0.0193597,191526,28422,27446.1,71046.7,63556.2,22926.1,219604
