"arc_length","Displacement_Magnitude","Sxx","Sxy","Sxz","Syy","Syz","Szz","Von_Mises_Stress"
0,0,1.19798e+06,-69048.5,-6467.04,2.41121e+06,484110,1.03174e+06,1.55841e+06
0.002,1.84002e-06,1.13821e+06,-63095.4,-5622.79,2.32249e+06,454020,951906,1.52112e+06
0.004,2.98773e-06,1.10573e+06,-60590.7,-4613.12,2.26675e+06,436674,913606,1.49601e+06
0.006,3.95381e-06,1.08217e+06,-59212.4,-3549.39,2.22178e+06,423490,888874,1.47489e+06
0.008,4.9433e-06,1.0586e+06,-57834.1,-2485.67,2.17682e+06,410306,864141,1.45377e+06
0.01,5.94454e-06,1.03503e+06,-56455.9,-1421.95,2.13185e+06,397122,839408,1.43264e+06
0.012,6.95245e-06,1.01146e+06,-55077.6,-358.232,2.08689e+06,383938,814676,1.41152e+06
0.014,7.96449e-06,987893,-53699.3,705.489,2.04193e+06,370754,789943,1.3904e+06
0.016,8.94526e-06,964314,-51907.3,1914.8,1.99583e+06,358531,766620,1.36949e+06
0.018,9.84172e-06,940707,-49072.2,3491.17,1.94686e+06,348732,746850,1.34911e+06
0.02,1.0739e-05,917101,-46237.1,5067.54,1.8979e+06,338932,727080,1.32872e+06
0.022,1.1637e-05,893494,-43401.9,6643.91,1.84894e+06,329133,707310,1.30834e+06
0.024,1.25354e-05,869888,-40566.8,8220.28,1.79997e+06,319334,687540,1.28796e+06
0.026,1.34343e-05,846282,-37731.7,9796.65,1.75101e+06,309534,667770,1.26758e+06
0.028,1.43335e-05,822675,-34896.6,11373,1.70204e+06,299735,648000,1.24719e+06
0.03,1.5233e-05,799069,-32061.5,12949.4,1.65308e+06,289936,628230,1.22681e+06
0.032,1.61327e-05,775462,-29226.4,14525.8,1.60412e+06,280137,608460,1.20643e+06
0.034,1.70325e-05,751856,-26391.2,16102.1,1.55515e+06,270337,588690,1.18605e+06
0.036,1.79326e-05,728250,-23556.1,17678.5,1.50619e+06,260538,568920,1.16566e+06
0.038,1.88328e-05,704643,-20721,19254.9,1.45723e+06,250739,549149,1.14528e+06
0.04,1.97331e-05,681037,-17885.9,20831.2,1.40826e+06,240939,529379,1.1249e+06
0.042,2.06335e-05,657430,-15050.8,22407.6,1.3593e+06,231140,509609,1.10452e+06
0.044,2.1534e-05,633824,-12215.6,23984,1.31034e+06,221341,489839,1.08413e+06
0.046,2.24346e-05,610217,-9380.53,25560.3,1.26137e+06,211542,470069,1.06375e+06
0.048,2.33352e-05,586611,-6545.41,27136.7,1.21241e+06,201742,450299,1.04337e+06
0.05,2.52495e-05,559394,-4397.46,29591.5,1.17752e+06,196284,418645,1.04285e+06
0.052,2.75309e-05,530875,-2497.32,32363.1,1.14772e+06,192391,382704,1.04948e+06
0.054,2.98138e-05,502357,-597.195,35134.7,1.11791e+06,188497,346764,1.05612e+06
0.056,3.20978e-05,473838,1302.94,37906.2,1.0881e+06,184604,310824,1.06276e+06
0.058,3.43827e-05,445319,3203.06,40677.8,1.05829e+06,180711,274883,1.0694e+06
0.06,3.66684e-05,416800,5103.19,43449.4,1.02848e+06,176818,238943,1.07604e+06
0.062,3.89546e-05,388281,7003.32,46221,998676,172925,203002,1.08268e+06
0.064,4.11624e-05,384283,6386.85,46264.7,992601,176338,200544,1.08468e+06
0.066,4.3397e-05,382069,5587.3,46110,988253,180282,200521,1.08635e+06
0.068,4.56605e-05,379855,4787.74,45955.3,983904,184227,200499,1.08802e+06
0.07,4.79488e-05,377641,3988.18,45800.6,979555,188171,200476,1.08968e+06
0.072,5.02535e-05,372708,1437.28,45966.7,971319,187083,189888,1.08951e+06
0.074,5.25684e-05,367335,-1396.18,46184.7,962455,185183,177596,1.08903e+06
0.076,5.48924e-05,361963,-4229.63,46402.6,953591,183282,165303,1.08856e+06
0.078,5.72244e-05,356591,-7063.08,46620.5,944728,181382,153010,1.08809e+06
0.08,5.95634e-05,351219,-9896.53,46838.4,935864,179482,140718,1.08761e+06
0.082,6.19087e-05,345846,-12730,47056.4,927000,177582,128425,1.08714e+06
0.084,6.42595e-05,340474,-15563.4,47274.3,918136,175682,116133,1.08667e+06
0.086,6.66154e-05,335102,-18396.9,47492.2,909273,173782,103840,1.08619e+06
0.088,6.89761e-05,330932,-20920.6,47465.7,901946,172609,93305.7,1.0871e+06
0.09,7.13459e-05,333243,-21774.9,46121.5,902905,175353,92247.8,1.09546e+06
0.092,7.37233e-05,335555,-22629.1,44777.3,903864,178097,91189.8,1.10383e+06
0.094,7.61078e-05,337866,-23483.4,43433.2,904823,180841,90131.9,1.11219e+06
0.096,7.84987e-05,340177,-24337.6,42089,905782,183585,89073.9,1.12055e+06
0.098,8.08953e-05,342489,-25191.9,40744.8,906741,186329,88016,1.12891e+06
0.1,8.3568e-05,348986,-26613.1,39923.6,918573,189556,88326.8,1.14489e+06
0.102,8.7116e-05,368973,-29861.7,40787.8,965446,194338,93049.4,1.18545e+06
0.104,9.06656e-05,388960,-33110.3,41652.1,1.01232e+06,199120,97772.1,1.226e+06
0.106,9.42166e-05,408947,-36358.8,42516.4,1.05919e+06,203902,102495,1.26656e+06
0.108,9.77689e-05,428934,-39607.4,43380.6,1.10607e+06,208684,107217,1.30711e+06
0.11,0.000101322,448921,-42856,44244.9,1.15294e+06,213466,111940,1.34767e+06
0.112,0.000104877,468908,-46104.6,45109.1,1.19982e+06,218248,116663,1.38822e+06
0.114,0.000108432,488896,-49353.2,45973.4,1.24669e+06,223030,121385,1.42878e+06
0.116,0.000112141,482591,-49632.7,44830.8,1.22911e+06,224413,119290,1.41704e+06
0.118,0.000116015,448319,-46753.9,41553.3,1.14297e+06,222180,109941,1.34967e+06
0.12,0.000119889,414046,-43875.1,38275.9,1.05683e+06,219946,100592,1.2823e+06
0.122,0.000123763,379774,-40996.3,34998.4,970695,217713,91243.6,1.21493e+06
0.124,0.000127638,345502,-38117.4,31721,884557,215480,81895,1.14756e+06
0.126,0.000131513,311229,-35238.6,28443.5,798418,213246,72546.3,1.08019e+06
0.128,0.000135388,276957,-32359.8,25166.1,712279,211013,63197.7,1.01282e+06
0.13,0.000139264,242684,-29481,21888.7,626141,208780,53849.1,945457
0.132,0.000143409,229615,-29285.8,19647.3,592269,207342,50157.4,921347
0.134,0.000147722,229090,-30678.3,18018.9,589319,206375,49812.4,922830
0.136,0.000152047,228565,-32070.8,16390.5,586368,205408,49467.4,924312
0.138,0.000156381,228041,-33463.3,14762.1,583418,204441,49122.4,925795
0.14,0.000160726,227516,-34855.8,13133.7,580468,203474,48777.4,927278
0.142,0.000165078,226991,-36248.3,11505.3,577518,202507,48432.4,928761
0.144,0.000169439,226466,-37640.8,9876.9,574567,201540,48087.4,930244
0.146,0.000173807,225941,-39033.3,8248.5,571617,200572,47742.4,931726
0.148,0.000178182,225416,-40425.8,6620.1,568667,199605,47397.5,933209
0.15,0.000182564,224891,-41818.3,4991.69,565716,198638,47052.5,934692
0.152,0.000186951,224366,-43210.8,3363.3,562766,197671,46707.5,936175
0.154,0.000191344,223841,-44603.4,1734.9,559816,196704,46362.5,937657
0.156,0.000195742,223316,-45995.9,106.502,556866,195737,46017.5,939140
0.158,0.000200145,222791,-47388.4,-1521.9,553915,194770,45672.5,940623
0.16,0.000204552,222266,-48780.9,-3150.29,550965,193803,45327.5,942106
0.162,0.000208963,221741,-50173.4,-4778.69,548015,192836,44982.6,943589
0.164,0.000213379,221217,-51565.9,-6407.09,545065,191869,44637.6,945071
0.166,0.000217798,220692,-52958.4,-8035.48,542114,190902,44292.6,946554
0.168,0.00022222,220167,-54350.9,-9663.88,539164,189934,43947.6,948037
0.17,0.000226646,219642,-55743.4,-11292.3,536214,188967,43602.6,949520
0.172,0.000231075,219117,-57135.9,-12920.7,533264,188000,43257.6,951003
0.174,0.000235415,220790,-58076,-11335.3,538979,187107,42666.7,949531
0.176,0.000239708,223664,-58768.8,-7993.95,549431,186253,41941.3,946446
0.178,0.000244496,223910,-58670.5,-9402.91,550855,184752,43369.7,935306
0.18,0.000249754,222729,-57982.1,-14878.2,546922,182641,47285,919666
0.182,0.000255307,232108,-58666.4,-18001.1,574168,180229,57386.8,935025
0.184,0.00026086,241487,-59350.7,-21124.1,601416,177818,67488.7,950384
0.186,0.000266415,250866,-60034.9,-24247.1,628663,175406,77590.6,965743
0.188,0.00027197,260245,-60719.2,-27370.1,655909,172994,87692.4,981102
0.19,0.000277525,269624,-61403.5,-30493,683157,170582,97794.2,996461
0.192,0.000283082,279003,-62087.7,-33616,710404,168170,107896,1.01182e+06
0.194,0.000288639,288383,-62772,-36739,737651,165759,117998,1.02718e+06
0.196,0.000294196,297762,-63456.2,-39862,764898,163347,128100,1.04254e+06
0.198,0.000299949,301642,-62377.4,-40173.9,772609,160925,131753,1.04056e+06
0.2,0.000305775,303525,-60658,-39464.5,773223,158500,133064,1.03228e+06
0.202,0.000311605,305408,-58938.6,-38755.1,773837,156075,134375,1.02401e+06
0.204,0.000317438,307291,-57219.2,-38045.7,774451,153650,135685,1.01573e+06
0.206,0.000323273,309174,-55499.8,-37336.3,775064,151226,136996,1.00745e+06
0.208,0.000329111,311057,-53780.4,-36626.9,775678,148801,138307,999175
0.21,0.000334952,312940,-52061.1,-35917.5,776292,146376,139617,990899
0.212,0.000340795,314822,-50341.7,-35208.1,776906,143951,140928,982622
0.214,0.00034664,316705,-48622.3,-34498.7,777520,141526,142238,974345
0.216,0.000352488,318588,-46902.9,-33789.3,778134,139101,143549,966068
0.218,0.000358338,320471,-45183.5,-33079.9,778747,136676,144860,957791
0.22,0.000364189,322354,-43464.1,-32370.5,779361,134251,146170,949514
0.222,0.000370043,324237,-41744.7,-31661.1,779975,131826,147481,941237
0.224,0.000375898,326120,-40025.3,-30951.8,780589,129401,148792,932960
0.226,0.000382166,315096,-37427.5,-24314.8,763275,126946,143438,922006
0.228,0.000388444,303770,-34809,-17538.7,745540,124490,137927,910990
0.23,0.000394722,292443,-32190.5,-10762.6,727804,122034,132417,899973
0.232,0.000401001,281117,-29572.1,-3986.54,710069,119578,126906,888956
0.234,0.000407279,269790,-26953.6,2789.56,692334,117122,121395,877940
0.236,0.000413558,258464,-24335.1,9565.67,674599,114666,115885,866923
0.238,0.000419838,247137,-21716.7,16341.8,656864,112210,110374,855906
0.24,0.000426343,244733,-21437.5,21047.8,651242,111390,109671,867488
0.242,0.000432899,244259,-21664.1,25306.3,648238,110924,110008,883954
0.244,0.000439457,243784,-21890.7,29564.9,645235,110457,110345,900421
0.246,0.000446017,243309,-22117.2,33823.4,642231,109991,110681,916888
0.248,0.000452578,242834,-22343.8,38081.9,639228,109524,111018,933354
0.25,0.000459141,242359,-22570.4,42340.4,636224,109058,111354,949821
0.252,0.000465705,241884,-22797,46599,633220,108592,111691,966288
0.254,0.000472271,241409,-23023.5,50857.5,630217,108125,112027,982755
0.256,0.000478838,240934,-23250.1,55116,627213,107659,112364,999221
0.258,0.000485407,240459,-23476.7,59374.5,624210,107192,112700,1.01569e+06
0.26,0.000491977,239984,-23703.2,63633,621206,106726,113037,1.03215e+06
0.262,0.000498904,235011,-21902.2,65864.9,617291,110300,112910,1.0399e+06
0.264,0.000505901,229157,-19703.8,67699.7,613197,114665,112693,1.04595e+06
0.266,0.000512898,223302,-17505.4,69534.5,609103,119030,112476,1.05199e+06
0.268,0.000519896,217448,-15307,71369.3,605008,123395,112259,1.05803e+06
0.27,0.000526893,211593,-13108.6,73204.1,600914,127760,112041,1.06407e+06
0.272,0.000533891,205739,-10910.3,75038.9,596820,132125,111824,1.07012e+06
0.274,0.000540963,200981,-8536.29,76389.6,592744,136010,111648,1.07444e+06
0.276,0.000548376,201307,-5348.14,75496.4,588750,137667,111664,1.07077e+06
0.278,0.00055579,201634,-2159.99,74603.2,584756,139324,111680,1.06711e+06
0.28,0.000563204,201960,1028.17,73710,580762,140980,111696,1.06345e+06
0.282,0.000570912,207970,3731.73,71068.2,589158,138583,110286,1.04679e+06
0.284,0.000578732,216178,6247.85,67750,602347,134617,108323,1.02511e+06
0.286,0.000586553,224387,8763.97,64431.8,615536,130652,106361,1.00343e+06
0.288,0.000594374,232595,11280,61113.6,628725,126686,104399,981750
0.29,0.000602196,240804,13796.2,57795.4,641914,122721,102437,960069
0.292,0.000610017,249012,16312.3,54477.2,655103,118755,100474,938387
0.294,0.000617918,252804,16080.7,50887,668078,118191,99987.3,922975
0.296,0.000625833,255877,15401.8,47252.4,681018,118180,99740.3,908584
0.298,0.000633749,258950,14722.9,43617.9,693958,118169,99493.3,894192
0.3,0.000641666,262023,14043.9,39983.4,706898,118158,99246.3,879801
0.302,0.000649584,265097,13365,36348.9,719837,118147,98999.3,865410
0.304,0.000657504,268170,12686.1,32714.4,732777,118136,98752.3,851018
0.306,0.000665425,271243,12007.2,29079.9,745717,118125,98505.3,836627
0.308,0.000673347,274316,11328.3,25445.3,758657,118114,98258.4,822236
0.31,0.00068127,277389,10649.4,21810.8,771596,118103,98011.4,807844
0.312,0.000689208,280400,9898.98,17971.2,783958,118101,97891.5,793733
0.314,0.000697522,281696,7176.98,8474.9,780368,118357,101279,787350
0.316,0.000705837,282991,4454.98,-1021.39,776779,118613,104667,780966
0.318,0.000714152,284287,1733.02,-10517.5,773190,118869,108055,774582
0.32,0.000722468,285583,-988.98,-20013.8,769600,119126,111442,768199
0.322,0.000730783,286879,-3710.98,-29510.1,766011,119382,114830,761815
0.324,0.000739099,288174,-6432.98,-39006.4,762421,119638,118218,755431
0.326,0.000747435,289035,-8946.98,-47440.7,757533,119717,121467,751207
0.328,0.000755949,286091,-9640.18,-46578.7,741273,118253,123501,765881
0.33,0.000764465,283147,-10333.4,-45716.8,725014,116788,125535,780555
0.332,0.000772981,280203,-11026.6,-44854.9,708755,115323,127568,795229
0.334,0.000781498,277259,-11719.8,-43992.9,692496,113859,129602,809903
0.336,0.000790016,274315,-12413,-43130.9,676237,112394,131636,824577
0.338,0.000798535,271371,-13106.2,-42269,659977,110929,133670,839251
0.34,0.000807055,268426,-13799.4,-41407,643718,109464,135704,853925
0.342,0.000815575,265482,-14492.6,-40545.1,627459,108000,137738,868599
0.344,0.000824097,262538,-15185.8,-39683.1,611200,106535,139772,883274
0.346,0.000832618,259594,-15879,-38821.2,594941,105070,141806,897947
0.348,0.000841299,254157,-16140.3,-36602,578374,104107,141131,901511
0.35,0.000850263,244235,-15624.4,-31940.4,561254,104046,135580,885081
0.352,0.000859228,234313,-15108.5,-27278.7,544133,103985,130029,868650
0.354,0.000868193,224391,-14592.6,-22617.1,527013,103924,124477,852220
0.356,0.000877158,214469,-14076.6,-17955.5,509893,103863,118926,835789
0.358,0.000886123,204547,-13560.7,-13293.9,492772,103802,113375,819359
0.36,0.000895088,194624,-13044.8,-8632.23,475652,103741,107824,802928
0.362,0.000904053,184702,-12528.9,-3970.68,458532,103680,102273,786498
0.364,0.000913179,183797,-12599.5,-2783.85,461215,102100,100616,779349
0.366,0.000922335,184549,-12777.9,-2236.23,467540,100241,99675.4,773907
0.368,0.000931493,185302,-12956.4,-1688.61,473866,98382.5,98734.8,768465
0.37,0.000940651,186055,-13134.9,-1141,480192,96523.7,97794.2,763023
0.372,0.00094981,186808,-13313.4,-593.38,486517,94664.8,96853.6,757581
0.374,0.00095897,187561,-13491.8,-45.7623,492843,92806,95912.9,752139
0.376,0.00096813,188313,-13670.3,501.847,499169,90947.1,94972.3,746697
0.378,0.000977292,189066,-13848.8,1049.46,505494,89088.3,94031.7,741255
0.38,0.000986454,189819,-14027.2,1597.08,511820,87229.4,93091.1,735813
0.382,0.000995631,191258,-14306,2055,520790,85797.3,92721.2,728143
0.384,0.00100486,194955,-14915,2217.5,538467,85770.8,94231,713131
0.386,0.00101409,198652,-15524.1,2380,556145,85744.3,95740.8,698119
0.388,0.00102331,202349,-16133.2,2542.5,573823,85717.7,97250.6,683107
0.39,0.00103254,206046,-16742.2,2705,591500,85691.2,98760.3,668095
0.392,0.00104177,209743,-17351.3,2867.5,609178,85664.6,100270,653084
0.394,0.0010512,211732,-17685.5,3475.1,621945,86021.9,102277,640432
0.396,0.00106103,210210,-17454.8,4997.4,624621,87167.8,105304,632632
0.398,0.00107086,208688,-17224.2,6519.7,627296,88313.8,108331,624832
0.4,0.0010807,207166,-16993.6,8042,629972,89459.8,111358,617032
0.402,0.00109053,205644,-16763,9564.3,632648,90605.7,114385,609232
0.404,0.00110036,204122,-16532.4,11086.6,635324,91751.7,117412,601432
0.406,0.00111019,202601,-16301.7,12608.9,637999,92897.6,120439,593632
0.408,0.00112002,201079,-16071.1,14131.2,640675,94043.6,123466,585832
0.41,0.00112995,196239,-14975.5,15254.2,635441,94792.9,123695,586223
0.412,0.00114012,187870,-13423.5,14712.4,613045,93430,118743,599975
0.414,0.00115029,179501,-11871.6,14170.6,590648,92067,113791,613726
0.416,0.00116046,171132,-10319.6,13628.8,568252,90704.1,108839,627478
0.418,0.00117063,162763,-8767.64,13087,545856,89341.2,103888,641229
0.42,0.0011808,154394,-7215.69,12545.3,523461,87978.3,98936,654980
0.422,0.00119097,146025,-5663.72,12003.5,501064,86615.4,93984.3,668732
0.424,0.00120114,137656,-4111.76,11461.7,478668,85252.5,89032.6,682483
0.426,0.00121131,129287,-2559.79,10919.9,456272,83889.6,84080.9,696235
0.428,0.00122148,120918,-1007.82,10378.1,433876,82526.7,79129.1,709986
0.43,0.00123165,112549,544.144,9836.33,411480,81163.8,74177.4,723738
0.432,0.0012418,106184,215.383,8742.35,388923,79205.5,71242.4,729256
0.434,0.00125193,101558,-1745.11,7169.3,366226,76730.7,70057,727631
0.436,0.00126206,96933,-3705.62,5596.23,343528,74255.8,68871.7,726006
0.438,0.00127219,92307.5,-5666.14,4023.16,320831,71781,67686.4,724381
0.44,0.00128231,87681.9,-7626.66,2450.08,298134,69306.1,66501.1,722756
0.442,0.00129244,83056.4,-9587.17,877.009,275436,66831.3,65315.7,721131
0.444,0.00130279,83456.5,-15917.2,-455.504,263752,63336.4,66012.4,716984
0.446,0.00131333,87978.9,-25831.2,-1590.7,261101,59004.7,68252.9,710769
0.448,0.00132386,92501.2,-35745.3,-2725.89,258451,54673.1,70493.3,704554
0.45,0.00133439,97023.5,-45659.2,-3861.07,255800,50341.5,72733.7,698339
0.452,0.00134528,102862,-45056.1,-2195.36,274416,50356.2,76894.8,689963
0.454,0.00135621,108802,-43640.1,-313.188,294675,50706.8,81204.3,681420
0.456,0.00136713,114742,-42224.2,1568.98,314935,51057.4,85513.9,672877
0.458,0.00137806,120681,-40808.2,3451.15,335194,51408,89823.4,664334
0.46,0.00138899,126621,-39392.3,5333.32,355454,51758.6,94133,655791
0.462,0.00139991,132561,-37976.4,7215.5,375713,52109.2,98442.5,647248
0.464,0.00141084,138501,-36560.4,9097.64,395972,52459.8,102752,638705
0.466,0.00142176,144441,-35144.5,10979.8,416232,52810.3,107062,630162
0.468,0.00143269,150381,-33728.5,12862,436491,53160.9,111371,621619
0.47,0.00144362,156321,-32312.6,14744.2,456751,53511.5,115681,613076
0.472,0.00145455,162261,-30896.7,16626.3,477010,53862.1,119990,604533
0.474,0.00146547,168201,-29480.7,18508.5,497269,54212.7,124300,595990
0.476,0.0014764,174141,-28064.8,20390.7,517529,54563.3,128609,587447
0.478,0.0014873,179246,-24563.7,22444.7,535723,55226.6,133223,576906
0.48,0.00149815,183245,-18301.5,24726.3,551183,56304.1,138238,563719
0.482,0.00150901,187245,-12039.4,27007.9,566643,57381.6,143254,550531
0.484,0.00151986,191245,-5777.17,29289.5,582103,58459.2,148270,537344
0.486,0.00153072,195245,485.017,31571.1,597562,59536.7,153286,524156
0.488,0.00154168,195518,6865.97,33102.2,607020,59225.7,154789,515630
0.49,0.00155288,187252,13519.2,32913.3,602720,55732,148240,517789
0.492,0.00156408,178985,20172.4,32724.4,598419,52238.3,141692,519949
0.494,0.00157529,170718,26825.5,32535.4,594119,48744.6,135144,522108
0.496,0.00158649,162451,33478.7,32346.5,589818,45250.9,128595,524267
0.498,0.0015977,154184,40131.9,32157.6,585518,41757.2,122047,526426
0.5,0.00160906,147561,43112.6,31652.3,581424,39693.1,115199,528588
0.502,0.00162054,142543,42535,30487.6,577820,38378.9,108263,531698
0.504,0.00163198,139274,38207.3,26669.1,576338,34329.5,102345,541058
0.506,0.00164341,136211,34138.5,23063.5,574631,30566.4,96727.1,549773
0.508,0.00165479,134869,32237.2,21240.3,571024,29200.5,93621.7,553083
0.51,0.00166616,133527,30336,19417.1,567417,27834.7,90516.4,556393
0.512,0.00167753,132185,28434.7,17593.9,563810,26468.8,87411,559703
0.514,0.00168891,130843,26533.5,15770.8,560204,25102.9,84305.6,563013
0.516,0.00170028,129501,24632.3,13947.6,556597,23737.1,81200.3,566323
0.518,0.00171165,128159,22731,12124.4,552990,22371.2,78094.9,569633
0.52,0.00172303,126817,20829.8,10301.3,549383,21005.3,74989.6,572943
0.522,0.0017344,125475,18928.5,8478.1,545777,19639.4,71884.1,576253
0.524,0.00174578,124133,17027.3,6654.96,542170,18273.6,68778.8,579563
0.526,0.00175715,122791,15126,4831.76,538563,16907.7,65673.4,582873
0.528,0.00176859,121593,13930.4,3815.8,535686,16495.9,63211.9,586270
0.53,0.00178027,120999,15707.3,6200.08,535883,20103.3,63462.9,590033
0.532,0.00179195,120404,17484.2,8584.44,536080,23710.8,63713.9,593796
0.534,0.00180363,119810,19261.1,10968.7,536277,27318.2,63964.9,597559
0.536,0.00181531,119216,21038,13353.1,536474,30925.7,64215.9,601322
0.538,0.00182699,118622,22814.9,15737.4,536670,34533.1,64466.8,605085
0.54,0.00183868,118063,24480.8,18083.5,536356,38099.1,64731.8,608141
0.542,0.00185046,118169,24101.8,19725.4,526617,40900.8,65255,598160
0.544,0.00186246,117851,22017.1,19581.3,513737,43090,65523.5,588331
0.546,0.00187463,117204,18613.2,18055.7,498428,44805.3,65595.1,578619
0.548,0.0018868,116558,15209.4,16530.1,483119,46520.6,65666.6,568907
0.55,0.00189897,115912,11805.4,15004.5,467810,48235.9,65738.2,559195
0.552,0.00191114,115265,8401.51,13478.9,452500,49951.2,65809.7,549483
0.554,0.00192331,114619,4997.54,11953.3,437191,51666.5,65881.3,539771
0.556,0.00193561,114568,3682.66,13748,433680,52244.8,65533.2,556538
0.558,0.00194795,114658,2860.09,16325.3,432951,52555.1,65086.3,579546
0.56,0.00196028,114749,2037.54,18902.5,432221,52865.3,64639.3,602553
0.562,0.00197262,114839,1215,21479.8,431491,53175.6,64192.3,625561
0.564,0.00198495,114929,392.431,24057.1,430761,53485.9,63745.3,648569
0.566,0.00199729,115019,-430.113,26634.3,430032,53796.2,63298.4,671577
0.568,0.00200962,115109,-1252.68,29211.6,429302,54106.4,62851.4,694585
0.57,0.00202196,115199,-2075.22,31788.8,428572,54416.7,62404.4,717593
0.572,0.0020343,115289,-2897.79,34366.1,427842,54727,61957.5,740601
0.574,0.00204675,114434,-3296.95,37310.8,417122,54664.6,58840.4,748347
0.576,0.0020593,111782,-4025.91,40325.8,412006,54635.8,58542.9,746273
0.578,0.00207186,108981,-4830.72,43320,408405,54641.4,58816.9,744196
0.58,0.00208441,106179,-5635.51,46314.1,404803,54647,59090.8,742120
0.582,0.00209697,103378,-6440.33,49308.4,401202,54652.5,59364.8,740043
0.584,0.00210953,100576,-7245.12,52302.5,397601,54658.1,59638.8,737966
0.586,0.00212208,97775,-8049.93,55296.7,394000,54663.7,59912.8,735889
0.588,0.00213464,94973.5,-8854.72,58290.9,390398,54669.3,60186.7,733813
0.59,0.0021472,92172.1,-9659.51,61285,386797,54674.8,60460.7,731736
0.592,0.00215976,89370.6,-10464.3,64279.3,383196,54680.4,60734.7,729659
0.594,0.00217231,86569.2,-11269.1,67273.4,379595,54686,61008.7,727583
0.596,0.00218504,85965.2,-11729.4,68610.5,378935,56151.6,62973.3,723707
0.598,0.00219786,86796.6,-11964.6,68865.4,380198,58570.6,66042.1,718655
0.6,0.00221069,87627.9,-12199.8,69120.2,381461,60989.8,69111,713604
0.602,0.00222349,88717.6,-12273.8,68415.9,381071,63613.4,71418.5,703589
0.604,0.00223627,89930.2,-12271,67254.8,379894,66334.5,73363.3,691210
0.606,0.00224905,91142.8,-12268.3,66093.6,378717,69055.7,75308.3,678830
0.608,0.00226184,92355.4,-12265.5,64932.5,377540,71776.8,77253.2,666451
0.61,0.00227462,93568.1,-12262.8,63771.4,376363,74497.9,79198.1,654072
0.612,0.0022874,94780.7,-12260,62610.3,375186,77219,81143,641692
0.614,0.00230018,95993.4,-12257.3,61449.2,374009,79940.2,83087.9,629313
0.616,0.00231297,97206,-12254.5,60288.1,372832,82661.3,85032.8,616934
0.618,0.00232575,98418.6,-12251.8,59127,371655,85382.4,86977.6,604554
0.62,0.00233857,98644.9,-11780.2,57342.6,369135,88043.9,88580,596717
0.622,0.00235152,95503.6,-9707.74,53430,362027,90501.8,89012.4,604391
0.624,0.00236446,92362.1,-7635.24,49517.4,354919,92959.7,89444.9,612065
0.626,0.00237752,89300,-6159.35,46268.2,348707,93433.2,89898.7,613617
0.628,0.00239069,86317.8,-5286.38,43689.3,343402,91901,90374.1,608980
0.63,0.00240386,83335.7,-4413.43,41110.4,338097,90368.8,90849.5,604343
0.632,0.00241702,80353.5,-3540.46,38531.5,332792,88836.7,91324.9,599707
0.634,0.00243019,77371.4,-2667.51,35952.7,327487,87304.5,91800.3,595070
0.636,0.00244343,74926,-2136.31,34335.1,322413,85508.9,92083.1,590684
0.638,0.00245684,73808.6,-2450.58,35095.8,317907,83061.5,91889.3,586917
0.64,0.00247025,72691.2,-2764.85,35856.4,313402,80614.2,91695.6,583150
0.642,0.00248366,71573.7,-3079.12,36617,308897,78166.8,91501.9,579383
0.644,0.00249708,70456.3,-3393.38,37377.7,304392,75719.4,91308.1,575616
0.646,0.00251058,69649.3,-3343.33,37276.7,302267,73663.8,90388,571894
0.648,0.00252422,69326.3,-2725.26,35832.4,303851,72219,88335.5,568239
0.65,0.00253785,69003.3,-2107.19,34388,305436,70774.1,86282.9,564585
0.652,0.00255149,68680.2,-1489.11,32943.6,307020,69329.3,84230.3,560931
0.654,0.00256513,68357.2,-871.036,31499.3,308605,67884.5,82177.7,557277
0.656,0.00257877,68034.2,-252.948,30054.9,310190,66439.6,80125.1,553623
0.658,0.00259241,67711.2,365.122,28610.6,311774,64994.8,78072.5,549969
0.66,0.00260605,67388.1,983.21,27166.2,313359,63549.9,76019.9,546315
0.662,0.00261969,67065.1,1601.28,25721.9,314943,62105.1,73967.3,542661
0.664,0.00263333,66742.1,2219.35,24277.5,316528,60660.3,71914.8,539007
0.666,0.00264697,66419.1,2837.44,22833.2,318112,59215.4,69862.2,535352
0.668,0.00266061,66096.1,3455.51,21388.8,319697,57770.6,67809.6,531698
0.67,0.00267425,65773,4073.6,19944.4,321282,56325.7,65757,528044
0.672,0.00268789,65450,4691.67,18500.1,322866,54880.9,63704.4,524390
0.674,0.00270153,65127,5309.75,17055.7,324451,53436,61651.8,520736
0.676,0.00271517,64804,5927.82,15611.4,326035,51991.2,59599.2,517082
0.678,0.00272881,64481,6545.89,14167,327620,50546.4,57546.6,513428
0.68,0.00274246,64129.9,7193.5,12625.5,328745,49310,55221.4,509809
0.682,0.00275627,63203.7,8446.27,9091.04,320448,52347.9,47306.5,506911
0.684,0.00277007,62277.4,9699.08,5556.5,312151,55385.9,39391.4,504014
0.686,0.00278388,61351.2,10951.8,2022.06,303854,58423.8,31476.5,501116
0.688,0.00279769,60425,12204.7,-1512.48,295557,61461.8,23561.4,498218
0.69,0.00281149,59498.7,13457.4,-5046.92,287261,64499.6,15646.6,495321
0.692,0.0028253,58572.5,14710.2,-8581.35,278964,67537.5,7731.69,492423
0.694,0.00283911,57646.3,15963,-12115.9,270667,70575.5,-183.426,489526
0.696,0.00285291,56720.1,17215.8,-15650.3,262370,73613.4,-8098.3,486628
0.698,0.0028668,56142.1,17721.1,-17502.7,256435,76067.8,-14159.6,481734
0.7,0.00288085,56290.6,16667.6,-15846.8,255425,77304.7,-16354.4,472676
0.702,0.00289491,56439.1,15614,-14190.8,254415,78541.8,-18549.3,463618
0.704,0.00290896,56587.6,14560.5,-12534.9,253406,79778.8,-20744.1,454560
0.706,0.00292301,56736.1,13506.9,-10879,252396,81015.8,-22938.9,445502
0.708,0.00293706,56884.6,12453.3,-9223,251387,82252.8,-25133.8,436444
0.71,0.00295112,57033.1,11399.8,-7567.08,250377,83489.8,-27328.6,427386
0.712,0.00296537,56649.3,12340.1,-8684.65,255777,83331.4,-29741.8,424264
0.714,0.00297979,55782.6,15089.5,-12318.8,266993,81907,-32353.1,426528
0.716,0.00299422,54915.8,17838.9,-15953,278210,80482.5,-34964.4,428793
0.718,0.00300865,54049.1,20588.3,-19587.2,289426,79058,-37575.6,431058
0.72,0.00302308,53182.3,23337.8,-23221.4,300642,77633.5,-40187,433323
0.722,0.00303751,52315.5,26087.2,-26855.6,311858,76209.1,-42798.2,435587
0.724,0.00305191,51951.1,29480.2,-28847.8,321986,75625.1,-44651.8,440014
0.726,0.00306626,52751.9,34366.1,-27032.5,329589,76990,-44748.5,449454
0.728,0.0030806,53552.6,39251.8,-25217.1,337193,78355,-44845.1,458894
0.73,0.00309494,54353.3,44137.6,-23401.8,344796,79719.9,-44941.7,468334
0.732,0.00310929,55154,49023.3,-21586.4,352400,81084.9,-45038.3,477774
0.734,0.00312363,55954.7,53909.1,-19771.1,360004,82449.8,-45135,487214
0.736,0.00313797,56755.4,58794.8,-17955.7,367607,83814.8,-45231.6,496654
0.738,0.00315232,57556.1,63680.5,-16140.4,375210,85179.7,-45328.2,506094
0.74,0.00316662,55467.8,60293.3,-19671.1,376012,84145.5,-49851.2,498429
0.742,0.00318092,53289.3,56647.9,-23368.6,376602,83036.5,-54512.2,490229
0.744,0.00319522,51110.8,53002.4,-27066.2,377192,81927.4,-59173.4,482029
0.746,0.00320952,48932.3,49356.9,-30763.7,377781,80818.3,-63834.5,473829
0.748,0.00322398,51453.4,48209.8,-28888,375467,80853,-58856.7,466432
0.75,0.00323844,54308.1,47240,-26616.9,372946,80968.8,-53194.9,459091
0.752,0.00325291,57162.7,46270.3,-24345.7,370426,81084.6,-47533.1,451750
0.754,0.00326738,60017.4,45300.5,-22074.4,367905,81200.4,-41871.2,444409
0.756,0.00328207,59247.7,41621,-21603.6,365438,81430.4,-36886.4,438341
0.758,0.00329677,58241.8,37764.9,-21250.1,362974,81667.9,-31945.6,432356
0.76,0.00331147,57236,33908.9,-20896.5,360511,81905.3,-27004.9,426370
0.762,0.00332623,55834.2,31289.2,-20259.7,357857,81965.5,-23027,424315
0.764,0.0033411,53716.1,30906.8,-19110.4,354860,81704.9,-20791.5,429372
0.766,0.00335597,51597.9,30524.5,-17961,351863,81444.3,-18556,434428
0.768,0.00337084,49479.7,30142.1,-16811.6,348866,81183.7,-16320.4,439484
0.77,0.00338571,47361.6,29759.7,-15662.2,345869,80923.1,-14084.9,444541
0.772,0.00340057,45243.4,29377.3,-14512.8,342872,80662.5,-11849.3,449597
0.774,0.00341541,43544.4,28430.6,-13442,337944,80242.3,-9120.77,454532
0.776,0.00343019,42685.1,26353.4,-12528.4,329150,79502.1,-5404.43,459224
0.778,0.00344497,41825.7,24276.2,-11614.8,320357,78762,-1688.2,463916
0.78,0.00345975,40966.4,22199,-10701.3,311563,78021.9,2028.03,468607
0.782,0.00347453,40107.1,20121.8,-9787.69,302769,77281.8,5744.37,473299
0.784,0.00348931,39247.7,18044.6,-8874.13,293975,76541.7,9460.6,477991
0.786,0.00350409,38388.4,15967.4,-7960.54,285181,75801.6,13176.9,482682
0.788,0.00351888,37529.1,13890.2,-7046.98,276387,75061.5,16893.2,487374
0.79,0.00353366,36669.7,11813,-6133.39,267593,74321.4,20609.5,492066
0.792,0.00354846,36063.4,9822.13,-5321.7,258675,73517.4,24338,495562
0.794,0.00356365,39307.1,9144.48,-6060.16,247875,71742.4,28253.8,480864
0.796,0.00357884,42550.8,8466.85,-6798.59,237075,69967.3,32169.5,466167
0.798,0.00359402,45794.4,7789.22,-7537.03,226275,68192.3,36085.2,451469
0.8,0.00360921,49038.1,7111.58,-8275.48,215475,66417.2,40001,436771
0.802,0.0036244,52281.7,6433.95,-9013.92,204675,64642.1,43916.7,422074
0.804,0.00363958,55525.5,5756.3,-9752.38,193875,62867,47832.5,407376
0.806,0.00365477,58769.1,5078.68,-10490.8,183075,61092,51748.2,392679
0.808,0.00366996,62012.8,4401.03,-11229.3,172274,59316.9,55664,377981
0.81,0.00368522,64665.6,3970.11,-11352.5,169327,58717,58635.1,370716
0.812,0.00370055,66839,3739.36,-10976.6,172751,59070.7,60839.7,369481
0.814,0.00371588,69012.4,3508.61,-10600.7,176176,59424.3,63044.4,368246
0.816,0.0037312,71185.8,3277.87,-10224.8,179601,59778,65249,367012
0.818,0.00374653,73359.2,3047.12,-9848.93,183025,60131.6,67453.7,365777
0.82,0.00376186,75532.6,2816.37,-9473.03,186450,60485.3,69658.3,364543
0.822,0.00377719,77706,2585.62,-9097.13,189874,60838.9,71863,363308
0.824,0.00379251,79879.4,2354.88,-8721.23,193299,61192.6,74067.6,362074
0.826,0.00380784,82052.8,2124.13,-8345.34,196723,61546.2,76272.2,360839
0.828,0.00382317,84226.2,1893.38,-7969.43,200148,61899.9,78476.9,359604
0.83,0.0038385,86399.6,1662.64,-7593.54,203572,62253.5,80681.5,358370
0.832,0.00385383,88573,1431.88,-7217.63,206997,62607.2,82886.2,357135
0.834,0.00386915,90746.4,1201.14,-6841.74,210421,62960.8,85090.8,355901
0.836,0.00388448,92919.8,970.388,-6465.83,213846,63314.5,87295.5,354666
0.838,0.00389981,95093.2,739.643,-6089.94,217270,63668.1,89500.1,353431
0.84,0.00391514,97266.6,508.899,-5714.04,220695,64021.8,91704.8,352197
0.842,0.00393042,98582.6,709.677,-5147.68,223807,64668.2,93732.5,351556
0.844,0.00394569,99827,946.552,-4565.4,226893,65339.1,95745.4,350965
0.846,0.00396097,101071,1183.43,-3983.11,229979,66010.1,97758.3,350374
0.848,0.00397624,102316,1420.31,-3400.83,233065,66681,99771.2,349783
0.85,0.00399151,103560,1657.19,-2818.54,236151,67352,101784,349192
0.852,0.00400701,103347,944.039,-1611.61,232872,67481.1,99995.5,349405
0.854,0.00402256,102836,37.0521,-277.235,228294,67499.6,97431.2,349782
0.856,0.00403814,100573,-595.62,953.315,222954,67473.7,93092.1,349802
0.858,0.00405377,95696.4,-819.063,2028.9,216478,67381.3,86105.8,349289
0.86,0.0040694,90819.5,-1042.51,3104.52,210001,67288.9,79119.3,348775
0.862,0.00408503,85942.7,-1265.96,4180.11,203525,67196.6,72133,348261
0.864,0.00410066,81065.8,-1489.41,5255.73,197048,67104.2,65146.5,347747
0.866,0.00411642,78006,-1368.34,5856.02,195288,67063.2,60837,347032
0.868,0.00413227,76152.8,-1018.48,6140.67,196661,67056.4,58305.3,346183
0.87,0.00414812,74299.5,-668.613,6425.33,198033,67049.6,55773.5,345334
0.872,0.00416397,72446.3,-318.754,6709.98,199406,67042.8,53241.8,344485
0.874,0.00417982,70593,31.1157,6994.63,200778,67036,50710,343636
0.876,0.00419567,68739.8,380.975,7279.28,202151,67029.2,48178.3,342787
0.878,0.00421151,67367.7,999.07,7871.69,204365,66950.1,46087.3,341549
0.88,0.00422735,66084.1,1666.46,8520.67,206734,66857.7,44077.5,340238
0.882,0.0042432,64800.5,2333.88,9169.67,209104,66765.4,42067.5,338928
0.884,0.00425904,63516.9,3001.27,9818.65,211473,66673,40057.7,337618
0.886,0.00427488,62233.4,3668.67,10467.6,213842,66580.7,38047.8,336307
0.888,0.00429073,60949.7,4336.08,11116.6,216211,66488.3,36037.9,334997
0.89,0.00430657,59666.2,5003.47,11765.6,218581,66396,34028,333687
0.892,0.00432241,58382.5,5670.89,12414.6,220950,66303.6,32018.1,332376
0.894,0.00433825,57099,6338.28,13063.6,223319,66211.3,30008.2,331066
0.896,0.0043541,55815.4,7005.69,13712.6,225688,66118.9,27998.3,329756
0.898,0.00436994,54531.8,7673.09,14361.6,228058,66026.6,25988.5,328445
0.9,0.00438578,53248.2,8340.48,15010.5,230427,65934.2,23978.6,327135
0.902,0.00440163,51964.6,9007.9,15659.5,232796,65841.9,21968.7,325824
0.904,0.00441765,48394.1,8359.81,15268,233071,67237.6,19390.4,328839
0.906,0.00443368,44631.8,7601.42,14789.2,233170,68758.1,16764.3,332216
0.908,0.00444971,40869.6,6843.04,14310.5,233269,70278.5,14138.4,335593
0.91,0.00446575,37107.3,6084.64,13831.7,233368,71799.1,11512.4,338971
0.912,0.00448178,33345.1,5326.26,13352.9,233467,73319.5,8886.4,342348
0.914,0.00449781,29582.9,4567.89,12874.2,233566,74840,6260.45,345725
0.916,0.00451385,25820.5,3809.49,12395.4,233665,76360.5,3634.42,349102
0.918,0.00452988,22058.3,3051.11,11916.6,233764,77881,1008.46,352480
0.92,0.00454606,19899.5,3067.8,11567,233464,79095.8,-571.925,355067
0.922,0.00456239,19464.1,3917.46,11356.2,232735,79982,-1028.53,356806
0.924,0.00457872,19028.6,4767.15,11145.5,232006,80868.2,-1485.16,358545
0.926,0.00459506,18593.1,5616.81,10934.7,231277,81754.5,-1941.77,360284
0.928,0.00461139,18157.6,6466.47,10723.9,230548,82640.7,-2398.38,362023
0.93,0.00462769,18681,7046.96,10825.6,226066,83580.7,-2722.82,359496
0.932,0.00464398,19242.8,7616.67,10939.8,221435,84522.8,-3041.97,356798
0.934,0.00466028,19804.5,8186.4,11054,216803,85465,-3361.14,354101
0.936,0.00467658,20366.2,8756.11,11168.2,212171,86407.1,-3680.29,351403
0.938,0.00469288,20928,9325.83,11282.3,207539,87349.3,-3999.45,348705
0.94,0.00470917,21489.7,9895.54,11396.5,202907,88291.4,-4318.61,346008
0.942,0.00472547,22051.4,10465.3,11510.7,198275,89233.5,-4637.76,343310
0.944,0.00474177,22613.2,11035,11624.9,193643,90175.7,-4956.92,340612
0.946,0.00475807,23174.9,11604.7,11739.1,189012,91117.8,-5276.08,337914
0.948,0.00477436,23736.7,12174.4,11853.3,184380,92060,-5595.24,335217
0.95,0.00479066,24298.4,12744.1,11967.4,179748,93002.1,-5914.39,332519
0.952,0.00480696,24860.1,13313.9,12081.6,175116,93944.3,-6233.55,329821
0.954,0.00482326,25421.9,13883.6,12195.8,170484,94886.4,-6552.71,327123
0.956,0.00483956,25983.6,14453.3,12310,165852,95828.5,-6871.86,324426
0.958,0.0048559,29651.5,16526.5,12894.3,168019,97797.4,-2972.82,325210
0.96,0.00487231,37257.5,20505.9,14074.7,178806,101068,6274.4,330410
0.962,0.00488882,49328.5,27255,15620.3,208410,105660,21490.1,350656
0.964,0.00490545,66724.4,37307.4,17601.2,260459,111829,43823.6,388845
0.966,0.00492204,78783.7,43380.1,18748.8,295322,115744,60224.1,413187
0.968,0.00493849,73750.2,36706.7,17227.8,275145,112438,57620.8,393177
0.97,0.00495494,68716.6,30033.1,15706.7,254967,109133,55017.4,373167
0.972,0.00497139,63683.1,23359.7,14185.7,234789,105828,52414.1,353156
0.974,0.00498784,58649.6,16686.3,12664.6,214612,102523,49810.8,333146
0.976,0.00500435,53900.2,11581.9,12059.8,201337,99146.6,48281.7,320048
0.978,0.00502086,49224,6880.48,11690.1,189835,95752.3,47028.4,308725
0.98,0.00503751,48583.3,6621.23,12091.5,188428,94266.9,48135.9,308426
0.982,0.00505416,48055.7,6486.48,12514.6,187304,92835.1,49309.6,308436
0.984,0.00507081,47528.1,6351.72,12937.6,186181,91403.3,50483.3,308446
0.986,0.00508746,47000.5,6216.97,13360.6,185057,89971.5,51656.9,308455
0.988,0.00510411,46472.9,6082.21,13783.6,183933,88539.7,52830.6,308465
0.99,0.00512076,45945.2,5947.46,14206.7,182809,87107.9,54004.3,308475
0.992,0.00513742,45417.6,5812.7,14629.7,181686,85676.1,55178,308485
0.994,0.00515407,44890,5677.95,15052.7,180562,84244.2,56351.7,308495
0.996,0.00517072,44362.4,5543.19,15475.8,179438,82812.4,57525.3,308505
0.998,0.00518737,43834.8,5408.44,15898.8,178314,81380.6,58699,308514
1,0.00520402,43307.1,5273.69,16321.8,177190,79948.8,59872.7,308524
1.002,0.00522067,42779.5,5138.93,16744.8,176067,78517,61046.3,308534
1.004,0.00523732,42251.9,5004.18,17167.9,174943,77085.2,62220,308544
1.006,0.00525397,41724.3,4869.42,17590.9,173819,75653.3,63393.7,308554
1.008,0.00527062,41196.7,4734.67,18013.9,172695,74221.5,64567.4,308564
1.01,0.00528728,40669,4599.92,18437,171572,72789.7,65741,308573
1.012,0.00530393,40141.4,4465.16,18860,170448,71357.9,66914.7,308583
1.014,0.00532058,39613.8,4330.4,19283,169324,69926.1,68088.4,308593
1.016,0.00533723,39086.2,4195.65,19706,168200,68494.3,69262.1,308603
1.018,0.00535388,38558.6,4060.9,20129.1,167076,67062.5,70435.8,308613
1.02,0.00537053,38031,3926.14,20552.1,165953,65630.7,71609.4,308623
1.022,0.00538718,37503.3,3791.39,20975.1,164829,64198.9,72783.1,308632
1.024,0.00540384,36898.2,3691.18,21433.7,163704,62791.9,73937.5,308751
1.026,0.00542043,37289.9,3146.44,21435.1,162589,61064.6,75340.3,307465
1.028,0.0054372,35591.3,1914.22,21264.1,160577,59613.5,71768.9,309111
1.03,0.00545408,33789.8,826.667,22248.8,158553,58934.8,67106.7,309938
1.032,0.00547095,31988.4,-260.883,23233.6,156528,58256.1,62444.5,310765
1.034,0.00548783,30186.8,-1348.5,24218.4,154503,57577.4,57782,311592
1.036,0.0055047,28385.3,-2436.05,25203.1,152479,56898.7,53119.8,312419
1.038,0.00552157,26583.8,-3523.6,26187.8,150454,56220,48457.6,313246
1.04,0.00553845,24782.3,-4611.14,27172.6,148430,55541.3,43795.3,314073
1.042,0.00555532,22980.7,-5698.76,28157.4,146405,54862.6,39132.8,314900
1.044,0.0055722,21898.2,-6297.46,29665.3,143488,54659.7,35833.4,314452
1.046,0.00558922,21943.6,-5863.59,30163,145070,55477.5,34508.6,309572
1.048,0.00560624,21984.6,-5423.92,30596.6,146854,56301.5,33169.9,304618
1.05,0.00562327,22025.5,-4984.25,31030.2,148637,57125.4,31831.3,299664
1.052,0.00564029,22066.5,-4544.55,31463.9,150420,57949.5,30492.5,294710
1.054,0.00565732,22107.4,-4104.88,31897.5,152203,58773.4,29153.9,289756
1.056,0.00567434,22148.4,-3665.2,32331.1,153987,59597.4,27815.2,284803
1.058,0.00569136,22189.3,-3225.53,32764.8,155770,60421.4,26476.6,279849
1.06,0.00570839,22230.3,-2785.86,33198.4,157553,61245.3,25137.9,274895
1.062,0.00572541,22271.2,-2346.16,33632,159336,62069.3,23799.2,269941
1.064,0.00574244,22312.2,-1906.49,34065.7,161120,62893.3,22460.5,264987
1.066,0.00575946,22353.1,-1466.82,34499.3,162903,63717.3,21121.9,260034
1.068,0.00577648,22394.1,-1027.14,34932.9,164686,64541.2,19783.2,255080
1.07,0.00579351,22435,-587.445,35366.6,166469,65365.2,18444.5,250126
1.072,0.00581053,22476,-147.773,35800.2,168253,66189.2,17105.8,245172
1.074,0.00582757,22538.8,628.017,35824.1,168806,66340.1,16229.8,238592
1.076,0.00584467,22663.8,2357.31,34685.7,165872,64581.7,16666,227400
1.078,0.00586177,22788.7,4086.6,33547.4,162937,62823.3,17102.3,216208
1.08,0.00587889,22569,5666.29,32731.5,159625,61132.5,17040.2,206793
1.082,0.00589612,21548.8,6340.75,32901.5,156542,60082.8,15455.3,205925
1.084,0.0059134,21245.1,6341.45,32819.8,156198,59747,14260.5,209173
1.086,0.00593069,20941.4,6342.16,32738.1,155854,59411.3,13065.7,212420
1.088,0.00594797,20637.8,6342.87,32656.4,155511,59075.5,11870.9,215668
1.09,0.00596525,20334.1,6343.57,32574.7,155167,58739.7,10676.1,218916
1.092,0.00598254,20030.5,6344.28,32493,154823,58403.9,9481.31,222164
1.094,0.00599982,19726.8,6344.99,32411.3,154480,58068.2,8286.53,225412
1.096,0.0060171,19423.1,6345.69,32329.6,154136,57732.4,7091.74,228659
1.098,0.00603439,19119.5,6346.4,32247.8,153792,57396.6,5896.88,231907
1.1,0.00605167,18815.8,6347.1,32166.1,153449,57060.8,4702.1,235155
1.102,0.00606896,18512.2,6347.81,32084.4,153105,56725.1,3507.31,238403
1.104,0.00608624,18208.5,6348.52,32002.7,152761,56389.3,2312.53,241650
1.106,0.00610352,17904.9,6349.22,31921,152418,56053.5,1117.74,244898
1.108,0.00612081,18344.9,6377.01,31082.6,151216,55581.9,623.603,246508
1.11,0.0061381,19092.9,6416.01,29931,149658,55054,419.631,247440
1.112,0.00615539,19840.9,6455.01,28779.4,148101,54526.1,215.659,248372
1.114,0.00617268,20588.9,6494.01,27627.8,146544,53998.2,11.6873,249303
1.116,0.00618997,21337,6533.02,26476.1,144986,53470.3,-192.297,250235
1.118,0.00620726,22085,6572.02,25324.5,143429,52942.4,-396.268,251167
1.12,0.00622455,22833,6611.02,24172.8,141872,52414.5,-600.24,252099
1.122,0.00624194,23247,7515.78,21834.2,139717,52286.9,1188.98,249379
1.124,0.00625935,23593.8,8594.54,19257,137443,52239.7,3378.79,245926
1.126,0.00627676,23940.7,9673.37,16679.6,135168,52192.5,5568.74,242472
1.128,0.00629417,24287.6,10752.1,14102.4,132894,52145.3,7758.55,239019
1.13,0.00631157,24634.4,11830.9,11525.1,130620,52098.2,9948.36,235566
1.132,0.00632898,24981.3,12909.7,8947.91,128345,52051,12138.2,232112
1.134,0.00634643,25075.6,13653.7,7343.59,126046,52229.8,14028.6,228995
1.136,0.00636393,24795.5,13901.4,7181.62,123710,52743.8,15475.2,226376
1.138,0.00638144,24515.4,14149.1,7019.65,121374,53257.7,16921.7,223758
1.14,0.00639893,24397.6,14005.4,6737.81,119774,52795.5,16867.1,220363
1.142,0.00641642,24308.9,13791.6,6434.52,118307,52158.6,16543.7,216830
1.144,0.00643392,24220.1,13577.9,6131.21,116839,51521.6,16220.4,213297
1.146,0.00645141,24131.4,13364.1,5827.92,115372,50884.6,15897,209763
1.148,0.0064689,24042.6,13150.3,5524.63,113904,50247.7,15573.7,206230
1.15,0.00648639,23953.9,12936.6,5221.34,112437,49610.7,15250.3,202697
1.152,0.00650388,23865.2,12722.8,4918.05,110969,48973.8,14927,199164
1.154,0.00652138,23776.4,12509,4614.74,109502,48336.8,14603.6,195630
1.156,0.00653887,23687.7,12295.3,4311.45,108034,47699.8,14280.3,192097
1.158,0.00655636,23598.9,12081.5,4008.16,106567,47062.9,13956.9,188564
1.16,0.00657385,23510.2,11867.7,3704.87,105099,46425.9,13633.6,185031
1.162,0.00659134,23421.5,11654,3401.58,103632,45789,13310.2,181497
1.164,0.00660884,23332.7,11440.2,3098.27,102164,45152,12986.9,177964
1.166,0.00662633,23244,11226.4,2794.98,100697,44515,12663.5,174431
1.168,0.00664382,23039.9,11085,2441.16,99805.9,43816.7,12382.7,171356
1.17,0.00666133,22554.4,11120.4,1963.94,100324,42968.6,12205.8,169400
1.172,0.00667883,22068.8,11155.8,1486.69,100842,42120.4,12028.9,167445
1.174,0.00669633,21583.2,11191.2,1009.46,101360,41272.3,11852,165490
1.176,0.00671383,21097.6,11226.5,532.24,101878,40424.2,11675.1,163534
1.178,0.00673138,19967.8,10911.1,164.315,100968,39465,10608,161366
1.18,0.00674904,17342,9781.14,50.1996,96743.1,38248,7473.39,158704
1.182,0.00676669,14715.9,8651.08,-63.9222,92517.9,37031,4338.64,156042
1.184,0.00678434,12090.1,7521.1,-178.037,88293,35814,1204.07,153380
1.186,0.006802,9464.2,6391.11,-292.152,84068,34597.1,-1930.5,150718
1.188,0.00681965,6838.34,5261.12,-406.267,79843.1,33380.1,-5065.07,148056
1.19,0.00683734,6793.2,5135.38,-305.428,80267,33361.3,-4841.88,147402
1.192,0.00685505,7337.07,5238.85,-155.538,81751.9,33616,-3852.38,147207
1.194,0.00687275,7880.94,5342.31,-5.6472,83236.8,33870.7,-2862.87,147012
1.196,0.00689045,8424.8,5445.78,144.243,84721.7,34125.4,-1873.36,146816
1.198,0.00690816,8968.67,5549.25,294.134,86206.6,34380.1,-883.859,146621
1.2,0.00692586,9512.57,5652.73,444.033,87691.6,34634.9,105.706,146426
1.202,0.00694356,10056.4,5756.19,593.923,89176.5,34889.6,1095.21,146231
1.204,0.00696126,10600.3,5859.66,743.814,90661.4,35144.3,2084.72,146036
1.206,0.00697897,11144.2,5963.13,893.704,92146.3,35399,3074.22,145841
1.208,0.00699667,11688,6066.6,1043.59,93631.2,35653.7,4063.73,145645
1.21,0.00701437,12231.9,6170.07,1193.49,95116.2,35908.4,5053.29,145450
1.212,0.00703208,12775.8,6273.54,1343.38,96601.1,36163.1,6042.8,145255
1.214,0.00704978,13319.7,6377.01,1493.27,98086,36417.8,7032.31,145060
1.216,0.0070675,13823.9,6821.11,1753.97,100275,36686.8,8621.05,145658
1.218,0.00708524,14280.2,7678.13,2148.99,103319,36973.1,10936.3,147219
1.22,0.00710298,16410.2,8504.64,2575.74,107258,37741.8,13917.1,148970
1.222,0.00712071,19738.7,9309.33,3025.23,111838,38855.8,17374.8,150857
1.224,0.00713845,23067.2,10114,3474.72,116419,39969.9,20832.5,152744
1.226,0.00715619,26395.7,10918.7,3924.21,121000,41084,24290.1,154631
1.228,0.00717392,29724.4,11723.5,4373.73,125581,42198.1,27748,156518
1.23,0.00719166,33052.9,12528.1,4823.21,130162,43312.2,31205.7,158406
1.232,0.00720945,35830.2,12955.5,4838.53,132326,44188.7,33645.7,158519
1.234,0.00722732,37573.6,12675.1,4039.61,129960,44619.5,34177.4,155306
1.236,0.00724518,38115.4,12367.8,3484.67,127207,44851.3,34344.9,153553
1.238,0.00726304,37336.1,12030.7,3197.95,124026,44864.2,34112,153407
1.24,0.0072809,36556.7,11693.6,2911.26,120846,44877.1,33879.1,153260
1.242,0.00729876,35777.4,11356.5,2624.56,117666,44890,33646.2,153113
1.244,0.00731662,34998,11019.5,2337.86,114486,44903,33413.3,152967
1.246,0.00733448,34218.6,10682.4,2051.15,111306,44915.9,33180.4,152820
1.248,0.00735234,33439.3,10345.3,1764.45,108126,44928.8,32947.6,152674
1.25,0.0073702,32659.9,10008.2,1477.75,104946,44941.8,32714.7,152527
1.252,0.00738806,31880.6,9671.15,1191.06,101766,44954.7,32481.8,152380
1.254,0.00740591,31101.2,9334.08,904.361,98585.8,44967.6,32248.9,152234
1.256,0.00742377,30321.8,8996.98,617.647,95405.6,44980.5,32016,152087
1.258,0.00744163,29542.5,8659.91,330.95,92225.5,44993.5,31783.1,151940
1.26,0.00745951,29342.2,8379.85,87.2599,90258.1,44813.2,31771.3,153599
1.262,0.00747739,29332.7,8118.58,-142.267,88690,44569.4,31832.2,155853
1.264,0.00749528,29323.2,7857.28,-371.807,87121.8,44325.5,31893.1,158107
1.266,0.00751316,29313.6,7596.01,-601.334,85553.7,44081.6,31954,160360
1.268,0.00753104,29304.1,7334.73,-830.861,83985.6,43837.8,32014.9,162614
1.27,0.00754892,29294.6,7073.45,-1060.39,82417.5,43593.9,32075.8,164867
1.272,0.00756681,29285.1,6812.17,-1289.92,80849.4,43350.1,32136.7,167121
1.274,0.00758469,29275.6,6550.88,-1519.46,79281.2,43106.2,32197.6,169375
1.276,0.00760266,29386.5,5912.02,-1715.94,79279.4,41918.2,32669.9,171057
1.278,0.00762065,29517.2,5210.77,-1906.97,79536.4,40574.2,33210.3,172644
1.28,0.00763864,29648,4509.52,-2098,79793.3,39230.1,33750.6,174232
1.282,0.00765663,29778.8,3808.28,-2289.03,80050.3,37886.1,34291,175819
1.284,0.00767461,29909.6,3106.98,-2480.07,80307.3,36541.9,34831.4,177407
1.286,0.0076926,30040.4,2405.74,-2671.1,80564.3,35197.9,35371.7,178994
1.288,0.00771059,30171.2,1704.49,-2862.13,80821.2,33853.9,35912.1,180582
1.29,0.00772858,30302,1003.24,-3053.16,81078.2,32509.8,36452.4,182169
1.292,0.00774662,30490.5,926.961,-3208.86,81474.8,31895.7,36526.9,181665
1.294,0.00776467,30696,1034.59,-3354.15,81912.5,31496.4,36464.3,180546
1.296,0.00778275,30239,1239.12,-3058.65,80680.1,31095.3,35427.7,179197
1.298,0.00780082,29726.5,1451.76,-2726.25,79307.9,30694.1,34309.6,177829
1.3,0.00781889,29214.1,1664.4,-2393.86,77935.7,30292.8,33191.4,176461
1.302,0.00783697,28701.6,1877.05,-2061.45,76563.4,29891.6,32073.3,175094
1.304,0.00785504,28189.1,2089.69,-1729.05,75191.2,29490.3,30955.2,173726
1.306,0.00787312,27676.7,2302.33,-1396.66,73819.1,29089,29837.1,172358
1.308,0.00789119,27164.2,2514.97,-1064.27,72446.9,28687.8,28718.9,170990
1.31,0.00790926,26651.8,2727.6,-731.875,71074.7,28286.5,27600.8,169622
1.312,0.00792734,26139.3,2940.26,-399.462,69702.4,27885.3,26482.7,168254
1.314,0.00794541,25626.8,3152.9,-67.0692,68330.2,27484,25364.6,166886
1.316,0.00796348,25114.4,3365.54,265.324,66958,27082.8,24246.4,165518
1.318,0.00798156,24601.9,3578.17,597.717,65585.8,26681.5,23128.3,164150
1.32,0.00799963,24089.5,3790.83,930.13,64213.6,26280.2,22010.2,162783
1.322,0.0080177,23692.8,4036.56,1237.75,63568.3,25978.1,21097.7,160841
1.324,0.00803576,23643.3,4381.48,1471.11,65101.8,25972.9,20801.4,157178
1.326,0.00805382,23593.7,4726.39,1704.47,66635.3,25967.8,20505.2,153515
1.328,0.00807188,23544.2,5071.31,1937.84,68168.8,25962.6,20209,149852
1.33,0.00808994,23494.6,5416.25,2171.21,69702.4,25957.5,19912.7,146190
1.332,0.008108,23445.1,5761.17,2404.58,71235.9,25952.3,19616.5,142527
1.334,0.00812606,23395.5,6106.09,2637.94,72769.5,25947.2,19320.3,138864
1.336,0.00814412,23346,6451.01,2871.3,74303,25942.1,19024.1,135201
1.338,0.00816218,23296.4,6795.95,3104.68,75836.6,25936.9,18727.8,131539
1.34,0.00818024,23246.9,7140.87,3338.04,77370.1,25931.8,18431.6,127876
1.342,0.00819832,23036.9,7210.56,3633.51,76509.7,26099.7,18128.8,124428
1.344,0.00821646,22575.9,6849.61,4026.17,71903.6,26538.6,17815.8,121315
1.346,0.00823459,22115,6488.66,4418.82,67297.4,26977.5,17502.7,118203
1.348,0.00825273,21654,6127.69,4811.5,62690.9,27416.4,17189.7,115090
1.35,0.00827086,21193.1,5766.73,5204.16,58084.8,27855.2,16876.6,111978
1.352,0.008289,20732.1,5405.78,5596.81,53478.6,28294.1,16563.6,108865
1.354,0.00830713,20271.1,5044.83,5989.46,48872.4,28733,16250.5,105753
1.356,0.00832527,19810.2,4683.88,6382.12,44266.2,29171.8,15937.5,102641
1.358,0.0083434,19349.2,4322.9,6774.8,39659.8,29610.7,15624.4,99528
1.36,0.00836158,19085.8,4133.15,7196.57,37362.7,30151.9,16088.3,99795.3
1.362,0.00837977,18943.8,4048.6,7636.22,36484.4,30755.9,17029.7,102139
1.364,0.00839797,18801.9,3964.04,8075.88,35606.2,31359.9,17971,104483
1.366,0.00841617,18623,3901.37,8393.15,34983.8,31847.1,18534.2,105971
1.368,0.0084344,18371.4,3881.87,8468.84,34866.4,32103.8,18350.8,105769
1.37,0.00845262,18119.8,3862.37,8544.53,34748.9,32360.5,18167.4,105567
1.372,0.00847085,17868.2,3842.87,8620.22,34631.5,32617.1,17984.1,105365
1.374,0.00848907,17616.5,3823.37,8695.91,34514.1,32873.8,17800.7,105164
1.376,0.00850729,17364.9,3803.87,8771.6,34396.7,33130.5,17617.4,104962
1.378,0.00852552,17113.3,3784.37,8847.29,34279.2,33387.1,17434,104760
1.38,0.00854374,16861.7,3764.87,8922.98,34161.8,33643.8,17250.6,104558
1.382,0.00856197,16610.1,3745.37,8998.67,34044.4,33900.4,17067.3,104356
1.384,0.00858019,16358.4,3725.87,9074.36,33927,34157.1,16883.9,104154
1.386,0.00859842,16106.8,3706.37,9150.06,33809.5,34413.8,16700.6,103952
1.388,0.00861664,15855.2,3686.87,9225.75,33692.1,34670.5,16517.2,103750
1.39,0.00863486,15603.6,3667.37,9301.44,33574.7,34927.1,16333.8,103548
1.392,0.00865309,15352,3647.87,9377.13,33457.3,35183.8,16150.5,103346
1.394,0.00867132,15163.4,3626.19,9405.84,33470.8,35392.7,15945,102988
1.396,0.00868961,15499.6,3586.37,9043.51,34574.2,35203.8,15555.7,101334
1.398,0.00870789,15835.8,3546.54,8681.18,35677.6,35014.9,15166.3,99678.7
1.4,0.00872618,16172.1,3506.71,8318.85,36781,34826,14776.9,98023.8
1.402,0.00874449,16487.8,3705.39,7446.17,39693.6,34593.4,15222.7,99832
1.404,0.00876281,16800.8,3936.23,6504.64,42850.2,34354.9,15781.1,102107
1.406,0.00878112,17113.8,4167.06,5563.16,46006.7,34116.4,16339.5,104382
1.408,0.00879943,17426.7,4397.88,4621.69,49163.1,33877.9,16897.9,106657
1.41,0.00881774,17739.7,4628.71,3680.22,52319.5,33639.4,17456.3,108932
1.412,0.00883605,18052.6,4859.53,2738.74,55475.9,33400.9,18014.6,111207
1.414,0.00885436,18365.6,5090.37,1797.22,58632.5,33162.4,18573.1,113482
1.416,0.00887271,18477.2,5213.83,1233.66,59868.6,32872.8,18793.2,114311
1.418,0.00889107,18427.7,5251.37,972.578,59567.8,32542.2,18742.5,113983
1.42,0.00890944,18378.1,5288.9,711.492,59267,32211.7,18691.9,113655
1.422,0.00892781,18328.5,5326.44,450.392,58966.2,31881.2,18641.3,113326
1.424,0.00894617,18279,5363.97,189.307,58665.4,31550.7,18590.7,112998
1.426,0.00896454,18229.4,5401.5,-71.7782,58364.6,31220.1,18540.1,112670
1.428,0.0089829,18009.6,5389.13,-335.34,57575.5,30827.7,18398.2,111957
1.43,0.00900126,17350,5247.88,-605.3,55525.3,30275.4,18020.5,110252
1.432,0.00901961,16690.4,5106.61,-875.275,53475,29723.1,17642.9,108547
1.434,0.00903796,16030.8,4965.36,-1145.23,51424.8,29170.8,17265.3,106842
1.436,0.00905632,15371.3,4824.1,-1415.19,49374.6,28618.6,16887.6,105137
1.438,0.00907467,14711.7,4682.85,-1685.15,47324.4,28066.3,16510,103432
1.44,0.00909303,14052.1,4541.58,-1955.13,45274.1,27514,16132.4,101727
1.442,0.00911138,13392.5,4400.33,-2225.09,43223.9,26961.7,15754.7,100022
1.444,0.00912973,12764.7,4276.04,-2481.99,41345.9,26424.2,15388.3,98388.3
1.446,0.00914809,12572.1,4384.39,-2559.8,41827.5,26088.9,15175.9,97734.7
1.448,0.00916644,12379.5,4492.74,-2637.6,42309.1,25753.5,14963.5,97081.1
1.45,0.0091848,12186.9,4601.1,-2715.42,42790.8,25418.2,14751.1,96427.5
1.452,0.00920315,11994.4,4709.45,-2793.22,43272.4,25082.9,14538.6,95773.9
1.454,0.0092215,11801.8,4817.8,-2871.03,43754,24747.5,14326.2,95120.3
1.456,0.00923986,11609.2,4926.15,-2948.84,44235.7,24412.2,14113.8,94466.6
1.458,0.00925821,11416.6,5034.5,-3026.65,44717.3,24076.9,13901.3,93813
1.46,0.00927657,11224,5142.86,-3104.46,45198.9,23741.6,13688.9,93159.4
1.462,0.00929492,11031.4,5251.21,-3182.27,45680.6,23406.2,13476.5,92505.8
1.464,0.00931328,10838.8,5359.56,-3260.08,46162.2,23070.9,13264,91852.2
1.466,0.00933163,10646.3,5467.91,-3337.89,46643.8,22735.6,13051.6,91198.6
1.468,0.00934998,10453.7,5576.27,-3415.7,47125.5,22400.2,12839.2,90544.9
1.47,0.00936834,10261.1,5684.62,-3493.51,47607.1,22064.9,12626.7,89891.3
1.472,0.00938669,10068.5,5792.97,-3571.32,48088.8,21729.6,12414.3,89237.7
1.474,0.00940505,9875.92,5901.32,-3649.12,48570.4,21394.3,12201.9,88584.1
1.476,0.0094234,9683.34,6009.67,-3726.93,49052,21058.9,11989.5,87930.5
1.478,0.00944176,9490.75,6118.03,-3804.74,49533.7,20723.6,11777,87276.8
1.48,0.00946014,9267.58,5951.8,-3423.74,48480.8,20806.3,11204.4,86156
1.482,0.00947855,9022.43,5588.25,-2713.01,46325.2,21189.4,10373,84699.3
1.484,0.00949696,8777.28,5224.69,-2002.29,44169.6,21572.4,9541.62,83242.7
1.486,0.00951537,8532.13,4861.14,-1291.56,42014,21955.5,8710.2,81786.1
1.488,0.00953378,8286.97,4497.57,-580.793,39858.2,22338.6,7878.74,80329.3
1.49,0.0095522,8041.82,4134.01,129.932,37702.6,22721.7,7047.33,78872.7
1.492,0.00957061,7796.67,3770.46,840.658,35547,23104.8,6215.92,77416
1.494,0.00958902,7551.52,3406.9,1551.38,33391.4,23487.8,5384.51,75959.4
1.496,0.00960745,7366.2,3286.89,2242.9,32945.2,23582.8,4828.89,75744.4
1.498,0.00962589,7218.8,3321.16,2922.18,33581.9,23495.2,4448.03,76316.1
1.5,0.00964433,7071.39,3355.42,3601.47,34218.6,23407.6,4067.17,76887.7
1.502,0.00966278,6923.99,3389.69,4280.75,34855.2,23320,3686.31,77459.4
1.504,0.00968122,6784.4,3432.97,4920.4,35492.1,23222.8,3323.7,77921
1.506,0.00969972,6792.02,3646.12,4813.04,36133.4,22944.8,3305.04,76308.1
1.508,0.00971821,6799.64,3859.25,4705.69,36774.6,22666.8,3286.38,74695.2
1.51,0.00973671,6807.27,4072.38,4598.34,37415.9,22388.8,3267.72,73082.4
1.512,0.0097552,6814.89,4285.52,4490.99,38057.1,22110.8,3249.06,71469.6
1.514,0.00977369,6822.51,4498.66,4383.63,38698.4,21832.8,3230.4,69856.7
1.516,0.00979217,6783.81,4511.78,4191.93,37872.4,21613.6,3573.34,68517.8
1.518,0.00981065,6736.27,4486.73,3984.13,36766.3,21405.6,3985.3,67231.3
1.52,0.00982913,6688.73,4461.68,3776.32,35660.3,21197.6,4397.26,65944.7
1.522,0.0098476,6641.18,4436.63,3568.52,34554.3,20989.7,4809.22,64658.2
1.524,0.00986608,6593.64,4411.58,3360.7,33448.1,20781.7,5221.2,63371.5
1.526,0.00988456,6546.1,4386.53,3152.9,32342.1,20573.7,5633.15,62085
1.528,0.00990303,6498.55,4361.48,2945.1,31236.1,20365.8,6045.11,60798.4
1.53,0.00992151,6451.01,4336.42,2737.29,30130,20157.8,6457.07,59511.8
1.532,0.00993999,6409.88,4320.01,2539.9,29108.5,19949.4,6830.13,58279.1
1.534,0.00995845,6468.84,4438.4,2504.82,29406.5,19733.9,6596.36,57885.2
1.536,0.00997692,6527.8,4556.78,2469.75,29704.4,19518.4,6362.6,57491.4
1.538,0.00999539,6586.75,4675.17,2434.68,30002.4,19302.9,6128.84,57097.5
1.54,0.0100139,6645.71,4793.55,2399.61,30300.3,19087.5,5895.08,56703.7
1.542,0.0100323,6704.67,4911.94,2364.53,30598.3,18872,5661.31,56309.9
1.544,0.0100508,6763.62,5030.32,2329.46,30896.2,18656.5,5427.55,55916
1.546,0.0100693,6822.57,5148.7,2294.39,31194.1,18441,5193.79,55522.2
1.548,0.0100877,6881.53,5267.08,2259.32,31492.1,18225.5,4960.03,55128.4
1.55,0.0101062,6940.48,5385.46,2224.25,31790,18010.1,4726.27,54734.5
1.552,0.0101247,6999.44,5503.85,2189.17,32088,17794.6,4492.5,54340.7
1.554,0.0101432,7001.19,5522.13,2275.25,32084.3,17713.3,4635.9,54280.2
1.556,0.0101617,6969.33,5481.62,2432.49,31903.5,17710.8,5000.81,54415.6
1.558,0.0101802,6937.47,5441.11,2589.72,31722.8,17708.2,5365.73,54551
1.56,0.0101987,6905.62,5400.6,2746.96,31542,17705.7,5730.64,54686.4
1.562,0.0102172,6873.76,5360.08,2904.2,31361.2,17703.2,6095.58,54821.8
1.564,0.0102358,6841.9,5319.57,3061.43,31180.4,17700.7,6460.49,54957.2
1.566,0.0102543,6810.04,5279.06,3218.67,30999.7,17698.2,6825.41,55092.6
1.568,0.0102728,6778.19,5238.55,3375.9,30818.9,17695.7,7190.32,55228
1.57,0.0102913,6746.33,5198.03,3533.14,30638.1,17693.2,7555.26,55363.3
1.572,0.0103098,6714.47,5157.52,3690.38,30457.3,17690.7,7920.17,55498.7
1.574,0.0103283,6682.61,5117.01,3847.61,30276.5,17688.1,8285.09,55634.1
1.576,0.0103469,6782.4,5062.22,4187.45,30133.3,17621.8,8464.75,55583.2
1.578,0.0103654,6993.85,4995.3,4682.18,30021.8,17501.5,8487.27,55374.2
1.58,0.010384,7205.31,4928.39,5176.94,29910.3,17381.1,8509.8,55165.2
1.582,0.0104025,7416.76,4861.48,5671.67,29798.9,17260.7,8532.32,54956.2
1.584,0.010421,7628.2,4794.56,6166.39,29687.4,17140.3,8554.84,54747.2
1.586,0.0104396,7839.65,4727.65,6661.12,29576,17019.9,8577.37,54538.2
1.588,0.0104581,8051.11,4660.74,7155.88,29464.5,16899.5,8599.89,54329.2
1.59,0.0104766,8262.56,4593.83,7650.61,29353.1,16779.1,8622.41,54120.2
1.592,0.0104952,8474.01,4526.91,8145.34,29241.6,16658.8,8644.94,53911.2
1.594,0.0105137,8521.25,4475.61,8138.57,29041.9,16627.3,8792.08,53925.9
1.596,0.0105323,8533.35,4427.65,8024.46,28823.4,16614.9,8965.88,53988.5
1.598,0.0105508,8545.46,4379.68,7910.35,28604.9,16602.4,9139.7,54051
1.6,0.0105694,8557.56,4331.72,7796.24,28386.4,16590,9313.51,54113.6
1.602,0.0105879,8569.66,4283.75,7682.13,28167.8,16577.5,9487.32,54176.2
1.604,0.0106065,8581.76,4235.79,7568.03,27949.3,16565.1,9661.12,54238.7
1.606,0.010625,8348.59,4197.57,7367.29,26754.5,16436.3,9485.83,53371.4
1.608,0.0106436,7952.13,4165.83,7108.86,24909.7,16230.1,9078.11,51885
1.61,0.0106622,7555.69,4134.09,6850.45,23065,16023.9,8670.41,50398.7
1.612,0.0106807,7159.25,4102.35,6592.04,21220.3,15817.7,8262.72,48912.4
1.614,0.0106993,6762.8,4070.61,6333.63,19375.5,15611.5,7855.02,47426.1
1.616,0.0107178,6366.34,4038.87,6075.2,17530.7,15405.2,7447.3,45939.6
1.618,0.0107364,5969.9,4007.13,5816.79,15686,15199,7039.6,44453.3
1.62,0.010755,5573.46,3975.39,5558.38,13841.3,14992.8,6631.91,42967
1.622,0.0107735,5439.1,3956.18,5364.34,12917.5,14870.4,6453.42,42111.5
1.624,0.0107921,5601.31,3951.14,5243.14,13035.6,14842.9,6534.28,41969.7
1.626,0.0108107,5763.52,3946.09,5121.93,13153.8,14815.4,6615.14,41827.9
1.628,0.0108293,5925.73,3941.05,5000.73,13271.9,14787.9,6696,41686.2
1.63,0.0108478,6087.94,3936.01,4879.53,13390.1,14760.4,6776.86,41544.4
1.632,0.0108664,6250.14,3930.97,4758.32,13508.2,14732.9,6857.72,41402.6
1.634,0.010885,6412.35,3925.93,4637.12,13626.3,14705.4,6938.58,41260.9
1.636,0.0109036,6574.56,3920.89,4515.91,13744.5,14677.9,7019.44,41119.1
1.638,0.0109221,6736.77,3915.84,4394.71,13862.6,14650.4,7100.3,40977.3
1.64,0.0109407,6898.97,3910.8,4273.51,13980.8,14622.9,7181.16,40835.5
1.642,0.0109593,7061.18,3905.76,4152.31,14098.9,14595.4,7262.01,40693.8
1.644,0.0109778,7223.39,3900.72,4031.1,14217.1,14567.9,7342.88,40552
1.646,0.0109964,7385.6,3895.68,3909.89,14335.2,14540.4,7423.74,40410.2
1.648,0.011015,7547.8,3890.64,3788.69,14453.4,14512.9,7504.6,40268.5
1.65,0.0110336,7710.01,3885.6,3667.49,14571.5,14485.4,7585.45,40126.7
1.652,0.0110521,7872.21,3880.55,3546.29,14689.7,14457.9,7666.31,39984.9
1.654,0.0110707,8034.43,3875.51,3425.08,14807.8,14430.4,7747.18,39843.1
1.656,0.0110893,8121.05,3916.22,3272.05,14938.2,14389.4,7842,39583.5
1.658,0.0111079,8148.35,3771.64,2926.48,14390.3,14404.1,7920.61,39014
1.66,0.0111265,8015.88,3533.01,2650.93,13543.7,14411.3,7752.24,38309.4
1.662,0.0111451,7883.4,3294.39,2375.38,12697.2,14418.6,7583.88,37604.9
1.664,0.0111637,7750.91,3055.75,2099.81,11850.6,14425.8,7415.51,36900.3
1.666,0.0111823,7618.44,2817.12,1824.26,11004,14433.1,7247.14,36195.8
1.668,0.0112009,7485.96,2578.5,1548.71,10157.5,14440.4,7078.78,35491.2
1.67,0.0112195,7353.48,2339.87,1273.16,9310.94,14447.6,6910.42,34786.7
1.672,0.0112381,7221,2101.23,997.597,8464.34,14454.9,6742.04,34082.1
1.674,0.0112567,7088.52,1862.61,722.047,7617.79,14462.1,6573.68,33377.5
1.676,0.0112753,6671.31,1456.39,571.268,6238.97,14456.1,5965.21,32432.4
1.678,0.0112939,6747.47,1338.16,471.916,5973.77,14430.1,5890.57,32653.1
1.68,0.0113125,6839.25,1229.06,371.2,5741.67,14403.9,5835.39,32902.2
1.682,0.0113311,6931.04,1119.96,270.477,5509.55,14377.6,5780.2,33151.4
1.684,0.0113497,7022.81,1010.86,169.76,5277.45,14351.4,5725.01,33400.5
1.686,0.0113683,7114.59,901.769,69.0436,5045.35,14325.2,5669.82,33649.6
1.688,0.0113869,7205.44,784.673,-35.8309,4858.13,14277.2,5615.38,33934.6
1.69,0.0114055,7295.77,663.137,-143.015,4695.76,14217.2,5561.33,34239.4
1.692,0.0114241,7386.1,541.609,-250.192,4533.4,14157.2,5507.29,34544.2
1.694,0.0114427,7476.42,420.08,-357.37,4371.04,14097.2,5453.25,34849
1.696,0.0114613,7566.75,298.552,-464.547,4208.68,14037.2,5399.21,35153.8
1.698,0.0114799,7657.07,177.023,-571.725,4046.32,13977.2,5345.17,35458.6
1.7,0.0114985,7747.4,55.4874,-678.909,3883.96,13917.2,5291.12,35763.4
1.702,0.0115171,7837.73,-66.0411,-786.086,3721.6,13857.2,5237.08,36068.2
1.704,0.0115357,7928.06,-187.57,-893.264,3559.24,13797.2,5183.04,36372.9
1.706,0.0115543,8018.38,-309.098,-1000.44,3396.88,13737.1,5129,36677.7
1.708,0.0115729,8092.82,-407.721,-1095.98,3242.2,13691.2,5061.86,36927.7
1.71,0.0115915,8089.09,-393.631,-1134.22,3125.34,13714.3,4930.29,36907.8
1.712,0.0116101,8101.21,-361.077,-1172.82,3048.92,13724.5,4828.66,36903.7
1.714,0.0116288,8195.02,-233.438,-1213.27,3180.64,13668.4,4881.24,36981.1
1.716,0.0116474,8288.83,-105.8,-1253.72,3312.37,13612.4,4933.82,37058.4
1.718,0.011666,8382.65,21.8467,-1294.17,3444.11,13556.4,4986.4,37135.8
1.72,0.0116846,8476.46,149.486,-1334.61,3575.84,13500.4,5038.97,37213.1
1.722,0.0117033,8570.27,277.124,-1375.06,3707.57,13444.3,5091.55,37290.5
1.724,0.0117219,8664.08,404.763,-1415.51,3839.3,13388.3,5144.13,37367.8
1.726,0.0117405,8739.56,528.871,-1453.89,3982.52,13328.8,5183.97,37396.6
1.728,0.0117591,8617.09,614.843,-1469.96,4249.95,13231.9,5086.24,36901.2
1.73,0.0117778,8494.63,700.809,-1486.03,4517.36,13134.9,4988.52,36405.9
1.732,0.0117964,8372.16,786.776,-1502.1,4784.78,13038,4890.8,35910.5
1.734,0.011815,8249.7,872.742,-1518.17,5052.19,12941.1,4793.08,35415.1
1.736,0.0118336,8127.23,958.709,-1534.23,5319.6,12844.2,4695.35,34919.8
1.738,0.0118523,8004.76,1044.68,-1550.3,5587.03,12747.2,4597.63,34424.4
1.74,0.0118709,7882.29,1130.65,-1566.37,5854.45,12650.3,4499.91,33929
1.742,0.0118895,7759.83,1216.61,-1582.44,6121.86,12553.4,4402.18,33433.7
1.744,0.0119081,7637.37,1302.58,-1598.51,6389.27,12456.5,4304.46,32938.3
1.746,0.0119268,7514.89,1388.55,-1614.58,6656.7,12359.5,4206.73,32442.9
1.748,0.0119454,7392.43,1474.52,-1630.65,6924.11,12262.6,4109.01,31947.5
1.75,0.011964,7269.96,1560.49,-1646.72,7191.53,12165.7,4011.29,31452.2
1.752,0.0119826,7147.5,1646.45,-1662.79,7458.94,12068.7,3913.57,30956.8
1.754,0.0120013,7025.03,1732.42,-1678.86,7726.35,11971.8,3815.85,30461.4
1.756,0.0120199,6902.56,1818.39,-1694.93,7993.78,11874.9,3718.12,29966
1.758,0.0120385,6773.84,1899.98,-1712.43,8239.09,11777.6,3623.08,29477.2
1.76,0.0120571,6453.65,1847.7,-1773.77,7807.88,11668.7,3610.13,29188.8
1.762,0.0120758,6108.46,1787.87,-1805.69,7349.88,11505.1,3529.34,28850.4
1.764,0.0120944,5728.75,1717.63,-1796.98,6854.84,11266,3354.87,28442.9
1.766,0.012113,5349.05,1647.39,-1788.28,6359.82,11026.9,3180.41,28035.4
1.768,0.0121317,4969.36,1577.15,-1779.57,5864.81,10787.8,3005.95,27628
1.77,0.0121503,4589.67,1506.91,-1770.87,5369.8,10548.8,2831.49,27220.5
1.772,0.0121689,4209.97,1436.67,-1762.16,4874.79,10309.7,2657.03,26813.1
1.774,0.0121876,3830.25,1366.42,-1753.46,4379.74,10070.6,2482.56,26405.6
1.776,0.0122062,3701.09,1423.26,-1738.68,4358.99,9923.41,2506.71,26043.6
1.778,0.0122248,3624.52,1506.78,-1722.63,4437.82,9795.56,2572.56,25691
1.78,0.0122435,3547.96,1590.3,-1706.58,4516.65,9667.72,2638.42,25338.5
1.782,0.0122621,3471.4,1673.82,-1690.53,4595.48,9539.88,2704.27,24986
1.784,0.0122807,3391.99,1752.57,-1666.27,4688.43,9408.84,2771.98,24641
1.786,0.0122994,3303.12,1815.4,-1614.63,4828.43,9267.19,2845.89,24321.3
1.788,0.012318,3214.25,1878.23,-1563,4968.43,9125.54,2919.8,24001.6
1.79,0.0123366,3125.38,1941.06,-1511.37,5108.43,8983.89,2993.7,23681.9
1.792,0.0123553,3036.5,2003.89,-1459.73,5248.43,8842.24,3067.61,23362.1
1.794,0.0123739,2947.63,2066.71,-1408.1,5388.43,8700.59,3141.52,23042.4
1.796,0.0123925,2858.75,2129.54,-1356.47,5528.43,8558.94,3215.42,22722.7
1.798,0.0124112,2769.88,2192.37,-1304.84,5668.43,8417.29,3289.33,22403
1.8,0.0124298,2681.01,2255.19,-1253.2,5808.43,8275.65,3363.23,22083.3
1.802,0.0124484,2592.13,2318.02,-1201.57,5948.44,8133.99,3437.14,21763.5
1.804,0.0124671,2503.26,2380.85,-1149.94,6088.44,7992.34,3511.05,21443.8
1.806,0.0124857,2414.39,2443.68,-1098.3,6228.44,7850.69,3584.95,21124.1
1.808,0.0125043,2325.81,2456.09,-1053.15,5954.74,7733.99,3489.74,20736.2
1.81,0.012523,2237.57,2411.1,-1015.38,5209.94,7645.68,3201.95,20270.7
1.812,0.0125416,2149.33,2366.1,-977.612,4465.1,7557.38,2914.14,19805.1
1.814,0.0125603,2061.09,2321.1,-939.843,3720.31,7469.07,2626.35,19339.6
1.816,0.0125789,1972.85,2276.11,-902.074,2975.51,7380.77,2338.56,18874.1
1.818,0.0125976,1884.62,2231.11,-864.305,2230.71,7292.47,2050.77,18408.6
1.82,0.0126162,1796.37,2186.11,-826.534,1485.87,7204.16,1762.96,17943
1.822,0.0126348,1708.13,2141.12,-788.765,741.074,7115.86,1475.17,17477.5
1.824,0.0126535,1630,2106.44,-763.568,125.712,7033.77,1226.9,17065.5
1.826,0.0126721,1605.04,2126.07,-804.571,191.886,6984.45,1186.75,16935.3
1.828,0.0126908,1580.08,2145.71,-845.573,258.059,6935.13,1146.61,16805.1
1.83,0.0127094,1555.12,2165.34,-886.578,324.236,6885.81,1106.46,16674.9
1.832,0.0127281,1530.16,2184.98,-927.58,390.41,6836.49,1066.32,16544.7
1.834,0.0127467,1505.2,2204.61,-968.583,456.583,6787.17,1026.17,16414.5
1.836,0.0127654,1480.24,2224.24,-1009.59,522.756,6737.85,986.029,16284.3
1.838,0.012784,1455.28,2243.88,-1050.59,588.934,6688.53,945.881,16154.1
1.84,0.0128027,1430.32,2263.51,-1091.59,655.107,6639.21,905.737,16024
1.842,0.0128213,1422.51,2283.48,-1123.31,808.469,6597.68,885.37,15961.1
1.844,0.01284,1503.21,2305.18,-1107.09,1411.79,6596.4,967.071,16245.5
1.846,0.0128586,1583.9,2326.89,-1090.88,2015.11,6595.12,1048.77,16529.9
1.848,0.0128773,1664.6,2348.59,-1074.66,2618.47,6593.83,1130.48,16814.4
1.85,0.0128959,1745.3,2370.29,-1058.45,3221.79,6592.55,1212.18,17098.8
1.852,0.0129146,1854.28,2255.35,-1101.67,3221.11,6577.46,1252.32,16908.6
1.854,0.0129332,1980.07,2059.23,-1180.22,2861.58,6554.17,1267.77,16436.3
1.856,0.0129518,2105.86,1863.1,-1258.76,2502.04,6530.88,1283.22,15964.1
1.858,0.0129705,2231.65,1666.97,-1337.3,2142.49,6507.58,1298.67,15491.8
1.86,0.0129891,2456.17,1581.74,-1358.06,2425.95,6417.83,1604.4,15333.1
1.862,0.0130078,2689.17,1506.03,-1373.86,2764.65,6322.38,1935.07,15201.4
1.864,0.0130264,2922.17,1430.33,-1389.65,3103.35,6226.92,2265.74,15069.6
1.866,0.0130451,3155.18,1354.62,-1405.45,3442.07,6131.46,2596.43,14937.9
1.868,0.0130637,3213.92,1302.86,-1338.44,3387.83,6008.98,2668.74,14688
1.87,0.0130824,3216.99,1258.75,-1244.96,3208.03,5877.87,2658.48,14400.3
1.872,0.013101,3220.06,1214.63,-1151.49,3028.23,5746.76,2648.23,14112.6
1.874,0.0131197,3223.13,1170.52,-1058.01,2848.44,5615.65,2637.98,13824.9
1.876,0.0131383,3226.2,1126.41,-964.535,2668.63,5484.53,2627.73,13537.1
1.878,0.013157,3292.74,1085.37,-917.913,2669.39,5418.18,2631.39,13421.9
1.88,0.0131756,3364.79,1044.59,-875.354,2685.82,5357.44,2636.26,13321.7
1.882,0.0131943,3436.84,1003.82,-832.794,2702.24,5296.71,2641.13,13221.4
1.884,0.0132129,3508.89,963.044,-790.235,2718.66,5235.97,2646.01,13121.2
1.886,0.0132316,3580.94,922.267,-747.673,2735.09,5175.23,2650.88,13020.9
1.888,0.0132502,3652.98,881.492,-705.114,2751.51,5114.5,2655.75,12920.7
1.89,0.0132689,3725.03,840.718,-662.554,2767.93,5053.76,2660.62,12820.4
1.892,0.0132876,3797.08,799.943,-619.995,2784.36,4993.03,2665.49,12720.2
1.894,0.0133062,3869.13,759.166,-577.433,2800.78,4932.29,2670.36,12619.9
1.896,0.0133249,3941.17,718.392,-534.874,2817.21,4871.55,2675.23,12519.7
1.898,0.0133435,4013.22,677.617,-492.315,2833.63,4810.82,2680.1,12419.4
1.9,0.0133622,4085.27,636.843,-449.755,2850.05,4750.08,2684.97,12319.2
1.902,0.0133808,4157.31,596.068,-407.196,2866.48,4689.35,2689.84,12218.9
1.904,0.0133995,4229.37,555.291,-364.634,2882.9,4628.61,2694.72,12118.7
1.906,0.0134181,4301.41,514.517,-322.075,2899.32,4567.87,2699.59,12018.4
1.908,0.0134368,4373.46,473.742,-279.515,2915.75,4507.14,2704.46,11918.2
1.91,0.0134554,4445.62,431.661,-236.47,2930.61,4447.14,2708.76,11817.6
1.912,0.0134741,4514.61,424.889,-206.563,2987.57,4367.09,2728.44,11726.5
1.914,0.0134928,4583.61,418.118,-176.654,3044.52,4287.03,2748.13,11635.4
1.916,0.0135114,4652.6,411.347,-146.747,3101.48,4206.97,2767.82,11544.3
1.918,0.0135301,4721.59,404.576,-116.84,3158.43,4126.92,2787.5,11453.2
1.92,0.0135487,4790.58,397.805,-86.9335,3215.39,4046.86,2807.19,11362.1
1.922,0.0135674,4859.57,391.033,-57.0248,3272.35,3966.8,2826.87,11271
1.924,0.013586,4928.56,384.262,-27.118,3329.3,3886.75,2846.56,11179.9
1.926,0.0136047,4997.55,377.491,2.78892,3386.25,3806.69,2866.24,11088.8
1.928,0.0136233,5066.54,370.72,32.6958,3443.21,3726.64,2885.93,10997.7
1.93,0.013642,5135.53,363.948,62.6027,3500.16,3646.58,2905.61,10906.6
1.932,0.0136606,5204.53,357.177,92.5113,3557.12,3566.52,2925.3,10815.5
1.934,0.0136793,5241.73,367.566,129.861,3609.18,3502.16,2936.02,10728.9
1.936,0.0136979,5259.61,388.386,171.735,3658.27,3447.32,2941.28,10645
1.938,0.0137166,5277.49,409.206,213.609,3707.36,3392.49,2946.55,10561.2
1.94,0.0137352,5295.37,430.028,255.485,3756.45,3337.66,2951.82,10477.3
1.942,0.0137539,5325.39,496.072,309.049,3681.23,3264.89,2940.15,10384.3
1.944,0.0137725,5361.4,584.391,368.371,3544.79,3183.27,2920.15,10286.8
1.946,0.0137912,5397.41,672.711,427.693,3408.35,3101.66,2900.14,10189.3
1.948,0.0138099,5433.42,761.031,487.015,3271.91,3020.05,2880.14,10091.8
1.95,0.0138285,5469.44,849.357,546.34,3135.46,2938.44,2860.13,9994.34
1.952,0.0138472,5505.45,937.676,605.662,2999.02,2856.83,2840.13,9896.85
1.954,0.0138658,5541.46,1026,664.984,2862.58,2775.22,2820.13,9799.36
1.956,0.0138845,5577.47,1114.32,724.306,2726.14,2693.6,2800.12,9701.87
1.958,0.0139031,5613.48,1202.64,783.628,2589.7,2611.99,2780.12,9604.38
1.96,0.0139218,5649.49,1290.96,842.954,2453.25,2530.38,2760.11,9506.88
1.962,0.0139404,5679.6,1379,904.836,2344.63,2449.66,2741.68,9406.84
1.964,0.0139591,5678.7,1465.56,980.176,2382.26,2373.65,2731.52,9293.38
1.966,0.0139777,5677.8,1552.12,1055.52,2419.89,2297.64,2721.36,9179.92
1.968,0.0139964,5676.9,1638.69,1130.86,2457.53,2221.62,2711.2,9066.46
1.97,0.0140151,5676,1725.25,1206.2,2495.16,2145.61,2701.04,8953
1.972,0.0140337,5675.1,1811.81,1281.54,2532.79,2069.6,2690.88,8839.54
1.974,0.0140524,5674.19,1898.37,1356.88,2570.42,1993.59,2680.72,8726.09
1.976,0.014071,5669.78,1920.54,1367.96,2489.54,1964.81,2658.18,8637.29
1.978,0.0140897,5664.08,1919.26,1355.64,2365.51,1953.22,2631.12,8557.48
1.98,0.0141083,5658.38,1917.98,1343.33,2241.49,1941.63,2604.07,8477.66
1.982,0.014127,5652.68,1916.71,1331.01,2117.46,1930.04,2577.02,8397.85
1.984,0.0141457,5646.98,1915.43,1318.7,1993.44,1918.46,2549.96,8318.04
1.986,0.0141643,5641.29,1914.16,1306.38,1869.41,1906.87,2522.91,8238.22
1.988,0.014183,5679.57,1871.27,1316.16,1785.63,1889.09,2506.42,8158.46
1.99,0.0142016,5828.85,1723.36,1381.69,1803.46,1855.69,2516.61,8078.85
1.992,0.0142203,5978.13,1575.46,1447.22,1821.28,1822.29,2526.79,7999.23
1.994,0.0142389,6127.42,1427.55,1512.75,1839.11,1788.89,2536.98,7919.62
1.996,0.0142576,6276.71,1279.64,1578.29,1856.93,1755.49,2547.17,7840
1.998,0.0142762,6425.99,1131.73,1643.82,1874.75,1722.09,2557.35,7760.38
2,0.0142949,6575.27,983.828,1709.35,1892.58,1688.69,2567.54,7680.77
