"arc_length","Displacement_Magnitude","Sxx","Sxy","Sxz","Syy","Syz","Szz","Von_Mises_Stress"
0,0,1.18229e+06,-68386.1,-6359.62,2.3796e+06,478005,1.01822e+06,1.53823e+06
0.002,1.81607e-06,1.1233e+06,-62510,-5523.09,2.29203e+06,448309,939422,1.50141e+06
0.004,2.94897e-06,1.09124e+06,-60035.6,-4524.9,2.23702e+06,431188,901618,1.47663e+06
0.006,3.90264e-06,1.06798e+06,-58672.4,-3473.92,2.19265e+06,418176,877206,1.45578e+06
0.008,4.87943e-06,1.04472e+06,-57309.3,-2422.93,2.14827e+06,405163,852793,1.43493e+06
0.01,5.8678e-06,1.02146e+06,-55946.1,-1371.94,2.1039e+06,392150,828380,1.41408e+06
0.012,6.86276e-06,998197,-54582.9,-320.953,2.05953e+06,379138,803967,1.39322e+06
0.014,7.8618e-06,974937,-53219.8,730.034,2.01515e+06,366125,779555,1.37237e+06
0.016,8.82997e-06,951666,-51448.8,1924.43,1.96966e+06,354061,756534,1.35173e+06
0.018,9.71492e-06,928370,-48649.5,3480.35,1.92135e+06,344390,737024,1.33161e+06
0.02,1.06007e-05,905075,-45850.3,5036.28,1.87304e+06,334719,717514,1.31149e+06
0.022,1.14871e-05,881779,-43051,6592.21,1.82472e+06,325048,698004,1.29137e+06
0.024,1.23741e-05,858483,-40251.8,8148.13,1.77641e+06,315377,678494,1.27125e+06
0.026,1.32614e-05,835187,-37452.6,9704.06,1.7281e+06,305706,658984,1.25113e+06
0.028,1.4149e-05,811891,-34653.3,11260,1.67979e+06,296035,639474,1.23101e+06
0.03,1.5037e-05,788595,-31854.1,12815.9,1.63147e+06,286364,619964,1.21089e+06
0.032,1.59251e-05,765300,-29054.8,14371.8,1.58316e+06,276693,600454,1.19077e+06
0.034,1.68134e-05,742004,-26255.6,15927.8,1.53485e+06,267022,580944,1.17064e+06
0.036,1.77019e-05,718708,-23456.4,17483.7,1.48653e+06,257351,561434,1.15052e+06
0.038,1.85905e-05,695412,-20657.1,19039.6,1.43822e+06,247680,541924,1.1304e+06
0.04,1.94793e-05,672116,-17857.9,20595.5,1.38991e+06,238009,522414,1.11028e+06
0.042,2.03681e-05,648820,-15058.6,22151.5,1.34159e+06,228338,502904,1.09016e+06
0.044,2.12571e-05,625525,-12259.4,23707.4,1.29328e+06,218667,483394,1.07004e+06
0.046,2.21461e-05,602229,-9460.15,25263.3,1.24497e+06,208995,463884,1.04992e+06
0.048,2.30352e-05,578933,-6660.91,26819.3,1.19666e+06,199324,444374,1.0298e+06
0.05,2.49246e-05,552074,-4541.42,29241.6,1.16222e+06,193941,413136,1.02927e+06
0.052,2.71763e-05,523929,-2667.08,31976.4,1.1328e+06,190103,377668,1.03581e+06
0.054,2.94294e-05,495785,-792.738,34711.2,1.10337e+06,186266,342200,1.04235e+06
0.056,3.16837e-05,467641,1081.6,37446,1.07394e+06,182429,306732,1.04889e+06
0.058,3.39388e-05,439496,2955.94,40180.8,1.04451e+06,178591,271264,1.05543e+06
0.06,3.61947e-05,411352,4830.28,42915.6,1.01509e+06,174754,235796,1.06197e+06
0.062,3.84512e-05,383208,6704.62,45650.4,985659,170917,200328,1.06851e+06
0.064,4.06304e-05,379261,6095.45,45698.3,979662,174298,197895,1.07051e+06
0.066,4.28361e-05,377074,5305.59,45550.6,975370,178205,197865,1.07219e+06
0.068,4.50703e-05,374887,4515.73,45403,971078,182112,197835,1.07386e+06
0.07,4.73289e-05,372700,3725.88,45255.4,966786,186019,197804,1.07553e+06
0.072,4.96035e-05,367827,1210.67,45424.5,958654,184960,187346,1.07539e+06
0.074,5.18882e-05,362520,-1582.91,45644.8,949903,183099,175206,1.07495e+06
0.076,5.41819e-05,357213,-4376.48,45865,941151,181238,163066,1.07451e+06
0.078,5.64834e-05,351906,-7170.05,46085.3,932399,179377,150926,1.07408e+06
0.08,5.8792e-05,346599,-9963.62,46305.5,923648,177516,138785,1.07364e+06
0.082,6.11066e-05,341292,-12757.2,46525.7,914896,175655,126645,1.0732e+06
0.084,6.34268e-05,335985,-15550.8,46746,906144,173794,114505,1.07276e+06
0.086,6.57519e-05,330678,-18344.3,46966.2,897393,171933,102364,1.07233e+06
0.088,6.80818e-05,326559,-20832.7,46944.2,890159,170789,91960.7,1.07325e+06
0.09,7.04207e-05,328839,-21675.9,45616.2,891109,173503,90918,1.08151e+06
0.092,7.27672e-05,331120,-22519.1,44288.2,892058,176218,89875.3,1.08977e+06
0.094,7.51205e-05,333401,-23362.4,42960.3,893008,178932,88832.5,1.09803e+06
0.096,7.74802e-05,335681,-24205.6,41632.3,893958,181647,87789.8,1.10629e+06
0.098,7.98456e-05,337962,-25048.8,40304.3,894907,184361,86747.1,1.11454e+06
0.1,8.24833e-05,344369,-26452.9,39493.1,906577,187550,87054.9,1.13032e+06
0.102,8.59845e-05,364076,-29664.3,40347.3,952795,192268,91715.7,1.1703e+06
0.104,8.94872e-05,383784,-32875.8,41201.5,999013,196986,96376.5,1.21029e+06
0.106,9.29912e-05,403491,-36087.2,42055.7,1.04523e+06,201705,101037,1.25027e+06
0.108,9.64965e-05,423198,-39298.7,42909.9,1.09145e+06,206423,105698,1.29026e+06
0.11,0.000100003,442906,-42510.1,43764.1,1.13767e+06,211141,110359,1.33024e+06
0.112,0.00010351,462613,-45721.6,44618.3,1.18389e+06,215859,115020,1.37023e+06
0.114,0.000107018,482320,-48933,45472.6,1.23011e+06,220577,119680,1.41021e+06
0.116,0.000110679,476092,-49211.9,44342.2,1.21274e+06,221943,117615,1.39861e+06
0.118,0.000114502,442275,-46371.1,41100.7,1.12773e+06,219743,108394,1.33212e+06
0.12,0.000118324,408458,-43530.3,37859.2,1.04272e+06,217543,99172.6,1.26563e+06
0.122,0.000122148,374641,-40689.5,34617.7,957716,215344,89951.6,1.19914e+06
0.124,0.000125971,340825,-37848.7,31376.2,872709,213144,80730.6,1.13266e+06
0.126,0.000129795,307007,-35007.9,28134.7,787701,210944,71509.6,1.06617e+06
0.128,0.000133619,273190,-32167.1,24893.2,702694,208744,62288.5,999682
0.13,0.000137444,239374,-29326.3,21651.8,617687,206544,53067.6,933195
0.132,0.000141534,226480,-29131.8,19434.4,584263,205125,49435.7,909393
0.134,0.000145791,225965,-30503,17823,581358,204169,49110.5,910846
0.136,0.000150058,225450,-31874.1,16211.5,578453,203213,48785.3,912299
0.138,0.000154336,224935,-33245.3,14600.1,575548,202257,48460.1,913751
0.14,0.000158623,224420,-34616.4,12988.7,572642,201301,48134.8,915204
0.142,0.000162918,223905,-35987.5,11377.2,569737,200345,47809.6,916656
0.144,0.000167221,223390,-37358.7,9765.77,566832,199388,47484.4,918109
0.146,0.000171532,222875,-38729.8,8154.33,563926,198432,47159.2,919562
0.148,0.000175849,222360,-40100.9,6542.88,561021,197476,46834,921014
0.15,0.000180173,221844,-41472.1,4931.44,558116,196520,46508.8,922467
0.152,0.000184502,221329,-42843.2,3320,555211,195564,46183.6,923919
0.154,0.000188837,220814,-44214.3,1708.56,552305,194608,45858.3,925372
0.156,0.000193177,220299,-45585.5,97.112,549400,193652,45533.1,926825
0.158,0.000197522,219784,-46956.6,-1514.33,546495,192696,45207.9,928277
0.16,0.000201871,219269,-48327.7,-3125.77,543590,191740,44882.7,929730
0.162,0.000206224,218754,-49698.9,-4737.21,540684,190784,44557.5,931182
0.164,0.000210581,218239,-51070,-6348.66,537779,189827,44232.3,932635
0.166,0.000214942,217724,-52441.1,-7960.09,534874,188871,43907.1,934088
0.168,0.000219306,217209,-53812.3,-9571.54,531968,187915,43581.8,935540
0.17,0.000223674,216694,-55183.4,-11183,529063,186959,43256.6,936993
0.172,0.000228044,216179,-56554.6,-12794.4,526158,186003,42931.4,938446
0.174,0.000232327,217830,-57481.1,-11232.8,531794,185121,42350.6,936992
0.176,0.000236563,220664,-58164.6,-7937.28,542097,184280,41630.1,933951
0.178,0.000241287,220910,-58066.3,-9328.04,543503,182799,43050.3,922971
0.18,0.000246475,219749,-57384.5,-14730,539626,180715,46936.7,907554
0.182,0.000251953,228992,-58057,-17809.6,566463,178329,56906.4,922661
0.184,0.000257433,238234,-58729.6,-20889.1,593300,175943,66876.3,937769
0.186,0.000262912,247476,-59402.2,-23968.7,620137,173558,76846.1,952877
0.188,0.000268393,256718,-60074.8,-27048.3,646974,171172,86815.9,967985
0.19,0.000273874,265961,-60747.3,-30127.8,673811,168786,96785.7,983092
0.192,0.000279356,275203,-61419.9,-33207.4,700648,166400,106756,998200
0.194,0.000284838,284445,-62092.5,-36286.9,727485,164014,116725,1.01331e+06
0.196,0.000290321,293688,-62765.1,-39366.5,754321,161628,126695,1.02842e+06
0.198,0.000295997,297517,-61700.5,-39662.9,761923,159229,130316,1.02645e+06
0.2,0.000301745,299379,-60004.8,-38948.2,762537,156824,131631,1.01827e+06
0.202,0.000307497,301241,-58309,-38233.5,763151,154419,132946,1.0101e+06
0.204,0.000313251,303103,-56613.3,-37518.8,763765,152014,134260,1.00193e+06
0.206,0.000319008,304965,-54917.6,-36804.1,764378,149609,135575,993751
0.208,0.000324768,306828,-53221.9,-36089.4,764992,147204,136889,985578
0.21,0.00033053,308690,-51526.2,-35374.7,765606,144799,138204,977404
0.212,0.000336295,310552,-49830.5,-34659.9,766219,142394,139519,969230
0.214,0.000342062,312414,-48134.8,-33945.2,766833,139989,140833,961056
0.216,0.000347831,314276,-46439,-33230.5,767447,137584,142148,952883
0.218,0.000353602,316139,-44743.3,-32515.8,768060,135179,143462,944709
0.22,0.000359376,318001,-43047.6,-31801.1,768674,132774,144777,936535
0.222,0.000365151,319863,-41351.9,-31086.4,769288,130369,146092,928361
0.224,0.000370927,321725,-39656.2,-30371.7,769902,127964,147406,920188
0.226,0.00037711,310841,-37093.1,-23826.8,752805,125529,142116,909371
0.228,0.000383303,299657,-34509.6,-17145.1,735292,123093,136671,898493
0.23,0.000389497,288473,-31926.2,-10463.3,717779,120656,131225,887614
0.232,0.00039569,277289,-29342.8,-3781.66,700267,118220,125780,876736
0.234,0.000401884,266105,-26759.3,2900.07,682754,115784,120335,865858
0.236,0.000408078,254921,-24175.9,9581.8,665241,113348,114889,854979
0.238,0.000414272,243737,-21592.4,16263.5,647729,110912,109444,844101
0.24,0.000420689,241356,-21315.8,20899.3,642177,110088,108732,855488
0.242,0.000427156,240878,-21537.8,25092.8,639212,109614,109044,871688
0.244,0.000433625,240400,-21759.8,29286.2,636246,109139,109356,887889
0.246,0.000440096,239921,-21981.9,33479.7,633281,108665,109667,904089
0.248,0.000446568,239443,-22203.9,37673.2,630316,108190,109979,920289
0.25,0.000453041,238965,-22426,41866.6,627350,107715,110291,936490
0.252,0.000459517,238486,-22648,46060.1,624385,107241,110602,952690
0.254,0.000465993,238008,-22870.1,50253.6,621419,106766,110914,968890
0.256,0.000472471,237530,-23092.1,54447.1,618454,106292,111225,985091
0.258,0.00047895,237052,-23314.1,58640.5,615488,105817,111537,1.00129e+06
0.26,0.000485431,236573,-23536.2,62834,612523,105343,111849,1.01749e+06
0.262,0.000492263,231669,-21765.2,65027.7,608660,108856,111707,1.0251e+06
0.264,0.000499165,225898,-19603.8,66829.5,604621,113151,111477,1.03103e+06
0.266,0.000506066,220126,-17442.3,68631.4,600582,117446,111246,1.03696e+06
0.268,0.000512968,214355,-15280.8,70433.2,596543,121742,111016,1.04289e+06
0.27,0.00051987,208583,-13119.4,72235.1,592504,126037,110785,1.04882e+06
0.272,0.000526773,202812,-10957.9,74036.9,588465,130332,110555,1.05474e+06
0.274,0.000533747,198123,-8622.13,75364.3,584443,134156,110367,1.05898e+06
0.276,0.00054106,198450,-5478.16,74492.4,580499,135794,110379,1.05536e+06
0.278,0.000548372,198778,-2334.19,73620.5,576554,137433,110391,1.05175e+06
0.28,0.000555685,199106,809.777,72748.6,572610,139071,110403,1.04813e+06
0.282,0.000563287,205032,3478.59,70151,580881,136716,109002,1.03172e+06
0.284,0.000571001,213124,5963.59,66885.9,593877,132814,107054,1.01036e+06
0.286,0.000578715,221216,8448.6,63620.8,606873,128913,105107,989000
0.288,0.000586429,229307,10933.6,60355.8,619869,125012,103159,967640
0.29,0.000594144,237399,13418.6,57090.7,632865,121111,101212,946279
0.292,0.000601859,245490,15903.6,53825.6,645861,117210,99264.4,924919
0.294,0.000609651,249232,15676.5,50294,658658,116664,98784.5,909745
0.296,0.000617457,252265,15007.9,46719,671422,116664,98543.5,895580
0.298,0.000625265,255299,14339.4,43144.1,684186,116664,98302.5,881414
0.3,0.000633074,258332,13670.8,39569.1,696951,116665,98061.6,867248
0.302,0.000640884,261366,13002.2,35994.1,709715,116665,97820.6,853082
0.304,0.000648695,264399,12333.7,32419.2,722479,116665,97579.6,838916
0.306,0.000656508,267433,11665.1,28844.2,735243,116666,97338.6,824750
0.308,0.000664321,270466,10996.5,25269.2,748008,116666,97097.6,810584
0.31,0.000672136,273500,10327.9,21694.2,760772,116666,96856.6,796418
0.312,0.000679965,276471,9588.83,17917.1,772964,116675,96740.5,782527
0.314,0.000688165,277740,6904.78,8567.09,769393,116922,100067,776208
0.316,0.000696366,279008,4220.74,-782.968,765822,117169,103394,769888
0.318,0.000704566,280276,1536.73,-10132.9,762251,117416,106721,763569
0.32,0.000712767,281545,-1147.32,-19482.9,758680,117663,110048,757250
0.322,0.000720968,282813,-3831.37,-28833,755108,117910,113375,750930
0.324,0.000729169,284081,-6515.42,-38183.1,751537,118157,116702,744611
0.326,0.000737391,284921,-8993.88,-46487,746689,118231,119890,740420
0.328,0.000745788,282012,-9672.78,-45634.3,730663,116799,121864,754857
0.33,0.000754186,279103,-10351.7,-44781.5,714636,115367,123838,769294
0.332,0.000762585,276194,-11030.6,-43928.8,698610,113935,125811,783731
0.334,0.000770985,273284,-11709.5,-43076,682584,112502,127785,798168
0.336,0.000779385,270375,-12388.4,-42223.2,666558,111070,129759,812605
0.338,0.000787787,267466,-13067.3,-41370.5,650532,109638,131732,827042
0.34,0.000796189,264557,-13746.2,-40517.7,634505,108206,133706,841479
0.342,0.000804592,261648,-14425.1,-39665,618479,106774,135680,855917
0.344,0.000812995,258738,-15104,-38812.2,602453,105341,137653,870354
0.346,0.0008214,255829,-15782.9,-37959.4,586427,103909,139627,884791
0.348,0.00082996,250468,-16040.4,-35773.4,570087,102971,138946,888279
0.35,0.000838801,240693,-15539.8,-31188.1,553184,102923,133488,872064
0.352,0.000847641,230919,-15039.1,-26602.7,536281,102875,128030,855849
0.354,0.000856482,221144,-14538.4,-22017.4,519377,102827,122572,839634
0.356,0.000865323,211370,-14037.7,-17432.1,502474,102779,117114,823419
0.358,0.000874163,201595,-13537.1,-12846.7,485571,102731,111656,807204
0.36,0.000883004,191821,-13036.4,-8261.4,468668,102683,106198,790989
0.362,0.000891845,182046,-12535.7,-3676.13,451765,102635,100740,774774
0.364,0.000900845,181161,-12609.5,-2507.37,454397,101081,99122.8,767734
0.366,0.000909874,181910,-12788.9,-1967.11,460623,99249.9,98212.6,762383
0.368,0.000918905,182660,-12968.3,-1426.85,466849,97419.1,97302.3,757031
0.37,0.000927936,183410,-13147.7,-886.596,473075,95588.2,96392.1,751679
0.372,0.000936968,184159,-13327.1,-346.338,479300,93757.4,95481.8,746327
0.374,0.000946001,184909,-13506.4,193.921,485526,91926.5,94571.6,740976
0.376,0.000955035,185659,-13685.8,734.171,491752,90095.7,93661.4,735624
0.378,0.000964069,186408,-13865.2,1274.43,497978,88264.9,92751.1,730272
0.38,0.000973104,187158,-14044.6,1814.69,504204,86434,91840.9,724920
0.382,0.000982155,188585,-14323.2,2265.27,513037,85025,91498.2,717381
0.384,0.000991255,192245,-14928.6,2420.49,530460,85005.2,93025.1,702638
0.386,0.00100036,195905,-15534.1,2575.72,547882,84985.4,94552,687894
0.388,0.00100946,199565,-16139.5,2730.94,565304,84965.6,96078.9,673150
0.39,0.00101856,203224,-16744.9,2886.16,582726,84945.8,97605.7,658407
0.392,0.00102766,206884,-17350.3,3041.38,600149,84926,99132.6,643664
0.394,0.00103696,208855,-17685.8,3636.68,612719,85282,101136,631223
0.396,0.00104665,207356,-17466.8,5136.37,615318,86410.3,104120,623516
0.398,0.00105635,205857,-17247.8,6636.06,617918,87538.5,107103,615809
0.4,0.00106604,204357,-17028.8,8135.76,620517,88666.7,110086,608101
0.402,0.00107574,202858,-16809.8,9635.45,623117,89795,113070,600394
0.404,0.00108543,201359,-16590.8,11135.1,625716,90923.2,116053,592687
0.406,0.00109513,199860,-16371.8,12634.8,628316,92051.4,119036,584980
0.408,0.00110482,198361,-16152.8,14134.5,630915,93179.7,122020,577273
0.41,0.00111461,193598,-15075.5,15238.7,625738,93918.1,122247,577625
0.412,0.00112464,185361,-13537.1,14701,603692,92574.2,117366,591126
0.414,0.00113466,177123,-11998.8,14163.4,581647,91230.3,112485,604628
0.416,0.00114469,168885,-10460.4,13625.7,559601,89886.3,107604,618130
0.418,0.00115472,160647,-8922.03,13088.1,537556,88542.4,102723,631632
0.42,0.00116475,152409,-7383.69,12550.4,515511,87198.5,97841.9,645134
0.422,0.00117478,144172,-5845.33,12012.7,493465,85854.5,92960.9,658636
0.424,0.0011848,135934,-4306.96,11475.1,471420,84510.6,88080,672137
0.426,0.00119483,127696,-2768.6,10937.4,449374,83166.7,83199,685639
0.428,0.00120486,119458,-1230.24,10399.7,427329,81822.7,78318.1,699141
0.43,0.00121489,111220,308.125,9862.07,405283,80478.8,73437.1,712643
0.432,0.0012249,104947,-6.29754,8782.86,383070,78547.3,70534.4,718047
0.434,0.00123489,100378,-1928.2,7233.82,360712,76106.1,69347.9,716425
0.436,0.00124487,95808.5,-3850.14,5684.76,338353,73664.9,68161.4,714803
0.438,0.00125486,91239.4,-5772.08,4135.7,315995,71223.7,66974.9,713180
0.44,0.00126485,86670.2,-7694.01,2586.64,293636,68782.4,65788.4,711558
0.442,0.00127483,82101.1,-9615.95,1037.58,271278,66341.2,64601.9,709936
0.444,0.00128504,82484.6,-15839.7,-271.714,259750,62893.4,65267,705835
0.446,0.00129542,86930.5,-25592.1,-1384.33,257105,58620.1,67450.9,699699
0.448,0.00130581,91376.4,-35344.5,-2496.95,254460,54346.7,69634.9,693563
0.45,0.00131619,95822.3,-45096.7,-3609.55,251816,50073.4,71818.8,687428
0.452,0.00132693,101575,-44506,-1961.48,270133,50084.1,75910.8,679197
0.454,0.0013377,107430,-43115.9,-100.052,290071,50425.9,80150.4,670803
0.456,0.00134847,113284,-41725.9,1761.37,310008,50767.6,84389.9,662410
0.458,0.00135925,119138,-40335.8,3622.8,329945,51109.4,88629.4,654017
0.46,0.00137002,124992,-38945.8,5484.22,349883,51451.2,92868.9,645624
0.462,0.00138079,130846,-37555.7,7345.65,369820,51792.9,97108.4,637230
0.464,0.00139156,136700,-36165.7,9207.04,389757,52134.7,101348,628837
0.466,0.00140233,142554,-34775.6,11068.5,409695,52476.5,105587,620444
0.468,0.00141311,148408,-33385.6,12929.9,429632,52818.3,109827,612051
0.47,0.00142388,154263,-31995.6,14791.3,449570,53160,114066,603657
0.472,0.00143465,160117,-30605.5,16652.7,469507,53501.8,118306,595264
0.474,0.00144542,165971,-29215.5,18514.2,489445,53843.6,122545,586871
0.476,0.0014562,171825,-27825.4,20375.6,509382,54185.3,126785,578478
0.478,0.00146694,176853,-24383.8,22405.7,527286,54835,131323,568118
0.48,0.00147764,180789,-18225.5,24659.2,542499,55892.3,136257,555153
0.482,0.00148834,184724,-12067.2,26912.8,557712,56949.6,141190,542188
0.484,0.00149904,188659,-5908.9,29166.3,572924,58006.9,146124,529223
0.486,0.00150975,192595,249.416,31419.8,588137,59064.2,151057,516258
0.488,0.00152055,192857,6524.45,32931,597431,58756.3,152534,507864
0.49,0.0015316,184701,13067,32740.6,593158,55319,146087,509948
0.492,0.00154264,176545,19609.6,32550.2,588884,51881.8,139640,512032
0.494,0.00155369,168389,26152.1,32359.8,584611,48444.6,133194,514116
0.496,0.00156473,160232,32694.7,32169.4,580338,45007.4,126747,516200
0.498,0.00157577,152076,39237.3,31979,576064,41570.2,120300,518284
0.5,0.00158697,145549,42168.8,31477.8,572001,39538.4,113563,520375
0.502,0.00159829,140608,41601.1,30327,568429,38244.6,106742,523405
0.504,0.00160957,137385,37343.9,26558.6,566975,34265.7,100915,532595
0.506,0.00162084,134365,33341.5,22999.2,565297,30568.1,95384.9,541150
0.508,0.00163205,133044,31472.5,21190.4,561749,29224.9,92327.8,544383
0.51,0.00164327,131723,29603.6,19381.6,558202,27881.9,89270.9,547616
0.512,0.00165448,130401,27734.6,17572.7,554654,26538.7,86213.9,550850
0.514,0.00166569,129080,25865.7,15763.9,551106,25195.6,83157,554083
0.516,0.0016769,127759,23996.8,13955.2,547558,23852.6,80100,557316
0.518,0.00168811,126438,22127.8,12146.3,544011,22509.4,77043,560549
0.52,0.00169933,125117,20258.9,10337.5,540463,21166.3,73986.1,563782
0.522,0.00171054,123796,18389.9,8528.66,536915,19823.2,70929.1,567016
0.524,0.00172175,122474,16520.9,6719.87,533367,18480.1,67872.2,570249
0.526,0.00173296,121153,14652,4911.02,529819,17137,64815.1,573482
0.528,0.00174424,119973,13477.3,3899.58,526986,16732.1,62390.6,576803
0.53,0.00175575,119385,15227.3,6246.98,527159,20279.1,62629.7,580495
0.532,0.00176726,118797,16977.4,8594.45,527332,23826.2,62868.9,584187
0.534,0.00177878,118209,18727.5,10941.8,527506,27373.3,63108.1,587878
0.536,0.00179029,117622,20477.6,13289.3,527679,30920.4,63347.3,591570
0.538,0.00180181,117034,22227.6,15636.7,527853,34467.4,63586.5,595261
0.54,0.00181333,116481,23868.5,17946.3,527523,37973.9,63839.5,598257
0.542,0.00182494,116569,23498.5,19557.1,517911,40730.7,64347.9,588421
0.544,0.00183677,116240,21450.9,19407.1,505219,42883.3,64601.5,578736
0.546,0.00184876,115587,18106,17895.4,490146,44568.3,64658,569168
0.548,0.00186076,114934,14761.1,16383.6,475072,46253.4,64714.5,559599
0.55,0.00187275,114282,11416.1,14871.8,459998,47938.5,64771,550030
0.552,0.00188474,113629,8071.21,13360,444925,49623.5,64827.5,540462
0.554,0.00189674,112977,4726.22,11848.2,429851,51308.6,64884,530893
0.556,0.00190886,112934,3437.04,13616.5,426408,51860.5,64575.2,547355
0.558,0.00192102,113035,2632.35,16157.9,425707,52145.2,64180.3,569952
0.56,0.00193318,113135,1827.68,18699.3,425006,52430,63785.3,592549
0.562,0.00194534,113236,1023,21240.6,424305,52714.8,63390.4,615146
0.564,0.00195749,113337,218.307,23782.1,423603,52999.5,62995.5,637743
0.566,0.00196965,113438,-586.365,26323.4,422902,53284.3,62600.6,660340
0.568,0.00198181,113538,-1391.06,28864.8,422201,53569.1,62205.7,682938
0.57,0.00199397,113639,-2195.73,31406.2,421500,53853.8,61810.8,705534
0.572,0.00200613,113740,-3000.43,33947.6,420799,54138.6,61415.9,728132
0.574,0.0020184,112918,-3388.67,36851.2,410277,54059.2,58397.5,735734
0.576,0.00203077,110327,-4106.4,39823.4,405242,54015.5,58115,733681
0.578,0.00204315,107587,-4899.38,42775,401694,54005.8,58389.8,731624
0.58,0.00205552,104848,-5692.34,45726.5,398147,53996.2,58664.6,729567
0.582,0.0020679,102108,-6485.32,48678.1,394599,53986.5,58939.3,727510
0.584,0.00208027,99368.7,-7278.28,51629.7,391051,53976.8,59214.1,725454
0.586,0.00209265,96629.1,-8071.26,54581.3,387503,53967.1,59488.8,723397
0.588,0.00210502,93889.6,-8864.22,57532.8,383955,53957.5,59763.6,721340
0.59,0.0021174,91150.1,-9657.18,60484.4,380407,53947.8,60038.4,719283
0.592,0.00212977,88410.5,-10450.2,63436,376860,53938.1,60313.1,717226
0.594,0.00214215,85671,-11243.1,66387.5,373312,53928.5,60587.9,715169
0.596,0.00215469,85079.2,-11695,67704.4,372659,55365.1,62504.9,711353
0.598,0.00216733,85890,-11924.1,67953.5,373897,57746.3,65494.4,706387
0.6,0.00217997,86700.9,-12153.2,68202.6,375135,60127.5,68484,701421
0.602,0.00219258,87762.4,-12223.1,67505.5,374747,62713,70715.2,691580
0.604,0.00220518,88943.4,-12217.2,66357.9,373585,65395.7,72585.3,679417
0.606,0.00221777,90124.4,-12211.2,65210.3,372424,68078.5,74455.5,667253
0.608,0.00223037,91305.4,-12205.3,64062.7,371262,70761.2,76325.6,655090
0.61,0.00224296,92486.4,-12199.3,62915.1,370101,73444,78195.7,642927
0.612,0.00225556,93667.4,-12193.4,61767.5,368939,76126.7,80065.8,630764
0.614,0.00226815,94848.4,-12187.5,60619.9,367778,78809.5,81935.9,618600
0.616,0.00228075,96029.3,-12181.5,59472.3,366616,81492.2,83806,606437
0.618,0.00229335,97210.3,-12175.6,58324.7,365454,84174.9,85676.1,594274
0.62,0.00230598,97425.5,-11709.8,56565.9,362971,86799,87217.9,586569
0.622,0.00231874,94342.9,-9673.92,52719.9,355975,89222.7,87638.4,594089
0.624,0.0023315,91260.2,-7637.95,48873.8,348979,91646.5,88058.9,601608
0.626,0.00234436,88245.5,-6186.19,45681.4,342849,92122.8,88494.2,603107
0.628,0.00235734,85299.2,-5324.8,43149.5,337594,90631,88944.6,598520
0.63,0.00237031,82353,-4463.43,40617.7,332338,89139.1,89395,593933
0.632,0.00238329,79406.8,-3602.04,38085.9,327083,87647.2,89845.5,589346
0.634,0.00239626,76460.6,-2740.68,35554.1,321828,86155.4,90295.9,584759
0.636,0.00240931,74041.7,-2214.37,33967.9,316805,84402.7,90555.7,580421
0.638,0.00242252,72927.2,-2517,34721,312356,82004.6,90344.1,576699
0.64,0.00243574,71812.7,-2819.61,35474.2,307908,79606.5,90132.4,572976
0.642,0.00244895,70698.2,-3122.23,36227.4,303460,77208.4,89920.8,569254
0.644,0.00246216,69583.8,-3424.84,36980.5,299011,74810.3,89709.1,565532
0.646,0.00247547,68781.6,-3372.74,36886.1,296911,72796.3,88793.4,561862
0.648,0.0024889,68466.4,-2767.58,35470.1,298471,71381.1,86779.9,558275
0.65,0.00250234,68151.2,-2162.41,34054,300031,69965.9,84766.4,554687
0.652,0.00251578,67835.9,-1557.23,32637.9,301592,68550.7,82752.9,551100
0.654,0.00252922,67520.7,-952.07,31221.9,303152,67135.5,80739.4,547512
0.656,0.00254266,67205.5,-346.888,29805.8,304712,65720.3,78725.8,543925
0.658,0.00255609,66890.3,258.275,28389.8,306273,64305.1,76712.3,540338
0.66,0.00256953,66575.1,863.456,26973.7,307833,62889.9,74698.8,536750
0.662,0.00258297,66259.8,1468.62,25557.7,309393,61474.7,72685.3,533163
0.664,0.00259641,65944.6,2073.78,24141.7,310953,60059.5,70671.8,529575
0.666,0.00260985,65629.4,2678.96,22725.6,312514,58644.3,68658.3,525988
0.668,0.00262329,65314.2,3284.13,21309.6,314074,57229.1,66644.8,522400
0.67,0.00263673,64999,3889.31,19893.5,315634,55813.9,64631.2,518813
0.672,0.00265017,64683.7,4494.47,18477.5,317195,54398.7,62617.7,515225
0.674,0.00266361,64368.5,5099.65,17061.4,318755,52983.5,60604.2,511638
0.676,0.00267705,64053.3,5704.82,15645.3,320315,51568.3,58590.7,508050
0.678,0.00269049,63738.1,6309.98,14229.3,321875,50153.1,56577.2,504463
0.68,0.00270393,63395.1,6943.74,12717.7,322983,48942.6,54295.8,500909
0.682,0.00271754,62482.3,8163.39,9247.88,314812,51928.9,46521.5,498044
0.684,0.00273114,61569.6,9383.07,5777.93,306640,54915.3,38746.9,495180
0.686,0.00274474,60656.9,10602.7,2308.07,298469,57901.6,30972.6,492315
0.688,0.00275835,59744.1,11822.4,-1161.88,290297,60887.9,23198,489450
0.69,0.00277195,58831.4,13042.1,-4631.73,282125,63874.3,15423.7,486586
0.692,0.00278555,57918.6,14261.7,-8101.59,273954,66860.5,7649.37,483721
0.694,0.00279915,57005.9,15481.4,-11571.5,265782,69846.9,-125.188,480856
0.696,0.00281276,56093.1,16701,-15041.4,257611,72833.2,-7899.51,477992
0.698,0.00282644,55526.8,17190.4,-16863.1,251767,75244.9,-13842.8,473178
0.7,0.00284028,55682.8,16156.5,-15247.3,250780,76457.9,-15966.5,464299
0.702,0.00285413,55838.9,15122.6,-13631.4,249793,77670.8,-18090.3,455420
0.704,0.00286797,55995,14088.7,-12015.6,248806,78883.8,-20214,446542
0.706,0.00288182,56151,13054.8,-10399.7,247818,80096.7,-22337.7,437663
0.708,0.00289566,56307.1,12020.9,-8783.82,246831,81309.7,-24461.5,428784
0.71,0.0029095,56463.1,10987,-7167.98,245844,82522.7,-26585.2,419905
0.712,0.00292354,56096.7,11905.9,-8266.57,251145,82363.6,-28934.5,416831
0.714,0.00293776,55256.3,14596.5,-11828.1,262151,80959.6,-31488.2,419023
0.716,0.00295197,54415.8,17287.3,-15389.8,273157,79555.5,-34042.1,421216
0.718,0.00296618,53575.4,19978,-18951.3,284163,78151.5,-36595.9,423409
0.72,0.0029804,52734.9,22668.8,-22513,295170,76747.4,-39149.7,425601
0.722,0.00299461,51894.5,25359.5,-26074.6,306176,75343.4,-41703.5,427794
0.724,0.0030088,51540.2,28682.9,-28030.1,316100,74761.1,-43514.8,432102
0.726,0.00302293,52313.5,33473.7,-26261,323515,76084.2,-43604.2,441315
0.728,0.00303706,53086.8,38264.4,-24492,330930,77407.3,-43693.6,450527
0.73,0.00305119,53860.1,43055.2,-22723,338345,78730.4,-43783,459741
0.732,0.00306532,54633.3,47845.9,-20954,345760,80053.5,-43872.4,468953
0.734,0.00307944,55406.6,52636.7,-19184.9,353175,81376.6,-43961.8,478166
0.736,0.00309357,56179.8,57427.4,-17415.9,360590,82699.7,-44051.2,487379
0.738,0.0031077,56953.1,62218,-15646.9,368005,84022.7,-44140.6,496592
0.74,0.00312179,54915.5,58898.8,-19115.5,368799,83008.6,-48569.2,489064
0.742,0.00313588,52790.2,55326.3,-22747.5,369386,81921.5,-53133.2,481013
0.744,0.00314997,50664.8,51753.7,-26379.7,369973,80834.4,-57697.4,472962
0.746,0.00316405,48539.4,48181.3,-30011.7,370560,79747.4,-62261.4,464911
0.748,0.00317829,51003,47061.3,-28174.8,368262,79768.6,-57384.7,457632
0.75,0.00319254,53792.1,46115.5,-25949.8,365760,79868.5,-51838.2,450409
0.752,0.00320679,56581.3,45169.6,-23724.8,363257,79968.4,-46291.6,443185
0.754,0.00322104,59370.5,44223.8,-21499.8,360755,80068.3,-40744.8,435962
0.756,0.00323551,58614.4,40619.2,-21040.1,358309,80280,-35848.6,429980
0.758,0.00324999,57627.4,36841.3,-20695.4,355867,80498.9,-30994.5,424080
0.76,0.00326447,56640.4,33063.5,-20350.8,353425,80717.9,-26140.6,418180
0.762,0.00327901,55265.9,30497,-19729.1,350802,80759.6,-22231.9,416137
0.764,0.00329365,53190.4,30122.3,-18606.4,347851,80480.7,-20033.8,421073
0.766,0.00330829,51115,29747.6,-17483.6,344901,80201.8,-17835.7,426009
0.768,0.00332294,49039.5,29373,-16360.9,341951,79922.9,-15637.6,430945
0.77,0.00333758,46964.1,28998.3,-15238.1,339000,79644,-13439.6,435881
0.772,0.00335223,44888.5,28623.6,-14115.3,336050,79365.1,-11241.4,440817
0.774,0.00336684,43222.2,27697.4,-13071.2,331209,78928.6,-8562.69,445639
0.776,0.0033814,42375.3,25666.2,-12184.6,322579,78176.5,-4920.98,450232
0.778,0.00339596,41528.4,23635.1,-11298,313950,77424.3,-1279.38,454825
0.78,0.00341051,40681.5,21604,-10411.4,305322,76672.1,2362.22,459418
0.782,0.00342507,39834.6,19572.8,-9524.83,296692,75920,6003.94,464011
0.784,0.00343963,38987.8,17541.7,-8638.25,288064,75167.8,9645.54,468604
0.786,0.00345418,38140.9,15510.5,-7751.64,279434,74415.6,13287.3,473197
0.788,0.00346874,37294,13479.4,-6865.05,270806,73663.5,16928.9,477790
0.79,0.0034833,36447.1,11448.2,-5978.44,262176,72911.3,20570.6,482383
0.792,0.00349788,35848.1,9501.31,-5190.89,253426,72098.5,24223.1,485805
0.794,0.00351284,39021.7,8836.54,-5910.27,242834,70362.9,28042.2,471405
0.796,0.00352779,42195.2,8171.8,-6629.63,232242,68627.4,31861.2,457005
0.798,0.00354275,45368.7,7507.05,-7348.98,221650,66891.9,35680.2,442606
0.8,0.0035577,48542.3,6842.29,-8068.36,211058,65156.3,39499.4,428206
0.802,0.00357266,51715.8,6177.54,-8787.72,200466,63420.8,43318.4,413807
0.804,0.00358762,54889.3,5512.77,-9507.1,189874,61685.2,47137.5,399407
0.806,0.00360257,58062.8,4848.03,-10226.5,179282,59949.7,50956.5,385007
0.808,0.00361753,61236.4,4183.26,-10945.8,168690,58214.1,54775.6,370607
0.81,0.00363256,63827.8,3759.38,-11061.9,165798,57632.6,57661.9,363486
0.812,0.00364765,65946.7,3530.93,-10688.6,169153,57987.5,59791.5,362270
0.814,0.00366275,68065.8,3302.48,-10315.2,172509,58342.4,61921.1,361054
0.816,0.00367784,70184.7,3074.03,-9941.86,175865,58697.2,64050.6,359838
0.818,0.00369293,72303.8,2845.58,-9568.48,179220,59052.1,66180.3,358622
0.82,0.00370803,74422.8,2617.13,-9195.12,182576,59407,68309.8,357406
0.822,0.00372312,76541.8,2388.68,-8821.75,185931,59761.9,70439.4,356190
0.824,0.00373821,78660.8,2160.23,-8448.39,189287,60116.7,72569,354974
0.826,0.00375331,80779.8,1931.79,-8075.03,192643,60471.6,74698.5,353758
0.828,0.0037684,82898.8,1703.33,-7701.66,195998,60826.5,76828.1,352542
0.83,0.00378349,85017.8,1474.89,-7328.3,199354,61181.3,78957.7,351326
0.832,0.00379859,87136.8,1246.44,-6954.93,202710,61536.2,81087.3,350110
0.834,0.00381368,89255.8,1017.99,-6581.57,206065,61891.1,83216.8,348894
0.836,0.00382878,91374.8,789.536,-6208.19,209421,62246,85346.4,347678
0.838,0.00384387,93493.8,561.09,-5834.83,212776,62600.8,87476,346462
0.84,0.00385896,95612.8,332.643,-5461.47,216132,62955.7,89605.5,345246
0.842,0.00387401,96895.7,526.803,-4897.23,219185,63598.1,91571.2,344616
0.844,0.00388905,98108.5,756.314,-4317.03,222212,64264.5,93523.1,344036
0.846,0.00390409,99321.4,985.832,-3736.81,225240,64931,95475.1,343455
0.848,0.00391913,100534,1215.34,-3156.61,228268,65597.4,97427,342875
0.85,0.00393417,101747,1444.86,-2576.4,231295,66263.8,99379,342294
0.852,0.00394944,101524,744.439,-1386.7,228066,66403.1,97601.3,342491
0.854,0.00396474,101007,-145.717,-72.6531,223560,66434.8,95062.7,342846
0.856,0.00398008,98780.7,-770.218,1135.61,218308,66423.3,90792.7,342853
0.858,0.00399547,94002.7,-998.41,2185.98,211943,66347.3,83940.5,342339
0.86,0.00401086,89224.6,-1226.61,3236.38,205578,66271.3,77088,341825
0.862,0.00402625,84446.7,-1454.8,4286.75,199214,66195.4,70235.8,341312
0.864,0.00404164,79668.5,-1683,5337.15,192849,66119.4,63383.4,340798
0.866,0.00405716,76673.7,-1570.25,5921.25,191115,66088.9,59162.7,340101
0.868,0.00407277,74863,-1231.06,6195.7,192457,66088.7,56689.7,339282
0.87,0.00408837,73052.3,-891.863,6470.15,193799,66088.5,54216.6,338463
0.872,0.00410398,71241.6,-552.677,6744.59,195141,66088.3,51743.6,337644
0.874,0.00411958,69430.9,-213.481,7019.05,196482,66088,49270.5,336825
0.876,0.00413519,67620.2,125.705,7293.49,197824,66087.8,46797.5,336006
0.878,0.00415079,66281.4,730.009,7869.67,199995,66016.4,44764.3,334810
0.88,0.00416639,65029.4,1383.04,8501.31,202318,65932,42812,333544
0.882,0.00418199,63777.4,2036.09,9132.97,204642,65847.6,40859.7,332279
0.884,0.00419759,62525.4,2689.12,9764.62,206965,65763.2,38907.4,331014
0.886,0.00421318,61273.4,3342.15,10396.3,209289,65678.7,36955.1,329749
0.888,0.00422878,60021.3,3995.2,11027.9,211612,65594.3,35002.8,328483
0.89,0.00424438,58769.3,4648.23,11659.6,213936,65509.9,33050.5,327218
0.892,0.00425998,57517.3,5301.28,12291.2,216259,65425.4,31098.2,325953
0.894,0.00427558,56265.3,5954.31,12922.9,218582,65341,29146,324688
0.896,0.00429118,55013.3,6607.36,13554.5,220906,65256.6,27193.6,323422
0.898,0.00430678,53761.3,7260.39,14186.2,223229,65172.1,25241.4,322157
0.9,0.00432238,52509.3,7913.42,14817.8,225553,65087.7,23289.1,320892
0.902,0.00433798,51257.2,8566.47,15449.5,227876,65003.3,21336.8,319627
0.904,0.00435375,47758.3,7933.7,15067.5,228117,66363.8,18813.3,322554
0.906,0.00436953,44070.8,7193.11,14600.6,228184,67845.5,16241.9,325833
0.908,0.00438532,40383.4,6452.53,14133.7,228250,69327.2,13670.5,329112
0.91,0.0044011,36695.9,5711.94,13666.8,228316,70808.9,11099.1,332391
0.912,0.00441689,33008.6,4971.36,13199.9,228383,72290.6,8527.75,335670
0.914,0.00443267,29321.2,4230.79,12733,228449,73772.3,5956.39,338948
0.916,0.00444846,25633.7,3490.19,12266.1,228515,75254,3384.96,342227
0.918,0.00446424,21946.3,2749.61,11799.1,228582,76735.7,813.61,345506
0.92,0.00448017,19833.3,2767.05,11457,228277,77919.2,-723.941,348022
0.922,0.00449625,19412.2,3599.14,11248.9,227574,78782.3,-1150.36,349717
0.924,0.00451233,18991.1,4431.25,11040.8,226871,79645.3,-1576.8,351411
0.926,0.00452841,18570.1,5263.33,10832.7,226168,80508.4,-2003.22,353106
0.928,0.00454448,18149,6095.41,10624.6,225465,81371.4,-2429.65,354801
0.93,0.00456053,18658.3,6666.49,10719.2,221081,82288.2,-2726.68,352322
0.932,0.00457657,19204.8,7227.12,10826,216551,83207.1,-3018.54,349675
0.934,0.00459262,19751.2,7787.77,10932.7,212020,84126,-3310.41,347029
0.936,0.00460866,20297.7,8348.4,11039.5,207489,85044.9,-3602.27,344383
0.938,0.0046247,20844.2,8909.05,11146.2,202958,85963.8,-3894.14,341736
0.94,0.00464075,21390.6,9469.68,11252.9,198427,86882.8,-4185.99,339090
0.942,0.00465679,21937.1,10030.3,11359.7,193897,87801.7,-4477.85,336444
0.944,0.00467283,22483.6,10591,11466.4,189366,88720.6,-4769.72,333797
0.946,0.00468888,23030,11151.6,11573.2,184835,89639.5,-5061.58,331151
0.948,0.00470492,23576.5,11712.2,11679.9,180304,90558.4,-5353.45,328505
0.95,0.00472096,24122.9,12272.9,11786.6,175773,91477.3,-5645.3,325858
0.952,0.00473701,24669.4,12833.5,11893.4,171242,92396.3,-5937.17,323212
0.954,0.00475305,25215.9,13394.2,12000.1,166712,93315.2,-6229.03,320566
0.956,0.0047691,25762.3,13954.8,12106.8,162181,94234.1,-6520.89,317919
0.958,0.00478519,29345,15984,12675.7,164289,96155.1,-2691.92,318670
0.96,0.00480134,36777,19875.2,13830.5,174815,99346.6,6361.76,323726
0.962,0.00481759,48588.5,26465.7,15349.5,203745,103819,21252.9,343470
0.964,0.00483396,65622.8,36275.3,17302.6,254622,109819,43105.9,380730
0.966,0.00485028,77428.5,42201.9,18435.8,288695,113626,59151.4,404473
0.968,0.00486648,72487.8,35691.7,16943.1,268945,110412,56595.9,384926
0.97,0.00488267,67546.9,29181.3,15450.3,249194,107197,54040.3,365379
0.972,0.00489887,62606.2,22671.1,13957.6,229444,103983,51484.8,345832
0.974,0.00491506,57665.4,16160.9,12464.8,209693,100769,48929.3,326285
0.976,0.0049313,53005.6,11178.3,11875.2,196683,97472.1,47427.3,313468
0.978,0.00494756,48307.1,6466.38,11496.1,185125,94102.2,46130.9,302078
0.98,0.00496395,47791.4,6334.88,11917.3,184024,92692.4,47277.2,302069
0.982,0.00498034,47275.6,6203.38,12338.5,182922,91282.7,48423.5,302060
0.984,0.00499673,46759.8,6071.88,12759.7,181820,89873,49569.9,302052
0.986,0.00501311,46244.1,5940.38,13180.9,180719,88463.3,50716.2,302043
0.988,0.0050295,45728.3,5808.88,13602.1,179617,87053.6,51862.5,302034
0.99,0.00504589,45212.5,5677.37,14023.3,178516,85643.8,53008.9,302026
0.992,0.00506228,44696.7,5545.87,14444.5,177414,84234.1,54155.2,302017
0.994,0.00507867,44181,5414.37,14865.8,176312,82824.4,55301.5,302008
0.996,0.00509506,43665.2,5282.87,15287,175211,81414.6,56447.8,302000
0.998,0.00511145,43149.4,5151.37,15708.2,174109,80004.9,57594.2,301991
1,0.00512784,42633.7,5019.87,16129.4,173007,78595.2,58740.5,301982
1.002,0.00514423,42117.9,4888.37,16550.6,171906,77185.5,59886.8,301974
1.004,0.00516061,41602.1,4756.87,16971.8,170804,75775.8,61033.1,301965
1.006,0.005177,41086.3,4625.36,17393,169702,74366,62179.5,301956
1.008,0.00519339,40570.6,4493.86,17814.2,168601,72956.3,63325.9,301948
1.01,0.00520978,40054.8,4362.36,18235.4,167499,71546.6,64472.2,301939
1.012,0.00522617,39539.1,4230.86,18656.6,166398,70136.9,65618.5,301930
1.014,0.00524256,39023.3,4099.35,19077.8,165296,68727.1,66764.9,301922
1.016,0.00525895,38507.5,3967.85,19499,164194,67317.4,67911.2,301913
1.018,0.00527534,37991.7,3836.35,19920.2,163093,65907.6,69057.5,301904
1.02,0.00529173,37476,3704.85,20341.4,161991,64497.9,70203.8,301896
1.022,0.00530812,36960.2,3573.36,20762.6,160889,63088.2,71350.1,301887
1.024,0.00532451,36444.4,3441.85,21183.8,159788,61678.4,72496.5,301878
1.026,0.00534085,36751.8,2943.76,21228.7,158696,60002.7,73846.7,300712
1.028,0.00535735,35098.4,1734.33,21068.5,156720,58570.5,70350.3,302299
1.03,0.00537396,33343.6,665.697,22038.4,154722,57894,65791.1,303084
1.032,0.00539056,31588.9,-402.94,23008.2,152724,57217.5,61231.9,303869
1.034,0.00540717,29834,-1471.64,23978.1,150727,56541,56672.5,304655
1.036,0.00542378,28079.2,-2540.28,24947.9,148729,55864.5,52113.3,305440
1.038,0.00544038,26324.5,-3608.91,25917.7,146731,55188,47554.2,306225
1.04,0.00545699,24569.7,-4677.55,26887.6,144733,54511.5,42995,307011
1.042,0.0054736,22814.9,-5746.25,27857.5,142736,53835,38435.6,307796
1.044,0.00549021,21756.6,-6334.9,29338,139869,53626.4,35206,307340
1.046,0.00550696,21793.4,-5915.17,29825.7,141407,54423.9,33900.3,302571
1.048,0.00552371,21825.8,-5489.93,30250.7,143141,55227.6,32580.9,297732
1.05,0.00554046,21858.3,-5064.69,30675.7,144875,56031.3,31261.5,292893
1.052,0.00555722,21890.8,-4639.42,31100.7,146610,56835,29942.1,288054
1.054,0.00557397,21923.3,-4214.18,31525.7,148344,57638.7,28622.7,283215
1.056,0.00559072,21955.8,-3788.93,31950.7,150079,58442.4,27303.3,278375
1.058,0.00560747,21988.2,-3363.69,32375.7,151813,59246,25983.9,273536
1.06,0.00562423,22020.7,-2938.45,32800.7,153547,60049.7,24664.6,268697
1.062,0.00564098,22053.2,-2513.18,33225.8,155282,60853.4,23345.1,263858
1.064,0.00565773,22085.7,-2087.93,33650.8,157016,61657.1,22025.7,259019
1.066,0.00567449,22118.2,-1662.69,34075.8,158751,62460.8,20706.4,254180
1.068,0.00569124,22150.6,-1237.45,34500.8,160485,63264.5,19387,249341
1.07,0.00570799,22183.1,-812.179,34925.8,162219,64068.2,18067.5,244501
1.072,0.00572474,22215.6,-386.935,35350.8,163954,64871.9,16748.2,239662
1.074,0.00574152,22274.1,364.519,35375.7,164487,65020.8,15884.2,233233
1.076,0.00575834,22406.3,2041.37,34265.5,161615,63312.4,16312.2,222296
1.078,0.00577517,22538.5,3718.22,33155.4,158743,61603.9,16740.2,211358
1.08,0.00579201,22333.2,5249.74,32359,155499,59959,16682.7,202150
1.082,0.00580897,21344.1,5902.51,32521.7,152474,58926,15146.9,201271
1.084,0.00582597,21056.7,5901.93,32438,152138,58580.5,14000.8,204410
1.086,0.00584298,20769.2,5901.35,32354.4,151801,58235,12854.8,207549
1.088,0.00585999,20481.8,5900.77,32270.7,151465,57889.4,11708.7,210688
1.09,0.00587699,20194.4,5900.19,32187.1,151128,57543.9,10562.7,213827
1.092,0.005894,19907,5899.61,32103.5,150792,57198.4,9416.69,216965
1.094,0.005911,19619.6,5899.03,32019.8,150456,56852.8,8270.66,220104
1.096,0.00592801,19332.2,5898.45,31936.2,150119,56507.3,7124.64,223243
1.098,0.00594502,19044.7,5897.87,31852.6,149783,56161.8,5978.55,226382
1.1,0.00596202,18757.3,5897.29,31768.9,149446,55816.2,4832.53,229521
1.102,0.00597903,18469.9,5896.7,31685.3,149110,55470.7,3686.51,232660
1.104,0.00599603,18182.5,5896.12,31601.6,148774,55125.2,2540.48,235798
1.106,0.00601304,17895.1,5895.54,31518,148437,54779.6,1394.46,238937
1.108,0.00603005,18329.9,5922.35,30695.8,147266,54300.4,929.879,240480
1.11,0.00604706,19063.7,5960.51,29567.7,145749,53765.8,747.511,241363
1.112,0.00606407,19797.6,5998.66,28439.7,144232,53231.2,565.143,242245
1.114,0.00608109,20531.4,6036.82,27311.7,142715,52696.6,382.775,243127
1.116,0.0060981,21265.3,6074.97,26183.6,141198,52162,200.396,244010
1.118,0.00611511,21999.1,6113.13,25055.5,139681,51627.4,18.0284,244892
1.12,0.00613212,22733,6151.28,23927.5,138164,51092.8,-164.34,245774
1.122,0.00614923,23138,7028.15,21642.9,136056,50949.4,1577.89,243097
1.124,0.00616636,23476.8,8073.58,19125.9,133830,50884.7,3706.92,239704
1.126,0.00618349,23815.8,9119.08,16608.8,131604,50819.9,5836.07,236311
1.128,0.00620062,24154.6,10164.5,14091.8,129378,50755.1,7965.1,232918
1.13,0.00621774,24493.5,11210,11574.8,127152,50690.4,10094.1,229525
1.132,0.00623487,24832.4,12255.4,9057.75,124926,50625.6,12223.2,226132
1.134,0.00625204,24930.1,12976.1,7491.19,122682,50781.5,14061.7,223074
1.136,0.00626926,24670.1,13215.3,7333.69,120413,51264.8,15469.6,220512
1.138,0.00628647,24410.2,13454.5,7176.2,118144,51748,16877.4,217950
1.14,0.00630368,24288.6,13314.8,6895.58,116585,51286.6,16810.2,214631
1.142,0.00632089,24191.8,13107.4,6592.92,115153,50656.2,16479,211176
1.144,0.0063381,24095,12899.9,6290.24,113720,50025.7,16147.7,207721
1.146,0.00635531,23998.1,12692.4,5987.58,112288,49395.3,15816.4,204266
1.148,0.00637252,23901.3,12484.9,5684.91,110856,48764.9,15485.2,200811
1.15,0.00638973,23804.5,12277.4,5382.25,109423,48134.5,15153.9,197356
1.152,0.00640694,23707.7,12070,5079.59,107991,47504,14822.7,193901
1.154,0.00642415,23610.8,11862.5,4776.91,106559,46873.6,14491.4,190446
1.156,0.00644135,23514,11655,4474.25,105127,46243.2,14160.2,186991
1.158,0.00645856,23417.2,11447.5,4171.58,103694,45612.7,13828.9,183536
1.16,0.00647577,23320.4,11240,3868.92,102262,44982.3,13497.7,180081
1.162,0.00649298,23223.6,11032.6,3566.26,100830,44351.9,13166.4,176626
1.164,0.00651019,23126.7,10825.1,3263.58,99397.4,43721.4,12835.2,173171
1.166,0.0065274,23029.9,10617.6,2960.91,97965.2,43091,12503.9,169716
1.168,0.00654461,22821.5,10480,2609.56,97095,42400.7,12213.5,166705
1.17,0.00656183,22340.6,10513.1,2139.26,97597.6,41564.2,12022.7,164778
1.172,0.00657905,21859.7,10546.1,1668.94,98100.3,40727.7,11831.9,162851
1.174,0.00659626,21378.8,10579.2,1198.65,98603,39891.2,11641.1,160924
1.176,0.00661348,20897.9,10612.3,728.36,99105.6,39054.7,11450.3,158997
1.178,0.00663075,19796.2,10300.2,362.613,98222.9,38113.1,10393.5,156870
1.18,0.00664811,17252.9,9186.48,239.644,94123,36927.6,7325.59,154277
1.182,0.00666548,14709.4,8072.73,116.667,90022.8,35741.9,4257.46,151684
1.184,0.00668284,12166,6959.04,-6.30268,85922.9,34556.4,1189.52,149091
1.186,0.00670021,9622.71,5845.35,-129.272,81823,33370.8,-1878.42,146498
1.188,0.00671757,7079.38,4731.67,-252.242,77723.1,32185.3,-4946.36,143905
1.19,0.00673498,7032.43,4606.1,-167.138,78137.9,32169.6,-4758.66,143262
1.192,0.00675239,7555.24,4706.06,-34.5521,79583,32420.8,-3827.95,143063
1.194,0.00676981,8078.04,4806.02,98.0338,81028.1,32672.1,-2897.23,142865
1.196,0.00678722,8600.85,4905.99,230.62,82473.2,32923.4,-1966.51,142667
1.198,0.00680463,9123.66,5005.95,363.206,83918.3,33174.6,-1035.8,142468
1.2,0.00682205,9646.5,5105.92,495.799,85363.4,33425.9,-105.027,142270
1.202,0.00683946,10169.3,5205.88,628.385,86808.5,33677.2,825.69,142072
1.204,0.00685688,10692.1,5305.84,760.971,88253.6,33928.5,1756.41,141873
1.206,0.00687429,11214.9,5405.8,893.557,89698.7,34179.7,2687.12,141675
1.208,0.0068917,11737.7,5505.76,1026.14,91143.8,34431,3617.84,141476
1.21,0.00690912,12260.6,5605.73,1158.74,92589,34682.3,4548.61,141278
1.212,0.00692653,12783.4,5705.69,1291.32,94034.1,34933.5,5479.33,141080
1.214,0.00694394,13306.2,5805.65,1423.91,95479.2,35184.8,6410.04,140881
1.216,0.00696137,13797.5,6238.13,1668.92,97613.3,35451.5,7932.11,141458
1.218,0.00697882,14250.7,7073.67,2050.22,100583,35736.8,10171.1,142975
1.22,0.00699627,16325.9,7875.6,2462.02,104420,36496.4,13057.7,144682
1.222,0.00701372,19562.9,8653.5,2895.69,108880,37595.6,16408.1,146527
1.224,0.00703117,22799.8,9431.39,3329.36,113339,38694.8,19758.6,148371
1.226,0.00704861,26036.7,10209.3,3763.02,117799,39793.9,23109.1,150215
1.228,0.00706606,29273.8,10987.2,4196.72,122259,40893.2,26459.7,152059
1.23,0.00708351,32510.7,11765.1,4630.38,126718,41992.4,29810.2,153903
1.232,0.007101,35211.1,12177.9,4641.01,128823,42860.6,32170.7,154021
1.234,0.00711858,36905.3,11906,3858.28,126511,43295.5,32674.6,150899
1.236,0.00713616,37435.5,11611.3,3315.03,123827,43535.4,32837,149201
1.238,0.00715372,36685.8,11291.5,3035.05,120733,43560.8,32624.1,149069
1.24,0.00717129,35936.1,10971.7,2755.09,117639,43586.3,32411.1,148937
1.242,0.00718886,35186.4,10652,2475.14,114546,43611.7,32198.2,148806
1.244,0.00720642,34436.8,10332.2,2195.18,111452,43637.1,31985.2,148674
1.246,0.00722399,33687.1,10012.4,1915.2,108358,43662.6,31772.3,148542
1.248,0.00724156,32937.4,9692.64,1635.24,105265,43688,31559.3,148410
1.25,0.00725912,32187.7,9372.87,1355.28,102171,43713.4,31346.3,148279
1.252,0.00727669,31438,9053.1,1075.33,99077.7,43738.8,31133.4,148147
1.254,0.00729426,30688.3,8733.33,795.367,95984.1,43764.3,30920.4,148015
1.256,0.00731182,29938.6,8413.54,515.392,92890.3,43789.7,30707.5,147883
1.258,0.00732939,29189,8093.77,235.434,89796.7,43815.1,30494.5,147752
1.26,0.00734697,28996.8,7826.13,0.886182,87883.5,43657.2,30494.3,149382
1.262,0.00736456,28988.1,7575.65,-218.706,86359,43439,30564.1,151594
1.264,0.00738216,28979.5,7325.16,-438.312,84834.5,43220.7,30633.9,153805
1.266,0.00739974,28970.9,7074.68,-657.904,83310,43002.5,30703.7,156016
1.268,0.00741733,28962.3,6824.21,-877.497,81785.5,42784.2,30773.4,158227
1.27,0.00743492,28953.7,6573.73,-1097.09,80261,42566,30843.2,160438
1.272,0.00745251,28945.1,6323.25,-1316.68,78736.6,42347.7,30913,162650
1.274,0.0074701,28936.5,6072.76,-1536.29,77212,42129.4,30982.8,164861
1.276,0.00748778,29041,5448,-1715.65,77208.8,40994.1,31450.2,166502
1.278,0.00750547,29164.3,4761.39,-1888.37,77456.9,39707.2,31983.3,168049
1.28,0.00752317,29287.5,4074.79,-2061.09,77705,38420.2,32516.4,169596
1.282,0.00754086,29410.8,3388.18,-2233.81,77953.1,37133.3,33049.5,171143
1.284,0.00755855,29534,2701.53,-2406.53,78201.2,35846.3,33582.6,172691
1.286,0.00757624,29657.3,2014.92,-2579.25,78449.4,34559.4,34115.7,174238
1.288,0.00759393,29780.5,1328.32,-2751.97,78697.5,33272.5,34648.8,175785
1.29,0.00761162,29903.8,641.708,-2924.69,78945.6,31985.6,35181.9,177332
1.292,0.00762937,30091.2,565.821,-3064.22,79337,31393.4,35267.1,176848
1.294,0.00764713,30297.6,669.644,-3193.97,79770.6,31005.7,35220.6,175767
1.296,0.0076649,29844.8,865.534,-2908.15,78559.5,30617.3,34226,174442
1.298,0.00768268,29337,1069.13,-2587.55,77210.8,30228.9,33152.1,173097
1.3,0.00770045,28829.1,1272.72,-2266.96,75862,29840.5,32078.2,171752
1.302,0.00771823,28321.2,1476.33,-1946.34,74513.2,29452.1,31004.2,170407
1.304,0.00773601,27813.3,1679.92,-1625.75,73164.4,29063.7,29930.3,169062
1.306,0.00775378,27305.5,1883.51,-1305.15,71815.7,28675.3,28856.4,167717
1.308,0.00777156,26797.6,2087.11,-984.553,70466.9,28286.9,27782.5,166372
1.31,0.00778933,26289.7,2290.7,-663.956,69118.2,27898.5,26708.6,165027
1.312,0.00780711,25781.8,2494.31,-343.341,67769.4,27510.1,25634.6,163681
1.314,0.00782488,25274,2697.9,-22.7443,66420.6,27121.7,24560.7,162336
1.316,0.00784266,24766.1,2901.5,297.852,65071.9,26733.3,23486.8,160991
1.318,0.00786044,24258.2,3105.09,618.448,63723.1,26344.9,22412.9,159646
1.32,0.00787821,23750.3,3308.7,939.064,62374.3,25956.5,21339,158301
1.322,0.00789599,23359.1,3544.42,1236.24,61738.8,25662.1,20467,156405
1.324,0.00791375,23317.6,3876.44,1463.19,63241.5,25649.4,20200.1,152860
1.326,0.00793151,23276.2,4208.46,1690.15,64744.2,25636.7,19933.3,149315
1.328,0.00794927,23234.7,4540.48,1917.11,66246.9,25624.1,19666.5,145769
1.33,0.00796703,23193.2,4872.52,2144.09,67749.7,25611.4,19399.7,142224
1.332,0.0079848,23151.7,5204.54,2371.04,69252.4,25598.7,19132.9,138678
1.334,0.00800256,23110.2,5536.56,2598,70755.1,25586.1,18866.1,135133
1.336,0.00802032,23068.8,5868.58,2824.96,72257.8,25573.4,18599.2,131588
1.338,0.00803808,23027.3,6200.62,3051.94,73760.5,25560.7,18332.4,128042
1.34,0.00805585,22985.8,6532.64,3278.89,75263.2,25548,18065.6,124497
1.342,0.00807364,22781.1,6600.51,3568.84,74426.8,25703.3,17782,121151
1.344,0.00809147,22321,6255.05,3957.34,69930.2,26121.3,17472.1,118116
1.346,0.00810931,21860.9,5909.59,4345.85,65433.7,26539.4,17162.2,115082
1.348,0.00812714,21400.8,5564.11,4734.38,60936.8,26957.4,16852.2,112048
1.35,0.00814498,20940.7,5218.65,5122.88,56440.3,27375.4,16542.3,109013
1.352,0.00816281,20480.6,4873.2,5511.39,51943.7,27793.4,16232.4,105979
1.354,0.00818065,20020.5,4527.74,5899.89,47447.1,28211.5,15922.5,102945
1.356,0.00819848,19560.4,4182.28,6288.4,42950.5,28629.5,15612.6,99910.6
1.358,0.00821632,19100.3,3836.8,6676.92,38453.7,29047.5,15302.7,96876.2
1.36,0.00823419,18840.9,3656.66,7087.79,36217.7,29567.8,15755,97121.4
1.362,0.00825208,18704.7,3578.11,7512.39,35370.8,30150.8,16675.8,99381.8
1.364,0.00826998,18568.5,3499.56,7936.99,34523.8,30733.8,17596.5,101642
1.366,0.00828788,18394.8,3440.85,8241.49,33921.8,31200.8,18147.4,103073
1.368,0.0083058,18147,3421.33,8308.9,33803.5,31438.6,17968.2,102866
1.37,0.00832372,17899.2,3401.8,8376.32,33685.1,31676.3,17789.1,102659
1.372,0.00834165,17651.3,3382.27,8443.73,33566.7,31914.1,17609.9,102452
1.374,0.00835957,17403.5,3362.74,8511.15,33448.3,32151.8,17430.7,102245
1.376,0.00837749,17155.7,3343.21,8578.57,33330,32389.6,17251.6,102038
1.378,0.00839541,16907.8,3323.68,8645.98,33211.6,32627.4,17072.4,101832
1.38,0.00841333,16660,3304.16,8713.4,33093.2,32865.2,16893.3,101625
1.382,0.00843125,16412.2,3284.63,8780.81,32974.8,33102.9,16714.1,101418
1.384,0.00844918,16164.4,3265.1,8848.23,32856.5,33340.7,16534.9,101211
1.386,0.0084671,15916.5,3245.57,8915.65,32738.1,33578.5,16355.8,101004
1.388,0.00848502,15668.7,3226.04,8983.06,32619.7,33816.2,16176.6,100797
1.39,0.00850294,15420.9,3206.51,9050.48,32501.3,34054,15997.5,100590
1.392,0.00852086,15173,3186.98,9117.9,32382.9,34291.8,15818.3,100383
1.394,0.00853879,14987,3165.95,9142.23,32391.7,34483.2,15619.1,100025
1.396,0.00855678,15315.6,3132.37,8807.98,33458.4,34288.7,15252.8,98411.8
1.398,0.00857476,15644.1,3098.79,8473.73,34525,34094.2,14886.6,96798.2
1.4,0.00859274,15972.7,3065.21,8139.48,35591.7,33899.7,14520.3,95184.6
1.402,0.00861075,16295.9,3250.47,7304.03,38420.1,33660.1,14961.2,96916.6
1.404,0.00862876,16618.5,3465.25,6400.98,41486.1,33414.3,15510.8,99099.7
1.406,0.00864676,16941,3680.01,5497.98,44551.9,33168.5,16060.4,101283
1.408,0.00866477,17263.5,3894.76,4594.98,47617.7,32922.7,16610.1,103466
1.41,0.00868278,17586,4109.52,3691.98,50683.5,32676.9,17159.7,105649
1.412,0.00870078,17908.6,4324.28,2788.98,53749.3,32431.2,17709.3,107832
1.414,0.00871879,18231.1,4539.05,1885.92,56815.3,32185.4,18258.9,110015
1.416,0.00873682,18341.7,4654.55,1341.99,58013.5,31898.2,18463.2,110805
1.418,0.00875488,18282.6,4690.61,1085.44,57717,31577.8,18391.2,110480
1.42,0.00877294,18223.5,4726.66,828.897,57420.5,31257.4,18319.2,110154
1.422,0.008791,18164.4,4762.72,572.334,57123.9,30937.1,18247.1,109829
1.424,0.00880906,18105.3,4798.77,315.786,56827.4,30616.7,18175.1,109504
1.426,0.00882712,18046.2,4834.83,59.2386,56530.9,30296.3,18103,109179
1.428,0.00884517,17820.6,4822.74,-202.192,55758.2,29915.8,17944.3,108483
1.43,0.00886322,17165,4686.31,-476.233,53755.8,29379.8,17561.6,106830
1.432,0.00888127,16509.4,4549.88,-750.29,51753.3,28843.8,17178.9,105177
1.434,0.00889932,15853.8,4413.45,-1024.33,49750.9,28307.8,16796.2,103523
1.436,0.00891736,15198.2,4277.02,-1298.37,47748.5,27771.8,16413.5,101870
1.438,0.00893541,14542.6,4140.6,-1572.41,45746.1,27235.9,16030.8,100217
1.44,0.00895346,13886.9,4004.16,-1846.47,43743.6,26699.9,15648.1,98563.4
1.442,0.0089715,13231.4,3867.74,-2120.51,41741.2,26163.9,15265.5,96910.1
1.444,0.00898955,12607.6,3747.69,-2381.27,39906.9,25642.3,14894.8,95325.9
1.446,0.0090076,12421.1,3852.2,-2459.95,40377.7,25317.5,14688.5,94688.7
1.448,0.00902565,12234.6,3956.71,-2538.63,40848.5,24992.8,14482.3,94051.5
1.45,0.0090437,12048,4061.23,-2617.31,41319.4,24668.1,14276,93414.3
1.452,0.00906174,11861.5,4165.74,-2695.98,41790.2,24343.4,14069.8,92777.1
1.454,0.00907979,11675,4270.26,-2774.66,42261,24018.7,13863.6,92139.9
1.456,0.00909784,11488.5,4374.77,-2853.34,42731.8,23694,13657.3,91502.7
1.458,0.00911589,11301.9,4479.28,-2932.02,43202.7,23369.2,13451.1,90865.5
1.46,0.00913394,11115.4,4583.8,-3010.7,43673.5,23044.5,13244.9,90228.3
1.462,0.00915198,10928.9,4688.31,-3089.38,44144.3,22719.8,13038.6,89591.1
1.464,0.00917003,10742.4,4792.83,-3168.05,44615.2,22395.1,12832.4,88953.9
1.466,0.00918808,10555.8,4897.34,-3246.73,45086,22070.4,12626.2,88316.7
1.468,0.00920613,10369.3,5001.86,-3325.41,45556.8,21745.6,12419.9,87679.5
1.47,0.00922418,10182.8,5106.37,-3404.09,46027.7,21420.9,12213.7,87042.3
1.472,0.00924222,9996.25,5210.88,-3482.77,46498.5,21096.2,12007.5,86405.1
1.474,0.00926027,9809.72,5315.4,-3561.44,46969.3,20771.5,11801.2,85767.9
1.476,0.00927832,9623.19,5419.91,-3640.12,47440.1,20446.8,11595,85130.7
1.478,0.00929637,9436.66,5524.43,-3718.8,47911,20122.1,11388.7,84493.5
1.48,0.00931445,9222.74,5365.38,-3351.96,46891.9,20206.7,10843,83404.8
1.482,0.00933255,8989.14,5016.93,-2664.94,44802.2,20585.6,10053.3,81991.6
1.484,0.00935065,8755.53,4668.48,-1977.93,42712.5,20964.5,9263.59,80578.4
1.486,0.00936875,8521.93,4320.03,-1290.91,40622.8,21343.4,8473.88,79165.2
1.488,0.00938686,8288.31,3971.55,-603.859,38532.9,21722.3,7684.12,77751.9
1.49,0.00940496,8054.71,3623.1,83.1546,36443.2,22101.1,6894.41,76338.7
1.492,0.00942306,7821.11,3274.65,770.169,34353.5,22480,6104.7,74925.6
1.494,0.00944116,7587.5,2926.2,1457.18,32263.8,22858.9,5314.99,73512.4
1.496,0.00945929,7422.86,2811.31,2120.49,31840.4,22955.5,4803.54,73306.6
1.498,0.00947742,7301.92,2844.4,2768.71,32472.7,22873.2,4468.41,73865.8
1.5,0.00949555,7180.98,2877.48,3416.94,33104.9,22791,4133.29,74424.9
1.502,0.00951369,7060.03,2910.57,4065.16,33737.2,22708.7,3798.16,74984.1
1.504,0.00953183,6945.62,2952.34,4675.14,34368.8,22616.8,3479.22,75436
1.506,0.00955001,6954.23,3157.84,4564.12,34989.7,22342.5,3465.23,73866.3
1.508,0.00956819,6962.85,3363.34,4453.11,35610.5,22068.3,3451.24,72296.8
1.51,0.00958638,6971.46,3568.83,4342.1,36231.3,21794,3437.25,70727.3
1.512,0.00960456,6980.07,3774.33,4231.09,36852.1,21519.7,3423.27,69157.8
1.514,0.00962274,6988.69,3979.83,4120.07,37472.9,21245.4,3409.28,67588.1
1.516,0.00964091,6943.86,3991.13,3931.42,36666.6,21032.7,3733.26,66289.2
1.518,0.00965908,6888.84,3965.36,3727.94,35587.9,20831.7,4121.75,65041.8
1.52,0.00967725,6833.82,3939.59,3524.47,34509.2,20630.7,4510.23,63794.5
1.522,0.00969541,6778.8,3913.82,3321,33430.5,20429.7,4898.72,62547.1
1.524,0.00971358,6723.77,3888.05,3117.52,32351.7,20228.7,5287.23,61299.7
1.526,0.00973175,6668.75,3862.28,2914.05,31273,20027.7,5675.72,60052.4
1.528,0.00974991,6613.73,3836.51,2710.58,30194.3,19826.7,6064.2,58805
1.53,0.00976808,6558.71,3810.74,2507.1,29115.6,19625.7,6452.69,57557.7
1.532,0.00978625,6510.33,3793.33,2314.02,28119.3,19424.3,6803.83,56362.4
1.534,0.0098044,6565.63,3906.28,2283.06,28408.1,19216.2,6572.15,55980.2
1.536,0.00982256,6620.92,4019.22,2252.09,28696.8,19008.1,6340.48,55598.1
1.538,0.00984072,6676.21,4132.16,2221.13,28985.6,18800.1,6108.82,55215.9
1.54,0.00985888,6731.5,4245.1,2190.16,29274.3,18592,5877.16,54833.7
1.542,0.00987703,6786.8,4358.05,2159.19,29563.1,18383.9,5645.48,54451.5
1.544,0.00989519,6842.09,4471,2128.23,29851.9,18175.8,5413.81,54069.3
1.546,0.00991335,6897.38,4583.94,2097.26,30140.6,17967.8,5182.15,53687.1
1.548,0.00993151,6952.67,4696.88,2066.3,30429.4,17759.7,4950.49,53305
1.55,0.00994967,7007.96,4809.83,2035.33,30718.2,17551.6,4718.82,52922.8
1.552,0.00996782,7063.26,4922.77,2004.36,31006.9,17343.6,4487.14,52540.6
1.554,0.00998601,7062.34,4941.49,2083.9,31001.5,17263.3,4623.35,52475.7
1.556,0.0100042,7028.41,4904.86,2228.32,30823.3,17258.2,4975.61,52597.2
1.558,0.0100224,6994.47,4868.23,2372.75,30645.1,17253,5327.87,52718.6
1.56,0.0100406,6960.54,4831.6,2517.18,30466.9,17247.9,5680.13,52840.1
1.562,0.0100588,6926.61,4794.96,2661.62,30288.6,17242.8,6032.41,52961.6
1.564,0.010077,6892.68,4758.33,2806.05,30110.4,17237.6,6384.67,53083
1.566,0.0100953,6858.74,4721.7,2950.48,29932.2,17232.5,6736.93,53204.5
1.568,0.0101135,6824.81,4685.07,3094.91,29754,17227.3,7089.19,53325.9
1.57,0.0101317,6790.88,4648.44,3239.34,29575.8,17222.2,7441.47,53447.4
1.572,0.0101499,6756.95,4611.81,3383.77,29397.5,17217.1,7793.73,53568.9
1.574,0.0101681,6723.02,4575.18,3528.2,29219.3,17211.9,8145.99,53690.3
1.576,0.0101863,6817.25,4524.24,3851.94,29075.8,17140.1,8314.74,53630.7
1.578,0.0102045,7020.21,4461.17,4327.78,28961.7,17011.7,8327.84,53417.5
1.58,0.0102228,7223.17,4398.09,4803.64,28847.6,16883.4,8340.94,53204.3
1.582,0.010241,7426.13,4335.02,5279.48,28733.5,16755,8354.04,52991
1.584,0.0102592,7629.08,4271.95,5755.31,28619.5,16626.6,8367.13,52777.8
1.586,0.0102774,7832.03,4208.87,6231.15,28505.4,16498.3,8380.23,52564.6
1.588,0.0102957,8035,4145.8,6707.01,28391.3,16369.9,8393.33,52351.4
1.59,0.0103139,8237.95,4082.72,7182.85,28277.2,16241.5,8406.43,52138.2
1.592,0.0103321,8440.91,4019.65,7658.68,28163.1,16113.1,8419.53,51924.9
1.594,0.0103503,8480.07,3972.76,7653.23,27964.6,16080.7,8545.08,51936.3
1.596,0.0103686,8484.17,3929.34,7544.78,27748,16068.8,8694.69,51995.7
1.598,0.0103868,8488.28,3885.92,7436.32,27531.4,16057,8844.31,52055.1
1.6,0.010405,8492.38,3842.5,7327.87,27314.8,16045.1,8993.92,52114.5
1.602,0.0104233,8496.48,3799.08,7219.41,27098.3,16033.2,9143.53,52174
1.604,0.0104415,8500.59,3755.66,7110.96,26881.7,16021.3,9293.15,52233.4
1.606,0.0104598,8270.33,3724,6921.04,25722.2,15900.8,9113.31,51399.5
1.608,0.010478,7884.04,3700.17,6676.88,23934.9,15708.1,8714.14,49971
1.61,0.0104963,7497.77,3676.33,6432.73,22147.7,15515.4,8314.98,48542.5
1.612,0.0105145,7111.5,3652.5,6188.57,20360.5,15322.6,7915.83,47114.1
1.614,0.0105328,6725.22,3628.67,5944.42,18573.3,15129.9,7516.68,45685.6
1.616,0.010551,6338.93,3604.83,5700.26,16786,14937.1,7117.51,44257
1.618,0.0105693,5952.66,3581,5456.11,14998.8,14744.4,6718.35,42828.6
1.62,0.0105875,5566.39,3557.17,5211.96,13211.6,14551.6,6319.2,41400.1
1.622,0.0106058,5433.85,3544.22,5029.55,12316.8,14433.8,6144.32,40574.5
1.624,0.010624,5588.42,3543.57,4917,12431.6,14400.6,6223.21,40431.2
1.626,0.0106423,5742.99,3542.93,4804.45,12546.4,14367.4,6302.1,40287.8
1.628,0.0106605,5897.56,3542.29,4691.9,12661.2,14334.2,6380.98,40144.4
1.63,0.0106788,6052.13,3541.65,4579.35,12776,14301,6459.87,40001.1
1.632,0.0106971,6206.69,3541.01,4466.81,12890.8,14267.8,6538.75,39857.7
1.634,0.0107153,6361.26,3540.37,4354.26,13005.6,14234.6,6617.64,39714.4
1.636,0.0107336,6515.83,3539.72,4241.71,13120.5,14201.4,6696.53,39571
1.638,0.0107518,6670.4,3539.08,4129.16,13235.3,14168.2,6775.41,39427.6
1.64,0.0107701,6824.96,3538.44,4016.61,13350.1,14135,6854.3,39284.3
1.642,0.0107884,6979.53,3537.8,3904.07,13464.9,14101.8,6933.18,39140.9
1.644,0.0108066,7134.1,3537.16,3791.51,13579.7,14068.6,7012.07,38997.5
1.646,0.0108249,7288.67,3536.52,3678.97,13694.5,14035.4,7090.96,38854.2
1.648,0.0108431,7443.24,3535.88,3566.42,13809.3,14002.2,7169.84,38710.8
1.65,0.0108614,7597.8,3535.23,3453.87,13924.1,13969,7248.73,38567.5
1.652,0.0108796,7752.37,3534.59,3341.32,14038.9,13935.8,7327.61,38424.1
1.654,0.0108979,7906.94,3533.95,3228.77,14153.8,13902.6,7406.5,38280.7
1.656,0.0109162,7992.6,3575.54,3082.7,14282.5,13861.4,7512.08,38028.9
1.658,0.0109345,8012.73,3440.33,2754.26,13751.1,13867.9,7587.92,37472.7
1.66,0.0109528,7881.31,3213.54,2496.16,12935.1,13869.6,7430.6,36792.8
1.662,0.010971,7749.89,2986.75,2238.05,12119.2,13871.3,7273.28,36112.9
1.664,0.0109893,7618.45,2759.94,1979.94,11303.2,13873,7115.95,35433
1.666,0.0110076,7487.03,2533.15,1721.83,10487.2,13874.7,6958.63,34753.1
1.668,0.0110259,7355.6,2306.36,1463.73,9671.22,13876.3,6801.31,34073.2
1.67,0.0110442,7224.18,2079.57,1205.63,8855.25,13878,6643.99,33393.3
1.672,0.0110625,7092.75,1852.76,947.511,8039.23,13879.7,6486.66,32713.4
1.674,0.0110808,6961.32,1625.97,689.409,7223.26,13881.4,6329.34,32033.5
1.676,0.011099,6559.82,1235.98,556.662,5900.14,13874.5,5756.52,31133.4
1.678,0.0111173,6629.97,1122.34,470.361,5645.65,13848.3,5691.41,31345.7
1.68,0.0111356,6715.01,1017.51,382.581,5422.85,13821.9,5644.74,31585.1
1.682,0.0111539,6800.05,912.686,294.796,5200.03,13795.5,5598.06,31824.4
1.684,0.0111722,6885.09,807.863,207.016,4977.23,13769.1,5551.39,32063.8
1.686,0.0111905,6970.13,703.04,119.236,4754.43,13742.6,5504.72,32303.1
1.688,0.0112088,7054.72,590.323,26.9429,4575.83,13695.6,5460.88,32578.2
1.69,0.011227,7139.07,473.226,-67.8561,4421.71,13637.1,5418.61,32872.9
1.692,0.0112453,7223.42,356.136,-162.65,4267.59,13578.7,5376.35,33167.7
1.694,0.0112636,7307.77,239.045,-257.443,4113.47,13520.2,5334.08,33462.5
1.696,0.0112819,7392.12,121.955,-352.236,3959.36,13461.8,5291.81,33757.3
1.698,0.0113002,7476.47,4.86517,-447.03,3805.24,13403.3,5249.54,34052.1
1.7,0.0113185,7560.82,-112.232,-541.829,3651.11,13344.8,5207.27,34346.9
1.702,0.0113368,7645.17,-229.322,-636.622,3497,13286.4,5165.01,34641.6
1.704,0.011355,7729.52,-346.412,-731.416,3342.88,13227.9,5122.74,34936.4
1.706,0.0113733,7813.87,-463.502,-826.209,3188.76,13169.4,5080.47,35231.2
1.708,0.0113916,7884.95,-558.428,-910.56,3043.78,13126.1,5028.2,35473.7
1.71,0.0114099,7890.79,-544.284,-943.528,2943.72,13157.1,4926.68,35459
1.712,0.0114282,7911.17,-512.246,-978.392,2882.39,13175.1,4853.31,35459.5
1.714,0.0114465,8006.43,-388.065,-1023.03,3020.44,13126.2,4924.86,35538
1.716,0.0114648,8101.69,-263.885,-1067.67,3158.48,13077.3,4996.4,35616.5
1.718,0.0114831,8196.95,-139.696,-1112.32,3296.54,13028.4,5067.95,35695
1.72,0.0115014,8292.2,-15.5155,-1156.96,3434.58,12979.6,5139.5,35773.5
1.722,0.0115198,8387.46,108.665,-1201.6,3572.63,12930.7,5211.05,35852.1
1.724,0.0115381,8482.71,232.846,-1246.24,3710.67,12881.8,5282.59,35930.6
1.726,0.0115564,8560.09,353.77,-1289.07,3859.08,12830.5,5340.6,35963.8
1.728,0.0115747,8444.32,439.513,-1312.32,4119.47,12753.3,5252.35,35507.1
1.73,0.011593,8328.56,525.252,-1335.57,4379.84,12676.2,5164.1,35050.6
1.732,0.0116113,8212.8,610.991,-1358.82,4640.21,12599,5075.85,34594
1.734,0.0116296,8097.03,696.729,-1382.08,4900.59,12521.8,4987.61,34137.4
1.736,0.0116479,7981.27,782.468,-1405.33,5160.96,12444.6,4899.36,33680.8
1.738,0.0116662,7865.5,868.212,-1428.58,5421.35,12367.4,4811.11,33224.2
1.74,0.0116845,7749.74,953.95,-1451.83,5681.72,12290.2,4722.86,32767.6
1.742,0.0117029,7633.98,1039.69,-1475.08,5942.09,12213,4634.62,32311.1
1.744,0.0117212,7518.22,1125.43,-1498.33,6202.46,12135.9,4546.37,31854.5
1.746,0.0117395,7402.45,1211.17,-1521.59,6462.85,12058.7,4458.12,31397.9
1.748,0.0117578,7286.69,1296.91,-1544.84,6723.22,11981.5,4369.87,30941.3
1.75,0.0117761,7170.93,1382.65,-1568.09,6983.59,11904.3,4281.62,30484.7
1.752,0.0117944,7055.16,1468.39,-1591.34,7243.96,11827.1,4193.38,30028.1
1.754,0.0118127,6939.4,1554.13,-1614.59,7504.33,11749.9,4105.13,29571.5
1.756,0.011831,6823.63,1639.87,-1637.85,7764.72,11672.7,4016.88,29114.9
1.758,0.0118493,6701.24,1721.41,-1662.33,8003.04,11595.1,3930.35,28664.4
1.76,0.0118676,6375.73,1674.45,-1724.54,7566.37,11502.9,3896.55,28399.2
1.762,0.0118859,6025.9,1619.28,-1761.97,7104.78,11354.6,3800.56,28082.4
1.764,0.0119043,5642.45,1552.77,-1765.18,6608.73,11128.9,3618.7,27694.4
1.766,0.0119226,5259.03,1486.26,-1768.39,6112.71,10903.3,3436.85,27306.5
1.768,0.0119409,4875.6,1419.75,-1771.6,5616.7,10677.6,3255.01,26918.6
1.77,0.0119592,4492.18,1353.24,-1774.81,5120.68,10452,3073.16,26530.7
1.772,0.0119775,4108.75,1286.74,-1778.02,4624.66,10226.4,2891.31,26142.8
1.774,0.0119959,3725.3,1220.22,-1781.23,4128.62,10000.7,2709.45,25754.8
1.776,0.0120142,3595.14,1274.99,-1770.05,4104.25,9850.1,2726.67,25394.9
1.778,0.0120325,3518.15,1355.22,-1755.86,4178.93,9715.27,2785.68,25040.8
1.78,0.0120508,3441.16,1435.44,-1741.66,4253.61,9580.45,2844.69,24686.7
1.782,0.0120691,3364.18,1515.67,-1727.46,4328.29,9445.62,2903.7,24332.6
1.784,0.0120874,3284.9,1591.39,-1706.04,4417.4,9307.5,2965.56,23984.8
1.786,0.0121058,3198.03,1652.04,-1660.54,4554.63,9158.41,3036.94,23657.8
1.788,0.0121241,3111.16,1712.69,-1615.04,4691.86,9009.33,3108.31,23330.8
1.79,0.0121424,3024.28,1773.34,-1569.54,4829.09,8860.25,3179.69,23003.8
1.792,0.0121607,2937.41,1833.99,-1524.04,4966.32,8711.16,3251.06,22676.8
1.794,0.012179,2850.53,1894.64,-1478.54,5103.55,8562.07,3322.44,22349.8
1.796,0.0121973,2763.66,1955.29,-1433.04,5240.78,8412.99,3393.81,22022.8
1.798,0.0122157,2676.79,2015.94,-1387.54,5378,8263.91,3465.19,21695.8
1.8,0.012234,2589.92,2076.59,-1342.04,5515.23,8114.83,3536.56,21368.8
1.802,0.0122523,2503.04,2137.24,-1296.54,5652.47,7965.73,3607.94,21041.8
1.804,0.0122706,2416.16,2197.89,-1251.04,5789.7,7816.65,3679.31,20714.8
1.806,0.0122889,2329.29,2258.54,-1205.54,5926.92,7667.57,3750.69,20387.8
1.808,0.0123073,2244.25,2273.48,-1164.94,5668.54,7544.33,3658.41,20005
1.81,0.0123256,2161.3,2236.38,-1129.93,4959.66,7450.53,3379.78,19558.8
1.812,0.0123439,2078.34,2199.28,-1094.92,4250.74,7356.72,3101.13,19112.6
1.814,0.0123623,1995.39,2162.17,-1059.91,3541.86,7262.92,2822.5,18666.4
1.816,0.0123806,1912.43,2125.07,-1024.9,2832.97,7169.11,2543.87,18220.2
1.818,0.0123989,1829.48,2087.97,-989.887,2124.09,7075.31,2265.24,17774
1.82,0.0124172,1746.52,2050.86,-954.873,1415.17,6981.5,1986.59,17327.8
1.822,0.0124356,1663.57,2013.76,-919.862,706.285,6887.7,1707.96,16881.6
1.824,0.0124539,1589.41,1985.71,-897.059,121.144,6800.96,1466.22,16485.9
1.826,0.0124722,1561.59,2005.34,-938.538,187.553,6751.41,1418.77,16356.7
1.828,0.0124906,1533.76,2024.97,-980.016,253.961,6701.86,1371.31,16227.4
1.83,0.0125089,1505.93,2044.59,-1021.5,320.374,6652.31,1323.86,16098.1
1.832,0.0125272,1478.11,2064.22,-1062.98,386.782,6602.77,1276.4,15968.9
1.834,0.0125456,1450.28,2083.85,-1104.45,453.191,6553.22,1228.95,15839.6
1.836,0.0125639,1422.46,2103.47,-1145.93,519.599,6503.67,1181.49,15710.3
1.838,0.0125822,1394.63,2123.1,-1187.41,586.012,6454.12,1134.04,15581.1
1.84,0.0126006,1366.8,2142.73,-1228.89,652.42,6404.57,1086.58,15451.8
1.842,0.0126189,1355.1,2162.39,-1262.44,802.413,6362.28,1059.01,15385.1
1.844,0.0126372,1426.6,2182.25,-1255.03,1383.77,6357.44,1134.04,15641.3
1.846,0.0126555,1498.11,2202.1,-1247.63,1965.12,6352.6,1209.07,15897.6
1.848,0.0126739,1569.62,2221.96,-1240.22,2546.51,6347.75,1284.1,16153.8
1.85,0.0126922,1641.12,2241.82,-1232.82,3127.86,6342.91,1359.13,16410
1.852,0.0127105,1739.05,2132.41,-1277.88,3126.48,6324.22,1390.43,16223.9
1.854,0.0127289,1852.69,1946.2,-1354.13,2778.88,6297.3,1395.75,15775
1.856,0.0127472,1966.32,1759.99,-1430.37,2431.28,6270.37,1401.07,15326.1
1.858,0.0127655,2079.97,1573.77,-1506.61,2083.66,6243.45,1406.39,14877.2
1.86,0.0127838,2299.26,1494.86,-1521.56,2358.51,6159.1,1694.38,14730.4
1.862,0.0128022,2527.62,1425.16,-1531.24,2686.84,6069.82,2006.64,14609.6
1.864,0.0128205,2755.99,1355.46,-1540.93,3015.16,5980.54,2318.9,14488.8
1.866,0.0128388,2984.37,1285.75,-1550.61,3343.5,5891.26,2631.19,14367.9
1.868,0.0128572,3046.94,1236.32,-1483.38,3299.31,5773.82,2703.35,14127.6
1.87,0.0128755,3056.54,1193.37,-1391.58,3136.1,5647.38,2698.81,13849
1.872,0.0128938,3066.14,1150.41,-1299.78,2972.89,5520.95,2694.26,13570.4
1.874,0.0129122,3075.74,1107.46,-1207.98,2809.67,5394.51,2689.71,13291.9
1.876,0.0129305,3085.34,1064.5,-1116.18,2646.45,5268.07,2685.16,13013.3
1.878,0.0129488,3148.6,1024.88,-1069.23,2647.64,5202.96,2684.87,12898.2
1.88,0.0129672,3216.52,985.548,-1026.17,2663.08,5143.18,2684.96,12797.3
1.882,0.0129855,3284.43,946.217,-983.113,2678.52,5083.39,2685.04,12696.4
1.884,0.0130039,3352.35,906.886,-940.055,2693.97,5023.6,2685.13,12595.5
1.886,0.0130222,3420.27,867.553,-896.994,2709.41,4963.81,2685.22,12494.6
1.888,0.0130405,3488.18,828.222,-853.936,2724.85,4904.02,2685.3,12393.7
1.89,0.0130589,3556.1,788.891,-810.878,2740.3,4844.24,2685.39,12292.8
1.892,0.0130772,3624.02,749.56,-767.819,2755.74,4784.45,2685.47,12191.9
1.894,0.0130955,3691.94,710.227,-724.758,2771.19,4724.66,2685.56,12091
1.896,0.0131139,3759.85,670.896,-681.7,2786.63,4664.87,2685.64,11990.1
1.898,0.0131322,3827.77,631.565,-638.642,2802.07,4605.08,2685.73,11889.2
1.9,0.0131506,3895.68,592.234,-595.583,2817.52,4545.29,2685.81,11788.3
1.902,0.0131689,3963.6,552.904,-552.525,2832.96,4485.51,2685.9,11687.4
1.904,0.0131872,4031.52,513.57,-509.464,2848.4,4425.72,2685.98,11586.5
1.906,0.0132056,4099.43,474.239,-466.406,2863.85,4365.93,2686.07,11485.6
1.908,0.0132239,4167.35,434.908,-423.348,2879.29,4306.14,2686.16,11384.7
1.91,0.0132422,4235.31,394.318,-379.886,2893.22,4247.07,2685.75,11283.4
1.912,0.0132606,4302.04,387.756,-347.327,2948.21,4168.75,2698.63,11191.5
1.914,0.0132789,4368.76,381.195,-314.767,3003.2,4090.44,2711.5,11099.5
1.916,0.0132973,4435.49,374.633,-282.208,3058.19,4012.12,2724.38,11007.5
1.918,0.0133156,4502.21,368.072,-249.65,3113.18,3933.81,2737.25,10915.6
1.92,0.0133339,4568.94,361.511,-217.091,3168.17,3855.5,2750.13,10823.6
1.922,0.0133523,4635.66,354.949,-184.531,3223.17,3777.18,2763.01,10731.7
1.924,0.0133706,4702.39,348.388,-151.972,3278.16,3698.87,2775.88,10639.7
1.926,0.0133889,4769.11,341.826,-119.414,3333.15,3620.55,2788.76,10547.8
1.928,0.0134073,4835.84,335.265,-86.8551,3388.14,3542.24,2801.64,10455.8
1.93,0.0134256,4902.56,328.704,-54.2966,3443.13,3463.93,2814.51,10363.9
1.932,0.013444,4969.29,322.142,-21.7361,3498.13,3385.61,2827.39,10271.9
1.934,0.0134623,5004.57,331.206,14.9334,3547.32,3324.7,2833.02,10189.2
1.936,0.0134806,5020.75,349.769,54.102,3592.98,3274.37,2834.25,10112
1.938,0.013499,5036.93,368.332,93.2705,3638.65,3224.05,2835.49,10034.8
1.94,0.0135173,5053.11,386.896,132.441,3684.32,3173.72,2836.72,9957.63
1.942,0.0135356,5085.08,447.808,184.792,3609.73,3106.22,2821.62,9868.12
1.944,0.013554,5124.82,529.581,243.636,3475.9,3030.26,2798.47,9772.54
1.946,0.0135723,5164.57,611.354,302.48,3342.07,2954.31,2775.33,9676.96
1.948,0.0135906,5204.32,693.126,361.324,3208.25,2878.35,2752.18,9581.38
1.95,0.013609,5244.07,774.904,420.172,3074.41,2802.39,2729.04,9485.79
1.952,0.0136273,5283.81,856.677,479.016,2940.58,2726.43,2705.89,9390.21
1.954,0.0136457,5323.56,938.449,537.86,2806.76,2650.48,2682.75,9294.63
1.956,0.013664,5363.3,1020.22,596.704,2672.93,2574.52,2659.6,9199.05
1.958,0.0136823,5403.05,1101.99,655.548,2539.11,2498.56,2636.46,9103.46
1.96,0.0137007,5442.8,1183.77,714.396,2405.27,2422.6,2613.31,9007.88
1.962,0.013719,5476.01,1265.15,775.732,2298.3,2346.95,2592.54,8910.13
1.964,0.0137373,5474.88,1344.43,850.167,2332.5,2272.85,2584.22,8801
1.966,0.0137557,5473.75,1423.71,924.602,2366.7,2198.76,2575.91,8691.87
1.968,0.013774,5472.61,1503,999.041,2400.9,2124.67,2567.59,8582.73
1.97,0.0137924,5471.48,1582.29,1073.48,2435.1,2050.58,2559.27,8473.59
1.972,0.0138107,5470.35,1661.57,1147.91,2469.29,1976.48,2550.96,8364.46
1.974,0.013829,5469.22,1740.85,1222.35,2503.49,1902.39,2542.64,8255.33
1.976,0.0138474,5469.17,1760.5,1231.49,2425.8,1872.55,2517.36,8170.61
1.978,0.0138657,5469.52,1758.44,1216.87,2307.36,1858.81,2485.9,8094.77
1.98,0.0138841,5469.87,1756.38,1202.25,2188.94,1845.07,2454.45,8018.93
1.982,0.0139024,5470.22,1754.32,1187.62,2070.51,1831.33,2422.99,7943.1
1.984,0.0139207,5470.57,1752.26,1173,1952.08,1817.59,2391.54,7867.26
1.986,0.0139391,5470.91,1750.2,1158.38,1833.65,1803.85,2360.08,7791.42
1.988,0.0139574,5509.64,1708.86,1165.86,1754.25,1783.86,2340.74,7714.32
1.99,0.0139758,5645.25,1568.38,1229.13,1773.37,1748.12,2352,7634.06
1.992,0.0139941,5780.85,1427.9,1292.39,1792.49,1712.38,2363.25,7553.79
1.994,0.0140124,5916.45,1287.42,1355.66,1811.61,1676.64,2374.5,7473.52
1.996,0.0140308,6052.06,1146.93,1418.93,1830.73,1640.89,2385.76,7393.25
1.998,0.0140491,6187.66,1006.45,1482.2,1849.85,1605.15,2397.01,7312.98
2,0.0140674,6323.26,865.966,1545.46,1868.97,1569.41,2408.26,7232.71
