"arc_length","Displacement_Magnitude","Sxx","Sxy","Sxz","Syy","Syz","Szz","Von_Mises_Stress"
0,0,1.44702e+06,-94129.2,-10978.1,2.8635e+06,311738,1.29163e+06,1.61067e+06
0.002,2.00676e-06,1.37996e+06,-87050.3,-9816.27,2.76447e+06,283377,1.20295e+06,1.57608e+06
0.004,3.161e-06,1.34203e+06,-83864,-8562.57,2.69974e+06,269436,1.15752e+06,1.55483e+06
0.006,4.08218e-06,1.31362e+06,-81949.2,-7278.85,2.64622e+06,260205,1.12623e+06,1.53794e+06
0.008,5.02899e-06,1.28521e+06,-80034.4,-5995.13,2.5927e+06,250974,1.09494e+06,1.52106e+06
0.01,5.9893e-06,1.2568e+06,-78119.7,-4711.41,2.53918e+06,241743,1.06364e+06,1.50417e+06
0.012,6.95753e-06,1.22839e+06,-76204.9,-3427.69,2.48566e+06,232512,1.03235e+06,1.48729e+06
0.014,7.93076e-06,1.19998e+06,-74290.1,-2143.98,2.43214e+06,223281,1.00105e+06,1.4704e+06
0.016,8.8651e-06,1.17157e+06,-71809.3,-451.65,2.37746e+06,215391,971557,1.45353e+06
0.018,9.69435e-06,1.14318e+06,-67901.4,2270.8,2.31984e+06,210880,946588,1.43671e+06
0.02,1.05242e-05,1.11478e+06,-63993.5,4993.25,2.26222e+06,206369,921619,1.41989e+06
0.022,1.13546e-05,1.08639e+06,-60085.7,7715.71,2.2046e+06,201858,896650,1.40307e+06
0.024,1.21854e-05,1.05799e+06,-56177.8,10438.2,2.14699e+06,197348,871681,1.38625e+06
0.026,1.30165e-05,1.0296e+06,-52269.9,13160.6,2.08937e+06,192837,846712,1.36942e+06
0.028,1.38478e-05,1.0012e+06,-48362.1,15883.1,2.03175e+06,188326,821743,1.3526e+06
0.03,1.46793e-05,972808,-44454.2,18605.5,1.97414e+06,183816,796774,1.33578e+06
0.032,1.55111e-05,944413,-40546.3,21328,1.91652e+06,179305,771805,1.31896e+06
0.034,1.6343e-05,916018,-36638.5,24050.4,1.8589e+06,174794,746836,1.30214e+06
0.036,1.7175e-05,887623,-32730.6,26772.9,1.80128e+06,170283,721867,1.28531e+06
0.038,1.80071e-05,859228,-28822.7,29495.3,1.74367e+06,165773,696899,1.26849e+06
0.04,1.88393e-05,830832,-24914.9,32217.8,1.68605e+06,161262,671930,1.25167e+06
0.042,1.96716e-05,802437,-21007,34940.2,1.62843e+06,156751,646961,1.23485e+06
0.044,2.0504e-05,774042,-17099.1,37662.7,1.57081e+06,152241,621992,1.21803e+06
0.046,2.13365e-05,745647,-13191.3,40385.1,1.5132e+06,147730,597023,1.2012e+06
0.048,2.2169e-05,717252,-9283.41,43107.6,1.45558e+06,143219,572054,1.18438e+06
0.05,2.44682e-05,682373,-6235.32,46918.9,1.41626e+06,145648,529445,1.19389e+06
0.052,2.7297e-05,645157,-3497.3,51122.9,1.38354e+06,150579,480475,1.21289e+06
0.054,3.01263e-05,607940,-759.289,55326.9,1.35082e+06,155510,431505,1.2319e+06
0.056,3.29561e-05,570724,1978.72,59530.9,1.3181e+06,160441,382534,1.2509e+06
0.058,3.57861e-05,533507,4716.73,63734.9,1.28538e+06,165373,333564,1.26991e+06
0.06,3.86164e-05,496291,7454.75,67938.9,1.25267e+06,170304,284594,1.28891e+06
0.062,4.14469e-05,459074,10192.8,72142.9,1.21995e+06,175235,235623,1.30792e+06
0.064,4.40277e-05,453632,9428.25,72563.4,1.21241e+06,181490,231937,1.31218e+06
0.066,4.66462e-05,450501,8408.92,72708.7,1.20671e+06,187842,231546,1.31537e+06
0.068,4.93135e-05,447370,7389.59,72853.9,1.20101e+06,194193,231154,1.31856e+06
0.07,5.20221e-05,444239,6370.27,72999.2,1.19531e+06,200544,230763,1.32175e+06
0.072,5.47654e-05,437238,2661.28,72950.7,1.18381e+06,199852,216758,1.32205e+06
0.074,5.75272e-05,429613,-1481.65,72870.9,1.17138e+06,198023,200556,1.3219e+06
0.076,6.03041e-05,421988,-5624.57,72791.2,1.15895e+06,196194,184355,1.32174e+06
0.078,6.30943e-05,414363,-9767.5,72711.4,1.14651e+06,194365,168153,1.32159e+06
0.08,6.5896e-05,406738,-13910.4,72631.7,1.13408e+06,192536,151952,1.32143e+06
0.082,6.87078e-05,399113,-18053.3,72551.9,1.12165e+06,190707,135750,1.32128e+06
0.084,7.15286e-05,391488,-22196.3,72472.1,1.10922e+06,188878,119549,1.32112e+06
0.086,7.43572e-05,383863,-26339.2,72392.4,1.09679e+06,187049,103347,1.32096e+06
0.088,7.71893e-05,377876,-30004.6,72023,1.08639e+06,186172,89526,1.32259e+06
0.09,8.00118e-05,380724,-31096.5,70092.2,1.08695e+06,190421,88534.7,1.33381e+06
0.092,8.28456e-05,383571,-32188.3,68161.5,1.08751e+06,194670,87543.4,1.34504e+06
0.094,8.56896e-05,386418,-33280.2,66230.8,1.08807e+06,198919,86552,1.35626e+06
0.096,8.85427e-05,389266,-34372,64300.1,1.08863e+06,203168,85560.7,1.36749e+06
0.098,9.14042e-05,392113,-35463.9,62369.3,1.08919e+06,207417,84569.4,1.37872e+06
0.1,9.4608e-05,400489,-37321.7,61054.8,1.10422e+06,211659,85806,1.39948e+06
0.102,9.88948e-05,426682,-41648.5,61726.4,1.16592e+06,215881,94223.3,1.45099e+06
0.104,0.000103184,452876,-45975.4,62398,1.22761e+06,220103,102641,1.5025e+06
0.106,0.000107474,479070,-50302.1,63069.6,1.28931e+06,224325,111058,1.55401e+06
0.108,0.000111766,505263,-54629,63741.2,1.35101e+06,228547,119475,1.60552e+06
0.11,0.000116059,531457,-58955.8,64412.8,1.4127e+06,232768,127893,1.65704e+06
0.112,0.000120354,557650,-63282.6,65084.4,1.4744e+06,236990,136310,1.70855e+06
0.114,0.00012465,583844,-67609.4,65756,1.53609e+06,241212,144727,1.76006e+06
0.116,0.000129148,576754,-67884.7,63960.4,1.51669e+06,242010,143565,1.74651e+06
0.118,0.000133861,534260,-63850.1,59540.3,1.41102e+06,239166,132214,1.66375e+06
0.12,0.000138574,491765,-59815.5,55120.3,1.30534e+06,236321,120862,1.58099e+06
0.122,0.000143288,449270,-55780.9,50700.2,1.19967e+06,233477,109510,1.49823e+06
0.124,0.000148003,406775,-51746.3,46280.1,1.094e+06,230633,98158.4,1.41547e+06
0.126,0.000152718,364281,-47711.7,41860.1,988329,227788,86806.6,1.33271e+06
0.128,0.000157434,321786,-43677.1,37440,882657,224944,75454.9,1.24995e+06
0.13,0.00016215,279291,-39642.5,33019.9,776985,222100,64103.2,1.16719e+06
0.132,0.000167188,263235,-39287.7,29953.2,735220,220141,59623.9,1.13783e+06
0.134,0.000172431,262819,-41110,27687.1,731262,218706,59210.5,1.14006e+06
0.136,0.00017769,262403,-42932.3,25421,727305,217272,58797.1,1.1423e+06
0.138,0.000182964,261988,-44754.5,23154.9,723347,215837,58383.7,1.14453e+06
0.14,0.00018825,261572,-46576.8,20888.8,719390,214402,57970.3,1.14676e+06
0.142,0.000193549,261157,-48399,18622.7,715432,212967,57556.9,1.149e+06
0.144,0.000198859,260741,-50221.3,16356.6,711475,211533,57143.5,1.15123e+06
0.146,0.00020418,260326,-52043.5,14090.5,707518,210098,56730.1,1.15346e+06
0.148,0.00020951,259910,-53865.8,11824.4,703560,208663,56316.7,1.1557e+06
0.15,0.000214849,259495,-55688,9558.35,699603,207229,55903.3,1.15793e+06
0.152,0.000220195,259079,-57510.3,7292.27,695645,205794,55489.9,1.16016e+06
0.154,0.00022555,258663,-59332.5,5026.17,691688,204359,55076.5,1.1624e+06
0.156,0.000230911,258248,-61154.8,2760.07,687730,202925,54663.1,1.16463e+06
0.158,0.00023628,257832,-62977,493.975,683773,201490,54249.7,1.16687e+06
0.16,0.000241654,257417,-64799.3,-1772.11,679815,200055,53836.4,1.1691e+06
0.162,0.000247034,257001,-66621.5,-4038.2,675858,198621,53423,1.17133e+06
0.164,0.000252419,256586,-68443.8,-6304.3,671900,197186,53009.6,1.17357e+06
0.166,0.00025781,256170,-70266,-8570.38,667943,195751,52596.2,1.1758e+06
0.168,0.000263205,255755,-72088.3,-10836.5,663986,194317,52182.8,1.17803e+06
0.17,0.000268605,255339,-73910.5,-13102.6,660028,192882,51769.4,1.18027e+06
0.172,0.000274009,254923,-75732.8,-15368.7,656071,191447,51356,1.1825e+06
0.174,0.000279281,256934,-77031.8,-13480.4,663200,189984,50714.1,1.18043e+06
0.176,0.000284483,260271,-78044.9,-9322.09,676388,188504,49947.3,1.17601e+06
0.178,0.000290331,260517,-77919.2,-11472.8,678352,186569,51868.2,1.16094e+06
0.18,0.000296796,259084,-76977.8,-19027.3,673948,184182,56880,1.14019e+06
0.182,0.000303656,270094,-78394.7,-23495.1,711597,181312,69470.6,1.16361e+06
0.184,0.000310517,281103,-79811.6,-27962.8,749247,178442,82061.3,1.18704e+06
0.186,0.000317379,292112,-81228.5,-32430.6,786896,175573,94652,1.21046e+06
0.188,0.000324243,303122,-82645.4,-36898.4,824546,172703,107243,1.23388e+06
0.19,0.000331108,314131,-84062.3,-41366.1,862195,169833,119833,1.2573e+06
0.192,0.000337973,325141,-85479.2,-45833.9,899845,166963,132424,1.28072e+06
0.194,0.00034484,336150,-86896.1,-50301.7,937495,164094,145015,1.30414e+06
0.196,0.000351707,347160,-88313,-54769.4,975144,161224,157605,1.32757e+06
0.198,0.000358829,351586,-87203.1,-55401.1,985717,158162,162231,1.326e+06
0.2,0.000366048,353620,-85175.2,-54639,986453,155031,163962,1.31535e+06
0.202,0.000373272,355655,-83147.3,-53876.8,987189,151899,165693,1.3047e+06
0.204,0.000380499,357690,-81119.4,-53114.7,987925,148768,167424,1.29405e+06
0.206,0.00038773,359724,-79091.5,-52352.6,988661,145636,169155,1.2834e+06
0.208,0.000394965,361759,-77063.6,-51590.5,989397,142505,170886,1.27276e+06
0.21,0.000402203,363793,-75035.7,-50828.3,990133,139373,172617,1.26211e+06
0.212,0.000409445,365828,-73007.8,-50066.2,990869,136242,174348,1.25146e+06
0.214,0.000416689,367862,-70979.9,-49304.1,991605,133110,176079,1.24081e+06
0.216,0.000423937,369897,-68952,-48542,992341,129979,177811,1.23016e+06
0.218,0.000431187,371931,-66924.1,-47779.9,993076,126847,179542,1.21952e+06
0.22,0.00043844,373966,-64896.2,-47017.7,993812,123716,181273,1.20887e+06
0.222,0.000445696,376000,-62868.3,-46255.6,994548,120584,183004,1.19822e+06
0.224,0.000452954,378035,-60840.4,-45493.5,995284,117453,184735,1.18757e+06
0.226,0.000460774,364703,-57394.9,-36118.7,976918,113836,178493,1.17668e+06
0.228,0.000468608,351010,-53916.1,-26541.6,958102,110208,172063,1.16578e+06
0.23,0.000476443,337317,-50437.3,-16964.6,939287,106580,165634,1.15488e+06
0.232,0.000484278,323624,-46958.5,-7387.62,920472,102952,159205,1.14398e+06
0.234,0.000492113,309931,-43479.7,2189.42,901657,99324.4,152775,1.13308e+06
0.236,0.00049995,296238,-40000.9,11766.5,882842,95696.4,146346,1.12218e+06
0.238,0.000507786,282545,-36522.1,21343.5,864027,92068.4,139916,1.11128e+06
0.24,0.000515912,279796,-36060.3,27780.3,857263,90689.3,138879,1.12928e+06
0.242,0.000524102,279413,-36250.7,33538.4,853103,89796.3,139008,1.15353e+06
0.244,0.000532295,279030,-36441,39296.4,848944,88903.3,139137,1.17777e+06
0.246,0.000540491,278646,-36631.4,45054.4,844785,88010.3,139265,1.20202e+06
0.248,0.000548689,278263,-36821.8,50812.4,840625,87117.3,139394,1.22626e+06
0.25,0.000556889,277880,-37012.2,56570.5,836466,86224.3,139523,1.25051e+06
0.252,0.000565091,277497,-37202.5,62328.5,832307,85331.3,139651,1.27475e+06
0.254,0.000573295,277114,-37392.9,68086.5,828147,84438.3,139780,1.299e+06
0.256,0.000581501,276731,-37583.3,73844.5,823988,83545.3,139909,1.32324e+06
0.258,0.000589709,276348,-37773.7,79602.5,819829,82652.3,140037,1.34749e+06
0.26,0.000597919,275965,-37964,85360.5,815669,81759.3,140166,1.37173e+06
0.262,0.000606618,270431,-34711.6,88330.1,811490,86259.6,139653,1.38416e+06
0.264,0.000615414,263889,-30784.5,90753.4,807308,91816.7,139015,1.39427e+06
0.266,0.00062421,257346,-26857.4,93176.6,803125,97373.7,138376,1.40438e+06
0.268,0.000633007,250804,-22930.3,95599.8,798943,102931,137738,1.4145e+06
0.27,0.000641803,244261,-19003.2,98023.1,794760,108488,137099,1.42461e+06
0.272,0.0006506,237719,-15076.1,100446,790578,114045,136461,1.43472e+06
0.274,0.000659496,232378,-11038.4,102178,786726,118956,135961,1.44262e+06
0.276,0.000668853,232607,-6487.47,100706,784404,120872,136106,1.44026e+06
0.278,0.00067821,232836,-1936.55,99233.4,782082,122789,136251,1.43789e+06
0.28,0.000687568,233066,2614.38,97761,779760,124706,136395,1.43553e+06
0.282,0.00069733,239641,5788.69,93900.1,792943,121280,134928,1.41212e+06
0.284,0.000707249,248671,8430.5,89115.4,812123,115787,132838,1.38057e+06
0.286,0.000717168,257701,11072.3,84330.7,831304,110294,130748,1.34903e+06
0.288,0.000727087,266731,13714.1,79546,850484,104802,128657,1.31748e+06
0.29,0.000737007,275762,16355.9,74761.2,869664,99309.4,126567,1.28594e+06
0.292,0.000746927,284792,18997.7,69976.5,888844,93816.9,124477,1.25439e+06
0.294,0.00075694,288970,18371.8,65036,906489,93308,124120,1.23123e+06
0.296,0.00076697,292358,17214,60070.1,923884,93610.5,124046,1.20944e+06
0.298,0.000777002,295747,16056.1,55104.2,941279,93912.9,123972,1.18764e+06
0.3,0.000787036,299135,14898.3,50138.3,958674,94215.4,123898,1.16585e+06
0.302,0.000797072,302524,13740.5,45172.5,976068,94517.8,123824,1.14405e+06
0.304,0.000807109,305912,12582.7,40206.6,993463,94820.3,123750,1.12226e+06
0.306,0.000817148,309301,11424.9,35240.7,1.01086e+06,95122.7,123676,1.10046e+06
0.308,0.000827188,312689,10267,30274.8,1.02825e+06,95425.2,123602,1.07867e+06
0.31,0.00083723,316078,9109.21,25309,1.04565e+06,95727.6,123528,1.05688e+06
0.312,0.000847294,319494,7867.1,20037.2,1.06242e+06,96061.4,123660,1.03564e+06
0.314,0.000857932,323665,4300.49,6329.69,1.06188e+06,97260.3,129470,1.02993e+06
0.316,0.000868569,327837,733.879,-7377.81,1.06135e+06,98459.1,135281,1.02421e+06
0.318,0.000879208,332008,-2832.68,-21085.1,1.06081e+06,99657.9,141091,1.0185e+06
0.32,0.000889846,336180,-6399.29,-34792.6,1.06028e+06,100857,146902,1.01278e+06
0.322,0.000900485,340351,-9965.91,-48500.1,1.05975e+06,102055,152712,1.00707e+06
0.324,0.000911124,344523,-13532.5,-62207.6,1.05921e+06,103254,158523,1.00135e+06
0.326,0.000921792,347941,-16817.6,-74361.8,1.05637e+06,104155,164011,998780
0.328,0.000932708,344769,-17637.8,-72918.8,1.0333e+06,102444,166684,1.02374e+06
0.33,0.000943625,341597,-18458.1,-71475.8,1.01022e+06,100733,169356,1.04871e+06
0.332,0.000954543,338425,-19278.3,-70032.8,987150,99022.6,172028,1.07367e+06
0.334,0.000965462,335253,-20098.6,-68589.8,964078,97311.9,174701,1.09864e+06
0.336,0.000976383,332081,-20918.8,-67146.7,941005,95601.2,177373,1.1236e+06
0.338,0.000987305,328909,-21739.1,-65703.7,917932,93890.5,180046,1.14856e+06
0.34,0.000998228,325737,-22559.4,-64260.7,894860,92179.8,182718,1.17353e+06
0.342,0.00100915,322565,-23379.6,-62817.7,871787,90469,185390,1.19849e+06
0.344,0.00102008,319393,-24199.9,-61374.7,848715,88758.3,188063,1.22345e+06
0.346,0.001031,316221,-25020.1,-59931.7,825643,87047.6,190735,1.24842e+06
0.348,0.00104216,309323,-25165.8,-56454.8,803257,85827.5,189812,1.2568e+06
0.35,0.00105372,295722,-24097.5,-49318,782107,85490.2,182420,1.23533e+06
0.352,0.00106529,282122,-23029.2,-42181.2,760957,85152.9,175027,1.21387e+06
0.354,0.00107686,268521,-21960.9,-35044.4,739807,84815.6,167635,1.1924e+06
0.356,0.00108843,254920,-20892.6,-27907.6,718657,84478.3,160243,1.17094e+06
0.358,0.00109999,241319,-19824.3,-20770.8,697507,84141,152850,1.14947e+06
0.36,0.00111156,227718,-18755.9,-13634,676357,83803.7,145458,1.12801e+06
0.362,0.00112313,214118,-17687.7,-6497.33,655208,83466.4,138066,1.10654e+06
0.364,0.00113491,212427,-17799.6,-4759.92,659774,81142,135825,1.09684e+06
0.366,0.00114673,212927,-18128.6,-4015.77,669071,78452,134533,1.0893e+06
0.368,0.00115855,213427,-18457.7,-3271.62,678368,75762.1,133240,1.08176e+06
0.37,0.00117038,213926,-18786.8,-2527.47,687666,73072.1,131947,1.07422e+06
0.372,0.0011822,214426,-19115.8,-1783.31,696963,70382.1,130655,1.06667e+06
0.374,0.00119403,214926,-19444.9,-1039.16,706260,67692.2,129362,1.05913e+06
0.376,0.00120585,215426,-19773.9,-295.018,715557,65002.3,128070,1.05159e+06
0.378,0.00121768,215926,-20103,449.134,724854,62312.3,126777,1.04405e+06
0.38,0.00122951,216426,-20432,1193.29,734151,59622.3,125485,1.03651e+06
0.382,0.00124136,217715,-20930,1748.05,747034,57621.9,125030,1.02535e+06
0.384,0.00125327,221602,-21984.3,1679.04,771726,57892.6,127334,1.0023e+06
0.386,0.00126519,225489,-23038.7,1610.03,796418,58163.4,129639,979237
0.388,0.0012771,229377,-24093,1541.02,821111,58434.1,131943,956179
0.39,0.00128902,233264,-25147.3,1472.01,845803,58704.8,134248,933120
0.392,0.00130094,237151,-26201.7,1403,870495,58975.5,136552,910062
0.394,0.00131316,239540,-26628.6,1968.96,889597,59779.2,139863,891409
0.396,0.001326,238849,-25766.3,3839.86,897210,61678.4,145240,881811
0.398,0.00133885,238157,-24904,5710.77,904823,63577.5,150618,872214
0.4,0.00135169,237466,-24041.7,7581.67,912436,65476.6,155996,862616
0.402,0.00136454,236775,-23179.3,9452.57,920049,67375.8,161374,853018
0.404,0.00137738,236083,-22317,11323.5,927662,69274.9,166752,843420
0.406,0.00139023,235392,-21454.7,13194.3,935275,71174,172130,833823
0.408,0.00140307,234701,-20592.4,15065.2,942888,73073.1,177507,824225
0.41,0.00141604,227334,-18883.7,16330.7,936833,74334.3,177988,827506
0.412,0.00142936,213507,-17072.6,15305,901791,72351.8,169815,851624
0.414,0.00144268,199680,-15261.5,14279.3,866749,70369.2,161642,875742
0.416,0.001456,185853,-13450.5,13253.6,831707,68386.6,153469,899860
0.418,0.00146932,172026,-11639.4,12227.9,796665,66404,145296,923978
0.42,0.00148264,158199,-9828.29,11202.2,761624,64421.4,137123,948096
0.422,0.00149596,144372,-8017.2,10176.5,726582,62438.8,128951,972214
0.424,0.00150928,130545,-6206.1,9150.82,691540,60456.2,120778,996332
0.426,0.00152261,116718,-4395.01,8125.11,656499,58473.6,112605,1.02045e+06
0.428,0.00153593,102891,-2583.92,7099.41,621457,56491,104432,1.04457e+06
0.43,0.00154925,89064.5,-772.821,6073.7,586415,54508.4,96259,1.06869e+06
0.432,0.00156254,80695,-1287.93,4344.26,553067,51892.1,92022,1.08021e+06
0.434,0.0015758,77060.6,-3821.26,2004.28,521188,48725.9,91199.8,1.08082e+06
0.436,0.00158906,73426.1,-6354.63,-335.732,489309,45559.6,90377.6,1.08143e+06
0.438,0.00160232,69791.6,-8888,-2675.75,457430,42393.4,89555.5,1.08203e+06
0.44,0.00161558,66157.2,-11421.4,-5015.76,425550,39227.1,88733.3,1.08264e+06
0.442,0.00162884,62522.7,-13954.7,-7355.78,393671,36060.9,87911.1,1.08324e+06
0.444,0.00164244,66500.7,-23148.2,-9351.46,379833,31451.3,90355.9,1.08016e+06
0.446,0.00165633,76722.9,-37804.5,-11064.7,380792,25657.9,95480.5,1.07405e+06
0.448,0.00167022,86945,-52460.8,-12777.9,381752,19864.5,100605,1.06794e+06
0.45,0.00168411,97167,-67116.9,-14491.2,382711,14071.2,105730,1.06182e+06
0.452,0.00169856,105203,-66282.6,-11882.9,411267,14343.1,112229,1.04888e+06
0.454,0.00171305,113069,-64251.2,-8940.7,441956,15083.6,118834,1.03541e+06
0.456,0.00172754,120936,-62219.7,-5998.48,472645,15824.2,125440,1.02194e+06
0.458,0.00174203,128803,-60188.3,-3056.27,503334,16564.8,132045,1.00847e+06
0.46,0.00175652,136669,-58156.8,-114.053,534023,17305.4,138651,995005
0.462,0.00177101,144536,-56125.4,2828.16,564712,18046,145256,981536
0.464,0.00178551,152403,-54094,5770.34,595400,18786.6,151861,968066
0.466,0.0018,160269,-52062.6,8712.55,626089,19527.2,158467,954597
0.468,0.00181449,168136,-50031.1,11654.8,656778,20267.7,165072,941127
0.47,0.00182899,176003,-47999.7,14597,687467,21008.3,171678,927658
0.472,0.00184348,183869,-45968.2,17539.2,718156,21748.9,178283,914188
0.474,0.00185798,191736,-43936.8,20481.4,748845,22489.5,184889,900719
0.476,0.00187247,199603,-41905.4,23423.6,779534,23230.1,191494,887250
0.478,0.00188692,206785,-36511.5,26713,807266,24446.2,198668,870564
0.48,0.00190129,213062,-26665.1,30462.2,831084,26292.1,206594,849618
0.482,0.00191567,219339,-16818.6,34211.4,854901,28137.9,214521,828673
0.484,0.00193005,225616,-6972.14,37960.6,878719,29983.8,222448,807728
0.486,0.00194443,231893,2874.32,41709.8,902537,31829.6,230374,786782
0.488,0.00195898,232804,12970.4,44327.3,918200,31474.4,232775,774258
0.49,0.00197393,221416,23638.5,44350.7,915174,26073.8,222508,781038
0.492,0.00198887,210027,34306.6,44374.2,912148,20673.3,212242,787817
0.494,0.00200381,198639,44974.5,44397.6,909121,15272.8,201975,794596
0.496,0.00201876,187250,55642.6,44421.1,906095,9872.21,191709,801375
0.498,0.0020337,175862,66310.8,44444.6,903069,4471.65,181442,808155
0.5,0.00204889,166366,71179.7,43896,899896,1431.14,170833,814542
0.502,0.00206427,158691,70402.7,42177.3,896683,-387.493,160135,821907
0.504,0.00207957,152867,63526,35807.9,893996,-6827.51,150693,837829
0.506,0.00209486,147498,57081.3,29807.7,891038,-12814.9,141759,852743
0.508,0.00211004,145941,54252.5,26897.2,885804,-15013.3,137083,859225
0.51,0.00212522,144384,51423.7,23986.8,880571,-17211.5,132407,865707
0.512,0.0021404,142828,48594.9,21076.3,875337,-19409.9,127731,872189
0.514,0.00215558,141271,45766.1,18166,870104,-21608.1,123055,878671
0.516,0.00217076,139715,42937.4,15255.6,864870,-23806.4,118379,885153
0.518,0.00218594,138158,40108.5,12345.1,859637,-26004.8,113703,891635
0.52,0.00220112,136602,37279.8,9434.68,854403,-28203,109028,898117
0.522,0.0022163,135045,34450.9,6524.2,849170,-30401.4,104352,904600
0.524,0.00223148,133489,31622.2,3613.8,843936,-32599.7,99675.8,911082
0.526,0.00224666,131932,28793.3,703.32,838702,-34798,94999.9,917564
0.528,0.00226194,130402,27076.4,-862.399,834866,-35457.9,91260.9,924122
0.53,0.00227762,128981,30043.1,3236.35,836916,-29637.4,91468.2,930998
0.532,0.0022933,127560,33009.9,7335.23,838967,-23816.8,91675.5,937875
0.534,0.00230899,126139,35976.7,11434,841017,-17996.3,91882.8,944752
0.536,0.00232467,124718,38943.5,15532.9,843067,-12175.7,92090.1,951629
0.538,0.00234035,123297,41910.2,19631.6,845117,-6355.18,92297.5,958505
0.54,0.00235605,122060,44713.6,23661.7,846450,-603.954,92577.8,964308
0.542,0.00237191,124207,44505.8,26424.5,834567,3867.75,94203.1,950322
0.544,0.00238811,126034,41499.1,26137.7,816691,7474.43,95486.9,935098
0.546,0.00240459,127612,36327.7,23492.2,794181,10411.9,96506.3,918919
0.548,0.00242106,129190,31156.3,20846.8,771671,13349.3,97525.8,902740
0.55,0.00243753,130768,25984.7,18201.2,749161,16286.8,98545.3,886560
0.552,0.00245401,132346,20813.3,15555.8,726651,19224.2,99564.8,870381
0.554,0.00247048,133924,15641.7,12910.2,704141,22161.8,100584,854201
0.556,0.00248718,134001,13455.2,15996.1,698456,23302.6,100185,883688
0.558,0.00250393,133724,11972.2,20432.9,696737,24020,99452.3,923939
0.56,0.00252068,133448,10489.2,24869.6,695017,24737.4,98719.3,964189
0.562,0.00253743,133171,9006.26,29306.2,693298,25454.8,97986.2,1.00444e+06
0.564,0.00255418,132894,7523.23,33743,691579,26172.2,97253.1,1.04469e+06
0.566,0.00257093,132617,6040.25,38179.7,689860,26889.6,96520,1.08494e+06
0.568,0.00258769,132341,4557.23,42616.5,688140,27607,95786.9,1.12519e+06
0.57,0.00260444,132064,3074.25,47053.1,686421,28324.4,95053.9,1.16544e+06
0.572,0.00262119,131787,1591.22,51489.9,684702,29041.8,94320.8,1.20569e+06
0.574,0.00263814,130229,866.131,56588.2,667759,29060.2,89017.4,1.22184e+06
0.576,0.00265526,126329,-184.262,61899.7,661992,29037.7,88537.6,1.22135e+06
0.578,0.00267239,122238,-1337.02,67184.6,658864,29066.6,89035.9,1.2207e+06
0.58,0.00268951,118148,-2489.75,72469.4,655737,29095.6,89534.1,1.22006e+06
0.582,0.00270664,114057,-3642.51,77754.4,652610,29124.5,90032.3,1.21941e+06
0.584,0.00272376,109966,-4795.24,83039.1,649483,29153.4,90530.5,1.21876e+06
0.586,0.00274089,105875,-5948,88324.1,646356,29182.3,91028.7,1.21812e+06
0.588,0.00275802,101784,-7100.72,93608.9,643229,29211.3,91526.9,1.21747e+06
0.59,0.00277514,97693.5,-8253.45,98893.6,640102,29240.2,92025.1,1.21683e+06
0.592,0.00279227,93602.7,-9406.21,104179,636975,29269.1,92523.3,1.21618e+06
0.594,0.00280939,89511.9,-10558.9,109463,633848,29298.1,93021.5,1.21554e+06
0.596,0.00282679,89102.3,-11117.4,111946,633670,32047.1,96472.5,1.20967e+06
0.598,0.00284437,91097,-11287.6,112599,635420,36572.7,101852,1.20038e+06
0.6,0.00286194,93091.7,-11457.9,113253,637169,41098.3,107231,1.1911e+06
0.602,0.00287946,95414.8,-11410.5,112287,635797,45973.9,111315,1.17284e+06
0.604,0.00289694,97894.2,-11259.5,110550,632938,51016.2,114782,1.1503e+06
0.606,0.00291443,100374,-11108.5,108814,630079,56058.6,118249,1.12776e+06
0.608,0.00293191,102853,-10957.5,107077,627220,61100.8,121715,1.10521e+06
0.61,0.0029494,105333,-10806.5,105341,624361,66143.2,125182,1.08267e+06
0.612,0.00296689,107812,-10655.5,103604,621502,71185.5,128649,1.06013e+06
0.614,0.00298437,110292,-10504.6,101868,618642,76227.9,132116,1.03759e+06
0.616,0.00300186,112771,-10353.6,100131,615783,81270.1,135582,1.01505e+06
0.618,0.00301935,115251,-10202.6,98395,612924,86312.4,139049,992510
0.62,0.0030369,116238,-9118.35,95585.8,608331,91307.1,141859,978471
0.622,0.00305469,112131,-4847.56,89114.2,597818,96138.7,142429,993463
0.624,0.00307248,108024,-576.656,82642.5,587304,100971,142998,1.00846e+06
0.626,0.00309047,104030,2444.28,77253.4,579254,102113,143969,1.01363e+06
0.628,0.00310865,100149,4202.03,72958.3,573693,99525.5,145347,1.00888e+06
0.63,0.00312683,96268.9,5959.73,68663.4,568133,96938.5,146724,1.00413e+06
0.632,0.00314501,92388.2,7717.48,64368.3,562572,94351.4,148102,999381
0.634,0.00316319,88507.6,9475.19,60073.3,557012,91764.4,149479,994631
0.636,0.00318149,85286,10501.9,57388.6,551161,88700.9,150444,990104
0.638,0.00320009,83694.3,9720.13,58687.5,544592,84458.8,150388,986127
0.64,0.00321868,82102.7,8938.4,59986.3,538023,80216.8,150333,982151
0.642,0.00323728,80511,8156.64,61285.2,531453,75974.6,150277,978175
0.644,0.00325587,78919.4,7374.91,62584,524884,71732.6,150221,974198
0.646,0.00327462,77525.4,7257.15,62373.9,521720,68223.6,148794,969506
0.648,0.0032936,76439.5,8174.65,59811.1,523868,65857.9,145230,963698
0.65,0.00331258,75353.6,9092.14,57248.3,526015,63492.3,141666,957889
0.652,0.00333156,74267.7,10009.7,54685.4,528162,61126.5,138101,952081
0.654,0.00335054,73181.8,10927.2,52122.5,530310,58760.9,134537,946272
0.656,0.00336952,72095.9,11844.7,49559.6,532457,56395.1,130973,940464
0.658,0.0033885,71010,12762.2,46996.8,534605,54029.4,127409,934655
0.66,0.00340748,69924.1,13679.7,44433.9,536752,51663.7,123844,928847
0.662,0.00342646,68838.2,14597.2,41871,538900,49298,120280,923038
0.664,0.00344544,67752.3,15514.7,39308.2,541047,46932.4,116716,917230
0.666,0.00346442,66666.4,16432.2,36745.3,543194,44566.6,113152,911421
0.668,0.0034834,65580.5,17349.7,34182.4,545342,42201,109587,905613
0.67,0.00350239,64494.5,18267.3,31619.5,547489,39835.2,106023,899804
0.672,0.00352137,63408.7,19184.8,29056.7,549637,37469.5,102459,893996
0.674,0.00354035,62322.7,20102.3,26493.8,551784,35103.8,98894.5,888187
0.676,0.00355934,61236.8,21019.8,23930.9,553932,32738.1,95330.3,882379
0.678,0.00357832,60151,21937.3,21368.1,556079,30372.5,91766,876570
0.68,0.00359732,59050.1,22930.3,18623.8,557547,28379.3,87732.1,870837
0.682,0.0036166,57642.3,25470.9,12161,545089,34026.6,74070,866657
0.684,0.00363588,56234.5,28011.6,5697.99,532631,39674,60407.5,862476
0.686,0.00365516,54826.7,30552.2,-764.839,520173,45321.3,46745.4,858296
0.688,0.00367444,53418.9,33092.8,-7227.86,507714,50968.7,33082.8,854116
0.69,0.00369372,52011.1,35633.4,-13690.7,495256,56616,19420.7,849935
0.692,0.003713,50603.3,38174,-20153.5,482798,62263.3,5758.58,845755
0.694,0.00373228,49195.5,40714.7,-26616.5,470340,67910.7,-7903.95,841574
0.696,0.00375156,47787.7,43255.3,-33079.4,457882,73558,-21566.1,837394
0.698,0.00377098,47238.9,44371.4,-36435.6,449104,78188.5,-31905.2,829164
0.7,0.00379071,48481.9,42516.3,-33312.1,448004,80697.9,-35312.6,812487
0.702,0.00381044,49724.9,40661.2,-30188.5,446903,83207.4,-38720.2,795810
0.704,0.00383017,50967.8,38806.2,-27065,445803,85716.9,-42127.6,779133
0.706,0.0038499,52210.8,36951.1,-23941.6,444702,88226.4,-45535.1,762456
0.708,0.00386963,53453.8,35096,-20818,443602,90735.9,-48942.6,745779
0.71,0.00388936,54696.7,33241,-17694.5,442501,93245.3,-52350.1,729102
0.712,0.00390945,53381.1,34984.9,-19811.7,451976,93219.2,-56939.4,723828
0.714,0.00392987,49744,39994.5,-26684,471046,90892.3,-62601,728899
0.716,0.00395029,46106.8,45004.3,-33556.6,490117,88565.3,-68262.7,733971
0.718,0.00397071,42469.8,50013.9,-40428.9,509187,86238.4,-73924.3,739043
0.72,0.00399113,38832.6,55023.6,-47301.4,528258,83911.5,-79586,744114
0.722,0.00401155,35195.5,60033.2,-54173.7,547328,81584.6,-85247.6,749186
0.724,0.00403193,33081,66216.6,-57929,565902,80886.3,-89101,758873
0.726,0.0040522,34497.7,75122.1,-54455.4,583326,83965.2,-88761.3,779264
0.728,0.00407247,35914.3,84027.4,-50982,600750,87043.9,-88421.5,799655
0.73,0.00409274,37331,92933,-47508.4,618175,90122.7,-88081.7,820047
0.732,0.00411301,38747.6,101838,-44034.9,635599,93201.4,-87742,840437
0.734,0.00413328,40164.3,110744,-40561.4,653023,96280.3,-87402.2,860829
0.736,0.00415354,41580.9,119649,-37087.9,670447,99359,-87062.5,881220
0.738,0.00417381,42997.5,128554,-33614.5,687871,102438,-86722.8,901610
0.74,0.004194,38991.9,122120,-40329,688098,100757,-95939.9,887496
0.742,0.00421417,34816.9,115206,-47361.6,687788,98927.6,-105455,872305
0.744,0.00423435,30641.9,108292,-54394.4,687478,97098.2,-114971,857113
0.746,0.00425453,26467,101378,-61426.9,687168,95268.9,-124486,841922
0.748,0.00427501,32504.1,99388.9,-57981.7,686308,95362.7,-114714,830831
0.75,0.00429552,39266,97749.1,-53792.9,685409,95593,-103573,820032
0.752,0.00431603,46027.8,96109.4,-49604,684509,95823.3,-92431.7,809233
0.754,0.00433653,52789.8,94469.6,-45415.1,683610,96053.6,-81290.3,798433
0.756,0.00435748,53315.3,88053.2,-44639.7,683320,96508.3,-71671.9,790737
0.758,0.00437845,53434.7,81325.4,-44086.6,683071,96977.6,-62152.3,783244
0.76,0.00439942,53554,74597.8,-43533.5,682822,97446.8,-52633.1,775750
0.762,0.0044205,52528.1,70095.9,-42462.7,681096,97585.1,-45014.5,775090
0.764,0.00444177,49430.1,69621.5,-40455.4,676700,97124.4,-40835.5,786793
0.766,0.00446303,46332,69147.1,-38448.2,672304,96663.7,-36656.6,798496
0.768,0.00448429,43233.9,68672.7,-36440.8,667908,96202.9,-32477.5,810199
0.77,0.00450556,40135.9,68198.3,-34433.6,663512,95742.2,-28298.6,821902
0.772,0.00452682,37037.8,67723.9,-32426.2,659116,95281.5,-24119.5,833606
0.774,0.00454803,34665.1,66084.4,-30524.8,650740,94495.8,-19074.3,844833
0.776,0.0045691,33745.5,62110.9,-28835.4,634391,93058.9,-12293.6,855105
0.778,0.00459017,32825.9,58137.6,-27146.1,618043,91622,-5512.99,865378
0.78,0.00461125,31906.4,54164.3,-25456.7,601694,90185.2,1267.57,875650
0.782,0.00463232,30986.8,50190.8,-23767.3,585345,88748.3,8048.34,885923
0.784,0.0046534,30067.2,46217.5,-22077.9,568997,87311.5,14828.9,896196
0.786,0.00467447,29147.6,42244,-20388.5,552648,85874.6,21609.7,906468
0.788,0.00469555,28228,38270.7,-18699.2,536300,84437.7,28390.2,916741
0.79,0.00471662,27308.4,34297.3,-17009.8,519951,83000.8,35171,927014
0.792,0.00473775,26938.7,30508.6,-15523.5,503525,81438.1,42035.2,935045
0.794,0.00475964,34935.6,29529.5,-17127.1,485918,77959.1,50173.1,908981
0.796,0.00478153,42932.3,28550.4,-18730.7,468312,74480.3,58310.8,882917
0.798,0.00480343,50929,27571.3,-20334.3,450706,71001.5,66448.4,856853
0.8,0.00482532,58926,26592.2,-21937.9,433100,67522.6,74586.3,830788
0.802,0.00484722,66922.7,25613.2,-23541.5,415494,64043.8,82723.9,804724
0.804,0.00486911,74919.6,24634.1,-25145.2,397887,60564.9,90861.8,778660
0.806,0.004891,82916.3,23655,-26748.8,380281,57086.1,98999.4,752596
0.808,0.0049129,90913.3,22675.9,-28352.4,362675,53607.1,107137,726531
0.81,0.00493494,96926.8,21906.6,-28648.2,358226,52542.2,113268,713503
0.812,0.00495711,101331,21307.6,-27882.9,364455,53435.8,117770,711053
0.814,0.00497928,105736,20708.6,-27117.6,370683,54329.4,122272,708603
0.816,0.00500145,110140,20109.7,-26352.3,376911,55223,126774,706153
0.818,0.00502362,114544,19510.6,-25587,383139,56116.7,131276,703703
0.82,0.00504579,118949,18911.7,-24821.7,389367,57010.3,135778,701252
0.822,0.00506796,123353,18312.7,-24056.4,395595,57903.9,140280,698802
0.824,0.00509013,127758,17713.7,-23291.1,401824,58797.5,144782,696352
0.826,0.00511229,132162,17114.7,-22525.8,408052,59691.1,149284,693902
0.828,0.00513446,136566,16515.7,-21760.5,414280,60584.8,153786,691452
0.83,0.00515663,140971,15916.7,-20995.2,420508,61478.4,158288,689001
0.832,0.0051788,145375,15317.7,-20229.8,426736,62372,162790,686551
0.834,0.00520097,149780,14718.7,-19464.5,432964,63265.6,167292,684101
0.836,0.00522314,154184,14119.7,-18699.2,439193,64159.2,171794,681651
0.838,0.00524531,158588,13520.7,-17933.9,445421,65052.9,176296,679200
0.84,0.00526748,162993,12921.7,-17168.6,451649,65946.5,180798,676750
0.842,0.00528954,165438,13248.5,-15942.3,457214,67457.6,184822,675179
0.844,0.00531159,167719,13652.6,-14677.4,462724,69020.3,188806,673681
0.846,0.00533363,170000,14056.8,-13412.6,468235,70583.1,192791,672183
0.848,0.00535568,172281,14461,-12147.7,473745,72145.8,196775,670685
0.85,0.00537773,174563,14865.2,-10882.8,479255,73708.6,200759,669187
0.852,0.00540025,174315,13149.3,-8378.39,474100,74051.5,196934,671189
0.854,0.00542287,173552,11000.8,-5621.08,466768,74145.6,191515,673905
0.856,0.00544556,169297,9710.75,-2961.31,457940,74210.8,182383,675951
0.858,0.00546835,159833,9701.15,-447.251,446881,74232.7,167712,676998
0.86,0.00549115,150369,9691.54,2066.88,435822,74254.6,153041,678045
0.862,0.00551394,140905,9681.93,4580.94,424763,74276.6,138370,679092
0.864,0.00553674,131441,9672.32,7095.07,413703,74298.5,123699,680139
0.866,0.00555981,125417,10205.5,8559.5,411078,74465.3,114635,679493
0.868,0.00558306,121677,11099.1,9326.84,414054,74728.2,109293,677722
0.87,0.00560631,117937,11992.8,10094.2,417029,74991.2,103952,675951
0.872,0.00562956,114197,12886.4,10861.6,420005,75254.2,98610.3,674180
0.874,0.00565281,110457,13780,11628.9,422981,75517.2,93268.7,672409
0.876,0.00567606,106717,14673.7,12396.3,425957,75780.2,87927.4,670639
0.878,0.0056993,103701,15971.5,13728.8,430433,75940,83494.9,667875
0.88,0.00572252,100819,17343.6,15165.1,435185,76081,79229.7,664930
0.882,0.00574575,97936.7,18715.7,16601.5,439937,76221.9,74964.4,661984
0.884,0.00576898,95054.4,20087.8,18037.9,444690,76362.8,70699.1,659038
0.886,0.0057922,92172.2,21459.9,19474.2,449442,76503.8,66433.9,656093
0.888,0.00581543,89289.8,22832,20910.6,454194,76644.7,62168.6,653147
0.89,0.00583866,86407.5,24204.1,22347,458946,76785.6,57903.4,650201
0.892,0.00586189,83525.2,25576.2,23783.4,463699,76926.5,53638.1,647255
0.894,0.00588512,80642.9,26948.3,25219.7,468451,77067.5,49372.9,644310
0.896,0.00590835,77760.6,28320.4,26656.1,473203,77208.4,45107.5,641364
0.898,0.00593157,74878.3,29692.5,28092.5,477956,77349.3,40842.3,638418
0.9,0.0059548,71996.1,31064.6,29528.8,482708,77490.2,36577.1,635472
0.902,0.00597803,69113.7,32436.7,30965.2,487460,77631.2,32311.8,632527
0.904,0.00600165,61399.3,31202.4,30087.6,490648,81475.6,27162.2,641388
0.906,0.00602531,53279.6,29749.6,29015.9,493705,85630.7,21938.3,651239
0.908,0.00604897,45160.1,28296.8,27944.3,496762,89785.7,16714.5,661089
0.91,0.00607262,37040.3,26843.9,26872.6,499818,93940.8,11490.7,670940
0.912,0.00609628,28920.8,25391.1,25800.9,502875,98095.8,6266.91,680791
0.914,0.00611993,20801.3,23938.3,24729.3,505932,102251,1043.17,690642
0.916,0.00614359,12681.6,22485.4,23657.6,508989,106406,-4180.72,700493
0.918,0.00616724,4562.05,21032.6,22586,512046,110561,-9404.46,710344
0.92,0.00619122,-155.08,21185.4,21844.7,512534,113914,-12574.7,717868
0.922,0.00621555,-1215.36,23063.8,21458.4,510262,116406,-13537.7,722890
0.924,0.00623988,-2275.67,24942.2,21072.2,507990,118899,-14500.8,727913
0.926,0.0062642,-3335.96,26820.6,20685.9,505718,121391,-15463.8,732935
0.928,0.00628853,-4396.24,28699,20299.7,503446,123883,-16426.8,737958
0.93,0.00631277,-2703.83,29936.6,20550.8,494274,126360,-16791.3,733598
0.932,0.00633702,-901.464,31148.5,20827.4,484827,128836,-17131.9,728863
0.934,0.00636126,900.957,32360.5,21104,475380,131312,-17472.4,724127
0.936,0.00638551,2703.32,33572.4,21380.6,465933,133788,-17813,719392
0.938,0.00640975,4505.74,34784.4,21657.2,456486,136264,-18153.6,714657
0.94,0.00643399,6308.11,35996.3,21933.8,447039,138741,-18494.1,709922
0.942,0.00645824,8110.48,37208.3,22210.4,437592,141217,-18834.7,705186
0.944,0.00648248,9912.9,38420.3,22487,428145,143693,-19175.3,700451
0.946,0.00650673,11715.3,39632.2,22763.6,418698,146169,-19515.8,695716
0.948,0.00653097,13517.7,40844.2,23040.2,409251,148645,-19856.4,690981
0.95,0.00655521,15320.1,42056.1,23316.8,399804,151122,-20196.9,686246
0.952,0.00657946,17122.5,43268.1,23593.4,390357,153598,-20537.5,681510
0.954,0.0066037,18924.8,44480,23870,380910,156074,-20878.1,676775
0.956,0.00662795,20727.2,45692,24146.6,371463,158550,-21218.6,672040
0.958,0.00665231,30144.5,50695.3,25562.4,379030,163504,-11755.5,676152
0.96,0.00667684,49216.4,60505.7,28422.5,408170,171599,10137.4,691480
0.962,0.00670158,78715.4,77427.7,32365.6,481159,183152,45717.2,743070
0.964,0.00672659,120649,102831,37600.3,606445,198828,97619.5,837908
0.966,0.00675151,149851,118253,40636.3,691296,208888,135822,899395
0.968,0.00677612,138271,101706,36630,646637,200956,130142,854065
0.97,0.00680073,126691,85158.9,32623.5,601978,193024,124462,808732
0.972,0.00682533,115111,68612.2,28617.2,557319,185093,118783,763402
0.974,0.00684994,103531,52065.6,24610.9,512661,177161,113103,718071
0.976,0.00687468,92871.4,39829.1,22900.1,484869,169179,110000,690207
0.978,0.00689944,82196.2,28400.7,21719.2,460842,161052,107414,666129
0.98,0.00692452,81005.3,28223.9,22774,458138,157875,110291,668358
0.982,0.0069496,79814.5,28047.2,23828.9,455434,154699,113168,670586
0.984,0.00697468,78623.6,27870.4,24883.8,452731,151522,116045,672815
0.986,0.00699976,77432.8,27693.6,25938.6,450027,148346,118922,675044
0.988,0.00702484,76242,27516.8,26993.4,447323,145169,121799,677273
0.99,0.00704992,75051.1,27340,28048.3,444620,141992,124676,679502
0.992,0.007075,73860.3,27163.2,29103.1,441916,138816,127553,681731
0.994,0.00710008,72669.4,26986.4,30158,439212,135639,130431,683960
0.996,0.00712516,71478.6,26809.7,31212.8,436508,132462,133308,686188
0.998,0.00715024,70287.7,26632.9,32267.7,433805,129286,136185,688417
1,0.00717531,69096.9,26456.1,33322.5,431101,126109,139062,690646
1.002,0.00720039,67906.1,26279.3,34377.4,428397,122933,141939,692875
1.004,0.00722547,66715.3,26102.5,35432.2,425694,119756,144816,695104
1.006,0.00725056,65524.4,25925.7,36487.1,422990,116579,147693,697333
1.008,0.00727563,64333.5,25749,37542,420286,113403,150571,699561
1.01,0.00730071,63142.7,25572.2,38596.8,417582,110226,153448,701790
1.012,0.00732579,61951.9,25395.4,39651.6,414879,107050,156325,704019
1.014,0.00735088,60761,25218.6,40706.5,412175,103873,159202,706248
1.016,0.00737596,59570.2,25041.8,41761.4,409471,100696,162079,708477
1.018,0.00740104,58379.3,24865,42816.2,406768,97519.6,164956,710706
1.02,0.00742612,57188.5,24688.2,43871.1,404064,94343,167833,712934
1.022,0.0074512,55997.7,24511.5,44925.9,401360,91166.4,170710,715163
1.024,0.00747628,54806.8,24334.7,45980.8,398656,87989.7,173588,717392
1.026,0.00750122,55542.4,23129.1,46097.5,395729,84131.9,176901,716612
1.028,0.00752659,51879.3,20524.2,45902.4,393139,81058.2,168497,723960
1.03,0.00755223,47931.1,18069.4,48824.8,392250,80025.9,157225,729935
1.032,0.00757786,43982.9,15614.5,51747.1,391360,78993.6,145952,735910
1.034,0.0076035,40034.4,13159.5,54669.7,390470,77961.2,134680,741886
1.036,0.00762913,36086.2,10704.7,57592.1,389580,76928.9,123407,747861
1.038,0.00765476,32137.9,8249.84,60514.5,388690,75896.5,112135,753836
1.04,0.0076804,28189.7,5794.99,63436.9,387801,74864.2,100863,759811
1.042,0.00770603,24241.2,3339.99,66359.5,386911,73831.8,89590.4,765786
1.044,0.00773168,21941.7,1827.29,70569.7,382973,73896.5,81503.2,768084
1.046,0.00775768,21907.6,2804.62,72191.3,386911,76281.7,77788.2,755765
1.048,0.00778369,21852.6,3809.74,73651.7,391288,78680.1,74032.7,743176
1.05,0.0078097,21797.6,4814.87,75112.1,395665,81078.4,70277.3,730586
1.052,0.00783572,21742.7,5820.05,76572.6,400043,83476.9,66521.6,717996
1.054,0.00786173,21687.7,6825.18,78033,404420,85875.2,62766.1,705406
1.056,0.00788774,21632.8,7830.3,79493.4,408797,88273.6,59010.7,692816
1.058,0.00791375,21577.8,8835.42,80953.8,413174,90671.9,55255.2,680227
1.06,0.00793976,21522.8,9840.55,82414.3,417551,93070.3,51499.8,667637
1.062,0.00796577,21467.9,10845.7,83874.8,421929,95468.7,47744.1,655047
1.064,0.00799178,21412.9,11850.9,85335.2,426306,97867.1,43988.6,642457
1.066,0.00801779,21358,12856,86795.6,430683,100265,40233.2,629868
1.068,0.0080438,21303,13861.1,88256,435060,102664,36477.7,617278
1.07,0.00806982,21248,14866.3,89716.5,439437,105062,32722,604688
1.072,0.00809583,21193.1,15871.4,91177,443815,107461,28966.6,592098
1.074,0.00812189,21438.5,17933.8,91477.5,445707,108090,26543.4,575819
1.076,0.0081481,22536.1,22995.6,88487.9,440553,103703,27899.4,549074
1.078,0.00817431,23633.7,28057.3,85498.2,435399,99316.2,29255.5,522330
1.08,0.00820058,23673.7,32646.3,83418,429471,95155.4,29316.8,500535
1.082,0.00822715,20999,34450.3,84137.4,423800,92883.5,25415.7,501164
1.084,0.00825385,20066.6,34258.6,84179.7,423368,92548.2,22518.9,510801
1.086,0.00828056,19134.2,34066.9,84222,422936,92213,19622.1,520437
1.088,0.00830726,18201.7,33875.1,84264.4,422504,91877.7,16725.1,530074
1.09,0.00833396,17269.2,33683.4,84306.7,422072,91542.5,13828.3,539711
1.092,0.00836067,16336.8,33491.7,84349.1,421640,91207.3,10931.5,549348
1.094,0.00838737,15404.4,33300,84391.4,421208,90872,8034.67,558984
1.096,0.00841407,14471.9,33108.3,84433.8,420776,90536.8,5137.86,568621
1.098,0.00844078,13539.4,32916.6,84476.1,420344,90201.5,2240.87,578258
1.1,0.00846748,12607,32724.9,84518.4,419912,89866.3,-655.947,587895
1.102,0.00849418,11674.6,32533.2,84560.8,419480,89531,-3552.76,597531
1.104,0.00852089,10742.1,32341.5,84603.1,419048,89195.8,-6449.58,607168
1.106,0.00854759,9809.71,32149.8,84645.5,418616,88860.6,-9346.4,616804
1.108,0.00857431,11271.5,32038.8,82568.3,415942,88091.6,-10229.4,621875
1.11,0.00860103,13724.6,31961.2,79613.5,412340,87143.2,-10278.4,625054
1.112,0.00862776,16177.8,31883.7,76658.8,408737,86194.7,-10327.4,628233
1.114,0.00865448,18630.9,31806.1,73704.1,405135,85246.2,-10376.4,631412
1.116,0.0086812,21084.1,31728.5,70749.3,401533,84297.7,-10425.4,634591
1.118,0.00870793,23537.2,31650.9,67794.6,397930,83349.2,-10474.4,637770
1.12,0.00873465,25990.3,31573.3,64839.9,394328,82400.8,-10523.5,640949
1.122,0.00876167,28243.7,34466.5,58306.9,392381,82465.4,-4812.5,636893
1.124,0.00878875,30457,37956.7,51054.7,390767,82733.7,2056.07,631382
1.126,0.00881583,32670.3,41447.1,43802.2,389152,83001.9,8925.05,625871
1.128,0.00884291,34883.6,44937.3,36550,387538,83270.2,15793.6,620361
1.13,0.00886999,37096.8,48427.5,29297.9,385924,83538.4,22662.2,614851
1.132,0.00889706,39310,51917.7,22045.8,384309,83806.7,29530.8,609340
1.134,0.00892425,40508.1,54441.8,17557.2,382018,84655.2,35185.7,604315
1.136,0.00895161,40201,55533.7,17165.5,378724,86364,39041.7,600008
1.138,0.00897896,39894,56625.5,16773.9,375430,88072.7,42897.4,595701
1.14,0.00900627,39841.9,56249.9,16066.5,371880,86853.9,42620.5,587065
1.142,0.00903359,39835.5,55611.6,15302.7,368284,85111,41603.8,577654
1.144,0.0090609,39829.1,54973.3,14538.8,364688,83368,40587,568242
1.146,0.00908821,39822.6,54335,13774.9,361092,81625.1,39570.3,558830
1.148,0.00911552,39816.2,53696.7,13011,357497,79882.3,38553.6,549419
1.15,0.00914283,39809.8,53058.4,12247.1,353901,78139.4,37536.9,540008
1.152,0.00917014,39803.3,52420.1,11483.3,350305,76396.5,36520.1,530596
1.154,0.00919745,39796.9,51781.8,10719.4,346709,74653.5,35503.4,521184
1.156,0.00922476,39790.5,51143.5,9955.48,343113,72910.6,34486.6,511773
1.158,0.00925207,39784.1,50505.2,9191.61,339517,71167.7,33469.9,502362
1.16,0.00927938,39777.6,49866.9,8427.74,335922,69424.8,32453.2,492951
1.162,0.00930669,39771.2,49228.7,7663.87,332326,67681.9,31436.5,483539
1.164,0.00933401,39764.8,48590.3,6899.95,328730,65938.9,30419.7,474127
1.166,0.00936132,39758.4,47952,6136.08,325134,64196,29403,464716
1.168,0.00938863,39366,47539.8,5209.24,323006,62316.7,28504.1,456494
1.17,0.00941597,38031,47679.6,3884.37,324461,60104,27892.8,451177
1.172,0.00944331,36695.9,47819.4,2559.42,325917,57891.2,27281.5,445860
1.174,0.00947065,35360.8,47959.3,1234.55,327372,55678.6,26670.3,440543
1.176,0.00949798,34025.8,48099.1,-90.3144,328828,53465.9,26059,435226
1.178,0.00952546,31024.3,47441.3,-1224.16,326604,50905.2,22659.3,429697
1.18,0.00955328,24152.8,44931.3,-1914.41,315839,47536.1,12784.3,423676
1.182,0.00958109,17280.9,42421.1,-2604.7,305072,44166.9,2908.58,417654
1.184,0.0096089,10409.4,39911.1,-3294.95,294306,40797.8,-6966.51,411633
1.186,0.00963671,3537.86,37401,-3985.19,283541,37428.7,-16841.6,405612
1.188,0.00966453,-3333.65,34891,-4675.44,272775,34059.7,-26716.7,399590
1.19,0.00969246,-3295.83,34620.7,-4515.31,274571,34489.2,-26049,398333
1.192,0.00972043,-1681.12,34861.5,-4161.11,279235,35785.6,-22975.2,398163
1.194,0.00974839,-66.4012,35102.4,-3806.92,283899,37082,-19901.5,397993
1.196,0.00977635,1548.31,35343.3,-3452.72,288562,38378.4,-16827.7,397822
1.198,0.00980432,3163.03,35584.1,-3098.52,293226,39674.8,-13753.9,397652
1.2,0.00983228,4777.84,35825,-2744.3,297890,40971.3,-10680,397482
1.202,0.00986025,6392.56,36065.9,-2390.1,302553,42267.7,-7606.23,397312
1.204,0.00988821,8007.27,36306.8,-2035.9,307217,43564.1,-4532.46,397142
1.206,0.00991617,9621.99,36547.6,-1681.7,311881,44860.5,-1458.69,396971
1.208,0.00994414,11236.7,36788.5,-1327.5,316544,46156.9,1615.07,396801
1.21,0.0099721,12851.5,37029.4,-973.282,321208,47453.4,4689.02,396631
1.212,0.0100001,14466.2,37270.2,-619.083,325872,48749.8,7762.79,396461
1.214,0.010028,16080.9,37511.1,-264.884,330536,50046.2,10836.6,396291
1.216,0.0100561,17557.7,38849.3,444.019,338266,51384.9,15941.2,399519
1.218,0.0100841,18867.3,41517.8,1582.91,349715,52775.1,23507.7,406869
1.22,0.0101122,26425.1,44580.6,2785.35,365503,55738,33702.1,415100
1.222,0.0101403,38457.4,47925.9,4033.34,384398,59827.4,45778.6,423964
1.224,0.0101684,50489.7,51271.2,5281.34,403294,63916.7,57855.1,432828
1.226,0.0101965,62521.9,54616.5,6529.33,422190,68006,69931.6,441692
1.228,0.0102246,74554.9,57962,7777.4,441087,72095.6,82008.9,450556
1.23,0.0102527,86587.2,61307.4,9025.39,459983,76184.9,94085.4,459420
1.232,0.0102809,96882.5,63288.6,8873.55,470865,79506.2,102836,462315
1.234,0.0103095,103920,62711.7,6096.49,466720,81387.1,105351,454017
1.236,0.010338,106396,61749,4162.34,459816,82539.8,106358,450407
1.238,0.0103665,103856,60362.1,3154.92,449877,82891.9,105707,451952
1.24,0.010395,101316,58975.4,2147.57,439940,83244,105056,453496
1.242,0.0104235,98776.6,57588.6,1140.21,430003,83596.1,104405,455040
1.244,0.010452,96236.7,56201.8,132.847,420065,83948.2,103755,456585
1.246,0.0104805,93696.7,54815,-874.573,410127,84300.3,103104,458129
1.248,0.010509,91156.9,53428.2,-1881.93,400190,84652.4,102453,459673
1.25,0.0105375,88617,52041.4,-2889.29,390252,85004.5,101802,461218
1.252,0.010566,86077.2,50654.6,-3896.65,380315,85356.5,101152,462762
1.254,0.0105945,83537.3,49267.9,-4904.01,370377,85708.6,100501,464306
1.256,0.010623,80997.3,47881,-5911.43,360439,86060.7,99850.2,465851
1.258,0.0106515,78457.5,46494.2,-6918.79,350502,86412.8,99199.5,467395
1.26,0.0106801,77755.6,45381.3,-7780.96,343696,86002.3,99213,475708
1.262,0.0107087,77658.9,44358.6,-8595.32,337921,85340.6,99445.2,486250
1.264,0.0107373,77562.2,43335.8,-9409.73,332146,84678.9,99677.5,496793
1.266,0.0107658,77465.6,42313.1,-10224.1,326371,84017.2,99909.7,507335
1.268,0.0107944,77368.9,41290.4,-11038.4,320596,83355.6,100142,517877
1.27,0.010823,77272.2,40267.7,-11852.8,314821,82693.9,100374,528419
1.272,0.0108516,77175.5,39245,-12667.2,309046,82032.2,100606,538961
1.274,0.0108802,77078.9,38222.2,-13481.6,303271,81370.5,100839,549504
1.276,0.0109091,78274.7,36738.8,-13950,304325,77344.3,102841,559910
1.278,0.010938,79684.1,35179.3,-14361.3,306508,72762.1,105136,570293
1.28,0.010967,81093.5,33619.8,-14772.6,308690,68179.9,107431,580677
1.282,0.0109959,82502.9,32060.3,-15183.8,310872,63597.8,109726,591060
1.284,0.0110249,83912.3,30500.6,-15595.1,313055,59015.3,112021,601444
1.286,0.0110539,85321.7,28941.1,-16006.4,315237,54433.2,114316,611828
1.288,0.0110828,86731.1,27381.6,-16417.7,317420,49851,116611,622211
1.29,0.0111118,88140.5,25822.1,-16829,319602,45268.8,118906,632595
1.292,0.0111409,89071.4,25780,-17239.2,320782,43297.4,119515,632729
1.294,0.0111702,89861.5,26184.5,-17649.1,321667,42094.2,119628,629847
1.296,0.0111994,89358.4,27235.3,-16423.9,320274,40884.2,116583,627845
1.298,0.0112287,88747.2,28340.2,-15061.9,318690,39673.6,113275,625917
1.3,0.011258,88135.9,29445,-13699.8,317106,38463,109966,623988
1.302,0.0112873,87524.7,30550,-12337.7,315523,37252.4,106657,622060
1.304,0.0113166,86913.4,31654.9,-10975.7,313939,36041.8,103348,620131
1.306,0.0113459,86302.2,32759.7,-9613.67,312355,34831.2,100039,618203
1.308,0.0113752,85690.9,33864.6,-8251.63,310772,33620.6,96729.9,616274
1.31,0.0114045,85079.7,34969.5,-6889.6,309188,32410,93421,614346
1.312,0.0114338,84468.4,36074.4,-5527.48,307604,31199.3,90111.9,612417
1.314,0.0114631,83857.1,37179.3,-4165.45,306020,29988.7,86803,610489
1.316,0.0114924,83245.9,38284.2,-2803.41,304437,28778.1,83494.1,608560
1.318,0.0115217,82634.7,39389.1,-1441.38,302853,27567.5,80185.2,606632
1.32,0.011551,82023.4,40494,-79.2634,301269,26356.8,76876.1,604703
1.322,0.0115803,81502.5,41599,1140.44,301163,25513.5,74193.2,599383
1.324,0.0116095,81252.6,42704.4,1933.51,305484,25770.8,73387,583895
1.326,0.0116387,81002.8,43809.8,2726.59,309804,26028.2,72580.8,568408
1.328,0.011668,80752.9,44915.2,3519.66,314125,26285.6,71774.5,552920
1.33,0.0116972,80503,46020.6,4312.78,318446,26543,70968.2,537431
1.332,0.0117264,80253.1,47126,5105.86,322767,26800.3,70162,521944
1.334,0.0117556,80003.2,48231.4,5898.93,327088,27057.7,69355.7,506456
1.336,0.0117849,79753.3,49336.8,6692.01,331409,27315.1,68549.5,490968
1.338,0.0118141,79503.4,50442.2,7485.13,335730,27572.5,67743.2,475479
1.34,0.0118433,79253.5,51547.6,8278.2,340050,27829.8,66937,459992
1.342,0.0118727,78503.1,51761.1,9419.21,336322,28796.2,66086,446216
1.344,0.0119022,76969.4,50578.9,11104.7,319999,30871.8,65165.2,435120
1.346,0.0119318,75435.8,49396.7,12790.1,303676,32947.4,64244.4,424024
1.348,0.0119613,73902,48214.4,14475.6,287352,35023.2,63323.5,412927
1.35,0.0119909,72368.3,47032.2,16161.1,271029,37098.8,62402.7,401830
1.352,0.0120204,70834.7,45850,17846.5,254706,39174.5,61481.9,390734
1.354,0.01205,69301,44667.8,19531.9,238382,41250.1,60561,379638
1.356,0.0120795,67767.3,43485.6,21217.4,222059,43325.8,59640.2,368541
1.358,0.012109,66233.6,42303.3,22902.9,205735,45401.5,58719.3,357444
1.36,0.0121388,65141.9,41511.7,24726.3,196662,47885.1,60797.3,361093
1.362,0.0121686,64321.8,40960,26634.6,192045,50619.4,64718,373803
1.364,0.0121984,63501.8,40408.4,28542.8,187427,53353.6,68638.7,386513
1.366,0.0122282,62696,40007,29875.2,184080,55730.3,70962.3,394491
1.368,0.0122581,61918.8,39902.2,30070.9,183242,57401,70133.9,393126
1.37,0.012288,61141.5,39797.4,30266.7,182404,59071.7,69305.4,391761
1.372,0.012318,60364.2,39692.6,30462.4,181565,60742.4,68477,390396
1.374,0.0123479,59586.9,39587.8,30658.2,180727,62413,67648.5,389032
1.376,0.0123778,58809.6,39483,30853.9,179889,64083.8,66820,387667
1.378,0.0124077,58032.3,39378.2,31049.7,179050,65754.5,65991.5,386302
1.38,0.0124377,57255.1,39273.4,31245.4,178212,67425.2,65163.1,384938
1.382,0.0124676,56477.8,39168.6,31441.2,177374,69095.9,64334.6,383573
1.384,0.0124975,55700.5,39063.8,31636.9,176535,70766.5,63506.2,382208
1.386,0.0125274,54923.2,38959,31832.7,175697,72437.3,62677.7,380844
1.388,0.0125574,54145.9,38854.2,32028.4,174859,74108,61849.2,379479
1.39,0.0125873,53368.6,38749.4,32224.2,174020,75778.7,61020.8,378114
1.392,0.0126172,52591.4,38644.6,32419.9,173182,77449.4,60192.3,376749
1.394,0.0126471,52058.7,38515,32407.3,172936,78909.8,59267.9,374615
1.396,0.0126774,53561.8,38179,30660.2,177620,78619.1,57545.7,366071
1.398,0.0127076,55064.9,37843,28913,182304,78328.5,55823.4,357527
1.4,0.0127378,56568.1,37507,27165.9,186987,78037.8,54101.1,348983
1.402,0.0127682,59397.5,38908.8,22963.9,203498,77618.7,56544.2,360684
1.404,0.0127985,62405.9,40544.8,18430.8,221604,77182.1,59548.9,375115
1.406,0.0128289,65414,42180.8,13898,239709,76745.6,62553.5,389544
1.408,0.0128592,68422.2,43816.8,9365.16,257814,76309.1,65558,403974
1.41,0.0128896,71430.4,45452.7,4832.32,275919,75872.6,68562.5,418404
1.412,0.0129199,74438.6,47088.7,299.485,294024,75436.1,71567.1,432834
1.414,0.0129503,77447,48724.8,-4233.62,312130,74999.6,74571.8,447264
1.416,0.0129808,78457.2,49339.9,-6813.92,319059,74115.5,76041.3,453961
1.418,0.0130114,77868.3,49138.1,-7831.52,317043,72873.3,76282.3,454470
1.42,0.013042,77279.4,48936.4,-8849.11,315028,71631.1,76523.3,454978
1.422,0.0130726,76690.5,48734.6,-9866.76,313012,70388.8,76764.4,455486
1.424,0.0131033,76101.6,48532.8,-10884.4,310997,69146.6,77005.4,455995
1.426,0.0131339,75512.7,48331,-11901.9,308981,67904.4,77246.4,456503
1.428,0.0131645,75033,48308.9,-12880.2,306345,66335.1,77357.5,455825
1.43,0.0131951,74835.3,48751.1,-13756.8,302107,63920.9,77133.3,452084
1.432,0.0132256,74637.6,49193.3,-14633.5,297868,61506.6,76909.1,448343
1.434,0.0132562,74440,49635.4,-15510.1,293630,59092.4,76684.8,444602
1.436,0.0132868,74242.3,50077.6,-16386.8,289391,56678.3,76460.6,440861
1.438,0.0133174,74044.7,50519.8,-17263.4,285153,54264.1,76236.4,437120
1.44,0.0133479,73847,50961.9,-18140.1,280914,51849.8,76012.2,433379
1.442,0.0133785,73649.3,51404.1,-19016.7,276676,49435.7,75788,429638
1.444,0.0134091,73416.5,51838.9,-19845.1,272855,47113.9,75514.7,426033
1.446,0.0134396,72702,52172.9,-20011.4,274767,46059.4,74568.7,424301
1.448,0.0134702,71987.6,52506.8,-20177.8,276678,45004.9,73622.7,422568
1.45,0.0135007,71273,52840.8,-20344.2,278589,43950.4,72676.7,420835
1.452,0.0135313,70558.6,53174.7,-20510.5,280500,42895.8,71730.7,419103
1.454,0.0135618,69844.1,53508.7,-20676.9,282412,41841.3,70784.7,417370
1.456,0.0135924,69129.6,53842.6,-20843.2,284323,40786.8,69838.7,415637
1.458,0.013623,68415.1,54176.6,-21009.6,286234,39732.3,68892.8,413905
1.46,0.0136535,67700.6,54510.5,-21176,288145,38677.8,67946.7,412172
1.462,0.0136841,66986.1,54844.5,-21342.3,290056,37623.3,67000.8,410439
1.464,0.0137146,66271.6,55178.4,-21508.7,291968,36568.7,66054.8,408707
1.466,0.0137452,65557.1,55512.4,-21675,293879,35514.2,65108.8,406974
1.468,0.0137757,64842.6,55846.3,-21841.4,295790,34459.7,64162.8,405241
1.47,0.0138063,64128.1,56180.3,-22007.8,297701,33405.2,63216.8,403509
1.472,0.0138368,63413.6,56514.2,-22174.1,299613,32350.7,62270.8,401776
1.474,0.0138674,62699.2,56848.1,-22340.5,301524,31296.1,61324.8,400044
1.476,0.0138979,61984.7,57182.1,-22506.8,303435,30241.6,60378.8,398311
1.478,0.0139285,61270.1,57516.1,-22673.2,305346,29187.1,59432.8,396578
1.48,0.0139593,60024.6,56813.3,-20696.8,301063,30504.4,56300.8,392838
1.482,0.0139902,58397.4,55365.4,-17180.7,292328,33526.2,51597.8,387656
1.484,0.0140211,56770.2,53917.5,-13664.5,283593,36547.9,46894.9,382474
1.486,0.014052,55143,52469.7,-10148.3,274858,39569.7,42191.9,377291
1.488,0.0140829,53515.7,51021.8,-6631.97,266122,42591.7,37488.6,372109
1.49,0.0141138,51888.5,49573.9,-3115.8,257387,45613.5,32785.7,366926
1.492,0.0141447,50261.3,48126,400.368,248652,48635.3,28082.7,361744
1.494,0.0141756,48634.1,46678.2,3916.54,239917,51657,23379.7,356562
1.496,0.0142066,47933.6,46343.1,7521.26,238423,53193.1,19602.3,357934
1.498,0.0142377,47820.3,46713,11181.7,241516,53787.9,16411.6,363459
1.5,0.0142688,47707,47082.8,14842.2,244609,54382.7,13220.9,368984
1.502,0.0142999,47593.7,47452.7,18502.7,247701,54977.5,10030.2,374510
1.504,0.014331,47513.3,47862.6,21956.5,250854,55486.5,6987.53,379272
1.506,0.0143624,48052.3,49028,21515.2,255138,54377.8,6734.92,369664
1.508,0.0143937,48591.4,50193.4,21073.9,259421,53269.2,6482.32,360057
1.51,0.0144251,49130.4,51358.7,20632.6,263704,52160.6,6229.72,350449
1.512,0.0144565,49669.4,52524.1,20191.3,267988,51051.9,5977.12,340842
1.514,0.0144879,50208.5,53689.5,19750,272271,49943.3,5724.51,331234
1.516,0.0145192,52121.8,54260.4,18988.7,271132,49014.9,8180.81,326032
1.518,0.0145505,54297.4,54717.8,18166.3,268959,48121,11154.1,321670
1.52,0.0145818,56473.1,55175.2,17343.9,266785,47227,14127.4,317309
1.522,0.0146131,58648.7,55632.6,16521.5,264612,46333.1,17100.7,312947
1.524,0.0146444,60824.5,56090,15699.1,262438,45439.1,20074.1,308586
1.526,0.0146757,63000.1,56547.4,14876.7,260264,44545.2,23047.4,304224
1.528,0.014707,65175.7,57004.8,14054.3,258091,43651.2,26020.7,299863
1.53,0.0147383,67351.4,57462.2,13231.9,255917,42757.3,28994,295501
1.532,0.0147696,69437,57932.9,12442.3,253990,41858.6,31694.3,291415
1.534,0.0148008,70118.5,58611.4,12164.3,255905,40886.7,30134.8,291628
1.536,0.014832,70799.9,59289.9,11886.4,257820,39914.8,28575.3,291841
1.538,0.0148633,71481.3,59968.4,11608.5,259736,38943,27015.9,292054
1.54,0.0148945,72162.7,60646.9,11330.6,261651,37971.1,25456.5,292267
1.542,0.0149257,72844.2,61325.4,11052.7,263567,36999.2,23896.9,292480
1.544,0.0149569,73525.6,62003.8,10774.8,265482,36027.3,22337.5,292693
1.546,0.0149882,74207.1,62682.3,10496.9,267397,35055.4,20778.1,292906
1.548,0.0150194,74888.5,63360.8,10219,269313,34083.6,19218.6,293119
1.55,0.0150506,75569.9,64039.2,9941.07,271228,33111.7,17659.2,293331
1.552,0.0150819,76251.4,64717.8,9663.14,273143,32139.8,16099.7,293544
1.554,0.0151133,76223.8,64810.1,10348.3,272960,32216.2,16972.8,294202
1.556,0.0151448,75779.7,64558.3,11599,271544,32908.2,19274.5,295122
1.558,0.0151764,75335.7,64306.5,12849.8,270128,33600.3,21576.2,296041
1.56,0.0152079,74891.7,64054.6,14100.5,268712,34292.4,23878,296961
1.562,0.0152395,74447.6,63802.8,15351.4,267296,34984.5,26179.8,297880
1.564,0.015271,74003.6,63550.9,16602.1,265880,35676.6,28481.6,298799
1.566,0.0153025,73559.6,63299.1,17852.9,264464,36368.6,30783.3,299719
1.568,0.0153341,73115.6,63047.3,19103.6,263048,37060.7,33085.1,300638
1.57,0.0153656,72671.5,62795.4,20354.4,261632,37752.8,35386.9,301558
1.572,0.0153972,72227.5,62543.6,21605.2,260216,38444.9,37688.7,302477
1.574,0.0154287,71783.5,62291.7,22855.9,258801,39137,39990.4,303397
1.576,0.0154604,73756.7,62745.3,25436.5,260253,39622.7,41525,305585
1.578,0.0154921,77780.3,63797.2,29145.2,264139,39933.4,42408.8,308850
1.58,0.0155239,81804.1,64849.2,32854,268024,40244.2,43292.7,312116
1.582,0.0155556,85827.6,65901.1,36562.6,271910,40554.9,44176.6,315381
1.584,0.0155874,89851.2,66953,40271.3,275796,40865.6,45060.4,318646
1.586,0.0156191,93874.8,68004.9,43979.9,279681,41176.3,45944.2,321912
1.588,0.0156509,97898.6,69056.8,47688.7,283567,41487.1,46828.1,325177
1.59,0.0156826,101922,70108.7,51397.3,287453,41797.8,47712,328442
1.592,0.0157143,105946,71160.6,55106,291338,42108.5,48595.8,331707
1.594,0.0157462,106735,71034.9,55022.9,290476,42422.3,49676.9,332923
1.596,0.015778,106832,70657.2,54128.2,288598,42736.8,50800.2,333699
1.598,0.0158098,106930,70279.5,53233.6,286719,43051.3,51923.6,334476
1.6,0.0158416,107027,69901.7,52338.9,284841,43365.8,53046.9,335252
1.602,0.0158735,107124,69524,51444.3,282963,43680.3,54170.2,336029
1.604,0.0159053,107222,69146.3,50549.7,281084,43994.7,55293.5,336806
1.606,0.0159372,107165,69366.8,49104.9,274661,43314.1,55044.9,332591
1.608,0.0159692,107007,69985.5,47293.8,265213,41970.8,53882.9,325054
1.61,0.0160011,106848,70604.3,45482.8,255765,40627.6,52721,317517
1.612,0.0160331,106690,71223,43671.8,246317,39284.5,51559.1,309980
1.614,0.016065,106531,71841.7,41860.8,236869,37941.3,50397.3,302443
1.616,0.016097,106372,72460.5,40049.7,227420,36598.1,49235.3,294905
1.618,0.016129,106214,73079.2,38238.7,217972,35254.9,48073.4,287368
1.62,0.0161609,106055,73697.9,36427.7,208524,33911.8,46911.5,279831
1.622,0.0161929,106393,73915.9,34951.5,203581,33265.7,46546.3,275342
1.624,0.0162249,107292,73680.5,33854.1,203737,33408.6,47082.5,274301
1.626,0.0162569,108192,73445.1,32756.6,203893,33551.4,47618.8,273260
1.628,0.0162889,109091,73209.7,31659.1,204048,33694.2,48155,272219
1.63,0.0163209,109991,72974.3,30561.7,204204,33837,48691.2,271177
1.632,0.0163528,110890,72738.9,29464.3,204360,33979.8,49227.4,270136
1.634,0.0163848,111789,72503.5,28366.9,204515,34122.6,49763.7,269095
1.636,0.0164168,112689,72268.1,27269.4,204671,34265.4,50299.9,268054
1.638,0.0164488,113588,72032.7,26171.9,204826,34408.2,50836.1,267013
1.64,0.0164808,114488,71797.3,25074.5,204982,34551,51372.4,265972
1.642,0.0165127,115387,71561.9,23977.1,205138,34693.8,51908.6,264931
1.644,0.0165447,116287,71326.5,22879.6,205293,34836.7,52444.8,263889
1.646,0.0165767,117186,71091.1,21782.2,205449,34979.5,52981,262848
1.648,0.0166087,118085,70855.7,20684.7,205605,35122.3,53517.3,261807
1.65,0.0166407,118985,70620.3,19587.3,205760,35265.1,54053.5,260766
1.652,0.0166727,119884,70384.9,18489.9,205916,35407.9,54589.7,259725
1.654,0.0167047,120784,70149.5,17392.4,206072,35550.7,55126,258684
1.656,0.0167369,123003,70535.9,16089.2,208396,35868.9,56339.8,258571
1.658,0.0167692,126605,70199,13053.7,207851,36840.8,57384.3,256781
1.66,0.0168015,126778,68416.4,10379.1,202420,37519,55331.7,252589
1.662,0.0168338,126950,66633.9,7704.56,196988,38197.3,53279.1,248396
1.664,0.0168661,127123,64851.3,5029.84,191556,38875.5,51226.4,244204
1.666,0.0168984,127296,63068.8,2355.28,186124,39553.8,49173.8,240011
1.668,0.0169308,127469,61286.2,-319.276,180692,40232,47121.2,235819
1.67,0.0169631,127641,59503.7,-2993.84,175260,40910.2,45068.6,231627
1.672,0.0169954,127814,57721.1,-5668.55,169828,41588.5,43015.9,227434
1.674,0.0170277,127987,55938.6,-8343.11,164396,42266.7,40963.3,223242
1.676,0.01706,122048,51580,-10374.4,150255,42421.7,33391.7,214768
1.678,0.0170923,121252,50361,-10951,146490,43018.3,32988.6,219481
1.68,0.0171246,120680,49256.2,-11510.3,143107,43634,32839.1,224547
1.682,0.0171569,120107,48151.2,-12069.7,139723,44249.8,32689.7,229613
1.684,0.0171892,119534,47046.4,-12629,136340,44865.6,32540.2,234679
1.686,0.0172215,118962,45941.5,-13188.4,132956,45481.4,32390.8,239744
1.688,0.0172538,118147,44722.6,-13804.3,129594,45979.5,32254.6,245203
1.69,0.0172861,117199,43440.3,-14451.7,126242,46412.4,32125.7,250880
1.692,0.0173184,116250,42158.1,-15099,122892,46845.3,31996.8,256557
1.694,0.0173507,115302,40875.9,-15746.3,119541,47278.2,31867.9,262233
1.696,0.017383,114353,39593.8,-16393.6,116190,47711.2,31739,267910
1.698,0.0174153,113405,38311.6,-17040.9,112839,48144.1,31610.2,273586
1.7,0.0174476,112456,37029.3,-17688.3,109488,48577,31481.3,279263
1.702,0.0174799,111508,35747.1,-18335.6,106137,49010,31352.4,284940
1.704,0.0175122,110559,34465,-18982.9,102786,49442.9,31223.5,290616
1.706,0.0175445,109611,33182.8,-19630.2,99435.1,49875.8,31094.7,296293
1.708,0.0175768,109397,32234.2,-20210.4,97112.3,50393.6,30887,301561
1.71,0.0176092,112800,32927.5,-20459.9,99848.8,51328.9,30291.4,304823
1.712,0.0176416,116630,33941.1,-20628,102949,52180.5,30018.6,308459
1.714,0.0176742,122656,36604.4,-20377.2,107923,52601.9,31407.1,314025
1.716,0.0177069,128682,39267.6,-20126.4,112898,53023.2,32795.6,319591
1.718,0.0177395,134708,41931,-19875.6,117873,53444.6,34184.3,325157
1.72,0.0177721,140734,44594.3,-19624.8,122847,53865.9,35572.8,330723
1.722,0.0178047,146760,47257.5,-19374,127821,54287.3,36961.3,336289
1.724,0.0178374,152786,49920.8,-19123.2,132796,54708.6,38349.8,341855
1.726,0.01787,158167,52369.1,-18919.8,137481,55083.6,39492,346602
1.728,0.0179026,156581,52496.3,-19228.6,139044,54958.1,37973.4,342494
1.73,0.0179351,154995,52623.5,-19537.4,140607,54832.6,36454.8,338387
1.732,0.0179677,153409,52750.6,-19846.3,142170,54707.1,34936.3,334280
1.734,0.0180003,151823,52877.8,-20155.1,143732,54581.6,33417.7,330173
1.736,0.0180329,150237,53005,-20463.9,145295,54456,31899.1,326066
1.738,0.0180654,148651,53132.1,-20772.8,146858,54330.5,30380.5,321958
1.74,0.018098,147064,53259.3,-21081.6,148421,54205,28861.9,317851
1.742,0.0181306,145478,53386.5,-21390.4,149983,54079.5,27343.4,313744
1.744,0.0181632,143892,53513.6,-21699.3,151546,53954,25824.8,309637
1.746,0.0181958,142306,53640.8,-22008.1,153109,53828.5,24306.2,305529
1.748,0.0182283,140720,53768,-22316.9,154672,53703,22787.6,301422
1.75,0.0182609,139134,53895.1,-22625.8,156234,53577.4,21269,297315
1.752,0.0182935,137548,54022.3,-22934.6,157797,53451.9,19750.5,293208
1.754,0.0183261,135962,54149.5,-23243.4,159360,53326.4,18231.9,289101
1.756,0.0183586,134376,54276.6,-23552.3,160923,53200.9,16713.3,284993
1.758,0.0183912,132864,54387.9,-23834.7,162370,53057,15294,280918
1.76,0.0184237,133623,54013.6,-23307.8,160283,52351,16914.5,277811
1.762,0.0184564,134129,53972.3,-22582.4,158252,51328.5,18357.6,275240
1.764,0.0184891,134285,54390.8,-21582.5,156299,49869.1,19555.7,273408
1.766,0.0185218,134442,54809.2,-20582.7,154345,48409.7,20753.7,271576
1.768,0.0185546,134598,55227.7,-19583,152392,46950.4,21951.7,269745
1.77,0.0185873,134754,55646.2,-18583.2,150439,45491,23149.7,267913
1.772,0.0186201,134910,56064.7,-17583.4,148485,44031.7,24347.8,266081
1.774,0.0186528,135066,56483.2,-16583.5,146532,42572.2,25545.9,264250
1.776,0.0186855,137011,58166.6,-15883.2,148333,41702.2,26885.1,262959
1.778,0.0187183,139331,60115.5,-15245.7,150924,40955.9,28254,261781
1.78,0.018751,141652,62064.4,-14608.2,153514,40209.6,29622.9,260603
1.782,0.0187837,143973,64013.4,-13970.8,156104,39463.3,30991.7,259426
1.784,0.0188165,146101,65715.7,-13293.1,158558,38666.7,32275.4,258004
1.786,0.0188492,147589,66595,-12481.8,160558,37702.2,33274.3,255769
1.788,0.018882,149077,67474.3,-11670.4,162557,36737.7,34273.2,253534
1.79,0.0189148,150564,68353.7,-10859,164557,35773.2,35272.1,251298
1.792,0.0189476,152052,69233.1,-10047.6,166557,34808.7,36271.1,249063
1.794,0.0189803,153540,70112.4,-9236.26,168556,33844.2,37270,246827
1.796,0.0190131,155028,70991.7,-8424.9,170556,32879.7,38268.9,244592
1.798,0.0190459,156515,71871.1,-7613.54,172555,31915.2,39267.9,242357
1.8,0.0190786,158003,72750.4,-6802.17,174555,30950.7,40266.8,240121
1.802,0.0191114,159491,73629.8,-5990.76,176555,29986.2,41265.7,237886
1.804,0.0191442,160979,74509.1,-5179.4,178554,29021.7,42264.7,235651
1.806,0.019177,162467,75388.5,-4368.03,180554,28057.2,43263.6,233415
1.808,0.0192098,164905,75499,-3811.19,178324,26873.9,43239,231661
1.81,0.0192427,168425,74733.9,-3544.21,171279,25441.5,42048.8,230455
1.812,0.0192756,171945,73968.8,-3277.2,164234,24008.9,40858.5,229249
1.814,0.0193086,175465,73203.8,-3010.21,157188,22576.5,39668.3,228043
1.816,0.0193415,178985,72438.7,-2743.23,150143,21144,38478.1,226836
1.818,0.0193744,182506,71673.7,-2476.24,143098,19711.6,37287.9,225630
1.82,0.0194073,186026,70908.6,-2209.23,136052,18279,36097.6,224424
1.822,0.0194402,189546,70143.5,-1942.25,129007,16846.6,34907.4,223218
1.824,0.0194732,192411,69424.7,-1670.82,123140,15760.1,34107.5,222366
1.826,0.019506,191826,68949.4,-1376.04,123480,16495.6,35362.8,223377
1.828,0.0195389,191240,68474,-1081.25,123819,17231.1,36618.1,224389
1.83,0.0195718,190655,67998.7,-786.447,124159,17966.7,37873.5,225401
1.832,0.0196047,190069,67523.3,-491.662,124498,18702.1,39128.8,226412
1.834,0.0196376,189484,67048,-196.876,124838,19437.6,40384.1,227424
1.836,0.0196705,188899,66572.7,97.9095,125177,20173.1,41639.4,228435
1.838,0.0197034,188313,66097.3,392.713,125517,20908.7,42894.8,229447
1.84,0.0197363,187728,65622,687.498,125856,21644.2,44150.1,230459
1.842,0.0197692,186584,64820.9,1047.58,126712,22702.6,45461.7,231582
1.844,0.0198021,182559,62338.5,1744.63,130231,25427.8,47063.7,233284
1.846,0.019835,178535,59856.1,2441.69,133751,28153.1,48665.7,234985
1.848,0.0198679,174509,57373.6,3138.78,137271,30878.5,50267.8,236686
1.85,0.0199007,170485,54891.2,3835.84,140790,33603.7,51869.8,238387
1.852,0.0199336,169894,53643.5,3695.55,140300,34643.2,52593,238144
1.854,0.0199665,171343,53129.4,3057.76,137427,34681.1,52794.1,236744
1.856,0.0199993,172793,52615.3,2419.97,134554,34719,52995.2,235345
1.858,0.0200322,174242,52101.2,1782.15,131681,34756.9,53196.3,233946
1.86,0.0200652,178969,53165.5,183.241,135597,35714.2,55386,236960
1.862,0.0200982,183977,54365.3,-1498.23,140097,36750.4,57746.6,240354
1.864,0.0201313,188985,55565.1,-3179.71,144596,37786.6,60107.1,243748
1.866,0.0201643,193993,56765,-4861.28,149096,38822.9,62467.9,247142
1.868,0.0201973,199802,57083,-5433.5,147788,39020.4,63905.9,249725
1.87,0.0202303,205868,57119.2,-5651.3,144625,38950,65049.2,252049
1.872,0.0202634,211933,57155.4,-5869.1,141461,38879.6,66192.5,254374
1.874,0.0202964,217999,57191.7,-6086.9,138298,38809.1,67335.7,256698
1.876,0.0203294,224065,57227.9,-6304.71,135134,38738.7,68479.1,259022
1.878,0.0203626,223936,56731.5,-6559.8,133846,38588.1,68435.6,258356
1.88,0.0203957,223269,56189,-6818.11,132720,38430.5,68289.2,257431
1.882,0.0204289,222603,55646.5,-7076.43,131595,38272.9,68142.8,256505
1.884,0.0204621,221936,55104,-7334.75,130469,38115.3,67996.5,255579
1.886,0.0204952,221270,54561.4,-7593.08,129344,37957.7,67850.1,254654
1.888,0.0205284,220604,54018.9,-7851.39,128218,37800.1,67703.7,253728
1.89,0.0205616,219937,53476.3,-8109.71,127093,37642.6,67557.3,252802
1.892,0.0205947,219271,52933.8,-8368.03,125967,37485,67410.9,251877
1.894,0.0206279,218604,52391.3,-8626.36,124841,37327.4,67264.5,250951
1.896,0.0206611,217938,51848.7,-8884.67,123716,37169.8,67118.2,250025
1.898,0.0206942,217272,51306.2,-9142.99,122590,37012.2,66971.8,249100
1.9,0.0207274,216605,50763.7,-9401.31,121465,36854.7,66825.4,248174
1.902,0.0207606,215939,50221.1,-9659.62,120339,36697.1,66679,247249
1.904,0.0207938,215272,49678.6,-9917.95,119214,36539.5,66532.6,246323
1.906,0.0208269,214606,49136.1,-10176.3,118088,36381.9,66386.3,245397
1.908,0.0208601,213939,48593.5,-10434.6,116963,36224.3,66239.9,244472
1.91,0.0208933,213253,48021,-10685.3,115785,36078.6,66098.1,243526
1.912,0.0209264,213111,48258.2,-11141.4,116021,35612.6,65830.9,243113
1.914,0.0209596,212969,48495.3,-11597.6,116258,35146.5,65563.6,242699
1.916,0.0209928,212828,48732.4,-12053.7,116494,34680.4,65296.3,242285
1.918,0.021026,212686,48969.5,-12509.8,116731,34214.4,65029,241872
1.92,0.0210591,212544,49206.7,-12965.9,116967,33748.4,64761.8,241458
1.922,0.0210923,212402,49443.8,-13422.1,117203,33282.3,64494.5,241045
1.924,0.0211255,212260,49680.9,-13878.2,117440,32816.2,64227.2,240631
1.926,0.0211587,212119,49918,-14334.3,117676,32350.2,63959.9,240217
1.928,0.0211918,211977,50155.2,-14790.4,117913,31884.2,63692.7,239804
1.93,0.021225,211835,50392.3,-15246.6,118149,31418.1,63425.4,239390
1.932,0.0212582,211693,50629.4,-15702.7,118386,30952,63158.1,238977
1.934,0.0212913,212593,50948.8,-15280.9,118820,31182.9,63028,239641
1.936,0.0213243,214125,51318.2,-14325.3,119375,31837.3,62981.2,240961
1.938,0.0213573,215657,51687.5,-13369.8,119930,32491.8,62934.4,242281
1.94,0.0213903,217189,52056.9,-12414.2,120485,33146.3,62887.6,243601
1.942,0.0214234,222674,52970.7,-11152.3,119561,33765.6,62600.7,248074
1.944,0.0214565,230106,54152.7,-9739.65,117908,34367.6,62195.4,254100
1.946,0.0214896,237538,55334.7,-8326.95,116254,34969.7,61790.2,260127
1.948,0.0215227,244971,56516.7,-6914.25,114601,35571.7,61385,266153
1.95,0.0215558,252403,57698.7,-5501.47,112948,36173.8,60979.7,272180
1.952,0.021589,259835,58880.7,-4088.77,111295,36775.8,60574.5,278206
1.954,0.0216221,267267,60062.7,-2676.07,109642,37377.8,60169.2,284233
1.956,0.0216552,274699,61244.7,-1263.37,107989,37979.9,59764,290259
1.958,0.0216883,282131,62426.6,149.325,106336,38581.9,59358.8,296286
