"arc_length","Displacement_Magnitude","Sxx","Sxy","Sxz","Syy","Syz","Szz","Von_Mises_Stress"
0,0,1.2603e+06,-73674.2,-7989.23,2.524e+06,440260,1.0976e+06,1.56185e+06
0.002,1.87758e-06,1.19879e+06,-67468.5,-7112.33,2.43284e+06,410692,1.01567e+06,1.52552e+06
0.004,3.02369e-06,1.16498e+06,-64821.6,-6070.9,2.37493e+06,394272,975616,1.50165e+06
0.006,3.97599e-06,1.14022e+06,-63337.2,-4975.73,2.32787e+06,382146,949247,1.48184e+06
0.008,4.9525e-06,1.11546e+06,-61852.8,-3880.55,2.28081e+06,370020,922877,1.46203e+06
0.01,5.94129e-06,1.0907e+06,-60368.4,-2785.38,2.23375e+06,357895,896508,1.44221e+06
0.012,6.93712e-06,1.06593e+06,-58884,-1690.2,2.1867e+06,345769,870138,1.4224e+06
0.014,7.93733e-06,1.04117e+06,-57399.6,-595.027,2.13964e+06,333643,843769,1.40259e+06
0.016,8.90444e-06,1.0164e+06,-55462.5,713.497,2.09142e+06,322573,818898,1.38296e+06
0.018,9.78224e-06,991585,-52384.4,2559.89,2.04029e+06,314162,797806,1.3638e+06
0.02,1.06608e-05,966773,-49306.2,4406.28,1.98916e+06,305751,776713,1.34463e+06
0.022,1.15401e-05,941961,-46228.1,6252.67,1.93803e+06,297340,755621,1.32547e+06
0.024,1.24198e-05,917148,-43149.9,8099.06,1.8869e+06,288928,734529,1.3063e+06
0.026,1.32999e-05,892336,-40071.8,9945.45,1.83577e+06,280517,713437,1.28713e+06
0.028,1.41804e-05,867524,-36993.6,11791.8,1.78464e+06,272106,692344,1.26797e+06
0.03,1.50611e-05,842712,-33915.5,13638.2,1.73351e+06,263695,671252,1.2488e+06
0.032,1.59421e-05,817900,-30837.3,15484.6,1.68238e+06,255284,650160,1.22963e+06
0.034,1.68232e-05,793087,-27759.2,17331,1.63125e+06,246873,629067,1.21047e+06
0.036,1.77045e-05,768275,-24681,19177.4,1.58012e+06,238462,607975,1.1913e+06
0.038,1.85859e-05,743463,-21602.9,21023.8,1.52899e+06,230051,586883,1.17213e+06
0.04,1.94674e-05,718651,-18524.7,22870.2,1.47786e+06,221640,565791,1.15297e+06
0.042,2.03491e-05,693838,-15446.6,24716.6,1.42673e+06,213229,544698,1.1338e+06
0.044,2.12308e-05,669026,-12368.4,26563,1.3756e+06,204818,523606,1.11463e+06
0.046,2.21126e-05,644214,-9290.29,28409.3,1.32446e+06,196406,502514,1.09547e+06
0.048,2.29945e-05,619402,-6212.14,30255.7,1.27333e+06,187995,481421,1.0763e+06
0.05,2.50081e-05,590197,-3813.74,33027.9,1.23727e+06,184588,446945,1.0785e+06
0.052,2.74309e-05,559409,-1660.49,36133.9,1.20665e+06,182986,407640,1.08842e+06
0.054,2.98544e-05,528620,492.752,39239.9,1.17603e+06,181383,368336,1.09833e+06
0.056,3.22786e-05,497831,2646,42346,1.1454e+06,179781,329032,1.10824e+06
0.058,3.47033e-05,467043,4799.24,45452,1.11478e+06,178179,289728,1.11816e+06
0.06,3.71285e-05,436254,6952.49,48558,1.08415e+06,176576,250424,1.12807e+06
0.062,3.95539e-05,405465,9105.73,51664,1.05353e+06,174974,211120,1.13798e+06
0.064,4.18595e-05,401090,8458.28,51794.6,1.04708e+06,179109,208347,1.14068e+06
0.066,4.41942e-05,398637,7607.07,51708.7,1.04239e+06,183661,208232,1.14285e+06
0.068,4.65622e-05,396183,6755.85,51622.8,1.0377e+06,188213,208116,1.14503e+06
0.07,4.89588e-05,393730,5904.64,51536.9,1.03301e+06,192765,208001,1.1472e+06
0.072,5.13774e-05,388299,3042.96,51635,1.02404e+06,191772,196562,1.14728e+06
0.074,5.38084e-05,382387,-143.071,51762.7,1.01438e+06,189885,183296,1.14703e+06
0.076,5.62498e-05,376476,-3329.09,51890.4,1.00471e+06,187997,170030,1.14677e+06
0.078,5.87003e-05,370565,-6515.13,52018.1,995051,186109,156764,1.14652e+06
0.08,6.11589e-05,364654,-9701.15,52145.8,985388,184221,143498,1.14626e+06
0.082,6.36245e-05,358743,-12887.2,52273.5,975724,182334,130232,1.14601e+06
0.084,6.60965e-05,352831,-16073.2,52401.3,966060,180446,116966,1.14576e+06
0.086,6.85741e-05,346920,-19259.2,52529,956397,178558,103700,1.1455e+06
0.088,7.10563e-05,342316,-22089.3,52400.5,948378,177454,92346.4,1.14672e+06
0.09,7.35429e-05,344754,-23000.7,50891.3,949225,180572,91298.8,1.15588e+06
0.092,7.60382e-05,347192,-23912.2,49382.1,950073,183689,90251.3,1.16503e+06
0.094,7.85412e-05,349631,-24823.6,47872.9,950920,186807,89203.7,1.17419e+06
0.096,8.10513e-05,352069,-25735,46363.8,951767,189925,88156.1,1.18335e+06
0.098,8.35679e-05,354508,-26646.5,44854.6,952614,193043,87108.6,1.1925e+06
0.1,8.63765e-05,361446,-28151.6,43894.6,965197,196512,87645.5,1.2097e+06
0.102,9.0111e-05,382888,-31570.1,44704.6,1.0156e+06,201115,93289.3,1.25283e+06
0.104,9.38471e-05,404329,-34988.7,45514.7,1.06601e+06,205718,98933.1,1.29597e+06
0.106,9.75847e-05,425771,-38407.2,46324.8,1.11642e+06,210320,104577,1.3391e+06
0.108,0.000101324,447213,-41825.8,47134.8,1.16683e+06,214923,110221,1.38223e+06
0.11,0.000105064,468654,-45244.3,47944.9,1.21723e+06,219525,115864,1.42536e+06
0.112,0.000108805,490096,-48662.8,48755,1.26764e+06,224128,121508,1.46849e+06
0.114,0.000112547,511538,-52081.4,49565,1.31805e+06,228730,127152,1.51162e+06
0.116,0.000116455,504995,-52325.2,48260.8,1.29993e+06,229956,125295,1.49935e+06
0.118,0.00012054,468682,-49191.8,44707.5,1.20892e+06,227590,115458,1.42815e+06
0.12,0.000124626,432370,-46058.4,41154.2,1.11792e+06,225224,105621,1.35695e+06
0.122,0.000128712,396058,-42925,37600.9,1.02691e+06,222858,95783.9,1.28575e+06
0.124,0.000132798,359745,-39791.6,34047.6,935900,220492,85947,1.21454e+06
0.126,0.000136885,323433,-36658.2,30494.2,844892,218126,76110.1,1.14334e+06
0.128,0.000140972,287121,-33524.8,26940.9,753885,215759,66273.2,1.07214e+06
0.13,0.00014506,250808,-30391.4,23387.6,662877,213393,56436.3,1.00094e+06
0.132,0.000149429,236999,-30172.8,20945.3,627040,211834,52552.2,975519
0.134,0.000153977,236502,-31678.7,19160.4,623841,210752,52189.7,977184
0.136,0.000158537,236006,-33184.6,17375.4,620642,209670,51827.3,978849
0.138,0.000163108,235509,-34690.5,15590.4,617444,208588,51464.8,980514
0.14,0.000167689,235013,-36196.4,13805.5,614245,207505,51102.3,982180
0.142,0.00017228,234516,-37702.3,12020.5,611047,206423,50739.9,983845
0.144,0.000176879,234020,-39208.2,10235.6,607848,205341,50377.4,985510
0.146,0.000181487,233523,-40714.1,8450.58,604650,204259,50015,987176
0.148,0.000186102,233027,-42220,6665.62,601451,203177,49652.5,988841
0.15,0.000190724,232530,-43725.9,4880.65,598252,202095,49290.1,990506
0.152,0.000195352,232034,-45231.8,3095.7,595054,201013,48927.6,992171
0.154,0.000199987,231537,-46737.7,1310.73,591855,199931,48565.2,993837
0.156,0.000204627,231041,-48243.6,-474.238,588657,198848,48202.7,995502
0.158,0.000209272,230544,-49749.5,-2259.21,585458,197766,47840.2,997167
0.16,0.000213922,230048,-51255.4,-4044.16,582260,196684,47477.8,998832
0.162,0.000218577,229551,-52761.3,-5829.13,579061,195602,47115.3,1.0005e+06
0.164,0.000223236,229055,-54267.2,-7614.09,575862,194520,46752.9,1.00216e+06
0.166,0.000227899,228558,-55773.1,-9399.05,572664,193438,46390.4,1.00383e+06
0.168,0.000232566,228062,-57279,-11184,569465,192356,46028,1.00549e+06
0.17,0.000237237,227565,-58784.9,-12969,566267,191274,45665.5,1.00716e+06
0.172,0.00024191,227069,-60290.8,-14754,563068,190191,45303.1,1.00882e+06
0.174,0.000246486,228827,-61314.4,-13084.7,569145,189159,44694.7,1.00717e+06
0.176,0.00025101,231818,-62074.6,-9527.94,580290,188153,43951.9,1.0037e+06
0.178,0.000256066,232071,-61971.8,-11105.4,581853,186531,45501.6,991593
0.18,0.00026163,230835,-61228.2,-17079.3,577798,184323,49691.8,974735
0.182,0.000267511,240587,-62015.7,-20528.2,607613,181769,60391.1,992087
0.184,0.000273393,250340,-62803.2,-23977.1,637429,179215,71090.5,1.00944e+06
0.186,0.000279276,260092,-63590.7,-27426,667244,176660,81789.9,1.02679e+06
0.188,0.000285159,269845,-64378.2,-30874.9,697059,174106,92489.3,1.04414e+06
0.19,0.000291044,279597,-65165.7,-34323.8,726874,171552,103189,1.0615e+06
0.192,0.000296928,289349,-65953.2,-37772.7,756689,168997,113888,1.07885e+06
0.194,0.000302814,299102,-66740.6,-41221.6,786504,166443,124587,1.0962e+06
0.196,0.0003087,308854,-67528.1,-44670.4,816319,163889,135287,1.11355e+06
0.198,0.000314795,312875,-66420.8,-45043.7,824741,161289,139172,1.11165e+06
0.2,0.000320968,314815,-64625.1,-44299.4,825389,158673,140580,1.10275e+06
0.202,0.000327144,316754,-62829.3,-43555.2,826038,156056,141989,1.09385e+06
0.204,0.000333324,318693,-61033.6,-42810.9,826686,153440,143398,1.08496e+06
0.206,0.000339507,320632,-59237.8,-42066.7,827335,150824,144807,1.07606e+06
0.208,0.000345693,322572,-57442.1,-41322.4,827983,148208,146215,1.06716e+06
0.21,0.000351881,324511,-55646.4,-40578.2,828632,145591,147624,1.05826e+06
0.212,0.000358072,326450,-53850.6,-39834,829280,142975,149033,1.04936e+06
0.214,0.000364266,328389,-52054.9,-39089.7,829929,140359,150442,1.04046e+06
0.216,0.000370462,330329,-50259.1,-38345.5,830577,137743,151851,1.03156e+06
0.218,0.00037666,332268,-48463.4,-37601.3,831226,135126,153259,1.02267e+06
0.22,0.000382861,334207,-46667.7,-36857,831874,132510,154668,1.01377e+06
0.222,0.000389063,336146,-44871.9,-36112.8,832523,129894,156077,1.00487e+06
0.224,0.000395267,338086,-43076.2,-35368.5,833171,127278,157486,995970
0.226,0.000401924,326516,-40288.1,-28029.9,815602,124564,151914,985036
0.228,0.000408591,314629,-37476.8,-20536.5,797605,121849,146179,974053
0.23,0.000415258,302743,-34665.4,-13043,779608,119133,140444,963070
0.232,0.000421926,290856,-31854.1,-5549.6,761611,116418,134709,952088
0.234,0.000428594,278969,-29042.7,1943.85,743614,113702,128973,941105
0.236,0.000435263,267083,-26231.4,9437.3,725617,110986,123238,930122
0.238,0.000441932,255196,-23420,16930.8,707621,108271,117503,919140
0.24,0.000448844,252721,-23108.8,22081.1,701716,107338,116717,932288
0.242,0.000455811,252280,-23338.1,26724.9,698425,106791,117000,950653
0.244,0.00046278,251839,-23567.3,31368.7,695134,106244,117283,969017
0.246,0.000469751,251399,-23796.6,36012.6,691843,105697,117567,987382
0.248,0.000476723,250958,-24025.8,40656.4,688552,105150,117850,1.00575e+06
0.25,0.000483697,250517,-24255.1,45300.2,685261,104603,118134,1.02411e+06
0.252,0.000490674,250077,-24484.3,49944,681970,104056,118417,1.04248e+06
0.254,0.000497651,249636,-24713.6,54587.8,678679,103509,118700,1.06084e+06
0.256,0.00050463,249196,-24942.8,59231.7,675388,102961,118984,1.07921e+06
0.258,0.000511611,248755,-25172.1,63875.4,672097,102414,119267,1.09757e+06
0.26,0.000518593,248314,-25401.3,68519.3,668806,101867,119551,1.11594e+06
0.262,0.000525962,243207,-23259.3,70953,664835,105673,119325,1.12488e+06
0.264,0.000533407,237185,-20652.7,72953.8,660730,110331,119000,1.13197e+06
0.266,0.000540853,231163,-18046.1,74954.5,656624,114989,118674,1.13907e+06
0.268,0.000548299,225141,-15439.5,76955.2,652519,119647,118349,1.14616e+06
0.27,0.000555745,219120,-12832.9,78955.9,648414,124305,118024,1.15326e+06
0.272,0.000563191,213098,-10226.3,80956.6,644309,128963,117698,1.16035e+06
0.274,0.000570717,208192,-7444.64,82420.5,640302,133099,117441,1.1656e+06
0.276,0.000578617,208461,-3851.51,81395.8,636747,134815,117497,1.16232e+06
0.278,0.000586518,208729,-258.382,80371.1,633193,136531,117553,1.15904e+06
0.28,0.000594419,208998,3334.75,79346.3,629638,138246,117610,1.15576e+06
0.282,0.00060264,215104,6250.96,76419.3,639240,135585,116208,1.13747e+06
0.284,0.000610984,223468,8905.33,72756.3,653930,131230,114242,1.11337e+06
0.286,0.000619329,231832,11559.7,69093.4,668621,126875,112277,1.08927e+06
0.288,0.000627674,240196,14214,65430.4,683311,122521,110311,1.06518e+06
0.29,0.000636019,248560,16868.4,61767.5,698001,118166,108345,1.04108e+06
0.292,0.000644364,256924,19522.8,58104.5,712692,113811,106380,1.01698e+06
0.294,0.000652794,260766,19244.9,54181,726817,113229,105940,999656
0.296,0.000661238,263873,18489.6,50215.1,740849,113261,105748,983432
0.298,0.000669684,266979,17734.3,46249.2,754882,113292,105557,967208
0.3,0.000678132,270086,16979.1,42283.3,768915,113324,105365,950984
0.302,0.000686581,273193,16223.8,38317.4,782948,113356,105173,934760
0.304,0.000695031,276299,15468.6,34351.5,796981,113387,104982,918536
0.306,0.000703482,279406,14713.3,30385.6,811014,113419,104790,902311
0.308,0.000711935,282513,13958,26419.6,825046,113451,104599,886087
0.31,0.000720388,285619,13202.8,22453.7,839079,113483,104407,869863
0.312,0.000728859,288687,12371.5,18257.2,852523,113529,104361,853989
0.314,0.000737753,290684,9444.49,7700.61,849707,113978,108334,847784
0.316,0.000746648,292680,6517.46,-2855.97,846891,114427,112306,841579
0.318,0.000755543,294677,3590.48,-13412.4,844075,114877,116278,835373
0.32,0.000764439,296674,663.461,-23969,841259,115326,120250,829168
0.322,0.000773335,298670,-2263.56,-34525.6,838444,115775,124222,822963
0.324,0.00078223,300667,-5190.58,-45082.2,835628,116225,128195,816757
0.326,0.000791148,302154,-7898,-54454,831261,116473,131985,812952
0.328,0.00080026,299177,-8683.12,-53455.2,813313,114958,134184,830156
0.33,0.000809373,296200,-9468.23,-52456.4,795366,113444,136384,847359
0.332,0.000818487,293223,-10253.3,-51457.6,777418,111930,138583,864562
0.334,0.000827602,290246,-11038.5,-50458.8,759471,110415,140782,881766
0.336,0.000836717,287270,-11823.6,-49460,741524,108901,142981,898969
0.338,0.000845834,284293,-12608.7,-48461.2,723576,107387,145181,916173
0.34,0.000854952,281316,-13393.8,-47462.4,705629,105872,147380,933376
0.342,0.00086407,278339,-14178.9,-46463.6,687681,104358,149579,950580
0.344,0.000873189,275362,-14964,-45464.8,669734,102844,151778,967783
0.346,0.000882309,272386,-15749.1,-44466,651787,101329,153977,984987
0.348,0.000891606,266608,-16022.8,-41932.4,633797,100313,153242,989749
0.35,0.00090122,255790,-15375.9,-36636.8,615732,100191,147226,972123
0.352,0.000910835,244973,-14729.1,-31341.2,597667,100069,141211,954497
0.354,0.00092045,234155,-14082.3,-26045.7,579602,99947.5,135195,936872
0.356,0.000930064,223338,-13435.5,-20750.1,561537,99825.8,129179,919246
0.358,0.000939679,212520,-12788.7,-15454.5,543472,99704.1,123163,901620
0.36,0.000949294,201702,-12141.9,-10159,525407,99582.4,117147,883994
0.362,0.000958909,190885,-11495.1,-4863.5,507342,99460.7,111131,866369
0.364,0.0009687,189782,-11559.1,-3528.65,510513,97703.4,109339,858488
0.366,0.000978524,190466,-11753.9,-2922.4,517591,95645.2,108323,852400
0.368,0.00098835,191150,-11948.7,-2316.15,524669,93587,107307,846311
0.37,0.000998176,191835,-12143.5,-1709.9,531746,91528.8,106291,840223
0.372,0.001008,192519,-12338.3,-1103.65,538824,89470.6,105275,834135
0.374,0.00101783,193203,-12533,-497.399,545902,87412.4,104259,828046
0.376,0.00102766,193887,-12727.8,108.842,552979,85354.3,103243,821958
0.378,0.00103749,194571,-12922.6,715.092,560057,83296.1,102227,815870
0.38,0.00104732,195255,-13117.4,1321.34,567135,81237.9,101211,809781
0.382,0.00105717,196643,-13420.8,1812.47,577085,79665.2,100828,801125
0.384,0.00106706,200346,-14082,1924.41,596495,79691.4,102530,784013
0.386,0.00107696,204049,-14743.1,2036.36,615905,79717.5,104232,766900
0.388,0.00108686,207752,-15404.3,2148.31,635315,79743.7,105935,749788
0.39,0.00109676,211455,-16065.4,2260.25,654724,79769.9,107637,732676
0.392,0.00110665,215158,-16726.6,2372.2,674134,79796.1,109339,715563
0.394,0.00111678,217223,-17031.9,2972.31,688464,80245.6,111670,701332
0.396,0.00112736,215921,-16606,4575.67,692352,81564.8,115292,693023
0.398,0.00113794,214618,-16180.1,6179.02,696240,82884,118913,684713
0.4,0.00114852,213316,-15754.2,7782.38,700128,84203.3,122535,676404
0.402,0.00115911,212014,-15328.3,9385.73,704017,85522.5,126157,668094
0.404,0.00116969,210711,-14902.4,10989.1,707905,86841.7,129779,659785
0.406,0.00118027,209409,-14476.5,12592.4,711793,88161,133401,651476
0.408,0.00119085,208107,-14050.6,14195.8,715681,89480.2,137022,643166
0.41,0.00120154,202638,-12796.3,15350.9,710272,90340.9,137341,644307
0.412,0.0012125,192919,-11262.8,14686,684808,88807,131615,660791
0.414,0.00122345,183200,-9729.29,14021,659344,87273.2,125890,677275
0.416,0.00123441,173481,-8195.76,13356.1,633880,85739.4,120165,693758
0.418,0.00124537,163762,-6662.24,12691.1,608416,84205.5,114439,710242
0.42,0.00125633,154043,-5128.74,12026.1,582952,82671.7,108714,726726
0.422,0.00126728,144324,-3595.22,11361.2,557488,81137.9,102988,743209
0.424,0.00127824,134605,-2061.7,10696.2,532024,79604,97263,759693
0.426,0.0012892,124886,-528.173,10031.2,506560,78070.2,91537.6,776177
0.428,0.00130016,115167,1005.35,9366.28,481096,76536.3,85812.1,792660
0.43,0.00131112,105448,2538.87,8701.32,455632,75002.5,80086.7,809144
0.432,0.00132206,98590.2,2062.24,7442.23,430386,72857.6,76829.3,816217
0.434,0.00133297,94214.6,-158.398,5667.69,405330,70182.6,75713.1,815124
0.436,0.00134388,89838.9,-2379.07,3893.13,380273,67507.6,74596.9,814031
0.438,0.00135479,85463.2,-4599.75,2118.57,355217,64832.6,73480.7,812938
0.44,0.00136571,81087.5,-6820.42,344.009,330160,62157.6,72364.5,811845
0.442,0.00137662,76711.8,-9041.1,-1430.55,305104,59482.5,71248.3,810752
0.444,0.00138778,77890.9,-16153.4,-2954.76,292745,55692.3,72358.2,806729
0.446,0.00139915,83626.4,-27278.1,-4273.62,290800,50987.3,75294,800301
0.448,0.00141052,89361.9,-38402.8,-5592.48,288856,46282.3,78229.8,793873
0.45,0.00142189,95097.3,-49527.3,-6911.32,286912,41577.4,81165.6,787445
0.452,0.00143367,101442,-48793.4,-5023.33,307999,41676.1,85936.3,777859
0.454,0.00144549,107834,-47143,-2887.5,330865,42145.9,90848.9,768030
0.456,0.0014573,114226,-45492.6,-751.665,353731,42615.8,95761.5,758200
0.458,0.00146912,120618,-43842.3,1384.16,376598,43085.7,100674,748370
0.46,0.00148094,127010,-42191.9,3520,399464,43555.6,105587,738541
0.462,0.00149275,133402,-40541.5,5655.83,422330,44025.5,110499,728711
0.464,0.00150457,139793,-38891.2,7791.62,445196,44495.3,115412,718882
0.466,0.00151639,146185,-37240.8,9927.45,468063,44965.2,120324,709052
0.468,0.00152821,152577,-35590.5,12063.3,490929,45435.1,125237,699222
0.47,0.00154003,158969,-33940.1,14199.1,513795,45905,130149,689393
0.472,0.00155184,165361,-32289.7,16334.9,536662,46374.9,135062,679563
0.474,0.00156366,171753,-30639.4,18470.8,559528,46844.7,139974,669734
0.476,0.00157548,178145,-28989,20606.6,582394,47314.6,144887,659904
0.478,0.00158727,183800,-24951.7,22963.2,602991,48139,150179,647799
0.48,0.001599,188481,-17753.5,25612.1,620584,49432.9,155974,632681
0.482,0.00161074,193161,-10555.2,28261,638177,50726.8,161769,617562
0.484,0.00162247,197842,-3357.02,30910,655770,52020.7,167564,602444
0.486,0.00163421,202522,3841.21,33558.9,673363,53314.5,173359,587326
0.488,0.00164607,203091,11176.7,35376.6,684442,53001.8,175127,577859
0.49,0.00165821,194234,18826.7,35288.9,680592,49006.5,167665,581345
0.492,0.00167035,185378,26476.8,35201.2,676741,45011.2,160203,584832
0.494,0.00168249,176522,34126.7,35113.6,672890,41016,152741,588318
0.496,0.00169463,167666,41776.8,35025.9,669040,37020.6,145279,591805
0.498,0.00170677,158809,49426.9,34938.3,665189,33025.3,137817,595291
0.5,0.00171908,151522,52891.1,34476.7,661399,30682.9,129996,598638
0.502,0.00173154,145784,52286.2,33229.6,657910,29201.9,122051,602883
0.504,0.00174394,141832,47319.9,28806.5,656095,24522.8,115216,613811
0.506,0.00175634,138150,42655.3,24636.3,654042,20173.4,108732,623998
0.508,0.00176866,136728,40516.3,22583.5,649996,18583.7,105192,627983
0.51,0.00178098,135306,38377.4,20530.6,645950,16994.1,101653,631969
0.512,0.0017933,133884,36238.4,18477.8,641905,15404.5,98112.6,635954
0.514,0.00180563,132462,34099.5,16424.9,637859,13814.8,94572.8,639940
0.516,0.00181795,131040,31960.6,14372.1,633814,12225.2,91032.9,643925
0.518,0.00183027,129618,29821.6,12319.2,629768,10635.6,87493,647911
0.52,0.0018426,128197,27682.7,10266.4,625722,9045.99,83953.1,651896
0.522,0.00185492,126775,25543.8,8213.55,621677,7456.34,80413.2,655882
0.524,0.00186724,125353,23404.9,6160.73,617631,5866.73,76873.3,659867
0.526,0.00187957,123931,21265.9,4107.85,613586,4277.08,73333.4,663853
0.528,0.00189196,122631,19937.9,2986.24,610437,3797.48,70511.4,667976
0.53,0.00190464,121844,22025.8,5787.35,611063,7993.76,70713.4,672683
0.532,0.00191733,121057,24113.9,8588.54,611690,12190.2,70915.3,677389
0.534,0.00193001,120269,26201.8,11389.6,612317,16386.4,71117.3,682095
0.536,0.00194269,119482,28289.8,14190.8,612944,20582.8,71319.3,686801
0.538,0.00195538,118695,30377.7,16991.9,613571,24779.1,71521.2,691508
0.54,0.00196807,117985,32339.5,19747.8,613635,28925.5,71754.5,695402
0.542,0.00198087,118685,31975.3,21668.4,603327,32149.9,72564.4,684341
0.544,0.00199392,118976,29610.6,21485.7,589170,34667.8,73101.8,673119
0.546,0.00200717,118953,25698.7,19676.1,572037,36639.1,73428.5,661772
0.548,0.00202041,118929,21786.9,17866.5,554905,38610.3,73755.2,650426
0.55,0.00203366,118905,17875,16056.9,537771,40581.7,74081.9,639079
0.552,0.00204691,118881,13963.2,14247.3,520639,42553,74408.6,627733
0.554,0.00206015,118857,10051.3,12437.7,503505,44524.3,74735.3,616386
0.556,0.00207355,118851,8493.93,14529.2,499455,45251.9,74376.8,636443
0.558,0.00208699,118850,7491.47,17540.3,498487,45686.5,73856.9,663903
0.56,0.00210043,118849,6489.05,20551.3,497520,46121,73337,691361
0.562,0.00211386,118847,5486.63,23562.4,496553,46555.5,72817.1,718820
0.564,0.0021273,118846,4484.17,26573.5,495585,46990,72297.2,746279
0.566,0.00214074,118845,3481.75,29584.5,494618,47424.6,71777.3,773738
0.568,0.00215418,118844,2479.3,32595.6,493651,47859.1,71257.4,801197
0.57,0.00216762,118842,1476.88,35606.6,492683,48293.6,70737.5,828656
0.572,0.00218106,118841,474.423,38617.7,491716,48728.2,70217.5,856115
0.574,0.00219463,117740,-8.27963,42072.8,479411,48740.2,66505.3,866036
0.576,0.00220833,114648,-788.583,45655,474094,48765.4,66098.4,864409
0.578,0.00222203,111395,-1648.48,49217.5,470574,48826.5,66366.4,862745
0.58,0.00223573,108142,-2508.36,52779.8,467055,48887.5,66634.5,861081
0.582,0.00224943,104889,-3368.25,56342.3,463536,48948.6,66902.6,859417
0.584,0.00226313,101636,-4228.13,59904.7,460017,49009.7,67170.7,857753
0.586,0.00227683,98383,-5088.03,63467.1,456498,49070.8,67438.8,856089
0.588,0.00229052,95130,-5947.9,67029.5,452979,49131.9,67706.9,854425
0.59,0.00230422,91877,-6807.77,70591.8,449460,49193,67975,852761
0.592,0.00231792,88623.9,-7667.67,74154.3,445941,49254,68243.1,851096
0.594,0.00233162,85370.9,-8527.55,77716.6,442422,49315.1,68511.2,849432
0.596,0.00234551,84774.2,-9008.67,79337.9,441882,51139.6,70829.5,845120
0.598,0.00235953,85912.5,-9242.41,79691.2,443288,54115.7,74486.8,839079
0.6,0.00237355,87050.8,-9476.15,80044.6,444694,57091.8,78144.2,833037
0.602,0.00238753,88470.6,-9534.88,79273.8,444077,60305.9,80907.6,821004
0.604,0.00240149,90024.5,-9510.28,77967.7,442498,63633.3,83245.4,806117
0.606,0.00241545,91578.4,-9485.68,76661.6,440918,66960.8,85583.3,791231
0.608,0.0024294,93132.2,-9461.08,75355.5,439339,70288.2,87921.1,776344
0.61,0.00244336,94686.1,-9436.48,74049.4,437760,73615.8,90259,761457
0.612,0.00245732,96240,-9411.88,72743.3,436180,76943.2,92596.8,746571
0.614,0.00247128,97793.9,-9387.28,71437.2,434601,80270.7,94934.7,731684
0.616,0.00248524,99347.7,-9362.68,70131.1,433021,83598.1,97272.5,716797
0.618,0.0024992,100902,-9338.08,68825,431442,86925.5,99610.3,701911
0.62,0.00251321,101349,-8729.44,66771.7,428414,90186.5,101521,692587
0.622,0.00252736,98017.6,-6126.63,62167.2,420442,93220.1,101972,702260
0.624,0.00254152,94686.3,-3523.73,57562.5,412469,96253.9,102424,711934
0.626,0.00255581,91411,-1689.28,53733.3,405817,96881.7,102998,714515
0.628,0.00257023,88192.2,-631.38,50687.6,400499,95077.8,103695,709930
0.63,0.00258466,84973.5,426.487,47642,395181,93274,104393,705344
0.632,0.00259908,81754.7,1484.39,44596.4,389862,91470.1,105090,700759
0.634,0.0026135,78536,2542.25,41550.8,384544,89666.3,105788,696173
0.636,0.00262801,75882.7,3160.84,39641.1,379321,87551.6,106241,691813
0.638,0.00264271,74628.2,2692.67,40541.6,374330,84668,106089,688008
0.64,0.00265742,73373.8,2224.52,41442.2,369340,81784.5,105937,684204
0.642,0.00267213,72119.3,1756.35,42342.7,364350,78900.9,105785,680399
0.644,0.00268684,70864.9,1288.2,43243.2,359360,76017.4,105634,676594
0.646,0.00270165,69898,1284.65,43120.7,356994,73595.4,104595,672619
0.648,0.00271663,69379.6,2005.49,41403.1,358719,71892.9,102174,668376
0.65,0.0027316,68861.1,2726.34,39685.4,360444,70190.5,99752.5,664134
0.652,0.00274658,68342.6,3447.2,37967.8,362169,68488,97331.2,659891
0.654,0.00276156,67824.1,4168.05,36250.2,363894,66785.5,94909.9,655649
0.656,0.00277653,67305.6,4888.91,34532.5,365619,65083.1,92488.5,651407
0.658,0.00279151,66787.2,5609.76,32814.9,367344,63380.6,90067.2,647164
0.66,0.00280649,66268.7,6330.63,31097.2,369069,61678.1,87645.8,642922
0.662,0.00282147,65750.2,7051.47,29379.6,370794,59975.7,85224.5,638679
0.664,0.00283644,65231.7,7772.31,27662,372519,58273.2,82803.2,634437
0.666,0.00285142,64713.2,8493.18,25944.4,374244,56570.8,80381.8,630195
0.668,0.0028664,64194.8,9214.03,24226.7,375969,54868.3,77960.5,625952
0.67,0.00288138,63676.3,9934.89,22509.1,377694,53165.8,75539.2,621710
0.672,0.00289636,63157.8,10655.7,20791.5,379419,51463.4,73117.9,617467
0.674,0.00291134,62639.3,11376.6,19073.8,381144,49760.9,70696.5,613225
0.676,0.00292632,62120.9,12097.4,17356.2,382869,48058.4,68275.2,608982
0.678,0.0029413,61602.4,12818.3,15638.6,384595,46356,65853.9,604740
0.68,0.00295628,61061.7,13581.7,13802.8,385806,44903.7,63112.8,600545
0.682,0.00297146,60066.2,15216.3,9545.35,376489,48581.4,53816.6,597319
0.684,0.00298663,59070.7,16851,5287.76,367172,52259.3,44520.1,594093
0.686,0.00300181,58075.2,18485.6,1030.3,357854,55937,35223.9,590868
0.688,0.00301698,57079.7,20120.3,-3227.3,348537,59614.9,25927.4,587642
0.69,0.00303216,56084.2,21754.9,-7484.76,339220,63292.6,16631.2,584416
0.692,0.00304733,55088.7,23389.5,-11742.2,329903,66970.3,7334.99,581191
0.694,0.00306251,54093.1,25024.2,-15999.8,320585,70648.2,-1961.5,577965
0.696,0.00307768,53097.6,26658.9,-20257.3,311268,74325.9,-11257.7,574739
0.698,0.00309296,52561.5,27356.8,-22475.4,304640,77316.8,-18353.6,568982
0.7,0.00310843,52983.5,26101.2,-20440.1,303619,78874.9,-20859.8,557945
0.702,0.0031239,53405.5,24845.5,-18404.7,302598,80433,-23366.1,546907
0.704,0.00313937,53827.5,23589.8,-16369.4,301578,81991,-25872.3,535870
0.706,0.00315484,54249.5,22334.1,-14334.1,300557,83549.1,-28378.6,524833
0.708,0.00317032,54671.5,21078.4,-12298.7,299537,85107.2,-30884.8,513796
0.71,0.00318579,55093.5,19822.8,-10263.4,298516,86665.2,-33391.1,502759
0.712,0.0032015,54469.8,21000.4,-11633.8,304964,86530.7,-36341.3,499103
0.714,0.00321743,52897.4,24385.9,-16094.4,318190,84860.4,-39694.3,502145
0.716,0.00323336,51324.8,27771.5,-20555.2,331415,83190,-43047.4,505187
0.718,0.00324928,49752.4,31157,-25015.8,344641,81519.7,-46400.4,508230
0.72,0.00326521,48179.8,34542.5,-29476.6,357866,79849.3,-49753.5,511272
0.722,0.00328114,46607.3,37928,-33937.2,371091,78178.9,-53106.5,514314
0.724,0.00329704,45822.8,42085.3,-36365.2,383407,77553.2,-55443.3,520174
0.726,0.00331287,46865.7,48032.5,-34079.2,393611,79349.9,-55423.2,532568
0.728,0.0033287,47908.5,53979.5,-31793.3,403816,81146.6,-55403.2,544962
0.73,0.00334452,48951.4,59926.8,-29507.3,414020,82943.4,-55383.2,557356
0.732,0.00336035,49994.2,65873.8,-27221.4,424225,84740,-55363.1,569750
0.734,0.00337618,51037,71821,-24935.4,434430,86536.8,-55343.1,582144
0.736,0.00339201,52079.8,77768,-22649.5,444634,88333.5,-55323,594538
0.738,0.00340783,53122.7,83715.1,-20363.6,454839,90130.2,-55303,606932
0.74,0.00342361,50466.9,79531.8,-24705.2,455445,88901.4,-61015.4,597535
0.742,0.00343938,47695.6,75032.3,-29253.7,455753,87578.1,-66906.7,587457
0.744,0.00345515,44924.3,70532.6,-33802.3,456060,86254.9,-72798.1,577379
0.746,0.00347092,42153,66033,-38350.7,456367,84931.6,-78689.4,567301
0.748,0.00348689,45646.3,64624.2,-36068.9,454413,85004.1,-72465.6,558892
0.75,0.00350288,49584.2,63434.7,-33302.3,452299,85175.7,-65382,550602
0.752,0.00351886,53522,62245.2,-30535.8,450185,85347.3,-58298.5,542312
0.754,0.00353484,57460,61055.7,-27769.2,448071,85518.9,-51214.7,534022
0.756,0.00355109,56958.6,56633.9,-27194.6,446093,85783.9,-45092.9,527452
0.758,0.00356737,56168.1,52001.4,-26762.9,444123,86054.9,-39033.5,520994
0.76,0.00358364,55377.7,47369.1,-26331.1,442154,86325.9,-32974.4,514536
0.762,0.00359998,54011.6,44231.7,-25554.4,439696,86387.7,-28117,512783
0.764,0.00361645,51604.2,43799.6,-24153.5,436352,86070.8,-25434.6,519545
0.766,0.00363293,49196.8,43367.6,-22752.7,433008,85753.9,-22752.2,526306
0.768,0.0036494,46789.3,42935.5,-21351.8,429665,85437,-20069.7,533068
0.77,0.00366587,44381.9,42503.5,-19951,426321,85120.1,-17387.3,539830
0.772,0.00368234,41974.4,42071.4,-18550.1,422978,84803.1,-14704.8,546592
0.774,0.00369878,40076.8,40907.4,-17237.2,417178,84290.8,-11428.9,553120
0.776,0.00371513,39200.3,38277,-16100.4,406456,83386.9,-6964.15,559183
0.778,0.00373149,38323.9,35646.7,-14963.6,395735,82483,-2499.5,565246
0.78,0.00374784,37447.5,33016.4,-13826.8,385014,81579.1,1965.15,571308
0.782,0.0037642,36571,30386.1,-12690,374293,80675.2,6429.94,577371
0.784,0.00378056,35694.6,27755.8,-11553.2,363572,79771.3,10894.6,583433
0.786,0.00379691,34818.2,25125.4,-10416.4,352851,78867.4,15359.4,589496
0.788,0.00381327,33941.8,22495.2,-9279.58,342130,77963.5,19824,595558
0.79,0.00382962,33065.3,19864.8,-8142.76,331408,77059.6,24288.8,601621
0.792,0.00384601,32523.6,17348.1,-7136.62,320576,76075.8,28787.4,606222
0.794,0.00386288,37074.9,16559,-8118.31,308051,73876.3,33802,588577
0.796,0.00387974,41626,15770,-9099.97,295526,71676.9,38816.6,570932
0.798,0.00389661,46177.1,14981,-10081.6,283001,69477.4,43831.1,553288
0.8,0.00391348,50728.4,14192,-11063.3,270475,67277.9,48845.7,535643
0.802,0.00393035,55279.5,13403,-12045,257950,65078.5,53860.3,517998
0.804,0.00394721,59830.7,12614,-13026.7,245425,62879,58874.9,500354
0.806,0.00396408,64381.9,11825,-14008.4,232900,60679.5,63889.4,482709
0.808,0.00398095,68933.1,11035.9,-14990,220375,58480,68904.1,465064
0.81,0.00399791,72481.6,10509.6,-15170.9,217042,57765.8,72686.9,456324
0.812,0.00401495,75216.5,10196.3,-14702.1,221168,58256.6,75470.2,454809
0.814,0.00403199,77951.5,9883.1,-14233.3,225295,58747.5,78253.6,453293
0.816,0.00404903,80686.5,9569.86,-13764.4,229421,59238.3,81037,451778
0.818,0.00406607,83421.5,9256.62,-13295.6,233548,59729.1,83820.4,450263
0.82,0.00408312,86156.4,8943.39,-12826.7,237674,60220,86603.7,448748
0.822,0.00410016,88891.5,8630.14,-12357.9,241801,60710.8,89387.1,447232
0.824,0.0041172,91626.4,8316.91,-11889,245927,61201.7,92170.5,445717
0.826,0.00413424,94361.3,8003.67,-11420.2,250054,61692.5,94953.8,444202
0.828,0.00415128,97096.3,7690.43,-10951.4,254180,62183.3,97737.2,442687
0.83,0.00416832,99831.3,7377.19,-10482.5,258307,62674.2,100521,441171
0.832,0.00418537,102566,7063.95,-10013.7,262433,63165,103304,439656
0.834,0.00420241,105301,6750.71,-9544.83,266560,63655.9,106087,438141
0.836,0.00421945,108036,6437.47,-9075.98,270686,64146.7,108871,436625
0.838,0.00423649,110771,6124.23,-8607.14,274813,64637.6,111654,435110
0.84,0.00425354,113506,5811,-8138.3,278939,65128.4,114437,433595
0.842,0.00427051,115103,6059.58,-7410.24,282662,66004.4,116963,432769
0.844,0.00428749,116605,6355.15,-6660.51,286351,66912.6,119466,432000
0.846,0.00430446,118107,6650.73,-5910.76,290041,67820.9,121970,431232
0.848,0.00432143,119609,6946.31,-5161.03,293730,68729.1,124474,430464
0.85,0.0043384,121111,7241.89,-4411.28,297419,69637.3,126978,429695
0.852,0.00435567,120838,6249.56,-2918.6,293664,69867.6,124651,430424
0.854,0.00437298,120202,4994.47,-1274.33,288390,69959.4,121339,431458
0.856,0.00439035,117349,4178.64,272.231,282155,70007.1,115735,432063
0.858,0.00440777,111188,4018.1,1672.94,274487,69988.8,106714,432028
0.86,0.0044252,105028,3857.57,3073.7,266820,69970.5,97692.2,431992
0.862,0.00444263,98867.2,3697.03,4474.41,259153,69952.3,88671,431957
0.864,0.00446005,92706.6,3536.5,5875.16,251485,69934,79649.5,431921
0.866,0.00447765,88830.8,3773.3,6678.08,249496,69967.8,74088.4,431301
0.868,0.00449535,86472.5,4273.99,7083.98,251278,70036.4,70825.1,430293
0.87,0.00451306,84114.1,4774.7,7489.9,253059,70104.9,67561.8,429285
0.872,0.00453077,81755.7,5275.39,7895.8,254841,70173.4,64298.5,428276
0.874,0.00454848,79397.3,5776.1,8301.72,256623,70242,61035.2,427268
0.876,0.00456618,77039,6276.79,8707.62,258405,70310.5,57772,426260
0.878,0.00458388,75241.4,7079.12,9480.38,261198,70301,55082.2,424700
0.88,0.00460158,73547.1,7936.88,10320.6,264177,70277.2,52498,423040
0.882,0.00461927,71852.7,8794.68,11160.8,267156,70253.5,49913.7,421379
0.884,0.00463696,70158.4,9652.44,12000.9,270135,70229.7,47329.4,419718
0.886,0.00465466,68464,10510.2,12841.1,273114,70205.9,44745.2,418057
0.888,0.00467235,66769.6,11368,13681.3,276093,70182.1,42160.9,416396
0.89,0.00469005,65075.3,12225.8,14521.5,279072,70158.3,39576.7,414735
0.892,0.00470774,63380.9,13083.6,15361.7,282052,70134.5,36992.4,413075
0.894,0.00472544,61686.5,13941.3,16201.9,285031,70110.7,34408.1,411414
0.896,0.00474314,59992.1,14799.1,17042.1,288010,70086.9,31823.8,409753
0.898,0.00476083,58297.8,15656.9,17882.3,290989,70063.1,29239.6,408092
0.9,0.00477852,56603.4,16514.6,18722.5,293968,70039.3,26655.4,406431
0.902,0.00479622,54909,17372.4,19562.7,296947,70015.5,24071.1,404770
0.904,0.00481415,50293.1,16601.5,19026.7,298002,72013.9,20887.7,409280
0.906,0.00483209,45432,15693.9,18375.3,298896,74181.9,17654.1,414307
0.908,0.00485004,40571,14786.4,17723.9,299790,76349.9,14420.5,419333
0.91,0.00486798,35709.9,13878.8,17072.5,300683,78517.9,11186.9,424360
0.912,0.00488593,30849,12971.3,16421.1,301577,80685.8,7953.32,429387
0.914,0.00490387,25988.1,12063.7,15769.7,302471,82853.7,4719.77,434414
0.916,0.00492182,21127,11156.2,15118.3,303364,85021.8,1486.12,439441
0.918,0.00493976,16266,10248.6,14466.9,304258,87189.7,-1747.44,444467
0.92,0.0049579,13462.6,10316.1,14006.8,304172,88932.9,-3701.24,448316
0.922,0.00497623,12870.5,11431.5,13752.2,303033,90219.4,-4279.56,450897
0.924,0.00499457,12278.3,12546.9,13497.6,301894,91506,-4857.9,453479
0.926,0.00501291,11686.2,13662.3,13243,300754,92792.6,-5436.22,456060
0.928,0.00503124,11094.1,14777.7,12988.4,299615,94079.2,-6014.55,458642
0.93,0.00504953,11885.6,15493.2,13138,293876,95411.9,-6376.27,455621
0.932,0.00506783,12732.4,16192.8,13303.7,287952,96746.5,-6729.32,452377
0.934,0.00508612,13579.2,16892.4,13469.5,282029,98081.1,-7082.39,449133
0.936,0.00510441,14426,17591.9,13635.3,276106,99415.6,-7435.44,445889
0.938,0.0051227,15272.8,18291.5,13801.1,270183,100750,-7788.51,442645
0.94,0.00514099,16119.6,18991,13966.9,264259,102085,-8141.56,439401
0.942,0.00515928,16966.3,19690.6,14132.6,258336,103419,-8494.62,436157
0.944,0.00517757,17813.2,20390.2,14298.4,252413,104754,-8847.68,432913
0.946,0.00519586,18659.9,21089.7,14464.2,246490,106088,-9200.74,429669
0.948,0.00521415,19506.7,21789.3,14630,240566,107423,-9553.8,426425
0.95,0.00523245,20353.5,22488.8,14795.7,234643,108758,-9906.86,423181
0.952,0.00525074,21200.3,23188.4,14961.5,228720,110092,-10259.9,419936
0.954,0.00526903,22047.1,23888,15127.3,222797,111427,-10613,416692
0.956,0.00528732,22893.9,24587.5,15293.1,216874,112761,-10966,413448
0.958,0.00530568,27998.3,27399.8,16130.5,220277,115482,-5706.3,415052
0.96,0.00532412,38500.6,32890.9,17819.5,235506,119960,6669.78,422803
0.962,0.0053427,54995.6,42385.2,20079.9,275784,126280,26931.6,451016
0.964,0.00536144,78637.2,56653.7,23021.6,345935,134796,56597.8,503633
0.966,0.00538012,95068.2,65315,24746.2,393167,140218,78423.1,537410
0.968,0.00539862,88403.8,56017.5,22572.8,366990,135730,75133.8,510844
0.97,0.00541712,81739.2,46719.7,20399.2,340811,131241,71844.4,484277
0.972,0.00543562,75074.9,37422.2,18225.7,314633,126753,68555.1,457712
0.974,0.00545412,68410.5,28124.6,16052.3,288455,122264,65265.8,431146
0.976,0.00547269,62151.9,21163.8,15171.9,271578,117727,63376.8,414200
0.978,0.00549128,55997.7,14803.1,14623.6,257089,113177,61847.3,399724
0.98,0.00551004,55145.5,14492.7,15194.3,255199,111243,63359.5,399831
0.982,0.00552881,54441.9,14352,15796.5,253662,109382,64956.9,400347
0.984,0.00554757,53738.3,14211.2,16398.6,252125,107522,66554.4,400863
0.986,0.00556634,53034.7,14070.5,17000.8,250587,105661,68151.8,401379
0.988,0.0055851,52331.1,13929.7,17602.9,249050,103801,69749.2,401895
0.99,0.00560387,51627.5,13789,18205,247513,101940,71346.7,402410
0.992,0.00562263,50923.9,13648.2,18807.2,245976,100080,72944.1,402926
0.994,0.0056414,50220.3,13507.4,19409.3,244439,98219.5,74541.5,403442
0.996,0.00566017,49516.7,13366.7,20011.5,242902,96359.1,76138.9,403958
0.998,0.00567893,48813.1,13225.9,20613.6,241365,94498.6,77736.4,404474
1,0.0056977,48109.5,13085.2,21215.7,239827,92638.2,79333.8,404989
1.002,0.00571646,47405.9,12944.4,21817.9,238290,90777.7,80931.2,405505
1.004,0.00573523,46702.3,12803.7,22420,236753,88917.3,82528.6,406021
1.006,0.00575399,45998.6,12662.9,23022.2,235216,87056.7,84126.1,406537
1.008,0.00577276,45295,12522.1,23624.3,233679,85196.3,85723.5,407053
1.01,0.00579152,44591.4,12381.4,24226.4,232142,83335.8,87320.9,407569
1.012,0.00581029,43887.8,12240.6,24828.6,230605,81475.4,88918.3,408084
1.014,0.00582906,43184.2,12099.9,25430.7,229067,79614.8,90515.8,408600
1.016,0.00584782,42480.6,11959.1,26032.9,227530,77754.4,92113.3,409116
1.018,0.00586659,41777,11818.4,26635,225993,75893.9,93710.7,409632
1.02,0.00588535,41073.4,11677.6,27237.1,224456,74033.5,95308.1,410148
1.022,0.00590412,40369.8,11536.9,27839.3,222919,72173.1,96905.5,410663
1.024,0.00592289,39562.8,11447.5,28489.9,221384,70347.5,98477.8,411334
1.026,0.00594158,40086.7,10697.2,28517.1,219820,68071.3,100375,410015
1.028,0.00596051,37861.1,9115.46,28305.6,217716,66211.2,95600.1,413091
1.03,0.00597958,35447.8,7699.56,29732.6,216014,65454.2,89252.9,415243
1.032,0.00599865,33034.4,6283.66,31159.6,214311,64697.1,82905.6,417395
1.034,0.00601772,30621,4867.67,32586.6,212608,63940,76558,419548
1.036,0.00603679,28207.7,3451.77,34013.6,210905,63182.9,70210.8,421700
1.038,0.00605586,25794.3,2035.87,35440.6,209203,62425.8,63863.5,423852
1.04,0.00607493,23381,619.964,36867.6,207500,61668.7,57516.3,426005
1.042,0.006094,20967.5,-796.023,38294.6,205797,60911.6,51168.6,428157
1.044,0.00611308,19520.9,-1625.46,40444.8,202639,60793.4,46626.4,428425
1.046,0.00613236,19580,-1055.62,41199.8,204828,62020.4,44706.4,421695
1.048,0.00615164,19632.7,-473.475,41866.3,207278,63254.9,42768.2,414842
1.05,0.00617092,19685.4,108.668,42532.8,209729,64489.4,40830.1,407990
1.052,0.0061902,19738.2,690.846,43199.3,212179,65724,38891.8,401137
1.054,0.00620948,19790.9,1272.99,43865.7,214630,66958.5,36953.6,394284
1.056,0.00622875,19843.6,1855.13,44532.2,217080,68193,35015.4,387431
1.058,0.00624803,19896.3,2437.28,45198.7,219531,69427.4,33077.3,380579
1.06,0.00626731,19949,3019.42,45865.2,221981,70661.9,31139.1,373726
1.062,0.00628659,20001.7,3601.6,46531.7,224432,71896.5,29200.8,366873
1.064,0.00630587,20054.5,4183.74,47198.2,226883,73131,27262.6,360020
1.066,0.00632515,20107.2,4765.89,47864.6,229333,74365.5,25324.5,353168
1.068,0.00634443,20159.9,5348.03,48531.1,231784,75600,23386.3,346315
1.07,0.00636372,20212.6,5930.21,49197.6,234234,76834.5,21448,339462
1.072,0.00638299,20265.3,6512.35,49864.1,236685,78069,19509.8,332609
1.074,0.0064023,20434.5,7611.17,49922.9,237598,78349.3,18269.6,323621
1.076,0.00642168,20934.1,10175.7,48257.9,234149,75922.4,19009.5,308576
1.078,0.00644107,21433.6,12740.2,46592.8,230699,73495.6,19749.3,293531
1.08,0.00646048,21388.8,15076.7,45408.9,226778,71174,19778.7,281064
1.082,0.00648006,19968,16049.8,45710.3,223092,69803.2,17617.4,280660
1.084,0.0064997,19482.3,16024.5,45661.8,222738,69460.6,15977,285616
1.086,0.00651935,18996.6,15999.3,45613.3,222384,69118.1,14336.6,290573
1.088,0.006539,18510.9,15974,45564.8,222030,68775.5,12696.2,295530
1.09,0.00655864,18025.1,15948.7,45516.3,221676,68432.9,11055.8,300486
1.092,0.00657829,17539.4,15923.4,45467.9,221322,68090.4,9415.39,305443
1.094,0.00659794,17053.7,15898.2,45419.4,220968,67747.8,7775.01,310400
1.096,0.00661759,16568,15872.9,45370.9,220614,67405.3,6134.63,315356
1.098,0.00663723,16082.3,15847.6,45322.4,220260,67062.7,4494.15,320313
1.1,0.00665688,15596.6,15822.4,45273.9,219906,66720.1,2853.76,325270
1.102,0.00667653,15110.8,15797.1,45225.4,219552,66377.5,1213.38,330226
1.104,0.00669618,14625.1,15771.8,45176.9,219198,66035,-427.004,335183
1.106,0.00671582,14139.4,15746.6,45128.4,218844,65692.4,-2067.39,340140
1.108,0.00673548,14837.5,15742.1,43976.1,217270,65136,-2668.04,342691
1.11,0.00675514,16025.7,15746.3,42366.8,215191,64491,-2838.1,344248
1.112,0.0067748,17213.9,15750.5,40757.5,213113,63846.1,-3008.17,345804
1.114,0.00679445,18402.1,15754.7,39148.2,211034,63201.1,-3178.23,347360
1.116,0.00681411,19590.4,15758.9,37538.9,208955,62556.1,-3348.31,348916
1.118,0.00683377,20778.6,15763,35929.6,206876,61911.1,-3518.37,350472
1.12,0.00685343,21966.9,15767.2,34320.3,204797,61266.2,-3688.44,352028
1.122,0.00687324,22854.2,17146,30938,202670,61176.7,-939.457,349021
1.124,0.00689307,23681.2,18801,27199.4,200533,61199,2396.18,345096
1.126,0.00691291,24508.2,20456.2,23460.6,198396,61221.2,5732.02,341172
1.128,0.00693274,25335.1,22111.2,19722,196258,61243.4,9067.66,337248
1.13,0.00695258,26162,23766.3,15983.4,194121,61265.6,12403.3,333323
1.132,0.00697241,26989,25421.3,12244.7,191984,61287.8,15738.9,329399
1.134,0.0069923,27364.4,26597.1,9920.78,189651,61630.7,18542.7,325837
1.136,0.00701228,27070.4,27062.6,9694.06,187028,62449.1,20558,322811
1.138,0.00703226,26776.5,27528.1,9467.34,184404,63267.4,22573.1,319785
1.14,0.00705222,26682.4,27314.8,9101.89,182301,62590.9,22478.5,314956
1.142,0.00707218,26624.1,26980,8711.59,180290,61646.8,22006.1,309804
1.144,0.00709213,26565.7,26645.2,8321.27,178280,60702.7,21533.6,304652
1.146,0.00711209,26507.4,26310.4,7930.98,176269,59758.6,21061.2,299501
1.148,0.00713204,26449.1,25975.7,7540.69,174259,58814.6,20588.8,294349
1.15,0.007152,26390.8,25640.9,7150.39,172248,57870.5,20116.4,289198
1.152,0.00717196,26332.4,25306.1,6760.1,170238,56926.4,19644,284046
1.154,0.00719191,26274.1,24971.3,6369.78,168227,55982.3,19171.6,278895
1.156,0.00721187,26215.8,24636.6,5979.48,166217,55038.2,18699.2,273743
1.158,0.00723183,26157.4,24301.8,5589.19,164206,54094.1,18226.8,268592
1.16,0.00725178,26099.1,23967,5198.89,162196,53150.1,17754.4,263440
1.162,0.00727174,26040.8,23632.2,4808.6,160186,52206,17282,258289
1.164,0.0072917,25982.5,23297.4,4418.28,158175,51261.8,16809.6,253137
1.166,0.00731165,25924.1,22962.7,4027.99,156165,50317.8,16337.2,247985
1.168,0.00733161,25679.5,22740.4,3558.09,154963,49292.5,15924.1,243496
1.17,0.00735158,24979.9,22793,2893.76,155738,48069,15655.6,240622
1.172,0.00737156,24280.2,22845.6,2229.39,156512,46845.5,15387.2,237749
1.174,0.00739153,23580.6,22898.3,1565.07,157287,45622,15118.7,234875
1.176,0.0074115,22881,22950.9,900.739,158061,44398.5,14850.3,232002
1.178,0.00743154,21310.8,22527.2,352.399,156854,43009.1,13209.3,228954
1.18,0.00745174,17718.8,20997.5,73.4043,151047,41234.6,8381.04,225503
1.182,0.00747195,14126.6,19467.6,-205.607,145239,39460,3552.46,222052
1.184,0.00749215,10534.6,17937.9,-484.601,139432,37685.4,-1275.84,218601
1.186,0.00751235,6942.58,16408.2,-763.596,133625,35910.9,-6104.13,215149
1.188,0.00753256,3350.58,14878.5,-1042.59,127817,34136.4,-10932.4,211698
1.19,0.00755282,3340.15,14730.8,-936.378,128609,34243.9,-10605.3,210965
1.192,0.0075731,4147.14,14898.6,-742.26,130905,34781,-9101.52,210852
1.194,0.00759338,4954.13,15066.4,-548.141,133202,35318.1,-7597.76,210739
1.196,0.00761365,5761.11,15234.2,-354.022,135499,35855.2,-6094.01,210627
1.198,0.00763393,6568.1,15402,-159.903,137796,36392.2,-4590.26,210514
1.2,0.00765421,7375.13,15569.8,34.2275,140093,36929.3,-3086.42,210401
1.202,0.00767449,8182.12,15737.6,228.346,142390,37466.4,-1582.67,210288
1.204,0.00769477,8989.11,15905.4,422.465,144687,38003.5,-78.9161,210175
1.206,0.00771504,9796.09,16073.2,616.584,146984,38540.6,1424.84,210063
1.208,0.00773532,10603.1,16241,810.703,149281,39077.6,2928.59,209950
1.21,0.0077556,11410.1,16408.8,1004.83,151578,39614.7,4432.43,209837
1.212,0.00777588,12217.1,16576.6,1198.95,153875,40151.8,5936.18,209724
1.214,0.00779616,13024.1,16744.3,1393.07,156172,40688.9,7439.93,209611
1.216,0.00781646,13745.8,17465.1,1756.45,159770,41256.6,9920.89,210951
1.218,0.0078368,14364.3,18856,2325.01,164945,41861.4,13586.5,214051
1.22,0.00785713,17899.2,20311.7,2923.87,171925,43211.9,18443.1,217512
1.222,0.00787747,23522.5,21813.8,3544.46,180198,45096.4,24152.7,221233
1.224,0.0078978,29145.9,23315.8,4165.04,188470,46980.8,29862.4,224953
1.226,0.00791814,34769.2,24817.9,4785.62,196742,48865.3,35572,228673
1.228,0.00793847,40392.8,26320.1,5406.24,205014,50749.8,41282,232394
1.23,0.00795881,46016.2,27822.1,6026.82,213287,52634.3,46991.6,236114
1.232,0.00797922,50762.7,28651.4,5974.82,217717,54138.5,51082,236973
1.234,0.00799977,53865,28218.8,4661.49,214943,54929.6,52135.7,232466
1.236,0.00802032,54875.5,27678.1,3736.13,211153,55395,52513.5,230228
1.238,0.00804085,53586.1,27018.5,3237.32,206247,55502.4,52148.2,230484
1.24,0.00806138,52296.7,26358.9,2738.54,201341,55609.8,51783,230740
1.242,0.00808191,51007.3,25699.3,2239.76,196435,55717.1,51417.7,230995
1.244,0.00810244,49717.9,25039.7,1740.98,191529,55824.5,51052.5,231251
1.246,0.00812297,48428.5,24380.1,1242.17,186623,55931.9,50687.2,231507
1.248,0.00814349,47139.1,23720.5,743.393,181717,56039.3,50322,231763
1.25,0.00816402,45849.7,23060.9,244.613,176812,56146.6,49956.7,232019
1.252,0.00818455,44560.4,22401.3,-254.167,171906,56254,49591.5,232274
1.254,0.00820508,43271,21741.7,-752.946,167000,56361.4,49226.2,232530
1.256,0.00822561,41981.5,21082,-1251.76,162094,56468.7,48861,232786
1.258,0.00824614,40692.1,20422.4,-1750.54,157188,56576.1,48495.7,233042
1.26,0.0082667,40348,19888.8,-2159.98,153990,56334.8,48482.8,236326
1.262,0.00828727,40315.1,19396.7,-2540,151355,55978.6,48585.9,240607
1.264,0.00830784,40282.3,18904.6,-2920.04,148719,55622.3,48689,244888
1.266,0.00832841,40249.4,18412.5,-3300.06,146084,55266.1,48792.1,249169
1.268,0.00834897,40216.6,17920.4,-3680.08,143448,54909.9,48895.3,253450
1.27,0.00836954,40183.7,17428.3,-4060.1,140813,54553.7,48998.4,257731
1.272,0.00839011,40150.9,16936.2,-4440.12,138177,54197.5,49101.5,262012
1.274,0.00841068,40118,16444.1,-4820.16,135542,53841.3,49204.6,266294
1.276,0.0084314,40540,15605.5,-5054.94,135781,51897.1,50065.6,270069
1.278,0.00845214,41037.1,14709.5,-5265.71,136495,49690.4,51051.8,273760
1.28,0.00847288,41534.1,13813.6,-5476.48,137209,47483.8,52038,277451
1.282,0.00849362,42031.2,12917.7,-5687.25,137923,45277.1,53024.3,281143
1.284,0.00851436,42528.3,12021.7,-5898.04,138637,43070.3,54010.6,284834
1.286,0.0085351,43025.4,11125.8,-6108.81,139351,40863.7,54996.8,288526
1.288,0.00855584,43522.5,10229.8,-6319.58,140065,38657,55983,292217
1.29,0.00857658,44019.6,9333.91,-6530.36,140780,36450.4,56969.2,295909
1.292,0.00859741,44416.7,9269.06,-6740.95,141367,35490.4,57195.8,295517
1.294,0.00861827,44784.4,9448.77,-6951.47,141916,34897.4,57198.7,293924
1.296,0.00863915,44334.1,9867.39,-6374.3,140610,34285.9,55645.2,292391
1.298,0.00866004,43815.4,10306,-5731.23,139148,33672.9,53961.4,290862
1.3,0.00868093,43296.6,10744.6,-5088.15,137686,33059.9,52277.7,289333
1.302,0.00870182,42777.9,11183.3,-4445.03,136225,32446.9,50593.8,287804
1.304,0.00872271,42259.2,11621.9,-3801.96,134763,31833.9,48910,286275
1.306,0.0087436,41740.5,12060.5,-3158.88,133301,31220.9,47226.3,284746
1.308,0.00876448,41221.7,12499.1,-2515.8,131839,30607.9,45542.5,283217
1.31,0.00878537,40703,12937.7,-1872.73,130378,29994.9,43858.7,281688
1.312,0.00880626,40184.3,13376.4,-1229.61,128916,29381.8,42174.9,280159
1.314,0.00882715,39665.6,13815,-586.535,127454,28768.8,40491.1,278630
1.316,0.00884804,39146.8,14253.6,56.5416,125992,28155.8,38807.3,277101
1.318,0.00886893,38628.1,14692.2,699.618,124531,27542.8,37123.6,275572
1.32,0.00888982,38109.4,15130.9,1342.73,123069,26929.8,35439.7,274043
1.322,0.0089107,37697.7,15598.1,1912.71,122534,26489.8,34077.3,271239
1.324,0.00893156,37607,16151,2263.57,124779,26568.6,33678.1,264613
1.326,0.00895243,37516.3,16704,2614.44,127023,26647.3,33279,257988
1.328,0.00897329,37425.6,17256.9,2965.3,129267,26726.1,32879.8,251363
1.33,0.00899415,37334.9,17809.9,3316.18,131511,26804.9,32480.6,244737
1.332,0.00901501,37244.2,18362.8,3667.05,133755,26883.6,32081.4,238112
1.334,0.00903588,37153.5,18915.8,4017.91,136000,26962.4,31682.3,231487
1.336,0.00905674,37062.8,19468.7,4368.77,138244,27041.1,31283.1,224861
1.338,0.0090776,36972,20021.7,4719.66,140488,27119.9,30883.9,218236
1.34,0.00909847,36881.3,20574.6,5070.52,142732,27198.6,30484.8,211610
1.342,0.00911938,36547.4,20671.8,5550.86,141173,27591.5,30075,205570
1.344,0.00914038,35833,20056,6233.79,133662,28475.8,29648.5,200445
1.346,0.00916138,35118.6,19440.1,6916.72,126151,29360.1,29222.1,195321
1.348,0.00918238,34404.2,18824.2,7599.69,118640,30244.4,28795.7,190196
1.35,0.00920338,33689.7,18208.3,8282.63,111129,31128.7,28369.3,185071
1.352,0.00922438,32975.3,17592.4,8965.56,103618,32013,27942.8,179946
1.354,0.00924538,32260.9,16976.5,9648.49,96106.6,32897.3,27516.4,174821
1.356,0.00926637,31546.5,16360.7,10331.4,88595.6,33781.6,27090,169697
1.358,0.00928738,30832.1,15744.7,11014.4,81084.1,34665.9,26663.6,164571
1.36,0.00930844,30357.7,15377.4,11761.8,77097.9,35722.7,27533.2,165682
1.362,0.00932956,30031,15162.7,12548.7,75277.6,36885.4,29199.2,170624
1.364,0.00935067,29704.2,14948,13335.7,73457.4,38048.1,30865.2,175566
1.366,0.0093718,29361.7,14791,13892.9,72156.3,39025.4,31849.7,178704
1.368,0.00939296,28988.4,14748.1,13996.5,71880,39636.4,31489,178282
1.37,0.00941412,28615.1,14705.2,14100.1,71603.8,40247.4,31128.2,177859
1.372,0.00943528,28241.7,14662.3,14203.7,71327.6,40858.4,30767.5,177436
1.374,0.00945643,27868.4,14619.4,14307.3,71051.3,41469.4,30406.8,177014
1.376,0.00947759,27495,14576.5,14410.9,70775.1,42080.5,30046,176591
1.378,0.00949875,27121.7,14533.6,14514.5,70498.9,42691.5,29685.3,176168
1.38,0.00951991,26748.3,14490.7,14618.1,70222.6,43302.5,29324.5,175746
1.382,0.00954107,26375,14447.8,14721.7,69946.4,43913.5,28963.8,175323
1.384,0.00956223,26001.7,14404.9,14825.3,69670.2,44524.5,28603.1,174901
1.386,0.00958338,25628.3,14362,14928.9,69393.9,45135.6,28242.3,174478
1.388,0.00960454,25255,14319.1,15032.5,69117.7,45746.6,27881.6,174055
1.39,0.0096257,24881.6,14276.2,15136,68841.4,46357.6,27520.8,173633
1.392,0.00964686,24508.3,14233.3,15239.6,68565.2,46968.6,27160.1,173210
1.394,0.00966803,24244,14183.4,15254.7,68537,47489.2,26760.7,172475
1.396,0.00968932,24886.9,14075.2,14532.9,70572.8,47257.1,26039.7,169142
1.398,0.00971061,25529.8,13967,13811.1,72608.6,47025,25318.6,165808
1.4,0.0097319,26172.7,13858.7,13089.3,74644.5,46792.9,24597.6,162475
1.402,0.00975322,27006.4,14441.4,11308.4,80872.7,46481,25513.4,166779
1.404,0.00977456,27866,15117.3,9384.69,87666.4,46158.3,26649.9,172113
1.406,0.00979589,28725.4,15793.1,7461.05,94459.7,45835.7,27786.3,177447
1.408,0.00981722,29584.9,16468.9,5537.41,101253,45513,28922.7,182781
1.41,0.00983855,30444.4,17144.7,3613.77,108046,45190.4,30059.2,188114
1.412,0.00985989,31303.9,17820.5,1690.13,114840,44867.8,31195.6,193448
1.414,0.00988122,32163.4,18496.4,-233.626,121633,44545.1,32332.1,198782
1.416,0.00990261,32448.7,18777.8,-1331.51,124240,44082.3,32855.8,201035
1.418,0.00992406,32274.4,18743.5,-1768.49,123497,43507.3,32889.2,200823
1.42,0.0099455,32100.2,18709.3,-2205.48,122753,42932.4,32922.5,200611
1.422,0.00996694,31925.9,18675,-2642.49,122010,42357.4,32955.9,200399
1.424,0.00998839,31751.6,18640.8,-3079.48,121266,41782.4,32989.3,200186
1.426,0.0100098,31577.4,18606.5,-3516.46,120522,41207.4,33022.7,199974
1.428,0.0100313,31339.8,18578.6,-3931.14,119269,40505.5,32964.7,199183
1.43,0.0100527,30938.8,18567.1,-4288.18,116697,39475.6,32671,196897
1.432,0.0100741,30537.7,18555.5,-4645.25,114126,38445.7,32377.2,194611
1.434,0.0100955,30136.7,18544,-5002.3,111555,37415.8,32083.4,192324
1.436,0.0101169,29735.7,18532.5,-5359.34,108983,36386,31789.7,190038
1.438,0.0101384,29334.6,18520.9,-5716.39,106412,35356.1,31495.9,187752
1.44,0.0101598,28933.6,18509.4,-6073.46,103841,34326.2,31202.2,185466
1.442,0.0101812,28532.5,18497.9,-6430.51,101270,33296.3,30908.4,183180
1.444,0.0102026,28135.3,18500,-6769.28,98928.4,32300.6,30607.3,180986
1.446,0.010224,27789.6,18688.6,-6857.45,99742.7,31773.3,30204.7,180054
1.448,0.0102454,27443.9,18877.2,-6945.61,100557,31246,29802.1,179121
1.45,0.0102668,27098.2,19065.8,-7033.79,101371,30718.7,29399.6,178189
1.452,0.0102883,26752.5,19254.4,-7121.95,102186,30191.4,28997,177257
1.454,0.0103097,26406.8,19443,-7210.12,103000,29664.1,28594.4,176325
1.456,0.0103311,26061.1,19631.6,-7298.29,103814,29136.8,28191.9,175393
1.458,0.0103525,25715.5,19820.2,-7386.46,104628,28609.6,27789.3,174461
1.46,0.0103739,25369.8,20008.8,-7474.63,105443,28082.2,27386.7,173528
1.462,0.0103953,25024.1,20197.4,-7562.8,106257,27554.9,26984.1,172596
1.464,0.0104167,24678.4,20386,-7650.97,107071,27027.6,26581.6,171664
1.466,0.0104381,24332.7,20574.6,-7739.13,107886,26500.4,26179,170732
1.468,0.0104595,23987,20763.2,-7827.31,108700,25973,25776.4,169800
1.47,0.0104809,23641.3,20951.8,-7915.47,109514,25445.7,25373.9,168868
1.472,0.0105024,23295.6,21140.4,-8003.64,110329,24918.4,24971.3,167936
1.474,0.0105238,22950,21329,-8091.81,111143,24391.2,24568.7,167003
1.476,0.0105452,22604.3,21517.6,-8179.98,111957,23863.9,24166.2,166071
1.478,0.0105666,22258.6,21706.2,-8268.15,112772,23336.5,23763.6,165139
1.48,0.0105881,21768,21393.6,-7477.74,110899,23739.3,22533.1,163353
1.482,0.0106096,21173.3,20720.7,-6055.96,107096,24810.5,20707.7,160952
1.484,0.0106312,20578.5,20047.9,-4634.18,103293,25881.6,18882.3,158552
1.486,0.0106527,19983.8,19375,-3212.4,99490.2,26952.8,17056.9,156152
1.488,0.0106742,19389.1,18702.1,-1790.53,95686.9,28024,15231.4,153751
1.49,0.0106958,18794.3,18029.2,-368.748,91883.9,29095.2,13405.9,151351
1.492,0.0107173,18199.6,17356.4,1053.03,88080.9,30166.3,11580.5,148951
1.494,0.0107389,17604.9,16683.5,2474.82,84277.9,31237.5,9755.11,146550
1.496,0.0107605,17286.3,16511.7,3921.92,83566.3,31722.8,8357.78,146821
1.498,0.0107821,17142.6,16657.4,5384.93,84812.9,31837,7231.76,148783
1.5,0.0108037,16999,16803.1,6847.94,86059.6,31951.1,6105.75,150746
1.502,0.0108253,16855.3,16948.8,8310.94,87306.3,32065.3,4979.73,152708
1.504,0.0108469,16725.3,17111.5,9689.72,88566.5,32147.6,3906.92,154385
1.506,0.0108687,16852.7,17593.5,9480.9,90081.3,31629.6,3837,150689
1.508,0.0108904,16980.1,18075.4,9272.09,91596.1,31111.6,3767.09,146993
1.51,0.0109121,17107.5,18557.4,9063.28,93110.8,30593.6,3697.17,143297
1.512,0.0109339,17234.9,19039.4,8854.47,94625.5,30075.6,3627.26,139601
1.514,0.0109556,17362.3,19521.4,8645.65,96140.4,29557.6,3557.34,135904
1.516,0.0109773,17838.9,19659.8,8314.58,95203.7,29136.9,4408.06,133545
1.518,0.010999,18382.2,19732.6,7960.19,93799.2,28734.7,5434.48,131441
1.52,0.0110207,18925.5,19805.4,7605.8,92394.7,28332.5,6460.9,129336
1.522,0.0110423,19468.7,19878.2,7251.4,90990.3,27930.4,7487.32,127232
1.524,0.011064,20012.1,19951,6896.99,89585.7,27528.2,8513.8,125127
1.526,0.0110857,20555.3,20023.8,6542.6,88181.2,27126,9540.22,123023
1.528,0.0111074,21098.6,20096.6,6188.2,86776.7,26723.8,10566.6,120919
1.53,0.0111291,21641.9,20169.3,5833.81,85372.2,26321.7,11593.1,118814
1.532,0.0111508,22167.3,20253.5,5494.49,84095.6,25918.7,12524.3,116808
1.534,0.0111725,22414.1,20514.3,5390.27,84814.6,25503.6,11970.7,116340
1.536,0.0111941,22660.9,20775.1,5286.05,85533.6,25088.5,11417.1,115872
1.538,0.0112158,22907.6,21035.9,5181.84,86252.6,24673.4,10863.5,115405
1.54,0.0112375,23154.4,21296.8,5077.62,86971.6,24258.3,10309.9,114937
1.542,0.0112591,23401.2,21557.6,4973.4,87690.6,23843.2,9756.28,114469
1.544,0.0112808,23647.9,21818.4,4869.19,88409.6,23428.1,9202.69,114001
1.546,0.0113024,23894.7,22079.2,4764.97,89128.5,23013,8649.1,113533
1.548,0.0113241,24141.5,22340,4660.76,89847.5,22597.9,8095.51,113065
1.55,0.0113458,24388.3,22600.9,4556.54,90566.5,22182.8,7541.92,112597
1.552,0.0113674,24635,22861.7,4452.32,91285.5,21767.6,6988.29,112129
1.554,0.0113892,24637.9,22892.1,4692.33,91249.4,21734.5,7321.33,112279
1.556,0.0114109,24497.5,22787.1,5134.49,90769.7,21925.6,8175.11,112793
1.558,0.0114327,24357.1,22682.2,5576.66,90290.1,22116.7,9028.88,113307
1.56,0.0114545,24216.7,22577.3,6018.82,89810.5,22307.8,9882.66,113821
1.562,0.0114763,24076.2,22472.3,6461.02,89330.8,22499,10736.5,114335
1.564,0.0114981,23935.8,22367.4,6903.18,88851.2,22690.1,11590.3,114849
1.566,0.0115199,23795.4,22262.4,7345.35,88371.6,22881.2,12444,115362
1.568,0.0115416,23655,22157.5,7787.52,87891.9,23072.3,13297.8,115876
1.57,0.0115634,23514.6,22052.5,8229.71,87412.3,23263.4,14151.6,116390
1.572,0.0115852,23374.2,21947.6,8671.87,86932.6,23454.6,15005.4,116904
1.574,0.011607,23233.8,21842.7,9114.04,86453,23645.7,15859.2,117418
1.576,0.0116288,23821.1,21935.9,10022.8,86722,23742.7,16402.2,118035
1.578,0.0116506,25025.7,22197.2,11327.3,87625.9,23759.8,16681.5,118740
1.58,0.0116725,26230.3,22458.6,12631.9,88529.9,23776.9,16960.9,119445
1.582,0.0116943,27434.9,22719.9,13936.5,89433.9,23794,17240.2,120150
1.584,0.0117162,28639.5,22981.2,15241,90337.8,23811.1,17519.6,120855
1.586,0.011738,29844.1,23242.6,16545.5,91241.7,23828.2,17798.9,121560
1.588,0.0117599,31048.7,23503.9,17850.1,92145.7,23845.3,18078.3,122265
1.59,0.0117817,32253.3,23765.3,19154.7,93049.7,23862.4,18357.6,122970
1.592,0.0118036,33457.9,24026.6,20459.2,93953.6,23879.5,18637,123675
1.594,0.0118254,33702.8,23954,20427.4,93618.5,23955.9,19031.8,124040
1.596,0.0118473,33742.4,23810,20109.7,93018.1,24044.9,19451.4,124333
1.598,0.0118692,33782,23665.9,19792,92417.7,24134,19871,124625
1.6,0.0118911,33821.6,23521.9,19474.2,91817.4,24223.1,20290.5,124918
1.602,0.011913,33861.2,23377.8,19156.5,91217,24312.1,20710.1,125211
1.604,0.0119348,33900.8,23233.8,18838.8,90616.7,24401.2,21129.6,125503
1.606,0.0119567,33688.7,23243.1,18321.4,88097.6,24120.2,20937.9,123811
1.608,0.0119787,33309.1,23354.5,17671.2,84300.9,23592.7,20339.2,120796
1.61,0.0120006,32929.6,23466,17020.9,80504.5,23065.4,19740.5,117782
1.612,0.0120225,32550,23577.4,16370.7,76708,22538,19141.8,114768
1.614,0.0120444,32170.5,23688.8,15720.4,72911.6,22010.6,18543.2,111754
1.616,0.0120663,31790.9,23800.2,15070.1,69114.9,21483.1,17944.5,108739
1.618,0.0120883,31411.3,23911.6,14419.9,65318.5,20955.8,17345.8,105725
1.62,0.0121102,31031.8,24023.1,13769.6,61522,20428.4,16747.1,102711
1.622,0.0121321,30992,24046.6,13244.5,59560.7,20145.4,16510.5,100942
1.624,0.012154,31336.7,23970.7,12861,59675.7,20139.1,16683.5,100582
1.626,0.012176,31681.5,23894.9,12477.4,59790.8,20132.7,16856.6,100222
1.628,0.0121979,32026.2,23819,12093.9,59905.8,20126.4,17029.7,99862.5
1.63,0.0122198,32370.9,23743.2,11710.3,60020.8,20120.1,17202.7,99502.7
1.632,0.0122418,32715.6,23667.3,11326.8,60135.9,20113.7,17375.8,99142.9
1.634,0.0122637,33060.3,23591.4,10943.2,60250.9,20107.4,17548.8,98783.1
1.636,0.0122856,33405.1,23515.6,10559.6,60365.9,20101,17721.9,98423.3
1.638,0.0123075,33749.8,23439.7,10176.1,60481,20094.7,17894.9,98063.5
1.64,0.0123295,34094.5,23363.8,9792.54,60596,20088.3,18068,97703.8
1.642,0.0123514,34439.2,23288,9409,60711,20082,18241,97344
1.644,0.0123733,34784,23212.1,9025.42,60826.1,20075.7,18414.1,96984.2
1.646,0.0123953,35128.7,23136.3,8641.88,60941.1,20069.3,18587.1,96624.4
1.648,0.0124172,35473.4,23060.4,8258.33,61056.2,20063,18760.2,96264.6
1.65,0.0124391,35818.1,22984.5,7874.78,61171.2,20056.6,18933.2,95904.9
1.652,0.012461,36162.8,22908.7,7491.23,61286.2,20050.3,19106.3,95545.1
1.654,0.012483,36507.6,22832.8,7107.66,61401.3,20043.9,19279.3,95185.3
1.656,0.012505,37120.2,22955.2,6652.34,62024.3,20078.5,19644.9,94905.2
1.658,0.012527,38054.5,22717.3,5587.5,61434.2,20348.4,19960.4,93893.3
1.66,0.012549,38007,22034.7,4671.97,59412.9,20531.7,19293.1,92188.5
1.662,0.0125711,37959.6,21352,3756.44,57391.7,20714.9,18625.8,90483.7
1.664,0.0125931,37912.1,20669.3,2840.85,55370.3,20898.2,17958.5,88778.8
1.666,0.0126151,37864.7,19986.7,1925.32,53349.1,21081.5,17291.3,87074
1.668,0.0126372,37817.3,19304,1009.78,51327.9,21264.7,16624,85369.2
1.67,0.0126592,37769.8,18621.4,94.2478,49306.6,21447.9,15956.7,83664.4
1.672,0.0126812,37722.4,17938.7,-821.34,47285.3,21631.2,15289.4,81959.5
1.674,0.0127033,37674.9,17256.1,-1736.87,45264,21814.5,14622.2,80254.7
1.676,0.0127253,35877.9,15780.9,-2386.35,40692.6,21843.3,12203.7,77315
1.678,0.0127473,35756.7,15358.2,-2600.1,39599.4,21984.1,12050.5,78613.1
1.68,0.0127694,35703.7,14972.3,-2810.08,38626.9,22130.2,11977.5,80021.9
1.682,0.0127914,35650.7,14586.5,-3020.08,37654.2,22276.4,11904.6,81430.8
1.684,0.0128134,35597.7,14200.7,-3230.06,36681.7,22422.5,11831.7,82839.6
1.686,0.0128355,35544.7,13814.8,-3440.05,35709.1,22568.6,11758.8,84248.4
1.688,0.0128575,35434.5,13394.7,-3666.75,34783.1,22673.7,11694.1,85788.3
1.69,0.0128795,35292.8,12955.4,-3902.74,33882.8,22756.1,11634,87400.9
1.692,0.0129015,35151,12516.2,-4138.71,32982.5,22838.4,11573.9,89013.4
1.694,0.0129236,35009.2,12077,-4374.68,32082.3,22920.8,11513.8,90625.9
1.696,0.0129456,34867.5,11637.8,-4610.65,31182.1,23003.2,11453.7,92238.4
1.698,0.0129676,34725.7,11198.6,-4846.62,30281.8,23085.5,11393.6,93850.8
1.7,0.0129896,34584,10759.4,-5082.6,29381.5,23167.9,11333.5,95463.4
1.702,0.0130117,34442.2,10320.2,-5318.57,28481.3,23250.3,11273.4,97075.9
1.704,0.0130337,34300.4,9881.03,-5554.54,27581.1,23332.6,11213.3,98688.4
1.706,0.0130557,34158.7,9441.83,-5790.51,26680.8,23415,11153.2,100301
1.708,0.0130777,34181,9113.59,-6004.07,26020.4,23526.1,11060.1,101775
1.71,0.0130998,35010.6,9331.33,-6107.36,26540.2,23778.7,10804.3,102565
1.712,0.0131219,35966.8,9637.19,-6185.01,27187.6,23998.2,10648.2,103466
1.714,0.013144,37575,10396.9,-6130.61,28491.8,24047,11005.5,104937
1.716,0.0131661,39183.2,11156.6,-6076.21,29795.9,24095.8,11362.8,106408
1.718,0.0131882,40791.4,11916.3,-6021.81,31100.1,24144.6,11720.2,107880
1.72,0.0132104,42399.6,12676,-5967.42,32404.3,24193.4,12077.5,109351
1.722,0.0132325,44007.8,13435.7,-5913.02,33708.5,24242.3,12434.8,110822
1.724,0.0132546,45616,14195.5,-5858.62,35012.6,24291.1,12792.1,112293
1.726,0.0132767,47043.2,14899.5,-5816.35,36254.2,24326.4,13081.7,113524
1.728,0.0132989,46515.4,15002.2,-5905.09,36819.3,24216.1,12639.3,112160
1.73,0.013321,45987.5,15105,-5993.83,37384.4,24105.7,12197.1,110795
1.732,0.0133431,45459.7,15207.7,-6082.56,37949.6,23995.4,11754.8,109431
1.734,0.0133652,44931.9,15310.5,-6171.3,38514.7,23885.1,11312.5,108067
1.736,0.0133873,44404.1,15413.2,-6260.03,39079.8,23774.7,10870.2,106702
1.738,0.0134094,43876.3,15516,-6348.77,39645,23664.4,10427.8,105338
1.74,0.0134315,43348.4,15618.7,-6437.51,40210.1,23554.1,9985.54,103974
1.742,0.0134536,42820.6,15721.5,-6526.24,40775.2,23443.7,9543.25,102609
1.744,0.0134758,42292.8,15824.2,-6614.98,41340.3,23333.4,9100.95,101245
1.746,0.0134979,41765,15927,-6703.72,41905.5,23223.1,8658.63,99880.4
1.748,0.01352,41237.2,16029.7,-6792.45,42470.6,23112.8,8216.33,98516.1
1.75,0.0135421,40709.4,16132.5,-6881.19,43035.7,23002.4,7774.04,97151.7
1.752,0.0135642,40181.5,16235.2,-6969.92,43600.9,22892.1,7331.74,95787.3
1.754,0.0135863,39653.7,16338,-7058.66,44166,22781.8,6889.44,94423
1.756,0.0136084,39125.9,16440.7,-7147.4,44731.1,22671.4,6447.12,93058.5
1.758,0.0136305,38612.9,16535.2,-7229.42,45251.1,22555.8,6031.47,91702.3
1.76,0.0136526,38553.3,16377.8,-7105.78,44388,22279.4,6431.43,90596
1.762,0.0136748,38403.2,16318.6,-6912.29,43506.3,21904.7,6754.69,89633
1.764,0.0136969,38127.9,16394.8,-6622.29,42598.6,21394.2,6972.04,88867.9
1.766,0.0137191,37852.7,16471,-6332.32,41691.1,20883.7,7189.38,88102.7
1.768,0.0137412,37577.6,16547.2,-6042.35,40783.5,20373.3,7406.71,87337.6
1.77,0.0137634,37302.4,16623.4,-5752.38,39875.9,19862.8,7624.05,86572.5
1.772,0.0137856,37027.2,16699.6,-5462.4,38968.4,19352.3,7841.39,85807.4
1.774,0.0138077,36751.9,16775.8,-5172.41,38060.8,18841.9,8058.74,85042.2
1.776,0.0138299,37131.7,17268.7,-4962.04,38432.6,18512.5,8416.46,84471.6
1.778,0.013852,37649,17849.1,-4768.39,39073.1,18221.1,8803.66,83941.9
1.78,0.0138742,38166.3,18429.6,-4574.73,39713.5,17929.7,9190.86,83412.2
1.782,0.0138963,38683.7,19010,-4381.07,40354,17638.3,9578.05,82882.5
1.784,0.0139185,39151.8,19524.5,-4171.4,40973.5,17329.5,9944.66,82292.5
1.786,0.0139407,39455.6,19818.7,-3908.33,41522.9,16962.5,10242.5,81501.4
1.788,0.0139628,39759.5,20112.9,-3645.27,42072.4,16595.5,10540.3,80710.4
1.79,0.013985,40063.4,20407.2,-3382.21,42621.8,16228.5,10838.2,79919.3
1.792,0.0140072,40367.3,20701.4,-3119.13,43171.2,15861.5,11136,79128.2
1.794,0.0140293,40671.2,20995.7,-2856.07,43720.7,15494.5,11433.9,78337.2
1.796,0.0140515,40975,21289.9,-2593,44270.1,15127.5,11731.7,77546.1
1.798,0.0140736,41278.9,21584.1,-2329.94,44819.5,14760.5,12029.5,76755.1
1.8,0.0140958,41582.8,21878.4,-2066.88,45368.9,14393.5,12327.4,75964
1.802,0.014118,41886.7,22172.6,-1803.8,45918.4,14026.4,12625.2,75172.9
1.804,0.0141401,42190.6,22466.9,-1540.74,46467.8,13659.5,12923.1,74381.9
1.806,0.0141623,42494.4,22761.1,-1277.68,47017.2,13292.5,13220.9,73590.8
1.808,0.0141845,43093.4,22788.4,-1091.46,46269.3,12880.5,13177.4,72888
1.81,0.0142067,44028.6,22511.7,-992.74,44043.9,12417.3,12745.3,72285.6
1.812,0.0142289,44963.7,22234.9,-894.018,41818.3,11954.2,12313.1,71683.2
1.814,0.0142511,45898.8,21958.2,-795.302,39592.9,11491,11881,71080.8
1.816,0.0142733,46833.9,21681.5,-696.587,37367.6,11027.9,11448.9,70478.4
1.818,0.0142955,47769,21404.7,-597.871,35142.2,10564.7,11016.7,69876
1.82,0.0143178,48704.2,21128,-499.15,32916.6,10101.5,10584.6,69273.5
1.822,0.01434,49639.3,20851.2,-400.434,30691.2,9638.4,10152.5,68671.1
1.824,0.0143622,50395.5,20602.6,-310.906,28843.6,9272.84,9836.49,68183.9
1.826,0.0143844,50209.8,20501.7,-269.759,28985.3,9421.18,10132.1,68302.8
1.828,0.0144066,50024.2,20400.8,-228.612,29126.9,9569.51,10427.7,68421.8
1.83,0.0144288,49838.5,20299.9,-187.463,29268.5,9717.85,10723.4,68540.7
1.832,0.014451,49652.8,20199,-146.316,29410.1,9866.18,11019,68659.7
1.834,0.0144732,49467.1,20098.2,-105.169,29551.7,10014.5,11314.6,68778.6
1.836,0.0144954,49281.4,19997.3,-64.0216,29693.4,10162.8,11610.2,68897.5
1.838,0.0145176,49095.7,19896.4,-22.8721,29835,10311.2,11905.8,69016.5
1.84,0.0145398,48910,19795.5,18.275,29976.6,10459.5,12201.5,69135.4
1.842,0.014562,48577.5,19620.1,79.3373,30291.7,10701.1,12516.8,69318.7
1.844,0.0145842,47487.4,19060.2,243.178,31501.6,11424,12933.7,69833.6
1.846,0.0146064,46397.2,18500.3,407.019,32711.6,12146.9,13350.7,70348.5
1.848,0.0146286,45307,17940.3,570.869,33921.7,12869.8,13767.6,70863.5
1.85,0.0146508,44216.9,17380.4,734.71,35131.7,13592.7,14184.6,71378.4
1.852,0.014673,44162.9,16942.5,658.833,35116.4,13839.9,14404,71151.1
1.854,0.0146952,44724.4,16577.1,440.531,34373.1,13804.6,14506,70482.8
1.856,0.0147174,45286,16211.6,222.229,33629.8,13769.3,14608,69814.5
1.858,0.0147395,45847.6,15846.2,3.91437,32886.5,13734,14710,69146.2
1.86,0.0147618,47122.8,16051.2,-445.715,34022.8,13902.6,15411.2,69792.5
1.862,0.014784,48459.3,16305.2,-915.216,35320.5,14088.8,16163.9,70551.8
1.864,0.0148063,49795.9,16559.1,-1384.72,36618.3,14274.9,16916.5,71311.1
1.866,0.0148285,51132.5,16813.1,-1854.25,37916.1,14461.1,17669.2,72070.4
1.868,0.0148507,52615.8,16851.9,-1952.4,37498.1,14420.3,18040.7,72579.9
1.87,0.014873,54146,16821.8,-1931.91,36532,14307,18290.3,73009.5
1.872,0.0148952,55676.1,16791.8,-1911.41,35565.8,14193.7,18539.9,73439.1
1.874,0.0149174,57206.3,16761.8,-1890.91,34599.7,14080.4,18789.5,73868.7
1.876,0.0149397,58736.6,16731.7,-1870.42,33633.5,13967,19039.1,74298.3
1.878,0.0149619,58760,16563.4,-1906.79,33349.3,13886.4,19037.5,73993.5
1.88,0.0149842,58652.7,16383.1,-1948.09,33124.3,13808.6,19014.1,73625
1.882,0.0150065,58545.5,16202.8,-1989.4,32899.3,13730.8,18990.7,73256.5
1.884,0.0150287,58438.2,16022.5,-2030.7,32674.3,13652.9,18967.3,72888
1.886,0.015051,58331,15842.1,-2072.01,32449.3,13575.1,18943.9,72519.5
1.888,0.0150733,58223.7,15661.8,-2113.31,32224.2,13497.3,18920.5,72150.9
1.89,0.0150956,58116.5,15481.5,-2154.61,31999.2,13419.5,18897.1,71782.4
1.892,0.0151178,58009.2,15301.2,-2195.92,31774.2,13341.6,18873.7,71413.9
1.894,0.0151401,57902,15120.9,-2237.22,31549.2,13263.8,18850.3,71045.4
1.896,0.0151624,57794.7,14940.5,-2278.53,31324.2,13186,18826.9,70676.9
1.898,0.0151847,57687.5,14760.2,-2319.83,31099.1,13108.2,18803.6,70308.4
1.9,0.0152069,57580.2,14579.9,-2361.14,30874.1,13030.4,18780.2,69939.9
1.902,0.0152292,57473,14399.6,-2402.44,30649.1,12952.5,18756.8,69571.4
1.904,0.0152515,57365.7,14219.3,-2443.75,30424.1,12874.7,18733.4,69202.8
1.906,0.0152738,57258.4,14038.9,-2485.05,30199.1,12796.9,18710,68834.3
1.908,0.015296,57151.2,13858.6,-2526.35,29974.1,12719.1,18686.6,68465.8
1.91,0.0153183,57039.3,13669.5,-2565.25,29735.5,12645.1,18664.1,68092
1.912,0.0153406,57052.2,13718.3,-2669.21,29862.3,12466.8,18616.2,67860.6
1.914,0.0153629,57065,13767.1,-2773.18,29989,12288.5,18568.2,67629.2
1.916,0.0153851,57077.8,13815.8,-2877.15,30115.8,12110.2,18520.3,67397.8
1.918,0.0154074,57090.7,13864.6,-2981.11,30242.5,11931.9,18472.4,67166.5
1.92,0.0154297,57103.5,13913.4,-3085.08,30369.2,11753.6,18424.4,66935.1
1.922,0.015452,57116.3,13962.2,-3189.05,30496,11575.3,18376.5,66703.7
1.924,0.0154742,57129.2,14011,-3293.02,30622.7,11397,18328.5,66472.3
1.926,0.0154965,57142,14059.8,-3396.98,30749.5,11218.7,18280.6,66240.9
1.928,0.0155188,57154.9,14108.6,-3500.95,30876.2,11040.4,18232.7,66009.5
1.93,0.0155411,57167.7,14157.3,-3604.91,31003,10862.1,18184.7,65778.1
1.932,0.0155633,57180.5,14206.1,-3708.88,31129.7,10683.7,18136.8,65546.7
1.934,0.0155856,57427,14296.2,-3569.79,31285.3,10676.8,18104.2,65629
1.936,0.0156078,57815.6,14411.4,-3282.95,31458.4,10774,18081,65901.9
1.938,0.01563,58204.1,14526.6,-2996.11,31631.5,10871.1,18057.8,66174.8
1.94,0.0156523,58592.7,14641.8,-2709.25,31804.6,10968.3,18034.7,66447.8
1.942,0.0156745,60001.8,14906,-2342.53,31471.6,11045.5,17953.2,67586.6
1.944,0.0156968,61913.6,15243.6,-1936.46,30889.3,11112.9,17843,69151.8
1.946,0.015719,63825.4,15581.2,-1530.39,30307,11180.2,17732.8,70717.1
1.948,0.0157413,65737.3,15918.8,-1124.32,29724.7,11247.6,17622.7,72282.4
1.95,0.0157635,67649.2,16256.5,-718.221,29142.3,11314.9,17512.5,73847.8
1.952,0.0157858,69561,16594.1,-312.15,28560,11382.2,17402.3,75413.1
1.954,0.0158081,71472.8,16931.7,93.9222,27977.7,11449.6,17292.1,76978.3
1.956,0.0158303,73384.7,17269.3,499.994,27395.4,11516.9,17181.9,78543.6
1.958,0.0158526,75296.5,17606.9,906.066,26813.1,11584.3,17071.8,80108.9
1.96,0.0158748,77208.4,17944.6,1312.16,26230.8,11651.6,16961.6,81674.3
1.962,0.0158971,78988.6,18275.4,1782.53,25777.4,11763.6,16836.4,83104.6
1.964,0.0159194,80077,18570.6,2590.84,26002.1,12109.8,16632.4,83825.8
1.966,0.0159417,81165.4,18865.8,3399.15,26226.7,12456,16428.3,84547
1.968,0.015964,82253.8,19161,4207.51,26451.4,12802.2,16224.3,85268.2
1.97,0.0159863,83342.2,19456.2,5015.82,26676,13148.4,16020.3,85989.4
1.972,0.0160086,84430.6,19751.4,5824.13,26900.7,13494.6,15816.2,86710.5
1.974,0.0160309,85519,20046.6,6632.44,27125.3,13840.8,15612.2,87431.7
1.976,0.0160532,87294.4,20301.5,7351.31,28073.9,13905.3,15829.5,88511.6
1.978,0.0160755,89320,20541.8,8037.67,29286.1,13867.1,16200.2,89722.2
1.98,0.0160978,91345.4,20782,8723.98,30498.2,13829,16570.8,90932.8
1.982,0.0161201,93370.9,21022.3,9410.29,31710.3,13790.8,16941.5,92143.3
1.984,0.0161423,95396.4,21262.5,10096.6,32922.4,13752.7,17312.2,93353.8
1.986,0.0161646,97421.9,21502.8,10782.9,34134.5,13714.5,17682.8,94564.4
1.988,0.0161869,97983,21272.6,11351.4,34624.8,14120.4,17614.3,95116.2
1.99,0.0162092,94847.9,19854.7,11622.5,33292.9,15647.1,16437.2,94005.4
1.992,0.0162314,91712.8,18436.9,11893.6,31961.1,17173.7,15260,92894.5
1.994,0.0162537,88577.7,17019.1,12164.7,30629.3,18700.4,14082.9,91783.6
1.996,0.0162759,85442.4,15601.1,12435.9,29297.4,20227.1,12905.7,90672.6
1.998,0.0162982,82307.3,14183.3,12707,27965.6,21753.7,11728.5,89561.8
2,0.0163205,79172.2,12765.5,12978.1,26633.8,23280.4,10551.4,88450.9
