"arc_length","Displacement_Magnitude","Sxx","Sxy","Sxz","Syy","Syz","Szz","Von_Mises_Stress"
0,0,1.19646e+06,-69072.2,-6437.15,2.40818e+06,483343,1.0304e+06,1.55635e+06
0.002,1.83775e-06,1.13676e+06,-63125.3,-5590.76,2.31956e+06,453288,950653,1.5191e+06
0.004,2.98395e-06,1.10432e+06,-60621.3,-4580.29,2.26388e+06,435961,912394,1.49403e+06
0.006,3.94869e-06,1.08078e+06,-59242,-3516.21,2.21898e+06,422792,887688,1.47293e+06
0.008,4.93683e-06,1.05724e+06,-57862.7,-2452.14,2.17407e+06,409622,862981,1.45183e+06
0.01,5.93669e-06,1.0337e+06,-56483.3,-1388.06,2.12916e+06,396452,838275,1.43073e+06
0.012,6.94321e-06,1.01016e+06,-55104,-323.989,2.08426e+06,383283,813569,1.40964e+06
0.014,7.95387e-06,986624,-53724.7,740.086,2.03935e+06,370113,788863,1.38854e+06
0.016,8.93329e-06,963075,-51932.4,1949.32,1.99331e+06,357904,765566,1.36765e+06
0.018,9.82849e-06,939500,-49098.8,3524.49,1.94442e+06,348117,745823,1.3473e+06
0.02,1.07245e-05,915926,-46265.2,5099.66,1.89552e+06,338330,726080,1.32694e+06
0.022,1.16212e-05,892351,-43431.7,6674.84,1.84663e+06,328543,706336,1.30659e+06
0.024,1.25184e-05,868776,-40598.1,8250.01,1.79773e+06,318756,686593,1.28623e+06
0.026,1.3416e-05,845201,-37764.5,9825.19,1.74884e+06,308969,666850,1.26587e+06
0.028,1.4314e-05,821626,-34931,11400.4,1.69994e+06,299182,647106,1.24552e+06
0.03,1.52122e-05,798051,-32097.4,12975.5,1.65104e+06,289395,627363,1.22516e+06
0.032,1.61106e-05,774476,-29263.8,14550.7,1.60215e+06,279608,607620,1.20481e+06
0.034,1.70092e-05,750902,-26430.3,16125.9,1.55325e+06,269821,587876,1.18445e+06
0.036,1.7908e-05,727327,-23596.7,17701.1,1.50436e+06,260034,568133,1.1641e+06
0.038,1.88069e-05,703752,-20763.2,19276.2,1.45546e+06,250247,548390,1.14374e+06
0.04,1.9706e-05,680177,-17929.6,20851.4,1.40657e+06,240460,528646,1.12339e+06
0.042,2.06051e-05,656602,-15096,22426.6,1.35767e+06,230673,508903,1.10303e+06
0.044,2.15044e-05,633027,-12262.5,24001.8,1.30878e+06,220886,489160,1.08267e+06
0.046,2.24037e-05,609453,-9428.9,25576.9,1.25988e+06,211099,469416,1.06232e+06
0.048,2.33031e-05,585878,-6595.34,27152.1,1.21099e+06,201312,449673,1.04196e+06
0.05,2.52151e-05,558701,-4450.35,29604.7,1.17616e+06,195867,418063,1.04146e+06
0.052,2.74939e-05,530226,-2553.71,32373.7,1.14641e+06,191987,382173,1.04811e+06
0.054,2.97741e-05,501750,-657.062,35142.8,1.11666e+06,188107,346282,1.05476e+06
0.056,3.20555e-05,473275,1239.58,37911.8,1.08691e+06,184227,310392,1.06141e+06
0.058,3.43378e-05,444799,3136.23,40680.8,1.05716e+06,180347,274502,1.06806e+06
0.06,3.66209e-05,416324,5032.87,43449.8,1.02741e+06,176467,238612,1.07471e+06
0.062,3.89045e-05,387848,6929.52,46218.9,997662,172587,202722,1.08137e+06
0.064,4.11097e-05,383854,6312.17,46267.4,991593,176012,200260,1.08339e+06
0.066,4.33416e-05,381640,5511.92,46117.9,987247,179969,200231,1.08508e+06
0.068,4.56025e-05,379427,4711.67,45968.5,982901,183925,200201,1.08677e+06
0.07,4.78881e-05,377214,3911.43,45819.1,978555,187881,200172,1.08846e+06
0.072,5.01899e-05,372280,1363.09,45990.2,970317,186809,189584,1.0883e+06
0.074,5.2502e-05,366908,-1467.27,46213.1,961451,184926,177294,1.08785e+06
0.076,5.48231e-05,361536,-4297.63,46435.9,952586,183043,165003,1.0874e+06
0.078,5.71523e-05,356163,-7127.99,46658.8,943720,181159,152712,1.08694e+06
0.08,5.94884e-05,350791,-9958.34,46881.7,934855,179276,140422,1.08649e+06
0.082,6.18308e-05,345419,-12788.7,47104.5,925989,177393,128131,1.08603e+06
0.084,6.41788e-05,340046,-15619.1,47327.4,917123,175510,115840,1.08558e+06
0.086,6.65317e-05,334674,-18449.4,47550.2,908258,173626,103550,1.08513e+06
0.088,6.88896e-05,330504,-20970.5,47527.8,900930,172468,93017.2,1.08605e+06
0.09,7.12565e-05,332813,-21824.6,46183,901889,175217,91961.9,1.09441e+06
0.092,7.36311e-05,335122,-22678.6,44838.2,902848,177965,90906.7,1.10277e+06
0.094,7.60127e-05,337432,-23532.7,43493.4,903807,180714,89851.4,1.11113e+06
0.096,7.84006e-05,339741,-24386.8,42148.6,904766,183463,88796.1,1.11949e+06
0.098,8.07944e-05,342050,-25240.8,40803.8,905724,186211,87740.8,1.12786e+06
0.1,8.34638e-05,348539,-26663.1,39982.1,917544,189441,88053.8,1.14383e+06
0.102,8.70076e-05,368501,-29916.6,40846.5,964367,194222,92776.6,1.18434e+06
0.104,9.0553e-05,388463,-33170.2,41710.8,1.01119e+06,199002,97499.5,1.22484e+06
0.106,9.40998e-05,408425,-36423.8,42575.1,1.05801e+06,203783,102222,1.26535e+06
0.108,9.76478e-05,428387,-39677.3,43439.4,1.10484e+06,208564,106945,1.30586e+06
0.11,0.000101197,448348,-42930.9,44303.7,1.15166e+06,213344,111668,1.34637e+06
0.112,0.000104747,468310,-46184.4,45168,1.19848e+06,218125,116391,1.38688e+06
0.114,0.000108298,488272,-49438,46032.3,1.2453e+06,222905,121114,1.42738e+06
0.116,0.000112003,481974,-49720.6,44886.8,1.22774e+06,224290,119026,1.41565e+06
0.118,0.000115873,447741,-46842.7,41603.1,1.14169e+06,222062,109694,1.34835e+06
0.12,0.000119742,413508,-43964.8,38319.4,1.05565e+06,219834,100362,1.28104e+06
0.122,0.000123612,379276,-41086.9,35035.8,969596,217606,91029.9,1.21374e+06
0.124,0.000127483,345043,-38209,31752.1,883548,215378,81697.8,1.14643e+06
0.126,0.000131353,310810,-35331.1,28468.5,797499,213150,72365.7,1.07913e+06
0.128,0.000135224,276577,-32453.2,25184.8,711450,210922,63033.6,1.01183e+06
0.13,0.000139096,242345,-29575.4,21901.2,625401,208694,53701.6,944521
0.132,0.000143236,229293,-29378.3,19655.4,591567,207259,50025.7,920433
0.134,0.000147544,228772,-30767.3,18023.7,588623,206293,49696.2,921912
0.136,0.000151864,228251,-32156.2,16392,585680,205326,49366.6,923391
0.138,0.000156194,227729,-33545.1,14760.3,582736,204360,49037,924870
0.14,0.000160533,227208,-34934.1,13128.6,579792,203393,48707.5,926349
0.142,0.000164881,226687,-36323,11496.9,576849,202427,48377.9,927828
0.144,0.000169237,226166,-37712,9865.2,573905,201460,48048.4,929307
0.146,0.000173601,225645,-39100.9,8233.5,570962,200494,47718.8,930787
0.148,0.000177971,225124,-40489.9,6601.79,568018,199527,47389.2,932266
0.15,0.000182348,224602,-41878.8,4970.08,565075,198561,47059.7,933745
0.152,0.00018673,224081,-43267.7,3338.38,562131,197594,46730.1,935224
0.154,0.000191118,223560,-44656.7,1706.68,559187,196628,46400.6,936703
0.156,0.000195511,223039,-46045.6,74.9679,556244,195661,46071,938182
0.158,0.000199909,222518,-47434.6,-1556.74,553300,194695,45741.4,939661
0.16,0.000204311,221997,-48823.5,-3188.44,550357,193728,45411.9,941140
0.162,0.000208718,221476,-50212.5,-4820.14,547413,192762,45082.3,942619
0.164,0.000213129,220954,-51601.4,-6451.85,544469,191795,44752.8,944098
0.166,0.000217543,220433,-52990.4,-8083.55,541526,190829,44423.2,945577
0.168,0.00022196,219912,-54379.3,-9715.25,538582,189862,44093.6,947056
0.17,0.000226381,219391,-55768.3,-11347,535639,188896,43764.1,948535
0.172,0.000230805,218870,-57157.2,-12978.7,532695,187929,43434.5,950014
0.174,0.000235141,220541,-58095.5,-11397.3,538402,187038,42846.4,948546
0.176,0.000239429,223411,-58787.5,-8060.11,548835,186188,42117,945466
0.178,0.000244211,223660,-58688.1,-9469,550259,184689,43555.3,934341
0.18,0.000249463,222486,-57998.1,-14940.3,546336,182580,47490.8,918721
0.182,0.000255009,231849,-58680.8,-18058.8,573537,180166,57586.9,934046
0.184,0.000260556,241212,-59363.5,-21177.4,600739,177752,67683,949371
0.186,0.000266104,250575,-60046.2,-24296,627941,175338,77779.2,964695
0.188,0.000271652,259938,-60728.9,-27414.6,655143,172924,87875.2,980020
0.19,0.000277201,269301,-61411.6,-30533.2,682344,170510,97971.3,995344
0.192,0.000282751,278664,-62094.3,-33651.7,709546,168096,108067,1.01067e+06
0.194,0.000288302,288027,-62777,-36770.3,736748,165682,118164,1.02599e+06
0.196,0.000293853,297390,-63459.7,-39888.9,763950,163268,128260,1.04132e+06
0.198,0.000299599,301268,-62382.7,-40188.9,771653,160839,131926,1.03933e+06
0.2,0.000305418,303154,-60666.5,-39464.8,772272,158403,133257,1.03106e+06
0.202,0.000311241,305039,-58950.3,-38740.7,772892,155968,134588,1.02278e+06
0.204,0.000317067,306925,-57234,-38016.6,773511,153533,135919,1.01451e+06
0.206,0.000322896,308810,-55517.8,-37292.5,774130,151098,137250,1.00623e+06
0.208,0.000328727,310696,-53801.5,-36568.4,774750,148663,138581,997956
0.21,0.000334561,312581,-52085.3,-35844.3,775369,146227,139912,989681
0.212,0.000340397,314467,-50369.1,-35120.2,775988,143792,141243,981405
0.214,0.000346236,316352,-48652.8,-34396.1,776608,141357,142574,973130
0.216,0.000352076,318238,-46936.6,-33672,777227,138922,143904,964855
0.218,0.000357919,320124,-45220.4,-32947.9,777846,136487,145235,956580
0.22,0.000363764,322009,-43504.1,-32223.8,778465,134051,146566,948304
0.222,0.000369611,323895,-41787.9,-31499.7,779085,131616,147897,940029
0.224,0.000375459,325780,-40071.6,-30775.6,779704,129181,149228,931754
0.226,0.000381719,314763,-37477.2,-24142.7,762413,126713,143873,920820
0.228,0.000387989,303442,-34862.2,-17371.1,744701,124244,138362,909823
0.23,0.00039426,292122,-32247.1,-10599.5,726989,121776,132850,898827
0.232,0.000400531,280802,-29632,-3827.97,709277,119307,127339,887830
0.234,0.000406802,269481,-27017,2943.64,691566,116839,121827,876834
0.236,0.000413073,258161,-24401.9,9715.25,673854,114370,116315,865837
0.238,0.000419345,246840,-21786.9,16486.9,656142,111901,110804,854841
0.24,0.000425842,244430,-21507.1,21184.9,650521,111067,110084,866398
0.242,0.00043239,243946,-21732.2,25434.8,647514,110586,110399,882831
0.244,0.000438939,243461,-21957.3,29684.7,644507,110105,110715,899265
0.246,0.000445491,242977,-22182.4,33934.6,641500,109624,111031,915698
0.248,0.000452044,242493,-22407.6,38184.4,638493,109143,111347,932131
0.25,0.000458598,242008,-22632.7,42434.3,635487,108662,111662,948564
0.252,0.000465155,241524,-22857.8,46684.2,632480,108181,111978,964998
0.254,0.000471712,241040,-23082.9,50934,629473,107700,112294,981431
0.256,0.000478271,240556,-23308,55183.9,626466,107219,112610,997864
0.258,0.000484831,240071,-23533.1,59433.7,623459,106737,112926,1.0143e+06
0.26,0.000491393,239587,-23758.2,63683.6,620452,106256,113241,1.03073e+06
0.262,0.000498311,234622,-21961.2,65906.5,616546,109817,113099,1.03846e+06
0.264,0.000505299,228780,-19768,67732.2,612464,114169,112868,1.04448e+06
0.266,0.000512287,222937,-17574.7,69557.9,608383,118522,112636,1.05051e+06
0.268,0.000519276,217094,-15381.4,71383.6,604301,122874,112404,1.05653e+06
0.27,0.000526264,211252,-13188.2,73209.3,600219,127227,112172,1.06256e+06
0.272,0.000533253,205409,-10994.9,75035,596137,131579,111941,1.06858e+06
0.274,0.000540316,200663,-8625.82,76379.6,592076,135454,111753,1.07289e+06
0.276,0.00054772,201003,-5441.36,75494.4,588109,137114,111770,1.06925e+06
0.278,0.000555125,201343,-2256.9,74609.3,584143,138774,111787,1.06561e+06
0.28,0.00056253,201683,927.557,73724.1,580176,140434,111805,1.06196e+06
0.282,0.000570228,207689,3628.08,71090.5,588577,138047,110388,1.04533e+06
0.284,0.00057804,215887,6141.41,67780.5,601761,134096,108416,1.02368e+06
0.286,0.000585851,224086,8654.73,64470.5,614946,130144,106445,1.00202e+06
0.288,0.000593663,232284,11168,61160.6,628130,126192,104473,980361
0.29,0.000601475,240482,13681.3,57850.6,641315,122241,102502,958704
0.292,0.000609287,248681,16194.7,54540.6,654499,118289,100530,937047
0.294,0.000617178,252470,15962,50961.1,667468,117738,100044,921654
0.296,0.000625083,255542,15282.3,47337.7,680402,117740,99800.5,907281
0.298,0.00063299,258614,14602.6,43714.3,693336,117743,99556.6,892908
0.3,0.000640897,261686,13922.9,40091,706269,117745,99312.7,878535
0.302,0.000648806,264758,13243.2,36467.6,719203,117748,99068.8,864162
0.304,0.000656716,267830,12563.5,32844.3,732137,117750,98824.9,849789
0.306,0.000664627,270901,11883.8,29220.9,745071,117753,98581,835416
0.308,0.00067254,273973,11204,25597.5,758004,117755,98337.1,821043
0.31,0.000680453,277045,10524.3,21974.1,770938,117758,98093.2,806670
0.312,0.000688381,280055,9773.23,18145.8,783294,117769,97976,792577
0.314,0.000696686,281353,7052.86,8666.57,779707,118023,101354,786196
0.316,0.00070499,282651,4332.49,-812.677,776120,118277,104732,779816
0.318,0.000713295,283948,1612.17,-10291.8,772533,118531,108110,773435
0.32,0.0007216,285246,-1108.2,-19771,768947,118785,111489,767055
0.322,0.000729906,286544,-3828.57,-29250.3,765360,119039,114867,760674
0.324,0.000738211,287842,-6548.94,-38729.5,761773,119293,118245,754294
0.326,0.000746537,288704,-9060.92,-47148.2,756888,119372,121482,750071
0.328,0.000755041,285757,-9748.85,-46283.1,740639,117922,123482,764737
0.33,0.000763547,282809,-10436.8,-45418,724390,116471,125483,779404
0.332,0.000772052,279861,-11124.7,-44552.9,708142,115020,127483,794070
0.334,0.000780559,276913,-11812.6,-43687.8,691893,113570,129484,808736
0.336,0.000789067,273965,-12500.6,-42822.7,675644,112119,131484,823403
0.338,0.000797575,271018,-13188.5,-41957.6,659395,110668,133485,838069
0.34,0.000806084,268070,-13876.4,-41092.5,643146,109217,135486,852736
0.342,0.000814595,265122,-14564.4,-40227.4,626897,107766,137486,867402
0.344,0.000823105,262174,-15252.3,-39362.3,610648,106316,139487,882068
0.346,0.000831616,259226,-15940.2,-38497.2,594400,104865,141487,896734
0.348,0.000840286,253794,-16201.3,-36280,577843,103915,140798,900296
0.35,0.00084924,243890,-15694.2,-31629.9,560734,103865,135268,883873
0.352,0.000858194,233985,-15187.1,-26979.7,543624,103816,129737,867450
0.354,0.000867148,224081,-14680,-22329.5,526514,103766,124207,851027
0.356,0.000876102,214177,-14173,-17679.3,509404,103717,118677,834604
0.358,0.000885056,204273,-13665.9,-13029.1,492295,103667,113147,818181
0.36,0.00089401,194369,-13158.8,-8378.97,475185,103618,107617,801758
0.362,0.000902964,184465,-12651.7,-3728.86,458075,103569,102087,785336
0.364,0.000912079,183566,-12727.9,-2544.46,460752,101994,100447,778201
0.366,0.000921224,184323,-12911.3,-1997.61,467067,100139,99523.7,772775
0.368,0.00093037,185081,-13094.8,-1450.76,473383,98283.4,98600.1,767350
0.37,0.000939517,185839,-13278.2,-903.913,479699,96428.2,97676.4,761924
0.372,0.000948665,186597,-13461.7,-357.064,486015,94573,96752.8,756498
0.374,0.000957814,187354,-13645.1,189.786,492331,92717.8,95829.2,751072
0.376,0.000966963,188112,-13828.5,736.627,498646,90862.6,94905.5,745647
0.378,0.000976113,188870,-14012,1283.48,504962,89007.4,93981.9,740221
0.38,0.000985264,189628,-14195.4,1830.33,511278,87152.1,93058.3,734795
0.382,0.000994431,191072,-14479.5,2286.04,520237,85725,92710.4,727148
0.384,0.00100365,194778,-15095.1,2441.57,537899,85708,94258.8,712186
0.386,0.00101286,198485,-15710.7,2597.11,555562,85690.9,95807.1,697223
0.388,0.00102208,202191,-16326.3,2752.65,573224,85673.9,97355.5,682260
0.39,0.0010313,205897,-16941.9,2908.18,590886,85656.8,98903.9,667298
0.392,0.00104052,209603,-17557.5,3063.72,608549,85639.8,100452,652335
0.394,0.00104994,211601,-17898.6,3665.33,621302,86003.6,102486,639716
0.396,0.00105976,210089,-17675.8,5183.67,623968,87150.1,105518,631913
0.398,0.00106958,208576,-17452.9,6702,626634,88296.6,108550,624110
0.4,0.0010794,207064,-17230,8220.34,629299,89443,111582,616306
0.402,0.00108922,205552,-17007.2,9738.68,631965,90589.5,114614,608503
0.404,0.00109904,204039,-16784.3,11257,634631,91736,117645,600700
0.406,0.00110886,202527,-16561.4,12775.3,637296,92882.5,120677,592897
0.408,0.00111868,201014,-16338.6,14293.7,639962,94029,123709,585094
0.41,0.0011286,196185,-15247.8,15410.8,634725,94779.8,123941,585470
0.412,0.00113875,187823,-13691.3,14863.9,612351,93417.4,118985,599191
0.414,0.00114891,179460,-12134.8,14317.1,589976,92055,114030,612912
0.416,0.00115907,171097,-10578.3,13770.2,567601,90692.6,109074,626634
0.418,0.00116922,162735,-9021.74,13223.3,545226,89330.2,104119,640355
0.42,0.00117938,154372,-7465.26,12676.5,522852,87967.8,99163.2,654076
0.422,0.00118954,146009,-5908.75,12129.6,500477,86605.5,94207.8,667797
0.424,0.0011997,137647,-4352.24,11582.8,478102,85243.1,89252.3,681518
0.426,0.00120986,129284,-2795.73,11035.9,455727,83880.7,84296.8,695240
0.428,0.00122002,120921,-1239.22,10489,433353,82518.3,79341.3,708961
0.43,0.00123018,112558,317.286,9942.16,410978,81155.9,74385.8,722682
0.432,0.00124031,106197,-2.72434,8846.77,388445,79198.6,71441.6,728190
0.434,0.00125043,101572,-1950.81,7275.48,365775,76725.2,70242.5,726571
0.436,0.00126054,96947,-3898.92,5704.18,343105,74251.7,69043.3,724952
0.438,0.00127066,92321.9,-5847.04,4132.87,320435,71778.3,67844.1,723333
0.44,0.00128078,87696.8,-7795.15,2561.57,297765,69304.8,66645,721714
0.442,0.00129089,83071.7,-9743.27,990.262,275095,66831.4,65445.8,720095
0.444,0.00130123,83475,-16057.5,-337.907,263427,63337.6,66128.2,715964
0.446,0.00131175,88002.9,-25953.2,-1466.64,260783,59006.8,68353.8,709774
0.448,0.00132227,92530.7,-35848.8,-2595.38,258140,54676.1,70579.5,703583
0.45,0.00133279,97058.4,-45744.2,-3724.1,255497,50345.4,72805.1,697393
0.452,0.00134367,102894,-45147.2,-2052.32,274088,50358.2,76958.8,689036
0.454,0.00135458,108831,-43739.4,-164.105,294320,50706.6,81261.4,680512
0.456,0.0013655,114768,-42331.5,1724.11,314552,51055.1,85564.1,671988
0.458,0.00137641,120705,-40923.6,3612.32,334785,51403.6,89866.7,663464
0.46,0.00138732,126642,-39515.7,5500.53,355017,51752.1,94169.4,654940
0.462,0.00139823,132579,-38107.9,7388.74,375249,52100.5,98472,646416
0.464,0.00140915,138515,-36700,9276.93,395481,52449,102775,637893
0.466,0.00142006,144452,-35292.2,11165.1,415714,52797.5,107077,629369
0.468,0.00143097,150389,-33884.3,13053.4,435946,53145.9,111380,620845
0.47,0.00144189,156326,-32476.4,14941.6,456178,53494.4,115683,612321
0.472,0.0014528,162263,-31068.5,16829.8,476411,53842.9,119985,603797
0.474,0.00146372,168200,-29660.7,18718,496643,54191.4,124288,595273
0.476,0.00147463,174137,-28252.8,20606.2,516875,54539.8,128591,586749
0.478,0.00148551,179237,-24761.8,22665.8,535044,55200.5,133196,576228
0.48,0.00149635,183228,-18512.3,24952.5,550481,56274.7,138203,563061
0.482,0.00150719,187220,-12262.8,27239.2,565918,57348.8,143210,549894
0.484,0.00151804,191212,-6013.28,29525.9,581356,58423,148218,536727
0.486,0.00152888,195204,236.236,31812.6,596793,59497.1,153225,523561
0.488,0.00153983,195470,6604.1,33346,606231,59185.7,154724,515043
0.49,0.00155102,187197,13243.3,33152.5,601920,55698.2,148182,517182
0.492,0.00156221,178924,19882.4,32959,597609,52210.8,141640,519321
0.494,0.00157339,170651,26521.5,32765.5,593298,48723.5,135099,521459
0.496,0.00158458,162378,33160.6,32572,588986,45236,128557,523598
0.498,0.00159577,154106,39799.8,32378.5,584675,41748.6,122015,525737
0.5,0.00160712,147486,42773.8,31870,580575,39688.6,115181,527880
0.502,0.00161859,142475,42195.9,30702.1,576969,38378,108260,530973
0.504,0.00163002,139203,37871.1,26875.1,575491,34341.3,102347,540314
0.506,0.00164144,136138,33805.2,23260.5,573787,30589.9,96734.2,549010
0.508,0.0016528,134799,31906.9,21424.1,570188,29227.7,93632.4,552300
0.51,0.00166415,133460,30008.7,19587.8,566589,27865.5,90530.8,555591
0.512,0.00167551,132121,28110.4,17751.4,562990,26503.3,87429,558881
0.514,0.00168687,130782,26212.2,15915.1,559391,25141.1,84327.4,562171
0.516,0.00169823,129443,24313.9,14078.8,555793,23778.9,81225.7,565461
0.518,0.00170959,128104,22415.6,12242.4,552193,22416.7,78124,568751
0.52,0.00172095,126765,20517.4,10406.1,548595,21054.5,75022.3,572041
0.522,0.00173231,125426,18619.1,8569.75,544996,19692.2,71920.6,575331
0.524,0.00174367,124087,16720.9,6733.44,541397,18330,68818.9,578621
0.526,0.00175503,122747,14822.6,4897.07,537798,16967.8,65717.2,581911
0.528,0.00176645,121552,13629,3870.67,534926,16557.8,63257.9,585292
0.53,0.00177812,120960,15403.5,6256.04,535119,20159,63504.4,589054
0.532,0.00178979,120367,17178.2,8641.48,535312,23760.2,63750.9,592816
0.534,0.00180145,119775,18952.7,11026.8,535506,27361.4,63997.5,596578
0.536,0.00181312,119183,20727.4,13412.3,535699,30962.7,64244,600341
0.538,0.00182479,118591,22501.9,15797.7,535892,34563.8,64490.6,604103
0.54,0.00183646,118034,24165.9,18144.5,535574,38123.8,64751.2,607158
0.542,0.00184823,118130,23791,19780.8,525842,40923.2,65271.1,597191
0.544,0.00186021,117800,21713.7,19628,512973,43110.6,65530.7,587370
0.546,0.00187237,117139,18319.7,18091.6,497678,44824.5,65588.9,577662
0.548,0.00188452,116478,14925.8,16555.2,482383,46538.4,65647.2,567955
0.55,0.00189667,115817,11531.7,15018.7,467088,48252.4,65705.5,558247
0.552,0.00190883,115156,8137.73,13482.3,451793,49966.3,65763.7,548539
0.554,0.00192098,114495,4743.66,11945.8,436498,51680.3,65822,538831
0.556,0.00193327,114449,3434.15,13742.5,433001,52243,65507.8,555570
0.558,0.00194559,114548,2615.9,16324.9,432284,52534.4,65105.9,578542
0.56,0.00195791,114647,1797.67,18907.1,431567,52825.8,64704,601514
0.562,0.00197023,114745,979.436,21489.4,430851,53117.1,64302.1,624485
0.564,0.00198255,114844,161.18,24071.7,430134,53408.5,63900.2,647458
0.566,0.00199487,114943,-657.051,26653.9,429417,53699.9,63498.3,670429
0.568,0.00200719,115042,-1475.31,29236.2,428701,53991.3,63096.3,693402
0.57,0.00201951,115141,-2293.54,31818.5,427984,54282.7,62694.4,716373
0.572,0.00203183,115240,-3111.79,34400.8,427267,54574.1,62292.5,739346
0.574,0.00204427,114407,-3507.65,37351.9,416588,54494,59226.7,747094
0.576,0.0020568,111780,-4237.42,40372.7,411498,54449.2,58942.4,745031
0.578,0.00206935,109003,-5043.49,43372.5,407919,54438.9,59224.2,742963
0.58,0.00208189,106226,-5849.53,46372.3,404340,54428.5,59506,740894
0.582,0.00209443,103449,-6655.6,49372.1,400761,54418.2,59787.8,738826
0.584,0.00210697,100672,-7461.64,52371.8,397182,54407.9,60069.6,736758
0.586,0.00211951,97895.1,-8267.71,55371.7,393603,54397.5,60351.4,734689
0.588,0.00213205,95118.1,-9073.76,58371.4,390024,54387.2,60633.2,732621
0.59,0.00214459,92341,-9879.8,61371.2,386445,54376.8,60915,730553
0.592,0.00215713,89564,-10685.9,64371,382866,54366.5,61196.9,728485
0.594,0.00216967,86786.9,-11491.9,67370.7,379287,54356.2,61478.7,726416
0.596,0.00218238,86187.8,-11951.2,68709.5,378633,55817,63428.6,722544
0.598,0.00219519,87011.1,-12184,68963.4,379888,58238.6,66467.9,717493
0.6,0.002208,87834.4,-12416.9,69217.3,381143,60660.3,69507.3,712442
0.602,0.00222078,88912.3,-12488.6,68510.3,380744,63289.5,71776.4,702434
0.604,0.00223355,90111.6,-12483.5,67345.7,379559,66017.6,73678.6,690064
0.606,0.00224631,91310.8,-12478.5,66181,378373,68745.7,75581,677695
0.608,0.00225908,92510.1,-12473.5,65016.4,377187,71473.8,77483.2,665326
0.61,0.00227184,93709.4,-12468.5,63851.8,376001,74202,79385.5,652956
0.612,0.00228461,94908.6,-12463.4,62687.2,374816,76930,81287.8,640587
0.614,0.00229737,96107.9,-12458.4,61522.5,373630,79658.2,83190.1,628218
0.616,0.00231014,97307.1,-12453.4,60357.9,372444,82386.3,85092.4,615848
0.618,0.0023229,98506.3,-12448.4,59193.3,371259,85114.3,86994.7,603479
0.62,0.00233571,98724.5,-11975.1,57407.6,368734,87783.1,88563.2,595645
0.622,0.00234864,95592.6,-9903.28,53501.3,361637,90249,88992.1,603299
0.624,0.00236157,92460.6,-7831.35,49594.9,354539,92714.9,89421,610952
0.626,0.00237461,89400.6,-6354.18,46352.7,348327,93201.3,89866.1,612491
0.628,0.00238776,86413.1,-5478.06,43781.6,343010,91687,90327.8,607851
0.63,0.00240091,83425.7,-4601.97,41210.5,337694,90172.8,90789.4,603211
0.632,0.00241406,80438.2,-3725.85,38639.4,332377,88658.5,91251,598570
0.634,0.00242721,77450.8,-2849.75,36068.4,327060,87144.2,91712.6,593930
0.636,0.00244043,74998.3,-2314.84,34457.8,321975,85364.9,91979.8,589542
0.638,0.00245382,73869.2,-2623.97,35223.2,317462,82929.9,91765.8,585776
0.64,0.00246722,72740,-2933.1,35988.7,312950,80494.9,91551.9,582010
0.642,0.00248061,71610.9,-3242.23,36754.1,308438,78059.9,91337.9,578244
0.644,0.002494,70481.7,-3551.36,37519.6,303926,75624.9,91124,574478
0.646,0.00250749,69668.2,-3499.85,37423.6,301796,73580.7,90193.7,570760
0.648,0.00252111,69346.8,-2886.06,35984.4,303379,72145.8,88146.7,567119
0.65,0.00253473,69025.4,-2272.27,34545.2,304962,70710.9,86099.6,563478
0.652,0.00254835,68704,-1658.46,33106,306546,69276,84052.5,559837
0.654,0.00256197,68382.7,-1044.67,31666.9,308129,67841.1,82005.5,556196
0.656,0.00257559,68061.3,-430.864,30227.6,309713,66406.1,79958.4,552555
0.658,0.00258921,67739.9,182.926,28788.5,311296,64971.3,77911.4,548914
0.66,0.00260283,67418.5,796.734,27349.3,312879,63536.3,75864.3,545273
0.662,0.00261646,67097.1,1410.52,25910.1,314463,62101.4,73817.3,541632
0.664,0.00263008,66775.7,2024.31,24470.9,316046,60666.5,71770.2,537991
0.666,0.0026437,66454.3,2638.12,23031.7,317629,59231.6,69723.1,534350
0.668,0.00265732,66133,3251.91,21592.6,319213,57796.7,67676.1,530709
0.67,0.00267094,65811.6,3865.72,20153.4,320796,56361.8,65629,527068
0.672,0.00268457,65490.2,4479.51,18714.2,322379,54926.9,63582,523427
0.674,0.00269819,65168.8,5093.32,17275,323963,53491.9,61534.9,519786
0.676,0.00271181,64847.4,5707.11,15835.8,325546,52057,59487.8,516145
0.678,0.00272543,64526,6320.9,14396.7,327130,50622.2,57440.8,512504
0.68,0.00273907,64176.5,6963.83,12860.4,328254,49395.3,55121.4,508897
0.682,0.00275285,63250.4,8203.83,9333.27,319962,52434.8,47219,505995
0.684,0.00276664,62324.3,9443.87,5806.08,311671,55474.4,39316.3,503093
0.686,0.00278043,61398.3,10683.9,2278.99,303380,58514,31413.9,500191
0.688,0.00279422,60472.1,11923.9,-1248.21,295088,61553.6,23511.2,497289
0.69,0.00280801,59546.1,13163.9,-4775.3,286797,64593.1,15608.8,494387
0.692,0.0028218,58620,14403.9,-8302.39,278505,67632.7,7706.35,491484
0.694,0.00283559,57693.9,15643.9,-11829.6,270214,70672.3,-196.322,488582
0.696,0.00284937,56767.8,16883.9,-15356.7,261923,73711.8,-8098.75,485680
0.698,0.00286324,56193.6,17381.4,-17208.2,255994,76166.9,-14139.7,480793
0.7,0.00287728,56353.4,16330.2,-15565,254993,77402.6,-16297.5,471767
0.702,0.00289131,56513.2,15279,-13921.8,253993,78638.3,-18455.4,462741
0.704,0.00290535,56673,14227.8,-12278.6,252993,79874,-20613.2,453715
0.706,0.00291938,56832.8,13176.6,-10635.4,251992,81109.8,-22771.1,444689
0.708,0.00293341,56992.6,12125.4,-8992.16,250992,82345.5,-24928.9,435662
0.71,0.00294745,57152.4,11074.2,-7348.97,249991,83581.2,-27086.8,426636
0.712,0.00296168,56778.4,12008,-8466.08,255380,83422.7,-29476.9,423515
0.714,0.00297609,55920,14742.8,-12087.8,266566,81999.1,-32077.7,425752
0.716,0.0029905,55061.6,17477.8,-15709.6,277753,80575.5,-34678.5,427990
0.718,0.00300491,54203.2,20212.7,-19331.3,288939,79151.8,-37279.2,430227
0.72,0.00301932,53344.8,22947.6,-22953.2,300126,77728.2,-39880.1,432464
0.722,0.00303373,52486.4,25682.5,-26574.9,311312,76304.6,-42480.8,434701
0.724,0.00304811,52123.6,29060.7,-28563.4,321405,75716.5,-44324.5,439091
0.726,0.00306244,52910.1,33931.2,-26764.5,328964,77066.1,-44412.7,448472
0.728,0.00307676,53696.5,38801.5,-24965.6,336523,78415.6,-44500.8,457853
0.73,0.00309108,54483,43672,-23166.6,344081,79765.2,-44589,467235
0.732,0.00310541,55269.5,48542.3,-21367.8,351640,81114.7,-44677.1,476616
0.734,0.00311973,56055.9,53412.8,-19568.8,359199,82464.3,-44765.3,485997
0.736,0.00313406,56842.4,58283.1,-17769.9,366757,83813.9,-44853.4,495378
0.738,0.00314838,57628.8,63153.4,-15971.1,374316,85163.4,-44941.6,504759
0.74,0.00316266,55559.3,59776.5,-19498.3,375118,84135.1,-49449.5,497113
0.742,0.00317694,53400.5,56142.2,-23191.9,375710,83032.5,-54095.3,488934
0.744,0.00319123,51241.8,52507.7,-26885.5,376302,81929.8,-58741.3,480756
0.746,0.00320551,49083,48873.3,-30579,376893,80827.3,-63387.1,472578
0.748,0.00321994,51590.1,47735.8,-28711.3,374573,80849.4,-58426.2,465192
0.75,0.00323439,54428.2,46775.4,-26448.8,372046,80951.3,-52783.5,457862
0.752,0.00324884,57266.4,45815.1,-24186.3,369518,81053.2,-47140.9,450532
0.754,0.00326328,60104.6,44854.8,-21923.8,366991,81155.1,-41498.1,443201
0.756,0.00327795,59342.5,41191.1,-21456.7,364526,81372.2,-36516.8,437141
0.758,0.00329263,58345.8,37351.2,-21106.5,362065,81596.8,-31578.4,431162
0.76,0.00330731,57349.2,33511.4,-20756.3,359603,81821.3,-26640.2,425184
0.762,0.00332205,55956.7,30903.7,-20124.4,356952,81865.7,-22663.7,423123
0.764,0.0033369,53848.1,30525.5,-18982.8,353958,81584,-20427.7,428151
0.766,0.00335175,51739.5,30147.4,-17841.3,350963,81302.2,-18191.6,433179
0.768,0.00336659,49630.9,29769.2,-16699.7,347968,81020.5,-15955.5,438207
0.77,0.00338144,47522.3,29391,-15558.1,344974,80738.8,-13719.5,443235
0.772,0.00339629,45413.6,29012.8,-14416.6,341979,80457.1,-11483.4,448263
0.774,0.00341111,43720.4,28073.3,-13354.7,337059,80014.6,-8758.88,453174
0.776,0.00342587,42859.4,26009.3,-12452.6,328282,79250,-5055.67,457851
0.778,0.00344063,41998.3,23945.3,-11550.5,319506,78485.5,-1352.58,462527
0.78,0.00345539,41137.3,21881.4,-10648.4,310730,77720.9,2350.52,467204
0.782,0.00347014,40276.2,19817.3,-9746.29,301953,76956.3,6053.72,471881
0.784,0.0034849,39415.2,17753.4,-8844.19,293177,76191.8,9756.82,476557
0.786,0.00349966,38554.2,15689.4,-7942.07,284401,75427.2,13460,481234
0.788,0.00351442,37693.1,13625.4,-7039.97,275624,74662.7,17163.1,485911
0.79,0.00352918,36832.1,11561.4,-6137.84,266848,73898.1,20866.3,490588
0.792,0.00354397,36223.5,9583.24,-5336.52,257949,73071.8,24580.8,494073
0.794,0.00355913,39455.6,8910.17,-6068.65,247188,71305.2,28468.5,479436
0.796,0.0035743,42687.7,8237.12,-6800.75,236428,69538.7,32356.2,464799
0.798,0.00358946,45919.8,7564.07,-7532.86,225668,67772.2,36243.8,450163
0.8,0.00360463,49152,6891,-8264.98,214907,66005.7,40131.5,435525
0.802,0.00361979,52384,6217.95,-8997.09,204147,64239.2,44019.2,420889
0.804,0.00363496,55616.2,5544.88,-9729.21,193386,62472.7,47906.9,406251
0.806,0.00365012,58848.3,4871.83,-10461.3,182626,60706.2,51794.5,391615
0.808,0.00366529,62080.5,4198.76,-11193.4,171865,58939.6,55682.3,376977
0.81,0.00368053,64720,3769.39,-11311.6,168930,58348.7,58621,369738
0.812,0.00369583,66878.8,3537.75,-10931.6,172343,58711.7,60789.9,368502
0.814,0.00371114,69037.6,3306.11,-10551.7,175757,59074.8,62958.9,367265
0.816,0.00372644,71196.4,3074.47,-10171.7,179171,59437.7,65127.8,366028
0.818,0.00374175,73355.2,2842.82,-9791.7,182585,59800.8,67296.7,364792
0.82,0.00375705,75514,2611.18,-9411.73,185999,60163.8,69465.6,363555
0.822,0.00377236,77672.8,2379.54,-9031.74,189413,60526.8,71634.5,362318
0.824,0.00378767,79831.5,2147.9,-8651.77,192827,60889.8,73803.4,361082
0.826,0.00380297,81990.3,1916.26,-8271.79,196241,61252.8,75972.3,359845
0.828,0.00381828,84149.1,1684.61,-7891.81,199655,61615.8,78141.2,358608
0.83,0.00383358,86307.9,1452.97,-7511.83,203069,61978.8,80310.1,357372
0.832,0.00384889,88466.7,1221.32,-7131.85,206483,62341.8,82479.1,356135
0.834,0.00386419,90625.5,989.685,-6751.88,209897,62704.8,84648,354899
0.836,0.0038795,92784.3,758.039,-6371.89,213311,63067.8,86816.9,353662
0.838,0.0038948,94943.1,526.399,-5991.92,216725,63430.8,88985.8,352425
0.84,0.00391011,97101.8,294.76,-5611.94,220139,63793.8,91154.7,351189
0.842,0.00392537,98408.5,493.326,-5036.97,223245,64448.8,93156.3,350547
0.844,0.00394062,99643.9,727.879,-4445.7,226325,65128.3,95143.9,349955
0.846,0.00395587,100879,962.44,-3854.41,229405,65807.8,97131.6,349364
0.848,0.00397112,102115,1196.99,-3263.14,232485,66487.3,99119.2,348772
0.85,0.00398637,103350,1431.55,-2671.85,235565,67166.7,101107,348180
0.852,0.00400185,103129,718.8,-1459.5,232285,67308,99298.9,348387
0.854,0.00401737,102610,-187.231,-120.435,227707,67339.4,96716.6,348757
0.856,0.00403293,100351,-822.224,1111.47,222372,67327.3,92372.3,348772
0.858,0.00404854,95494.9,-1052.87,2183.43,215906,67250.3,85400.1,348256
0.86,0.00406414,90639.2,-1283.53,3255.42,209439,67173.3,78427.8,347741
0.862,0.00407975,85783.5,-1514.18,4327.38,202973,67096.4,71455.6,347225
0.864,0.00409536,80927.8,-1744.84,5399.38,196507,67019.4,64483.2,346709
0.866,0.0041111,77883.5,-1628.78,5995.61,194748,66989.7,60188,346004
0.868,0.00412692,76042.2,-1282.45,6275.89,196115,66991.5,57670.6,345171
0.87,0.00414275,74200.9,-936.118,6556.18,197482,66993.2,55153.1,344339
0.872,0.00415858,72359.6,-589.794,6836.46,198849,66994.9,52635.7,343507
0.874,0.0041744,70518.3,-243.46,7116.75,200217,66996.7,50118.2,342675
0.876,0.00419023,68677,102.864,7397.03,201584,66998.4,47600.7,341843
0.878,0.00420605,67314.9,718.558,7984.46,203794,66927.9,45530.3,340627
0.88,0.00422187,66041.1,1383.76,8628.33,206159,66844.2,43542.1,339341
0.882,0.00423769,64767.2,2048.98,9272.23,208524,66760.4,41553.8,338055
0.884,0.00425351,63493.4,2714.18,9916.11,210889,66676.6,39565.6,336768
0.886,0.00426933,62219.5,3379.39,10560,213254,66592.9,37577.4,335482
0.888,0.00428515,60945.6,4044.61,11203.9,215619,66509.1,35589.2,334196
0.89,0.00430097,59671.8,4709.81,11847.8,217984,66425.3,33601,332910
0.892,0.00431679,58397.9,5375.03,12491.7,220349,66341.6,31612.7,331623
0.894,0.00433261,57124.1,6040.23,13135.5,222715,66257.8,29624.5,330337
0.896,0.00434843,55850.2,6705.45,13779.4,225080,66174,27636.3,329051
0.898,0.00436425,54576.3,7370.66,14423.3,227445,66090.3,25648.1,327765
0.9,0.00438007,53302.5,8035.86,15067.2,229810,66006.5,23659.9,326479
0.902,0.00439589,52028.6,8701.08,15711.1,232175,65922.7,21671.6,325192
0.904,0.00441188,48463.4,8055.78,15322.1,232429,67313.3,19100.7,328185
0.906,0.00442789,44705.9,7300.58,14846.5,232506,68827.6,16480.8,331536
0.908,0.0044439,40948.6,6545.4,14371,232583,70341.8,13861,334887
0.91,0.00445991,37191.1,5790.2,13895.4,232660,71856,11241.1,338238
0.912,0.00447592,33433.8,5035.02,13419.8,232737,73370.2,8621.27,341589
0.914,0.00449193,29676.4,4279.85,12944.2,232814,74884.4,6001.46,344940
0.916,0.00450794,25919,3524.65,12468.6,232891,76398.7,3381.57,348292
0.918,0.00452395,22161.6,2769.47,11993.1,232968,77912.9,761.764,351643
0.92,0.0045401,20008.5,2787.06,11644.5,232661,79123,-804.885,354215
0.922,0.00455641,19579.6,3635.15,11432.6,231943,80006.2,-1239.6,355949
0.924,0.00457272,19150.7,4483.26,11220.6,231225,80889.3,-1674.33,357683
0.926,0.00458903,18721.8,5331.35,11008.6,230507,81772.5,-2109.04,359417
0.928,0.00460534,18292.9,6179.43,10796.7,229789,82655.7,-2543.75,361151
0.93,0.00462161,18815.6,6762.15,10892.7,225328,83592,-2844.2,358633
0.932,0.00463788,19376.3,7334.25,11001,220717,84530.4,-3139.27,355944
0.934,0.00465416,19937.1,7906.36,11109.3,216107,85468.9,-3434.34,353256
0.936,0.00467043,20497.8,8478.45,11217.5,211496,86407.3,-3729.41,350568
0.938,0.0046867,21058.6,9050.56,11325.8,206886,87345.8,-4024.49,347879
0.94,0.00470297,21619.3,9622.66,11434.1,202275,88284.2,-4319.56,345191
0.942,0.00471925,22180.1,10194.8,11542.4,197665,89222.6,-4614.63,342503
0.944,0.00473552,22740.9,10766.9,11650.7,193054,90161,-4909.7,339814
0.946,0.00475179,23301.6,11339,11759,188444,91099.5,-5204.77,337126
0.948,0.00476807,23862.4,11911.1,11867.3,183833,92037.9,-5499.85,334438
0.95,0.00478434,24423.1,12483.2,11975.6,179223,92976.3,-5794.92,331749
0.952,0.00480061,24983.9,13055.3,12083.9,174612,93914.8,-6089.99,329061
0.954,0.00481688,25544.6,13627.4,12192.2,170001,94853.2,-6385.06,326373
0.956,0.00483316,26105.4,14199.5,12300.5,165391,95791.6,-6680.13,323684
0.958,0.00484948,29760.3,16268,12878.5,167554,97752,-2774.88,324460
0.96,0.00486587,37338.2,20233.9,14051.8,178305,101008,6455.87,329628
0.962,0.00488235,49375.8,26948.5,15595.8,207817,105572,21636.6,349766
0.964,0.00489895,66732,36941.2,17581.5,259704,111697,43913.2,387758
0.966,0.00491551,78760.2,42977.4,18732.6,294456,115584,60269.1,411974
0.968,0.00493194,73723.6,36341.6,17210,274324,112309,57661.2,392065
0.97,0.00494836,68686.8,29705.6,15687.4,254192,109033,55053.1,372156
0.972,0.00496479,63650.1,23069.8,14164.8,234060,105757,52445.2,352247
0.974,0.00498121,58613.5,16433.9,12642.2,213929,102482,49837.2,332338
0.976,0.00499769,53863.5,11356.1,12039.6,200676,99121.7,48305.6,319290
0.978,0.00501418,49074.1,6554.38,11651.4,188906,95687.1,46984.3,307696
0.98,0.00503081,48547.7,6421.57,12079.3,187784,94251.1,48153.2,307692
0.982,0.00504743,48021.3,6288.77,12507.3,186662,92815.1,49321.9,307688
0.984,0.00506406,47494.9,6155.96,12935.3,185540,91379,50490.7,307684
0.986,0.00508068,46968.6,6023.16,13363.3,184418,89943,51659.5,307680
0.988,0.0050973,46442.2,5890.35,13791.3,183295,88507,52828.3,307676
0.99,0.00511393,45915.8,5757.55,14219.3,182173,87070.9,53997.1,307672
0.992,0.00513056,45389.5,5624.74,14647.2,181051,85634.9,55165.9,307668
0.994,0.00514718,44863.1,5491.93,15075.2,179929,84198.8,56334.7,307664
0.996,0.00516381,44336.7,5359.13,15503.2,178807,82762.8,57503.4,307660
0.998,0.00518043,43810.3,5226.32,15931.2,177684,81326.7,58672.3,307656
1,0.00519706,43283.9,5093.52,16359.2,176562,79890.7,59841,307652
1.002,0.00521368,42757.6,4960.71,16787.1,175440,78454.7,61009.8,307647
1.004,0.00523031,42231.2,4827.91,17215.1,174318,77018.7,62178.6,307643
1.006,0.00524693,41704.8,4695.1,17643.1,173196,75582.6,63347.4,307639
1.008,0.00526356,41178.4,4562.29,18071.1,172074,74146.5,64516.2,307635
1.01,0.00528018,40652.1,4429.49,18499.1,170951,72710.5,65685,307631
1.012,0.00529681,40125.7,4296.68,18927,169829,71274.5,66853.7,307627
1.014,0.00531343,39599.3,4163.87,19355,168707,69838.4,68022.6,307623
1.016,0.00533006,39072.9,4031.07,19783,167585,68402.4,69191.3,307619
1.018,0.00534668,38546.5,3898.26,20211,166463,66966.4,70360.1,307615
1.02,0.00536331,38020.2,3765.46,20639,165341,65530.3,71528.9,307611
1.022,0.00537993,37493.8,3632.66,21067,164218,64094.3,72697.7,307607
1.024,0.00539657,36890.2,3534.23,21530.3,163095,62683.2,73847.4,307711
1.026,0.00541313,37280.4,2993.36,21539.4,161982,60951.1,75242.4,306417
1.028,0.00542988,35593.9,1763.01,21377.4,159971,59492.9,71676.6,308044
1.03,0.00544672,33804.4,674.01,22369.5,157943,58804.5,67027.1,308856
1.032,0.00546357,32014.8,-414.99,23361.6,155915,58116.1,62377.5,309668
1.034,0.00548042,30225.1,-1504.06,24353.7,153887,57427.7,57727.6,310481
1.036,0.00549726,28435.5,-2593.06,25345.8,151859,56739.4,53078.1,311293
1.038,0.00551411,26645.9,-3682.06,26337.8,149831,56051,48428.5,312106
1.04,0.00553096,24856.3,-4771.06,27329.9,147803,55362.6,43778.9,312918
1.042,0.0055478,23066.7,-5860.12,28322,145775,54674.2,39129.1,313731
1.044,0.00556466,21988,-6460.25,29834.9,142860,54462.1,35835.5,313275
1.046,0.00558165,22024.1,-6031.88,30334.2,144427,55275.1,34502.1,308415
1.048,0.00559865,22055.8,-5597.84,30769.4,146195,56094.4,33154.8,303483
1.05,0.00561564,22087.4,-5163.81,31204.6,147962,56913.8,31807.4,298551
1.052,0.00563264,22119.1,-4729.75,31639.9,149730,57733.1,30460,293619
1.054,0.00564963,22150.8,-4295.71,32075.1,151497,58552.4,29112.7,288687
1.056,0.00566663,22182.5,-3861.67,32510.3,153265,59371.7,27765.4,283755
1.058,0.00568363,22214.2,-3427.64,32945.5,155032,60191,26418.1,278823
1.06,0.00570062,22245.9,-2993.6,33380.8,156800,61010.3,25070.7,273891
1.062,0.00571762,22277.6,-2559.54,33816,158568,61829.7,23723.3,268958
1.064,0.00573461,22309.2,-2125.5,34251.2,160335,62649,22376,264026
1.066,0.00575161,22340.9,-1691.47,34686.5,162103,63468.3,21028.7,259094
1.068,0.00576861,22372.6,-1257.43,35121.7,163870,64287.6,19681.3,254162
1.07,0.0057856,22404.3,-823.37,35556.9,165638,65107,18333.9,249230
1.072,0.0058026,22436,-389.334,35992.2,167405,65926.3,16986.6,244298
1.074,0.00581961,22493.6,378.605,36019.1,167950,66077.5,16103.7,237745
1.076,0.00583669,22625,2093.77,34888,165025,64333.7,16538.5,226594
1.078,0.00585375,22756.3,3808.93,33756.9,162099,62589.9,16973.3,215443
1.08,0.00587085,22543.3,5375.01,32945.9,158795,60911.3,16913.5,206057
1.082,0.00588805,21532.1,6041,33112.8,155714,59859.4,15348.7,205166
1.084,0.0059053,21239.5,6039.09,33028,155373,59510.4,14182.4,208371
1.086,0.00592256,20946.9,6037.19,32943.3,155031,59161.3,13016.1,211575
1.088,0.00593981,20654.3,6035.28,32858.5,154689,58812.2,11849.7,214780
1.09,0.00595707,20361.8,6033.38,32773.7,154347,58463.1,10683.4,217985
1.092,0.00597432,20069.2,6031.47,32688.9,154005,58114,9517.06,221189
1.094,0.00599158,19776.6,6029.57,32604.1,153663,57764.9,8350.74,224394
1.096,0.00600883,19484.1,6027.66,32519.3,153321,57415.9,7184.42,227598
1.098,0.00602608,19191.5,6025.76,32434.6,152979,57066.8,6018.03,230803
1.1,0.00604334,18898.9,6023.85,32349.8,152637,56717.7,4851.71,234008
1.102,0.00606059,18606.3,6021.95,32265,152295,56368.6,3685.39,237212
1.104,0.00607785,18313.8,6020.04,32180.2,151953,56019.5,2519.07,240417
1.106,0.0060951,18021.2,6018.14,32095.4,151611,55670.5,1352.75,243621
1.108,0.00611236,18467.8,6045.36,31256.8,150419,55185.1,881.704,245198
1.11,0.00612962,19220.6,6084.64,30106,148874,54643.4,698.6,246101
1.112,0.00614688,19973.3,6123.92,28955.2,147329,54101.7,515.496,247004
1.114,0.00616414,20726,6163.2,27804.5,145784,53560,332.391,247907
1.116,0.0061814,21478.7,6202.48,26653.6,144239,53018.2,149.276,248810
1.118,0.00619867,22231.5,6241.76,25502.8,142694,52476.5,-33.8281,249713
1.12,0.00621593,22984.2,6281.04,24352.1,141150,51934.8,-216.932,250616
1.122,0.00623329,23400.9,7180.58,22017.7,139013,51792.8,1565.5,247896
1.124,0.00625066,23750.1,8253.02,19445.4,136757,51731,3742.96,244448
1.126,0.00626804,24099.4,9325.52,16872.9,134500,51669.3,5920.54,241000
1.128,0.00628542,24448.6,10398,14300.6,132244,51607.5,8098,237552
1.13,0.0063028,24797.8,11470.4,11728.3,129988,51545.8,10275.5,234104
1.132,0.00632018,25147,12542.8,9156.04,127732,51484.1,12452.9,230656
1.134,0.0063376,25248.5,13283.2,7554.88,125456,51646.8,14331.9,227548
1.136,0.00635507,24982.8,13531.4,7393.46,123149,52142.3,15768.4,224943
1.138,0.00637254,24717,13779.5,7232.05,120843,52637.7,17204.8,222339
1.14,0.00639001,24595.3,13639.1,6945.49,119254,52168.6,17134.4,218956
1.142,0.00640747,24499.4,13429.2,6636.54,117793,51526.8,16794.1,215435
1.144,0.00642493,24403.5,13219.2,6327.56,116333,50884.9,16453.9,211913
1.146,0.00644239,24307.6,13009.3,6018.6,114872,50243.1,16113.7,208391
1.148,0.00645985,24211.7,12799.3,5709.64,113412,49601.3,15773.5,204869
1.15,0.00647731,24115.8,12589.4,5400.68,111952,48959.5,15433.3,201347
1.152,0.00649477,24019.8,12379.5,5091.73,110491,48317.7,15093.1,197826
1.154,0.00651224,23923.9,12169.5,4782.75,109031,47675.8,14752.9,194304
1.156,0.0065297,23828,11959.6,4473.79,107570,47034,14412.6,190782
1.158,0.00654716,23732.1,11749.6,4164.83,106110,46392.2,14072.4,187260
1.16,0.00656462,23636.2,11539.7,3855.87,104649,45750.4,13732.2,183738
1.162,0.00658208,23540.3,11329.8,3546.92,103189,45108.6,13392,180217
1.164,0.00659954,23444.4,11119.8,3237.94,101728,44466.8,13051.8,176695
1.166,0.00661701,23348.5,10909.9,2928.98,100268,43824.9,12711.6,173173
1.168,0.00663447,23137.9,10771.3,2570.07,99380.3,43122.3,12413.2,170104
1.17,0.00665194,22647.5,10806.9,2089.16,99892,42271.1,12217.2,168141
1.172,0.00666941,22157.1,10842.5,1608.22,100404,41419.9,12021.1,166178
1.174,0.00668689,21666.6,10878,1127.31,100915,40568.7,11825.1,164215
1.176,0.00670436,21176.2,10913.6,646.404,101427,39717.5,11629,162252
1.178,0.00672187,20049.7,10598.5,272.288,100523,38758.4,10547.7,160083
1.18,0.0067395,17446,9468.88,146.168,96330,37548.8,7410.69,157438
1.182,0.00675712,14842.1,8339.19,20.0415,92137.1,36339.1,4273.5,154792
1.184,0.00677474,12238.3,7209.57,-106.078,87944.4,35129.4,1136.5,152147
1.186,0.00679236,9634.62,6079.95,-232.197,83751.8,33919.8,-2000.5,149502
1.188,0.00680998,7030.89,4950.33,-358.317,79559.2,32710.1,-5137.51,146857
1.19,0.00682765,6982.09,4823.02,-270.959,79981.1,32695.6,-4944.95,146204
1.192,0.00684532,7516.4,4924.47,-134.886,81456.2,32953.8,-3992.51,146006
1.194,0.00686299,8050.71,5025.91,1.18696,82931.3,33212,-3040.07,145807
1.196,0.00688066,8585.02,5127.36,137.26,84406.3,33470.3,-2087.63,145609
1.198,0.00689833,9119.33,5228.81,273.333,85881.4,33728.5,-1135.19,145411
1.2,0.006916,9653.67,5330.27,409.414,87356.6,33986.7,-182.688,145213
1.202,0.00693367,10188,5431.72,545.487,88831.7,34244.9,769.753,145015
1.204,0.00695135,10722.3,5533.17,681.56,90306.8,34503.2,1722.19,144816
1.206,0.00696902,11256.6,5634.62,817.633,91781.8,34761.4,2674.64,144618
1.208,0.00698669,11790.9,5736.07,953.706,93256.9,35019.6,3627.08,144420
1.21,0.00700436,12325.3,5837.52,1089.79,94732.1,35277.8,4579.57,144222
1.212,0.00702203,12859.6,5938.97,1225.86,96207.2,35536.1,5532.01,144024
1.214,0.0070397,13393.9,6040.42,1361.93,97682.3,35794.3,6484.46,143825
1.216,0.00705739,13895.8,6480.97,1612.9,99864,36068.3,8040.71,144422
1.218,0.0070751,14358.6,7332.57,2003.15,102902,36361.3,10328.9,145981
1.22,0.0070928,16479.5,8152.69,2424.98,106829,37139.6,13279.8,147732
1.222,0.00711051,19787.8,8950.33,2869.45,111393,38265.3,16705.3,149622
1.224,0.00712821,23096,9747.96,3313.92,115957,39390.9,20130.9,151512
1.226,0.00714592,26404.3,10545.6,3758.39,120520,40516.6,23556.4,153401
1.228,0.00716363,29712.8,11343.3,4202.89,125084,41642.4,26982.1,155291
1.23,0.00718133,33021.1,12140.9,4647.36,129648,42768.1,30407.6,157181
1.232,0.00719908,35783.2,12566.6,4658.91,131805,43657,32821.7,157305
1.234,0.00721693,37521,12294.8,3858.59,129448,44102,33339,154117
1.236,0.00723476,38067.8,11997.9,3303.58,126709,44347.5,33506.5,152385
1.238,0.00725259,37305.1,11673.4,3018.27,123549,44373.6,33289.3,152255
1.24,0.00727042,36542.4,11348.8,2732.99,120390,44399.8,33072.2,152124
1.242,0.00728824,35779.8,11024.3,2447.71,117230,44425.9,32855,151994
1.244,0.00730607,35017.1,10699.7,2162.42,114071,44452,32637.8,151863
1.246,0.0073239,34254.4,10375.2,1877.12,110911,44478.1,32420.6,151732
1.248,0.00734173,33491.7,10050.6,1591.84,107751,44504.2,32203.5,151602
1.25,0.00735955,32729.1,9726.07,1306.55,104592,44530.3,31986.3,151471
1.252,0.00737738,31966.4,9401.52,1021.27,101432,44556.4,31769.1,151341
1.254,0.00739521,31203.8,9076.97,735.982,98272.6,44582.5,31552,151210
1.256,0.00741304,30441.1,8752.41,450.681,95112.8,44608.6,31334.8,151080
1.258,0.00743086,29678.4,8427.86,165.396,91953.3,44634.7,31117.6,150949
1.26,0.00744871,29483.7,8155.87,-73.9883,89996.8,44473.1,31117.2,152621
1.262,0.00746656,29476.1,7901.2,-298.257,88436.5,44249.6,31188.2,154887
1.264,0.00748441,29468.5,7646.5,-522.54,86876.1,44026.1,31259.1,157153
1.266,0.00750226,29460.8,7391.83,-746.809,85315.9,43802.7,31330.1,159418
1.268,0.00752012,29453.2,7137.15,-971.078,83755.6,43579.2,31401.1,161684
1.27,0.00753797,29445.6,6882.47,-1195.35,82195.3,43355.7,31472,163949
1.272,0.00755582,29438,6627.8,-1419.62,80635,43132.3,31543,166215
1.274,0.00757367,29430.3,6373.1,-1643.9,79074.7,42908.8,31614,168481
1.276,0.00759161,29536.5,5736.53,-1827.72,79069.3,41745.8,32092,170167
1.278,0.00760957,29661.5,5036.86,-2004.87,79321,40427.6,32637.4,171757
1.28,0.00762752,29786.4,4337.19,-2182.01,79572.6,39109.4,33182.8,173347
1.282,0.00764548,29911.4,3637.52,-2359.15,79824.2,37791.2,33728.1,174937
1.284,0.00766343,30036.3,2937.8,-2536.31,80075.8,36472.9,34273.5,176528
1.286,0.00768139,30161.3,2238.13,-2713.45,80327.4,35154.7,34818.9,178118
1.288,0.00769934,30286.2,1538.46,-2890.6,80579,33836.5,35364.2,179708
1.29,0.0077173,30411.2,838.788,-3067.74,80830.6,32518.3,35909.6,181298
1.292,0.00773531,30602.6,761.882,-3210.91,81228.6,31912.5,35996.8,180806
1.294,0.00775333,30813.5,868.23,-3344.07,81669.6,31516.3,35949.1,179701
1.296,0.00777137,30352.8,1070.71,-3051.69,80437.3,31119.8,34932.5,178353
1.298,0.00778942,29835.9,1281.24,-2723.7,79065,30723.3,33834.8,176984
1.3,0.00780746,29318.9,1491.76,-2395.71,77692.8,30326.8,32737.1,175615
1.302,0.0078255,28802,1702.3,-2067.69,76320.4,29930.3,31639.4,174246
1.304,0.00784354,28285.1,1912.83,-1739.7,74948.1,29533.8,30541.7,172877
1.306,0.00786158,27768.1,2123.35,-1411.71,73575.8,29137.3,29444.1,171508
1.308,0.00787962,27251.2,2333.88,-1083.72,72203.5,28740.8,28346.4,170139
1.31,0.00789766,26734.3,2544.41,-755.726,70831.2,28344.3,27248.7,168771
1.312,0.00791571,26217.3,2754.94,-427.715,69458.8,27947.7,26151,167402
1.314,0.00793375,25700.4,2965.47,-99.7225,68086.5,27551.2,25053.3,166033
1.316,0.00795179,25183.4,3176,228.27,66714.3,27154.7,23955.6,164664
1.318,0.00796983,24666.5,3386.52,556.262,65342,26758.2,22857.9,163295
1.32,0.00798787,24149.5,3597.06,884.273,63969.6,26361.7,21760.2,161926
1.322,0.00800591,23751,3839.78,1188.52,63324.2,26061.5,20868.8,159991
1.324,0.00802394,23707.4,4179.02,1421.58,64857.9,26050,20595.6,156358
1.326,0.00804196,23663.8,4518.26,1654.64,66391.5,26038.5,20322.5,152724
1.328,0.00805999,23620.2,4857.49,1887.7,67925.1,26027,20049.3,149091
1.33,0.00807802,23576.5,5196.75,2120.77,69458.8,26015.6,19776.1,145458
1.332,0.00809605,23532.9,5535.99,2353.83,70992.5,26004.1,19503,141824
1.334,0.00811408,23489.3,5875.22,2586.89,72526.1,25992.6,19229.8,138191
1.336,0.0081321,23445.7,6214.46,2819.95,74059.7,25981.1,18956.7,134558
1.338,0.00815013,23402.1,6553.72,3053.03,75593.4,25969.6,18683.5,130924
1.34,0.00816816,23358.5,6892.95,3286.09,77127,25958.1,18410.3,127291
1.342,0.00818622,23150,6963.08,3583.88,76269.7,26119.1,18120.6,123864
1.344,0.00820432,22683.8,6612.13,3982.97,71671.1,26550,17804.9,120760
1.346,0.00822242,22217.5,6261.18,4382.05,67072.5,26980.8,17489.2,117655
1.348,0.00824052,21751.2,5910.2,4781.16,62473.6,27411.7,17173.5,114550
1.35,0.00825863,21284.9,5559.25,5180.25,57875,27842.6,16857.9,111446
1.352,0.00827673,20818.7,5208.3,5579.33,53276.3,28273.4,16542.2,108342
1.354,0.00829483,20352.4,4857.34,5978.42,48677.7,28704.3,16226.5,105237
1.356,0.00831293,19886.1,4506.39,6377.5,44079.1,29135.1,15910.8,102133
1.358,0.00833104,19419.8,4155.42,6776.61,39480.2,29566,15595.1,99027.9
1.36,0.00834917,19156.7,3971.9,7198.89,37191.6,30101.6,16059.7,99286.3
1.362,0.00836734,19018.2,3891.28,7635.41,36322.3,30701.5,17003.7,101611
1.364,0.0083855,18879.8,3810.65,8071.93,35453,31301.4,17947.7,103936
1.366,0.00840367,18702.8,3750.27,8384.9,34835.1,31782.7,18512.7,105409
1.368,0.00842187,18449.5,3729.84,8454,34713.1,32030,18329.7,105201
1.37,0.00844006,18196.2,3709.41,8523.09,34591.1,32277.2,18146.6,104992
1.372,0.00845825,17943,3688.98,8592.18,34469.2,32524.5,17963.6,104784
1.374,0.00847644,17689.7,3668.55,8661.27,34347.2,32771.8,17780.6,104575
1.376,0.00849463,17436.4,3648.11,8730.36,34225.2,33019,17597.5,104367
1.378,0.00851282,17183.1,3627.68,8799.46,34103.3,33266.3,17414.5,104159
1.38,0.00853101,16929.8,3607.25,8868.55,33981.3,33513.6,17231.4,103950
1.382,0.0085492,16676.6,3586.82,8937.64,33859.4,33760.8,17048.4,103742
1.384,0.00856739,16423.3,3566.39,9006.73,33737.4,34008.1,16865.4,103533
1.386,0.00858559,16170,3545.96,9075.82,33615.4,34255.4,16682.3,103325
1.388,0.00860378,15916.7,3525.53,9144.92,33493.5,34502.6,16499.3,103116
1.39,0.00862197,15663.5,3505.09,9214.01,33371.5,34749.9,16316.2,102908
1.392,0.00864016,15410.2,3484.66,9283.1,33249.6,34997.2,16133.2,102700
1.394,0.00865836,15220.3,3462.6,9307.99,33258,35196.9,15929.5,102336
1.396,0.00867661,15557.7,3426.92,8964.95,34352.2,35000.6,15553.8,100684
1.398,0.00869487,15895.2,3391.24,8621.91,35446.3,34804.3,15178.1,99031
1.4,0.00871312,16232.7,3355.56,8278.87,36540.5,34608,14802.4,97378.3
1.402,0.0087314,16567.1,3546.81,7422.33,39446.5,34365.7,15255.4,99163.5
1.404,0.00874968,16901.1,3768.65,6496.52,42596.9,34117.1,15820.1,101412
1.406,0.00876796,17235,3990.49,5570.77,45747.1,33868.6,16384.8,103661
1.408,0.00878623,17569,4212.33,4645.02,48897.3,33620.1,16949.4,105909
1.41,0.00880451,17903,4434.16,3719.27,52047.5,33371.5,17514.1,108158
1.412,0.00882279,18236.9,4656,2793.51,55197.8,33123,18078.7,110406
1.414,0.00884107,18570.9,4877.85,1867.71,58348.2,32874.4,18643.4,112655
1.416,0.00885938,18686,4996.72,1310.59,59579.6,32582.1,18854,113471
1.418,0.00887771,18625.9,5033.2,1048.5,59275.2,32254.8,18781.1,113141
1.42,0.00889604,18565.7,5069.68,786.415,58970.9,31927.5,18708.2,112810
1.422,0.00891437,18505.6,5106.15,524.313,58666.5,31600.2,18635.4,112480
1.424,0.00893271,18445.5,5142.63,262.227,58362.1,31272.9,18562.5,112149
1.426,0.00895104,18385.4,5179.1,0.140593,58057.8,30945.6,18489.7,111819
1.428,0.00896937,18155.4,5166.9,-266.934,57267.4,30556.6,18328.1,111110
1.43,0.00898769,17486.9,5028.98,-546.892,55221.7,30008,17937.3,109422
1.432,0.00900601,16818.3,4891.05,-826.866,53175.8,29459.4,17546.5,107733
1.434,0.00902433,16149.8,4753.12,-1106.82,51130.1,28910.8,17155.7,106045
1.436,0.00904265,15481.3,4615.2,-1386.78,49084.4,28362.2,16764.9,104357
1.438,0.00906097,14812.8,4477.28,-1666.74,47038.6,27813.6,16374.1,102669
1.44,0.00907929,14144.2,4339.35,-1946.71,44992.8,27265,15983.3,100981
1.442,0.00909761,13475.7,4201.42,-2226.67,42947.1,26716.4,15592.6,99293.1
1.444,0.00911593,12839.6,4080.13,-2493,41073.2,26182.6,15214,97675.6
1.446,0.00913425,12648.3,4186.77,-2572.51,41555.6,25851.2,15002.4,97026.2
1.448,0.00915257,12457,4293.41,-2652.02,42038.1,25519.9,14790.9,96376.8
1.45,0.00917089,12265.7,4400.05,-2731.54,42520.5,25188.6,14579.3,95727.4
1.452,0.00918921,12074.4,4506.69,-2811.05,43003,24857.2,14367.8,95078
1.454,0.00920753,11883.1,4613.34,-2890.56,43485.4,24525.9,14156.2,94428.6
1.456,0.00922585,11691.8,4719.98,-2970.07,43967.8,24194.6,13944.7,93779.2
1.458,0.00924417,11500.4,4826.62,-3049.58,44450.3,23863.3,13733.1,93129.8
1.46,0.00926249,11309.1,4933.26,-3129.09,44932.7,23531.9,13521.6,92480.4
1.462,0.00928081,11117.8,5039.91,-3208.6,45415.1,23200.6,13310,91831
1.464,0.00929913,10926.5,5146.55,-3288.11,45897.6,22869.3,13098.5,91181.6
1.466,0.00931745,10735.2,5253.19,-3367.62,46380,22537.9,12886.9,90532.2
1.468,0.00933577,10543.9,5359.83,-3447.14,46862.5,22206.6,12675.4,89882.7
1.47,0.0093541,10352.5,5466.47,-3526.65,47344.9,21875.3,12463.8,89233.3
1.472,0.00937242,10161.2,5573.12,-3606.16,47827.3,21543.9,12252.3,88583.9
1.474,0.00939074,9969.91,5679.76,-3685.67,48309.8,21212.6,12040.7,87934.5
1.476,0.00940906,9778.6,5786.4,-3765.18,48792.2,20881.3,11829.2,87285.1
1.478,0.00942738,9587.27,5893.04,-3844.69,49274.7,20549.9,11617.6,86635.7
1.48,0.00944573,9368.16,5729.74,-3467.1,48230.8,20639,11057.2,85521.6
1.482,0.00946411,9129.07,5372.45,-2761.02,46089.9,21030,10246.1,84073.6
1.484,0.00948249,8889.99,5015.16,-2054.94,43949.1,21421.1,9434.95,82625.6
1.486,0.00950086,8650.9,4657.87,-1348.85,41808.3,21812.2,8623.81,81177.6
1.488,0.00951924,8411.8,4300.56,-642.729,39667.4,22203.3,7812.63,79729.4
1.49,0.00953761,8172.71,3943.27,63.3527,37526.6,22594.3,7001.49,78281.4
1.492,0.00955599,7933.62,3585.98,769.435,35385.8,22985.4,6190.36,76833.4
1.494,0.00957437,7694.53,3228.69,1475.52,33245,23376.5,5379.22,75385.4
1.496,0.00959277,7525.54,3110.55,2158.1,32812.1,23478.2,4852.65,75179.1
1.498,0.00961117,7400.96,3143.92,2825.74,33461.1,23396.7,4506.4,75759.6
1.5,0.00962958,7276.38,3177.3,3493.38,34110,23315.2,4160.14,76340
1.502,0.00964799,7151.81,3210.67,4161.02,34759,23233.6,3813.89,76920.4
1.504,0.0096664,7034,3252.94,4789.35,35407.6,23142.1,3484.36,77390.6
1.506,0.00968487,7043.84,3463.04,4676.76,36047.4,22861.8,3470.22,75781.7
1.508,0.00970333,7053.68,3673.12,4564.18,36687.2,22581.5,3456.07,74172.9
1.51,0.00972179,7063.52,3883.2,4451.6,37327,22301.2,3441.92,72564.2
1.512,0.00974025,7073.35,4093.28,4339.03,37966.8,22020.9,3427.77,70955.4
1.514,0.00975871,7083.19,4303.38,4226.44,38606.6,21740.6,3413.62,69346.5
1.516,0.00977715,7039.09,4315.23,4034.09,37781.7,21522.6,3746.53,68015.6
1.518,0.00979559,6984.69,4289.26,3826.52,36677.3,21316.4,4145.68,66737.6
1.52,0.00981404,6930.3,4263.29,3618.95,35572.9,21110.3,4544.83,65459.7
1.522,0.00983248,6875.9,4237.32,3411.38,34468.5,20904.1,4943.98,64181.7
1.524,0.00985092,6821.5,4211.34,3203.8,33364,20698,5343.15,62903.7
1.526,0.00986937,6767.1,4185.37,2996.22,32259.6,20491.8,5742.3,61625.7
1.528,0.00988781,6712.7,4159.4,2788.65,31155.2,20285.7,6141.45,60347.8
1.53,0.00990625,6658.31,4133.42,2581.08,30050.8,20079.5,6540.59,59069.8
1.532,0.00992469,6610.63,4116,2384.14,29030.8,19873,6901.33,57845.5
1.534,0.00994313,6667.81,4232.02,2353,29327.3,19660.5,6662.75,57458.5
1.536,0.00996156,6724.99,4348.03,2321.86,29623.7,19448,6424.18,57071.4
1.538,0.00997999,6782.17,4464.05,2290.73,29920.2,19235.6,6185.61,56684.3
1.54,0.00999843,6839.35,4580.06,2259.59,30216.7,19023.1,5947.04,56297.3
1.542,0.0100169,6896.53,4696.08,2228.45,30513.2,18810.6,5708.46,55910.2
1.544,0.0100353,6953.71,4812.1,2197.32,30809.7,18598.1,5469.89,55523.1
1.546,0.0100537,7010.88,4928.11,2166.18,31106.2,18385.7,5231.32,55136.1
1.548,0.0100722,7068.06,5044.12,2135.05,31402.7,18173.2,4992.75,54749
1.55,0.0100906,7125.24,5160.14,2103.91,31699.1,17960.7,4754.18,54362
1.552,0.010109,7182.42,5276.16,2072.77,31995.6,17748.2,4515.59,53974.9
1.554,0.0101275,7182.27,5294.75,2155.44,31990.6,17667,4655.67,53910.3
1.556,0.010146,7148.44,5256.13,2304.95,31808.5,17662.9,5018.14,54035
1.558,0.0101645,7114.61,5217.5,2454.46,31626.4,17658.7,5380.6,54159.7
1.56,0.0101829,7080.79,5178.88,2603.97,31444.3,17654.6,5743.07,54284.4
1.562,0.0102014,7046.96,5140.26,2753.49,31262.2,17650.4,6105.56,54409.1
1.564,0.0102199,7013.13,5101.63,2903,31080,17646.3,6468.02,54533.8
1.566,0.0102384,6979.3,5063.01,3052.51,30897.9,17642.1,6830.49,54658.6
1.568,0.0102569,6945.48,5024.39,3202.03,30715.8,17638,7192.96,54783.3
1.57,0.0102754,6911.65,4985.76,3351.54,30533.7,17633.8,7555.44,54908
1.572,0.0102939,6877.82,4947.14,3501.06,30351.6,17629.7,7917.91,55032.7
1.574,0.0103123,6843.99,4908.52,3650.57,30169.5,17625.6,8280.38,55157.4
1.576,0.0103308,6942.12,4855.69,3984.88,30025.1,17553.5,8454.12,55099.3
1.578,0.0103493,7152.16,4790.8,4475.96,29912.6,17423.9,8467.78,54885.9
1.58,0.0103678,7362.22,4725.91,4967.07,29800.2,17294.2,8481.44,54672.6
1.582,0.0103863,7572.26,4661.02,5458.14,29687.8,17164.6,8495.1,54459.3
1.584,0.0104048,7782.3,4596.14,5949.22,29575.3,17034.9,8508.76,54245.9
1.586,0.0104234,7992.35,4531.25,6440.29,29462.9,16905.3,8522.42,54032.6
1.588,0.0104419,8202.4,4466.36,6931.4,29350.5,16775.6,8536.08,53819.2
1.59,0.0104604,8412.45,4401.48,7422.48,29238,16646,8549.74,53605.9
1.592,0.0104789,8622.49,4336.59,7913.55,29125.6,16516.3,8563.4,53392.6
1.594,0.0104974,8663.5,4287.57,7908.4,28922.8,16483.7,8692.65,53404.4
1.596,0.0105159,8668.34,4241.94,7797.04,28700.8,16471.8,8846.65,53464.3
1.598,0.0105344,8673.17,4196.31,7685.67,28478.7,16460,9000.66,53524.3
1.6,0.0105529,8678.01,4150.68,7574.31,28256.6,16448.1,9154.66,53584.3
1.602,0.0105714,8682.84,4105.05,7462.96,28034.5,16436.2,9308.66,53644.3
1.604,0.0105899,8687.68,4059.42,7351.6,27812.5,16424.4,9462.65,53704.2
1.606,0.0106085,8452.01,4025.4,7156.43,26622.3,16300.4,9278.27,52847.1
1.608,0.010627,8056.23,3999.1,6905.46,24787.6,16101.9,8868.61,51379.4
1.61,0.0106455,7660.46,3972.8,6654.51,22953,15903.4,8458.96,49911.8
1.612,0.010664,7264.7,3946.51,6403.55,21118.4,15704.9,8049.32,48444.2
1.614,0.0106826,6868.94,3920.21,6152.6,19283.8,15506.4,7639.68,46976.6
1.616,0.0107011,6473.15,3893.92,5901.63,17449.1,15307.9,7230.01,45508.9
1.618,0.0107196,6077.38,3867.62,5650.67,15614.5,15109.4,6820.37,44041.3
1.62,0.0107382,5681.62,3841.32,5399.72,13779.9,14910.9,6410.72,42573.7
1.622,0.0107567,5546.66,3826.28,5212.3,12861.3,14790.2,6231.19,41726.4
1.624,0.0107752,5706.79,3823.95,5096.79,12979.4,14757.7,6312.03,41581
1.626,0.0107938,5866.94,3821.63,4981.26,13097.4,14725.1,6392.88,41435.5
1.628,0.0108123,6027.07,3819.31,4865.74,13215.5,14692.6,6473.72,41290
1.63,0.0108308,6187.2,3816.99,4750.22,13333.5,14660,6554.56,41144.6
1.632,0.0108494,6347.34,3814.66,4634.71,13451.6,14627.5,6635.4,40999.1
1.634,0.0108679,6507.47,3812.34,4519.19,13569.6,14594.9,6716.24,40853.6
1.636,0.0108865,6667.62,3810.02,4403.66,13687.7,14562.4,6797.08,40708.2
1.638,0.010905,6827.75,3807.69,4288.14,13805.7,14529.8,6877.92,40562.7
1.64,0.0109235,6987.89,3805.37,4172.63,13923.8,14497.3,6958.76,40417.2
1.642,0.0109421,7148.02,3803.05,4057.11,14041.8,14464.7,7039.6,40271.8
1.644,0.0109606,7308.17,3800.73,3941.58,14159.9,14432.2,7120.45,40126.3
1.646,0.0109791,7468.3,3798.4,3826.06,14277.9,14399.6,7201.29,39980.8
1.648,0.0109977,7628.44,3796.08,3710.55,14395.9,14367.1,7282.13,39835.4
1.65,0.0110162,7788.57,3793.76,3595.03,14514,14334.5,7362.97,39689.9
1.652,0.0110348,7948.7,3791.44,3479.51,14632,14302,7443.81,39544.4
1.654,0.0110533,8108.85,3789.11,3363.98,14750.1,14269.4,7524.65,39398.9
1.656,0.0110719,8197.23,3829.86,3213.48,14883.2,14228.7,7632.12,39143.2
1.658,0.0110904,8218.09,3688.41,2874.97,14336.7,14237.4,7708.85,38569.9
1.66,0.011109,8083.68,3453.22,2609.09,13496.8,14241.2,7545.99,37867.9
1.662,0.0111275,7949.27,3218.02,2343.21,12656.9,14245,7383.13,37166
1.664,0.0111461,7814.85,2982.81,2077.31,11817,14248.8,7220.26,36464
1.666,0.0111647,7680.44,2747.62,1811.43,10977.1,14252.6,7057.4,35762
1.668,0.0111832,7546.02,2512.43,1545.55,10137.2,14256.4,6894.54,35060.1
1.67,0.0112018,7411.61,2277.23,1279.67,9297.28,14260.2,6731.68,34358.1
1.672,0.0112204,7277.19,2042.02,1013.78,8457.33,14263.9,6568.81,33656.1
1.674,0.0112389,7142.78,1806.83,747.898,7617.44,14267.7,6405.95,32954.2
1.676,0.0112575,6731.66,1404.58,611.456,6254.58,14262.8,5816.13,32022.9
1.678,0.0112761,6805.36,1286.11,523.107,5992.32,14238.1,5749.53,32243.9
1.68,0.0112946,6894.33,1176.69,433.233,5762.72,14213.2,5701.91,32493
1.682,0.0113132,6983.32,1067.26,343.354,5533.1,14188.2,5654.29,32742
1.684,0.0113318,7072.29,957.836,253.481,5303.5,14163.3,5606.67,32991
1.686,0.0113503,7161.27,848.413,163.608,5073.9,14138.4,5559.05,33240.1
1.688,0.0113689,7250.33,730.923,69.0393,4889.98,14092.3,5514.59,33525.9
1.69,0.0113875,7339.45,608.958,-28.1357,4731.34,14034.6,5471.86,33832.2
1.692,0.011406,7428.56,487,-125.305,4572.71,13976.8,5429.14,34138.4
1.694,0.0114246,7517.68,365.042,-222.474,4414.08,13919,5386.42,34444.7
1.696,0.0114432,7606.79,243.084,-319.643,4255.46,13861.3,5343.7,34751
1.698,0.0114617,7695.9,121.127,-416.812,4096.83,13803.5,5300.98,35057.2
1.7,0.0114803,7785.02,-0.838509,-513.987,3938.19,13745.7,5258.26,35363.5
1.702,0.0114989,7874.13,-122.796,-611.156,3779.57,13688,5215.54,35669.7
1.704,0.0115174,7963.24,-244.754,-708.325,3620.94,13630.2,5172.82,35976
1.706,0.011536,8052.36,-366.712,-805.494,3462.31,13572.4,5130.1,36282.3
1.708,0.0115546,8127.59,-465.919,-891.844,3313.15,13530,5076.85,36534.2
1.71,0.0115731,8134.51,-453.173,-924.957,3210.56,13563.2,4971.79,36519.2
1.712,0.0115917,8156.48,-421.917,-960.121,3147.59,13582.9,4895.76,36519.6
1.714,0.0116103,8255.98,-295.341,-1005.86,3288.57,13533.4,4969.2,36599.9
1.716,0.0116289,8355.48,-168.765,-1051.6,3429.56,13483.9,5042.63,36680.2
1.718,0.0116475,8454.99,-42.1815,-1097.34,3570.55,13434.3,5116.08,36760.5
1.72,0.0116661,8554.49,84.3945,-1143.07,3711.53,13384.8,5189.51,36840.8
1.722,0.0116847,8653.98,210.971,-1188.81,3852.52,13335.3,5262.95,36921.1
1.724,0.0117032,8753.48,337.547,-1234.55,3993.5,13285.7,5336.39,37001.4
1.726,0.0117218,8834.56,460.708,-1278.42,4145.16,13233.7,5395.86,37035.4
1.728,0.0117404,8716.61,546.985,-1302.14,4412.14,13154.7,5304.51,36569.1
1.73,0.011759,8598.67,633.258,-1325.86,4679.1,13075.8,5213.16,36102.9
1.732,0.0117776,8480.73,719.53,-1349.58,4946.06,12996.8,5121.82,35636.6
1.734,0.0117962,8362.79,805.803,-1373.3,5213.02,12917.8,5030.47,35170.4
1.736,0.0118148,8244.85,892.075,-1397.02,5479.98,12838.9,4939.13,34704.1
1.738,0.0118334,8126.9,978.353,-1420.74,5746.95,12759.9,4847.78,34237.8
1.74,0.011852,8008.96,1064.63,-1444.46,6013.92,12680.9,4756.43,33771.6
1.742,0.0118706,7891.02,1150.9,-1468.18,6280.88,12602,4665.08,33305.3
1.744,0.0118892,7773.08,1237.17,-1491.9,6547.84,12523,4573.74,32839.1
1.746,0.0119077,7655.13,1323.45,-1515.62,6814.81,12444,4482.39,32372.8
1.748,0.0119263,7537.19,1409.72,-1539.34,7081.77,12365.1,4391.04,31906.6
1.75,0.0119449,7419.25,1495.99,-1563.06,7348.73,12286.1,4299.7,31440.3
1.752,0.0119635,7301.31,1582.27,-1586.78,7615.69,12207.1,4208.35,30974.1
1.754,0.0119821,7183.37,1668.54,-1610.5,7882.65,12128.2,4117.01,30507.8
1.756,0.0120007,7065.42,1754.82,-1634.22,8149.63,12049.2,4025.65,30041.6
1.758,0.0120193,6940.68,1836.78,-1659.19,8393.86,11969.7,3936.16,29581.2
1.76,0.0120379,6607.54,1786.7,-1722.45,7942.16,11874.9,3903.24,29301.5
1.762,0.0120565,6249.54,1728.29,-1760.04,7464.85,11722.8,3806.83,28969.6
1.764,0.0120751,5857.18,1658.38,-1762.19,6952.16,11491.5,3622.73,28565.4
1.766,0.0120937,5464.83,1588.47,-1764.33,6439.49,11260.1,3438.64,28161.3
1.768,0.0121123,5072.49,1518.56,-1766.48,5926.82,11028.8,3254.54,27757.3
1.77,0.0121309,4680.14,1448.66,-1768.63,5414.15,10797.5,3070.45,27353.1
1.772,0.0121495,4287.8,1378.75,-1770.77,4901.48,10566.2,2886.35,26949
1.774,0.0121681,3895.43,1308.84,-1772.92,4388.78,10334.8,2702.25,26544.9
1.776,0.0121867,3762.05,1363.84,-1760.68,4361.59,10180.4,2721.29,26175.2
1.778,0.0122053,3683.05,1445.06,-1745.42,4436.35,10042.2,2782.99,25812.6
1.78,0.0122238,3604.05,1526.29,-1730.17,4511.1,9903.88,2844.68,25450.1
1.782,0.0122424,3525.05,1607.52,-1714.91,4585.85,9765.61,2906.38,25087.6
1.784,0.012261,3444.1,1684.03,-1692.26,4675.57,9623.88,2971.03,24731.5
1.786,0.0122796,3356.66,1744.82,-1644.98,4815.2,9470.67,3045.53,24397.3
1.788,0.0122982,3269.22,1805.6,-1597.71,4954.83,9317.46,3120.04,24063.1
1.79,0.0123168,3181.78,1866.38,-1550.43,5094.45,9164.25,3194.54,23728.8
1.792,0.0123354,3094.34,1927.16,-1503.15,5234.09,9011.03,3269.04,23394.6
1.794,0.012354,3006.9,1987.95,-1455.87,5373.72,8857.82,3343.54,23060.3
1.796,0.0123726,2919.46,2048.73,-1408.6,5513.34,8704.62,3418.05,22726.1
1.798,0.0123912,2832.02,2109.51,-1361.32,5652.97,8551.41,3492.55,22391.9
1.8,0.0124098,2744.58,2170.29,-1314.04,5792.6,8398.2,3567.05,22057.6
1.802,0.0124284,2657.14,2231.08,-1266.76,5932.23,8244.98,3641.55,21723.4
1.804,0.012447,2569.7,2291.86,-1219.48,6071.86,8091.77,3716.05,21389.2
1.806,0.0124656,2482.26,2352.64,-1172.21,6211.48,7938.56,3790.56,21054.9
1.808,0.0124842,2395.28,2366.3,-1130.34,5941.95,7810.98,3695.7,20659.6
1.81,0.0125028,2308.84,2326.29,-1094.64,5206.49,7712.59,3407.98,20194.7
1.812,0.0125215,2222.39,2286.29,-1058.93,4470.98,7614.19,3120.24,19729.8
1.814,0.0125401,2135.95,2246.29,-1023.22,3735.52,7515.79,2832.52,19264.9
1.816,0.0125587,2049.5,2206.28,-987.52,3000.05,7417.4,2544.79,18800
1.818,0.0125773,1963.06,2166.28,-951.816,2264.59,7319.01,2257.07,18335.1
1.82,0.0125959,1876.61,2126.27,-916.109,1529.08,7220.61,1969.33,17870.1
1.822,0.0126145,1790.17,2086.27,-880.404,793.612,7122.21,1681.61,17405.3
1.824,0.0126331,1712.96,2055.78,-857.297,185.67,7031.1,1432.01,16993.3
1.826,0.0126517,1684.34,2075.37,-900.517,249.189,6978.31,1383.13,16859.8
1.828,0.0126703,1655.72,2094.96,-943.737,312.707,6925.53,1334.25,16726.4
1.83,0.012689,1627.1,2114.55,-986.96,376.23,6872.74,1285.36,16592.9
1.832,0.0127076,1598.48,2134.14,-1030.18,439.749,6819.95,1236.48,16459.5
1.834,0.0127262,1569.86,2153.72,-1073.4,503.268,6767.17,1187.6,16326.1
1.836,0.0127448,1541.24,2173.31,-1116.62,566.787,6714.38,1138.71,16192.6
1.838,0.0127634,1512.62,2192.9,-1159.84,630.309,6661.59,1089.83,16059.2
1.84,0.012782,1484.01,2212.49,-1203.06,693.828,6608.81,1040.94,15925.8
1.842,0.0128006,1472.37,2232.12,-1238.17,843.546,6563.59,1012.64,15857.2
1.844,0.0128192,1548.36,2251.95,-1231.39,1438.11,6557.43,1090.5,16123.6
1.846,0.0128379,1624.35,2271.77,-1224.61,2032.68,6551.26,1168.36,16390
1.848,0.0128565,1700.35,2291.6,-1217.83,2627.29,6545.1,1246.22,16656.4
1.85,0.0128751,1776.34,2311.43,-1211.04,3221.86,6538.93,1324.09,16922.7
1.852,0.0128937,1876.93,2198.67,-1257.95,3216.04,6518.57,1355.66,16730
1.854,0.0129123,1992.13,2007.15,-1336.75,2853.51,6489.77,1359.74,16264.5
1.856,0.0129309,2107.33,1815.63,-1415.54,2490.99,6460.98,1363.81,15799
1.858,0.0129495,2222.54,1624.1,-1494.35,2128.44,6432.18,1367.89,15333.5
1.86,0.0129681,2447.65,1543.43,-1511.64,2403.8,6343.8,1663.48,15178
1.862,0.0129867,2682.2,1472.29,-1523.66,2733.97,6250.29,1984.1,15049.2
1.864,0.0130054,2916.74,1401.15,-1535.68,3064.13,6156.79,2304.73,14920.3
1.866,0.013024,3151.3,1330.01,-1547.69,3394.31,6063.29,2625.38,14791.5
1.868,0.0130426,3215.5,1279.98,-1479.63,3343.11,5941.21,2698.78,14542.2
1.87,0.0130612,3225.27,1236.71,-1385.99,3170.05,5810.01,2693.19,14254.4
1.872,0.0130798,3235.05,1193.43,-1292.35,2996.99,5678.8,2687.6,13966.6
1.874,0.0130984,3244.82,1150.15,-1198.71,2823.92,5547.59,2682.01,13678.9
1.876,0.013117,3254.59,1106.87,-1105.06,2650.85,5416.38,2676.41,13391.1
1.878,0.0131357,3320.55,1066.43,-1057.02,2650.15,5349.45,2676.52,13275.2
1.88,0.0131543,3391.39,1026.23,-1012.94,2664.4,5288.09,2677.11,13174.3
1.882,0.0131729,3462.23,986.037,-968.849,2678.65,5226.73,2677.71,13073.4
1.884,0.0131915,3533.06,945.841,-924.763,2692.9,5165.37,2678.3,12972.5
1.886,0.0132101,3603.9,905.642,-880.675,2707.15,5104.01,2678.9,12871.5
1.888,0.0132288,3674.74,865.446,-836.589,2721.39,5042.65,2679.49,12770.6
1.89,0.0132474,3745.57,825.25,-792.503,2735.64,4981.29,2680.09,12669.7
1.892,0.013266,3816.41,785.054,-748.417,2749.89,4919.93,2680.68,12568.7
1.894,0.0132846,3887.25,744.856,-704.329,2764.14,4858.57,2681.28,12467.8
1.896,0.0133032,3958.08,704.66,-660.243,2778.38,4797.21,2681.87,12366.9
1.898,0.0133218,4028.92,664.464,-616.157,2792.63,4735.86,2682.47,12265.9
1.9,0.0133405,4099.76,624.268,-572.071,2806.88,4674.5,2683.06,12165
1.902,0.0133591,4170.59,584.072,-527.985,2821.13,4613.14,2683.66,12064.1
1.904,0.0133777,4241.43,543.873,-483.897,2835.38,4551.78,2684.25,11963.1
1.906,0.0133963,4312.27,503.677,-439.811,2849.62,4490.42,2684.85,11862.2
1.908,0.0134149,4383.1,463.481,-395.725,2863.87,4429.06,2685.44,11761.3
1.91,0.0134336,4454.01,421.99,-351.216,2876.57,4368.44,2685.53,11660
1.912,0.0134522,4523.12,415.499,-318.132,2931.2,4287.92,2699.26,11567.9
1.914,0.0134708,4592.23,409.007,-285.047,2985.84,4207.4,2712.98,11475.7
1.916,0.0134894,4661.34,402.516,-251.963,3040.48,4126.88,2726.7,11383.6
1.918,0.013508,4730.45,396.024,-218.879,3095.12,4046.36,2740.42,11291.4
1.92,0.0135266,4799.56,389.533,-185.796,3149.75,3965.84,2754.15,11199.3
1.922,0.0135453,4868.68,383.042,-152.71,3204.39,3885.32,2767.87,11107.1
1.924,0.0135639,4937.79,376.55,-119.626,3259.03,3804.8,2781.59,11015
1.926,0.0135825,5006.9,370.059,-86.5425,3313.67,3724.28,2795.31,10922.9
1.928,0.0136011,5076.01,363.568,-53.4589,3368.3,3643.76,2809.03,10830.7
1.93,0.0136197,5145.12,357.077,-20.3752,3422.94,3563.24,2822.76,10738.6
1.932,0.0136384,5214.23,350.585,12.7105,3477.58,3482.72,2836.48,10646.4
1.934,0.013657,5251.05,360.306,50.372,3527.51,3419.95,2842.94,10563.2
1.936,0.0136756,5268.23,379.88,90.8162,3574.59,3367.98,2844.98,10485.3
1.938,0.0136942,5285.42,399.455,131.26,3621.66,3316,2847.03,10407.4
1.94,0.0137128,5302.61,419.031,171.707,3668.74,3264.02,2849.07,10329.6
1.942,0.0137314,5334.24,482.672,225.927,3590.89,3195,2832.86,10241.3
1.944,0.0137501,5372.99,568.02,286.934,3451.51,3117.59,2807.66,10147.8
1.946,0.0137687,5411.74,653.367,347.94,3312.12,3040.17,2782.46,10054.4
1.948,0.0137873,5450.49,738.714,408.946,3172.74,2962.76,2757.26,9960.98
1.95,0.0138059,5489.24,824.067,469.956,3033.34,2885.34,2732.06,9867.54
1.952,0.0138245,5527.99,909.414,530.963,2893.96,2807.93,2706.86,9774.1
1.954,0.0138432,5566.74,994.761,591.969,2754.57,2730.52,2681.66,9680.67
1.956,0.0138618,5605.49,1080.11,652.975,2615.19,2653.11,2656.46,9587.23
1.958,0.0138804,5644.24,1165.46,713.981,2475.8,2575.69,2631.26,9493.8
1.96,0.013899,5683,1250.81,774.991,2336.41,2498.28,2606.06,9400.36
1.962,0.0139176,5715.43,1335.77,838.646,2225.12,2421.14,2583.58,9304.12
1.964,0.0139363,5714.64,1418.69,916.222,2261.49,2345.42,2575.45,9193.12
1.966,0.0139549,5713.86,1501.62,993.797,2297.85,2269.71,2567.32,9082.12
1.968,0.0139735,5713.08,1584.55,1071.38,2334.22,2194,2559.19,8971.11
1.97,0.0139921,5712.3,1667.47,1148.95,2370.59,2118.28,2551.05,8860.11
1.972,0.0140107,5711.51,1750.4,1226.53,2406.95,2042.57,2542.92,8749.11
1.974,0.0140294,5710.73,1833.32,1304.1,2443.32,1966.86,2534.79,8638.12
1.976,0.014048,5707.79,1854.23,1314.37,2365.09,1936.39,2508.18,8552.19
1.978,0.0140666,5704.08,1852.55,1300.12,2245.13,1922.39,2474.85,8475.39
1.98,0.0140852,5700.36,1850.88,1285.88,2125.18,1908.4,2441.52,8398.6
1.982,0.0141038,5696.64,1849.2,1271.64,2005.23,1894.4,2408.2,8321.81
1.984,0.0141225,5692.92,1847.53,1257.39,1885.28,1880.4,2374.87,8245.01
1.986,0.0141411,5689.2,1845.85,1243.15,1765.33,1866.41,2341.54,8168.22
1.988,0.0141597,5727.65,1803.13,1251.57,1685.21,1846.12,2321.63,8091.17
1.99,0.0141783,5872.53,1656.81,1317.17,1705.61,1809.95,2335.58,8013.5
1.992,0.0141969,6017.41,1510.49,1382.78,1726.02,1773.78,2349.54,7935.82
1.994,0.0142156,6162.3,1364.18,1448.39,1746.42,1737.61,2363.49,7858.14
1.996,0.0142342,6307.19,1217.85,1514,1766.83,1701.43,2377.45,7780.46
1.998,0.0142528,6452.07,1071.53,1579.61,1787.24,1665.26,2391.41,7702.79
2,0.0142714,6596.95,925.214,1645.22,1807.64,1629.09,2405.36,7625.11
