"arc_length","Displacement_Magnitude","Sxx","Sxy","Sxz","Syy","Syz","Szz","Von_Mises_Stress"
0,0,1.19799e+06,-69046.3,-6466.84,2.41123e+06,484131,1.03175e+06,1.55844e+06
0.002,1.84003e-06,1.13822e+06,-63093.3,-5622.66,2.3225e+06,454041,951915,1.52114e+06
0.004,2.98777e-06,1.10574e+06,-60588.6,-4613.02,2.26676e+06,436694,913615,1.49604e+06
0.006,3.95386e-06,1.08217e+06,-59210.4,-3549.32,2.2218e+06,423510,888883,1.47491e+06
0.008,4.94338e-06,1.0586e+06,-57832.1,-2485.63,2.17684e+06,410325,864150,1.45379e+06
0.01,5.94464e-06,1.03504e+06,-56453.9,-1421.94,2.13187e+06,397141,839418,1.43267e+06
0.012,6.95257e-06,1.01147e+06,-55075.7,-358.249,2.08691e+06,383957,814685,1.41155e+06
0.014,7.96464e-06,987900,-53697.5,705.444,2.04194e+06,370772,789953,1.39042e+06
0.016,8.94543e-06,964321,-51905.5,1914.69,1.99584e+06,358549,766630,1.36951e+06
0.018,9.84191e-06,940714,-49070.5,3490.87,1.94688e+06,348750,746860,1.34913e+06
0.02,1.07392e-05,917107,-46235.4,5067.05,1.89791e+06,338950,727089,1.32874e+06
0.022,1.16372e-05,893501,-43400.4,6643.23,1.84895e+06,329150,707319,1.30836e+06
0.024,1.25357e-05,869894,-40565.3,8219.41,1.79999e+06,319351,687549,1.28798e+06
0.026,1.34346e-05,846287,-37730.3,9795.59,1.75102e+06,309551,667778,1.26759e+06
0.028,1.43338e-05,822681,-34895.2,11371.8,1.70206e+06,299751,648008,1.24721e+06
0.03,1.52333e-05,799074,-32060.2,12948,1.65309e+06,289952,628238,1.22683e+06
0.032,1.6133e-05,775468,-29225.1,14524.1,1.60413e+06,280152,608468,1.20645e+06
0.034,1.70329e-05,751861,-26390.1,16100.3,1.55516e+06,270353,588697,1.18606e+06
0.036,1.7933e-05,728254,-23555,17676.5,1.5062e+06,260553,568927,1.16568e+06
0.038,1.88332e-05,704648,-20720,19252.7,1.45724e+06,250753,549157,1.1453e+06
0.04,1.97335e-05,681041,-17884.9,20828.9,1.40827e+06,240954,529387,1.12491e+06
0.042,2.06339e-05,657434,-15049.9,22405,1.35931e+06,231154,509616,1.10453e+06
0.044,2.15345e-05,633828,-12214.8,23981.2,1.31034e+06,221354,489846,1.08415e+06
0.046,2.24351e-05,610221,-9379.79,25557.4,1.26138e+06,211555,470076,1.06377e+06
0.048,2.33357e-05,586614,-6544.74,27133.6,1.21242e+06,201755,450305,1.04338e+06
0.05,2.525e-05,559397,-4396.78,29588.3,1.17753e+06,196296,418651,1.04286e+06
0.052,2.75315e-05,530878,-2496.61,32359.8,1.14772e+06,192403,382710,1.0495e+06
0.054,2.98144e-05,502359,-596.446,35131.2,1.11791e+06,188509,346769,1.05613e+06
0.056,3.20984e-05,473840,1303.72,37902.7,1.0881e+06,184616,310828,1.06277e+06
0.058,3.43833e-05,445320,3203.88,40674.2,1.05829e+06,180723,274888,1.06941e+06
0.06,3.6669e-05,416801,5104.04,43445.7,1.02849e+06,176829,238947,1.07605e+06
0.062,3.89553e-05,388282,7004.21,46217.2,998677,172936,203006,1.08269e+06
0.064,4.11631e-05,384284,6387.76,46260.9,992602,176348,200547,1.08469e+06
0.066,4.33977e-05,382070,5588.23,46106.2,988253,180293,200525,1.08636e+06
0.068,4.56612e-05,379855,4788.69,45951.5,983905,184237,200502,1.08802e+06
0.07,4.79496e-05,377641,3989.16,45796.8,979556,188181,200480,1.08969e+06
0.072,5.02543e-05,372708,1438.29,45963,971320,187093,189892,1.08951e+06
0.074,5.25692e-05,367336,-1395.12,46181,962457,185193,177600,1.08904e+06
0.076,5.48932e-05,361964,-4228.53,46399,953593,183293,165308,1.08857e+06
0.078,5.72252e-05,356592,-7061.94,46617,944730,181393,153015,1.08809e+06
0.08,5.95643e-05,351220,-9895.35,46835,935866,179493,140723,1.08762e+06
0.082,6.19096e-05,345848,-12728.8,47053,927003,177593,128431,1.08715e+06
0.084,6.42604e-05,340475,-15562.2,47271,918139,175693,116138,1.08668e+06
0.086,6.66163e-05,335103,-18395.6,47489,909276,173793,103846,1.0862e+06
0.088,6.8977e-05,330934,-20919.3,47462.6,901950,172620,93311.9,1.08711e+06
0.09,7.13468e-05,333245,-21773.5,46118.4,902909,175364,92253.9,1.09547e+06
0.092,7.37243e-05,335556,-22627.7,44774.3,903868,178108,91196,1.10383e+06
0.094,7.61088e-05,337868,-23482,43430.1,904827,180852,90138,1.11219e+06
0.096,7.84997e-05,340179,-24336.2,42086,905786,183596,89080.1,1.12055e+06
0.098,8.08964e-05,342490,-25190.4,40741.8,906745,186340,88022.1,1.12891e+06
0.1,8.35691e-05,348987,-26611.6,39920.7,918577,189567,88333,1.1449e+06
0.102,8.71171e-05,368974,-29860,40785,965450,194348,93055.5,1.18545e+06
0.104,9.06668e-05,388961,-33108.4,41649.3,1.01232e+06,199130,97778,1.22601e+06
0.106,9.42178e-05,408947,-36356.8,42513.6,1.0592e+06,203912,102501,1.26656e+06
0.108,9.777e-05,428934,-39605.2,43377.9,1.10607e+06,208694,107223,1.30711e+06
0.11,0.000101323,448921,-42853.5,44242.2,1.15294e+06,213476,111946,1.34767e+06
0.112,0.000104878,468908,-46101.9,45106.5,1.19981e+06,218257,116668,1.38822e+06
0.114,0.000108433,488894,-49350.3,45970.8,1.24669e+06,223039,121391,1.42878e+06
0.116,0.000112143,482590,-49629.8,44828.2,1.22911e+06,224422,119295,1.41704e+06
0.118,0.000116016,448317,-46751,41550.6,1.14297e+06,222189,109946,1.34967e+06
0.12,0.00011989,414045,-43872.3,38273,1.05683e+06,219956,100597,1.2823e+06
0.122,0.000123764,379772,-40993.5,34995.5,970693,217722,91248.5,1.21493e+06
0.124,0.000127639,345500,-38114.8,31717.9,884555,215489,81899.7,1.14756e+06
0.126,0.000131514,311227,-35236,28440.3,798416,213256,72550.9,1.0802e+06
0.128,0.00013539,276955,-32357.2,25162.7,712277,211023,63202.1,1.01283e+06
0.13,0.000139265,242682,-29478.5,21885.2,626139,208790,53853.4,945460
0.132,0.00014341,229613,-29283.3,19643.8,592266,207352,50161.5,921350
0.134,0.000147723,229088,-30675.8,18015.4,589316,206385,49816.4,922832
0.136,0.000152048,228563,-32068.3,16387.1,586366,205418,49471.2,924315
0.138,0.000156383,228038,-33460.8,14758.8,583416,204451,49126.1,925798
0.14,0.000160727,227513,-34853.3,13130.4,580466,203484,48780.9,927280
0.142,0.00016508,226988,-36245.8,11502,577515,202517,48435.8,928763
0.144,0.000169441,226463,-37638.3,9873.71,574565,201550,48090.7,930245
0.146,0.000173809,225938,-39030.7,8245.35,571615,200582,47745.5,931728
0.148,0.000178184,225413,-40423.2,6617,568665,199615,47400.4,933211
0.15,0.000182565,224888,-41815.7,4988.64,565714,198648,47055.2,934693
0.152,0.000186953,224363,-43208.2,3360.3,562764,197681,46710.1,936176
0.154,0.000191345,223838,-44600.7,1731.95,559814,196714,46364.9,937658
0.156,0.000195743,223313,-45993.2,103.594,556864,195747,46019.8,939141
0.158,0.000200146,222788,-47385.7,-1524.76,553914,194780,45674.7,940624
0.16,0.000204553,222263,-48778.1,-3153.1,550963,193813,45329.5,942106
0.162,0.000208965,221738,-50170.6,-4781.46,548013,192846,44984.4,943589
0.164,0.00021338,221213,-51563.1,-6409.81,545063,191879,44639.2,945071
0.166,0.000217799,220688,-52955.6,-8038.15,542113,190912,44294.1,946554
0.168,0.000222222,220163,-54348.1,-9666.5,539162,189945,43948.9,948037
0.17,0.000226648,219638,-55740.6,-11294.9,536212,188978,43603.8,949519
0.172,0.000231076,219113,-57133.1,-12923.2,533262,188010,43258.7,951002
0.174,0.000235417,220786,-58073.1,-11337.8,538978,187117,42667.6,949531
0.176,0.00023971,223660,-58765.9,-7996.42,549429,186263,41942,946445
0.178,0.000244497,223907,-58667.6,-9405.32,550853,184762,43370.5,935305
0.18,0.000249756,222725,-57979.3,-14880.5,546920,182651,47286.2,919666
0.182,0.000255308,232104,-58663.4,-18003.3,574166,180239,57387.4,935024
0.184,0.000260862,241483,-59347.6,-21126.1,601412,177827,67488.7,950383
0.186,0.000266416,250862,-60031.7,-24249,628658,175415,77590,965741
0.188,0.000271971,260240,-60715.9,-27371.8,655904,173003,87691.2,981100
0.19,0.000277527,269619,-61400,-30494.7,683150,170591,97792.5,996458
0.192,0.000283083,278998,-62084.2,-33617.5,710396,168179,107894,1.01182e+06
0.194,0.00028864,288377,-62768.4,-36740.3,737643,165767,117995,1.02718e+06
0.196,0.000294198,297756,-63452.5,-39863.2,764889,163355,128096,1.04253e+06
0.198,0.00029995,301637,-62373.7,-40175.1,772600,160934,131750,1.04056e+06
0.2,0.000305777,303520,-60654.3,-39465.7,773214,158509,133061,1.03228e+06
0.202,0.000311607,305403,-58934.9,-38756.3,773828,156084,134372,1.024e+06
0.204,0.000317439,307286,-57215.6,-38046.9,774442,153659,135683,1.01573e+06
0.206,0.000323275,309169,-55496.2,-37337.5,775056,151234,136994,1.00745e+06
0.208,0.000329113,311052,-53776.9,-36628.2,775669,148809,138305,999172
0.21,0.000334954,312935,-52057.5,-35918.8,776283,146384,139616,990895
0.212,0.000340797,314818,-50338.1,-35209.4,776897,143959,140927,982618
0.214,0.000346642,316701,-48618.8,-34500,777511,141534,142238,974341
0.216,0.00035249,318585,-46899.4,-33790.6,778125,139109,143549,966064
0.218,0.000358339,320468,-45180.1,-33081.3,778739,136684,144860,957788
0.22,0.000364191,322351,-43460.7,-32371.9,779353,134259,146171,949511
0.222,0.000370044,324234,-41741.3,-31662.5,779967,131833,147482,941234
0.224,0.000375899,326117,-40022,-30953.1,780581,129408,148793,932957
0.226,0.000382167,315094,-37424.2,-24316.4,763267,126953,143440,922003
0.228,0.000388445,303768,-34805.8,-17540.5,745531,124498,137930,910985
0.23,0.000394723,292442,-32187.5,-10764.6,727796,122042,132420,899968
0.232,0.000401002,281116,-29569.1,-3988.72,710061,119586,126911,888950
0.234,0.000407281,269790,-26950.7,2787.18,692326,117130,121401,877933
0.236,0.00041356,258464,-24332.3,9563.09,674590,114675,115891,866916
0.238,0.000419839,247137,-21713.9,16339,656855,112219,110381,855898
0.24,0.000426344,244734,-21434.8,21044.9,651233,111399,109679,867479
0.242,0.0004329,244259,-21661.4,25303.3,648229,110932,110015,883945
0.244,0.000439458,243784,-21888,29561.7,645226,110466,110351,900411
0.246,0.000446018,243309,-22114.6,33820.1,642223,110000,110688,916877
0.248,0.000452579,242834,-22341.3,38078.4,639219,109533,111024,933343
0.25,0.000459142,242359,-22567.9,42336.8,636216,109067,111361,949809
0.252,0.000465706,241884,-22794.5,46595.2,633212,108601,111697,966275
0.254,0.000472272,241409,-23021.1,50853.6,630209,108134,112033,982741
0.256,0.000478839,240934,-23247.7,55112,627205,107668,112370,999207
0.258,0.000485408,240459,-23474.3,59370.4,624202,107201,112706,1.01567e+06
0.26,0.000491978,239984,-23700.9,63628.8,621198,106735,113043,1.03214e+06
0.262,0.000498905,235010,-21899.9,65860.7,617283,110309,112916,1.03989e+06
0.264,0.000505902,229155,-19701.7,67695.6,613188,114674,112698,1.04593e+06
0.266,0.000512899,223301,-17503.4,69530.5,609094,119039,112480,1.05197e+06
0.268,0.000519896,217446,-15305.2,71365.4,604999,123404,112262,1.05801e+06
0.27,0.000526894,211591,-13106.9,73200.3,600905,127769,112045,1.06406e+06
0.272,0.000533892,205736,-10908.6,75035.2,596810,132135,111827,1.0701e+06
0.274,0.000540964,200978,-8534.76,76386.1,592734,136019,111651,1.07442e+06
0.276,0.000548377,201304,-5346.53,75493.2,588739,137676,111666,1.07076e+06
0.278,0.000555791,201630,-2158.29,74600.3,584745,139332,111681,1.0671e+06
0.28,0.000563205,201956,1029.95,73707.4,580750,140989,111696,1.06343e+06
0.282,0.000570912,207965,3733.72,71065.9,589146,138591,110285,1.04678e+06
0.284,0.000578733,216174,6250.09,67748,602334,134625,108322,1.0251e+06
0.286,0.000586554,224382,8766.46,64430.1,615523,130659,106359,1.00342e+06
0.288,0.000594375,232590,11282.8,61112.2,628712,126693,104396,981736
0.29,0.000602196,240798,13799.2,57794.3,641900,122727,102434,960055
0.292,0.000610018,249006,16315.5,54476.4,655089,118761,100471,938374
0.294,0.000617919,252798,16084.1,50886.4,668063,118197,99983.7,922963
0.296,0.000625833,255871,15405.3,47252,681003,118186,99736.6,908572
0.298,0.000633749,258944,14726.5,43617.6,693942,118175,99489.5,894181
0.3,0.000641666,262017,14047.8,39983.3,706882,118163,99242.4,879790
0.302,0.000649585,265090,13369,36349,719821,118152,98995.3,865400
0.304,0.000657504,268163,12690.2,32714.6,732761,118141,98748.2,851009
0.306,0.000665425,271236,12011.5,29080.3,745700,118130,98501.1,836618
0.308,0.000673347,274309,11332.7,25445.9,758640,118119,98254.1,822227
0.31,0.00068127,277382,10653.9,21811.6,771579,118108,98007,807836
0.312,0.000689208,280393,9903.67,17972.1,783941,118106,97887.1,793725
0.314,0.000697522,281689,7181.8,8476.2,780351,118362,101276,787341
0.316,0.000705837,282985,4459.92,-1019.7,776761,118618,104665,780956
0.318,0.000714152,284281,1738.09,-10515.5,773172,118875,108053,774571
0.32,0.000722467,285578,-983.779,-20011.4,769582,119131,111442,768187
0.322,0.000730783,286874,-3705.65,-29507.3,765993,119387,114831,761802
0.324,0.000739098,288170,-6427.52,-39003.2,762403,119643,118220,755417
0.326,0.000747434,289031,-8941.41,-47437.1,757515,119723,121470,751191
0.328,0.000755949,286087,-9634.7,-46575.3,741256,118258,123504,765865
0.33,0.000764464,283143,-10328,-45713.4,724997,116794,125538,780539
0.332,0.00077298,280199,-11021.3,-44851.6,708739,115329,127573,795212
0.334,0.000781498,277256,-11714.6,-43989.7,692480,113865,129607,809885
0.336,0.000790016,274312,-12407.9,-43127.8,676222,112401,131641,824559
0.338,0.000798534,271368,-13101.2,-42266,659963,110936,133676,839233
0.34,0.000807054,268424,-13794.5,-41404.1,643705,109472,135710,853906
0.342,0.000815574,265480,-14487.8,-40542.2,627446,108008,137744,868580
0.344,0.000824095,262536,-15181.1,-39680.4,611187,106543,139779,883253
0.346,0.000832617,259592,-15874.3,-38818.5,594929,105079,141813,897927
0.348,0.000841297,254156,-16135.7,-36599.5,578362,104116,141137,901490
0.35,0.000850262,244233,-15619.9,-31938.3,561242,104055,135585,885060
0.352,0.000859227,234311,-15104.1,-27277.2,544121,103994,130033,868630
0.354,0.000868192,224388,-14588.4,-22616,527000,103934,124481,852201
0.356,0.000877156,214466,-14072.6,-17954.8,509879,103873,118929,835771
0.358,0.000886121,204543,-13556.8,-13293.7,492758,103812,113377,819341
0.36,0.000895086,194621,-13041,-8632.49,475637,103751,107824,802911
0.362,0.000904051,184698,-12525.2,-3971.39,458517,103691,102272,786482
0.364,0.000913177,183792,-12595.7,-2784.65,461199,102111,100615,779333
0.366,0.000922334,184545,-12774.2,-2237.04,467525,100252,99674.5,773891
0.368,0.000931491,185298,-12952.6,-1689.44,473850,98393.3,98733.9,768449
0.37,0.000940649,186051,-13131,-1141.84,480175,96534.3,97793.2,763007
0.372,0.000949808,186804,-13309.5,-594.237,486501,94675.4,96852.5,757565
0.374,0.000958968,187557,-13487.9,-46.6343,492826,92816.5,95911.8,752123
0.376,0.000968128,188310,-13666.3,500.96,499152,90957.6,94971.2,746681
0.378,0.000977289,189063,-13844.7,1048.56,505477,89098.7,94030.5,741239
0.38,0.000986451,189815,-14023.2,1596.16,511802,87239.8,93089.8,735797
0.382,0.000995629,191254,-14301.9,2054.09,520772,85807.5,92719.8,728126
0.384,0.00100486,194951,-14910.8,2216.63,538449,85780.6,94229.2,713115
0.386,0.00101408,198648,-15519.7,2379.18,556126,85753.6,95738.6,698103
0.388,0.00102331,202345,-16128.7,2541.72,573803,85726.7,97248,683092
0.39,0.00103254,206041,-16737.6,2704.27,591480,85699.7,98757.4,668080
0.392,0.00104177,209738,-17346.5,2866.81,609157,85672.7,100267,653069
0.394,0.0010512,211727,-17680.6,3474.44,621924,86029.6,102273,640418
0.396,0.00106103,210205,-17450,4996.75,624599,87175.4,105300,632618
0.398,0.00107086,208683,-17219.4,6519.06,627274,88321.1,108327,624818
0.4,0.00108069,207162,-16988.7,8041.37,629949,89466.8,111354,617018
0.402,0.00109052,205640,-16758.1,9563.68,632625,90612.5,114381,609218
0.404,0.00110036,204118,-16527.5,11086,635300,91758.3,117408,601418
0.406,0.00111019,202596,-16296.8,12608.3,637975,92904,120435,593618
0.408,0.00112002,201074,-16066.2,14130.6,640651,94049.7,123461,585818
0.41,0.00112995,196235,-14970.6,15253.7,635416,94798.9,123690,586208
0.412,0.00114011,187866,-13418.7,14712.1,613021,93436.2,118739,599959
0.414,0.00115028,179498,-11866.9,14170.5,590626,92073.6,113787,613709
0.416,0.00116045,171129,-10315,13628.9,568232,90710.9,108836,627460
0.418,0.00117062,162760,-8763.1,13087.4,545837,89348.3,103884,641210
0.42,0.00118079,154392,-7211.25,12545.8,523442,87985.6,98933.1,654961
0.422,0.00119096,146023,-5659.38,12004.2,501048,86623,93981.6,668711
0.424,0.00120113,137655,-4107.5,11462.6,478653,85260.3,89030.2,682462
0.426,0.0012113,129286,-2555.63,10921,456258,83897.7,84078.7,696212
0.428,0.00122147,120917,-1003.75,10379.5,433863,82535,79127.3,709963
0.43,0.00123165,112549,548.126,9837.89,411469,81172.3,74175.8,723714
0.432,0.00124179,106184,219.262,8744.11,388912,79214.3,71240.8,729231
0.434,0.00125192,101559,-1741.34,7171.27,366216,76739.6,70055.3,727606
0.436,0.00126205,96932.8,-3701.97,5598.4,343519,74265,68869.7,725980
0.438,0.00127218,92307.1,-5662.6,4025.54,320822,71790.3,67684.1,724354
0.44,0.00128231,87681.3,-7623.23,2452.67,298125,69315.6,66498.6,722729
0.442,0.00129244,83055.5,-9583.87,879.802,275428,66840.9,65313,721103
0.444,0.00130279,83454.9,-15913.8,-452.616,263743,63346.2,66009.2,716956
0.446,0.00131332,87976.3,-25827.5,-1587.81,261091,59014.8,68248.9,710740
0.448,0.00132385,92497.5,-35741.3,-2723,258439,54683.3,70488.6,704524
0.45,0.00133438,97018.8,-45654.9,-3858.17,255787,50351.9,72728.3,698308
0.452,0.00134528,102857,-45051.7,-2192.87,274402,50366.6,76889.5,689932
0.454,0.0013562,108797,-43635.7,-311.14,294661,50717.1,81199.2,681390
0.456,0.00136713,114737,-42219.8,1570.59,314919,51067.6,85509,672847
0.458,0.00137805,120676,-40803.8,3452.32,335178,51418.1,89818.7,664305
0.46,0.00138898,126616,-39387.9,5334.05,355436,51768.7,94128.4,655762
0.462,0.0013999,132556,-37971.9,7215.78,375695,52119.2,98438.1,647220
0.464,0.00141083,138496,-36556,9097.48,395953,52469.7,102748,638678
0.466,0.00142176,144436,-35140,10979.2,416212,52820.2,107058,630135
0.468,0.00143268,150376,-33724.1,12860.9,436470,53170.8,111367,621593
0.47,0.00144361,156315,-32308.1,14742.7,456729,53521.3,115677,613050
0.472,0.00145454,162255,-30892.2,16624.4,476987,53871.8,119987,604508
0.474,0.00146547,168195,-29476.2,18506.1,497246,54222.3,124296,595966
0.476,0.00147639,174135,-28060.2,20387.9,517504,54572.9,128606,587423
0.478,0.00148729,179240,-24559.3,22441.4,535698,55236.1,133220,576883
0.48,0.00149814,183240,-18297.4,24722.6,551157,56313.6,138236,563696
0.482,0.001509,187240,-12035.5,27003.7,566616,57391,143252,550509
0.484,0.00151985,191240,-5773.58,29284.9,582075,58468.4,148268,537323
0.486,0.00153071,195239,488.34,31566,597534,59545.8,153284,524136
0.488,0.00154167,195513,6869.03,33096.9,606992,59234.8,154788,515610
0.49,0.00155287,187247,13522,32908,602691,55741.2,148241,517768
0.492,0.00156407,178981,20174.9,32719.2,598391,52247.7,141694,519927
0.494,0.00157528,170716,26827.7,32530.3,594091,48754.1,135147,522085
0.496,0.00158648,162450,33480.7,32341.4,589790,45260.6,128600,524243
0.498,0.00159769,154184,40133.6,32152.5,585490,41767,122053,526401
0.5,0.00160905,147561,43114.2,31647.4,581396,39702.8,115206,528562
0.502,0.00162053,142543,42536.6,30482.9,577792,38388.5,108269,531671
0.504,0.00163197,139274,38209.3,26665.1,576311,34339.1,102352,541031
0.506,0.0016434,136211,34140.8,23060.2,574603,30576.1,96735.1,549745
0.508,0.00165478,134869,32239.7,21237.5,570996,29210.1,93629.4,553055
0.51,0.00166615,133527,30338.6,19414.8,567389,27844.2,90523.9,556365
0.512,0.00167752,132185,28437.4,17592.2,563782,26478.3,87418.2,559674
0.514,0.0016889,130843,26536.3,15769.5,560175,25112.3,84312.7,562984
0.516,0.00170027,129501,24635.3,13946.9,556568,23746.4,81207.1,566294
0.518,0.00171164,128159,22734.1,12124.2,552961,22380.5,78101.5,569604
0.52,0.00172302,126816,20833,10301.6,549355,21014.6,74995.9,572914
0.522,0.00173439,125474,18931.9,8478.92,545748,19648.6,71890.3,576224
0.524,0.00174576,124132,17030.8,6656.29,542141,18282.7,68784.7,579533
0.526,0.00175714,122790,15129.6,4833.61,538534,16916.7,65679.1,582843
0.528,0.00176857,121591,13934.1,3818.04,535657,16504.9,63217.2,586240
0.53,0.00178025,120997,15710.9,6202.23,535853,20112.2,63466.8,590003
0.532,0.00179193,120402,17487.8,8586.48,536049,23719.6,63716.4,593766
0.534,0.00180362,119808,19264.6,10970.7,536245,27326.8,63966.1,597529
0.536,0.0018153,119213,21041.4,13354.9,536441,30934.2,64215.7,601291
0.538,0.00182698,118619,22818.2,15739.1,536637,34541.5,64465.3,605054
0.54,0.00183867,118060,24484.1,18085.1,536322,38107.4,64729,608110
0.542,0.00185045,118165,24105,19726.9,526583,40908.9,65251.3,598130
0.544,0.00186245,117847,22020.2,19582.6,513704,43097.8,65519.6,588301
0.546,0.00187462,117200,18616.3,18057,498395,44812.7,65591.4,578589
0.548,0.00188679,116553,15212.4,16531.3,483087,46527.6,65663.2,568878
0.55,0.00189895,115907,11808.4,15005.6,467778,48242.5,65734.9,559166
0.552,0.00191112,115260,8404.49,13480,452470,49957.4,65806.7,549454
0.554,0.00192329,114614,5000.49,11954.3,437161,51672.3,65878.5,539742
0.556,0.0019356,114563,3685.54,13748.7,433651,52250.6,65531.1,556508
0.558,0.00194793,114654,2862.91,16325.7,432922,52560.9,65084.9,579515
0.56,0.00196026,114744,2040.29,18902.5,432192,52871.3,64638.7,602520
0.562,0.0019726,114835,1217.68,21479.4,431463,53181.6,64192.5,625526
0.564,0.00198493,114925,395.041,24056.3,430734,53492,63746.3,648533
0.566,0.00199727,115015,-427.573,26633.2,430005,53802.3,63300.1,671539
0.568,0.00200961,115106,-1250.21,29210.1,429275,54112.7,62854,694545
0.57,0.00202194,115196,-2072.82,31787,428546,54423,62407.8,717551
0.572,0.00203428,115287,-2895.46,34363.9,427817,54733.4,61961.6,740558
0.574,0.00204673,114432,-3294.68,37308.3,417097,54671.1,58845.3,748302
0.576,0.00205928,111781,-4023.69,40323.1,411981,54642.3,58548.1,746228
0.578,0.00207184,108979,-4828.56,43317.2,408379,54647.9,58822.3,744151
0.58,0.00208439,106178,-5633.4,46311.1,404778,54653.5,59096.6,742074
0.582,0.00209695,103377,-6438.26,49305.2,401176,54659.1,59370.9,739996
0.584,0.00210951,100575,-7243.1,52299.1,397575,54664.7,59645.1,737919
0.586,0.00212206,97774,-8047.97,55293.2,393973,54670.2,59919.4,735842
0.588,0.00213462,94972.8,-8852.81,58287.1,390372,54675.8,60193.6,733765
0.59,0.00214718,92171.5,-9657.65,61281.1,386770,54681.4,60467.9,731687
0.592,0.00215973,89370.1,-10462.5,64275.1,383169,54687,60742.1,729610
0.594,0.00217229,86568.9,-11267.4,67269.1,379567,54692.6,61016.4,727533
0.596,0.00218501,85964.9,-11727.6,68606.1,378908,56158,62980.8,723657
0.598,0.00219784,86796.1,-11962.8,68860.8,380170,58576.8,66049.1,718606
0.6,0.00221067,87627.3,-12198,69115.6,381433,60995.7,69117.5,713555
0.602,0.00222347,88716.7,-12272,68411.2,381043,63619.2,71424.4,703541
0.604,0.00223625,89929.1,-12269.2,67250.1,379866,66340,73368.6,691163
0.606,0.00224903,91141.5,-12266.4,66089,378689,69061,75312.8,678785
0.608,0.00226181,92353.9,-12263.7,64927.9,377512,71781.8,77257.1,666406
0.61,0.00227459,93566.3,-12260.9,63766.8,376335,74502.8,79201.3,654028
0.612,0.00228738,94778.7,-12258.1,62605.7,375158,77223.6,81145.5,641650
0.614,0.00230016,95991.1,-12255.3,61444.5,373981,79944.6,83089.8,629272
0.616,0.00231294,97203.5,-12252.5,60283.4,372804,82665.4,85034,616894
0.618,0.00232572,98415.9,-12249.8,59122.3,371628,85386.3,86978.2,604516
0.62,0.00233854,98642,-11778.2,57338,369107,88047.6,88579.9,596679
0.622,0.00235149,95500.7,-9705.93,53425.6,361999,90505.3,89011.7,604353
0.624,0.00236444,92359.2,-7633.6,49513.1,354891,92963,89443.5,612026
0.626,0.00237749,89297,-6157.83,46264,348680,93436.4,89896.6,613578
0.628,0.00239066,86314.7,-5284.91,43685.2,343375,91904.3,90371.3,608941
0.63,0.00240383,83332.5,-4412.01,41106.4,338070,90372.3,90846,604305
0.632,0.002417,80350.2,-3539.09,38527.6,332764,88840.1,91320.7,599668
0.634,0.00243016,77367.9,-2666.2,35948.9,327459,87308,91795.4,595032
0.636,0.0024434,74922.5,-2135.03,34331.5,322385,85512.5,92077.6,590646
0.638,0.00245681,73805,-2449.26,35092.2,317880,83065.2,91883.8,586879
0.64,0.00247022,72687.6,-2763.49,35852.9,313375,80617.9,91689.9,583112
0.642,0.00248364,71570.2,-3077.72,36613.6,308870,78170.6,91496.1,579345
0.644,0.00249705,70452.7,-3391.95,37374.2,304365,75723.4,91302.2,575578
0.646,0.00251055,69645.7,-3341.88,37273.4,302240,73667.8,90382.2,571855
0.648,0.00252419,69322.8,-2723.81,35829.3,303824,72223.1,88329.9,568202
0.65,0.00253782,68999.8,-2105.75,34385.2,305409,70778.3,86277.6,564548
0.652,0.00255146,68676.9,-1487.66,32941,306994,69333.6,84225.3,560894
0.654,0.0025651,68353.9,-869.599,31496.9,308578,67888.9,82173,557240
0.656,0.00257874,68030.9,-251.516,30052.7,310163,66444.1,80120.7,553586
0.658,0.00259238,67708,366.548,28608.6,311748,64999.4,78068.4,549932
0.66,0.00260602,67385,984.632,27164.5,313332,63554.6,76016.1,546278
0.662,0.00261966,67062.1,1602.7,25720.4,314917,62109.9,73963.8,542624
0.664,0.0026333,66739.1,2220.76,24276.2,316501,60665.1,71911.5,538970
0.666,0.00264694,66416.2,2838.84,22832.1,318086,59220.4,69859.2,535316
0.668,0.00266058,66093.2,3456.91,21388,319671,57775.7,67806.9,531663
0.67,0.00267422,65770.2,4074.99,19943.8,321255,56330.9,65754.5,528009
0.672,0.00268786,65447.3,4693.06,18499.7,322840,54886.2,63702.3,524355
0.674,0.0027015,65124.3,5311.14,17055.5,324425,53441.4,61649.9,520701
0.676,0.00271514,64801.4,5929.2,15611.4,326009,51996.7,59597.7,517047
0.678,0.00272878,64478.4,6547.27,14167.3,327594,50552,57545.4,513393
0.68,0.00274243,64127.4,7194.86,12626,328719,49315.6,55220.5,509774
0.682,0.00275623,63201.4,8447.49,9091.98,320423,52353.4,47306.4,506877
0.684,0.00277004,62275.3,9700.16,5557.88,312126,55391.3,39392.1,503979
0.686,0.00278385,61349.3,10952.8,2023.89,303830,58429.1,31478,501081
0.688,0.00279765,60423.2,12205.5,-1510.21,295533,61466.9,23563.7,498184
0.69,0.00281146,59497.2,13458.1,-5044.2,287237,64504.7,15649.6,495286
0.692,0.00282526,58571.2,14710.7,-8578.19,278940,67542.5,7735.51,492389
0.694,0.00283907,57645.1,15963.4,-12112.3,270644,70580.4,-178.809,489491
0.696,0.00285288,56719.1,17216,-15646.3,262347,73618.1,-8092.89,486594
0.698,0.00286676,56141.3,17721.3,-17498.4,256412,76072.4,-14153.5,481700
0.7,0.00288081,56289.7,16667.8,-15842.6,255403,77309.3,-16348,472643
0.702,0.00289487,56438.2,15614.3,-14186.7,254393,78546.2,-18542.5,463585
0.704,0.00290892,56586.6,14560.9,-12530.9,253384,79783.1,-20736.9,454528
0.706,0.00292297,56735.1,13507.4,-10875.1,252375,81020,-22931.3,445471
0.708,0.00293702,56883.6,12453.9,-9219.2,251365,82257,-25125.8,436414
0.71,0.00295108,57032,11400.4,-7563.38,250356,83493.9,-27320.3,427357
0.712,0.00296533,56648.2,12340.6,-8680.92,255756,83335.5,-29733.5,424235
0.714,0.00297975,55781.5,15089.8,-12314.9,266970,81911.2,-32345.2,426500
0.716,0.00299418,54914.8,17839,-15949,278186,80486.8,-34957,428764
0.718,0.00300861,54048.1,20588.2,-19583,289400,79062.4,-37568.6,431029
0.72,0.00302304,53181.4,23337.4,-23217.1,300616,77638,-40180.4,433293
0.722,0.00303747,52314.7,26086.6,-26851.1,311830,76213.6,-42792,435558
0.724,0.00305187,51950.2,29479.3,-28843.3,321957,75629.6,-44646.2,439984
0.726,0.00306621,52750.5,34364.7,-27028.2,329559,76994.4,-44743.8,449423
0.728,0.00308056,53550.8,39250,-25213.1,337161,78359.2,-44841.3,458862
0.73,0.0030949,54351.1,44135.4,-23397.9,344763,79724,-44938.8,468302
0.732,0.00310924,55151.4,49020.6,-21582.8,352365,81088.8,-45036.3,477741
0.734,0.00312359,55951.7,53906,-19767.7,359967,82453.6,-45133.9,487180
0.736,0.00313793,56752,58791.3,-17952.6,367569,83818.4,-45231.4,496619
0.738,0.00315227,57552.2,63676.5,-16137.5,375171,85183.2,-45328.9,506058
0.74,0.00316657,55464.1,60289.7,-19668.2,375973,84148.8,-49851.6,498393
0.742,0.00318087,53285.7,56644.6,-23365.8,376563,83039.6,-54512.3,490194
0.744,0.00319517,51107.3,52999.4,-27063.5,377152,81930.2,-59173.2,481995
0.746,0.00320947,48929,49354.3,-30761.1,377742,80821,-63833.9,473796
0.748,0.00322393,51450.3,48207.3,-28885.6,375428,80855.7,-58856.2,466398
0.75,0.0032384,54305,47237.5,-26614.7,372907,80971.7,-53194.5,459058
0.752,0.00325286,57159.8,46267.8,-24343.7,370386,81087.7,-47532.8,451717
0.754,0.00326733,60014.7,45298,-22072.7,367866,81203.7,-41870.9,444376
0.756,0.00328202,59244.8,41618.8,-21601.9,365398,81433.4,-36886.5,438307
0.758,0.00329672,58238.9,37762.9,-21248.4,362934,81670.5,-31946.1,432322
0.76,0.00331142,57232.9,33907.2,-20894.8,360470,81907.6,-27005.8,426336
0.762,0.00332618,55831,31287.7,-20258,357816,81967.5,-23028.4,424280
0.764,0.00334105,53712.7,30905.3,-19108.6,354819,81706.6,-20793.5,429336
0.766,0.00335591,51594.4,30522.9,-17959.2,351822,81445.8,-18558.6,434392
0.768,0.00337078,49476,30140.5,-16809.7,348824,81184.9,-16323.6,439447
0.77,0.00338565,47357.6,29758.1,-15660.3,345827,80924,-14088.8,444503
0.772,0.00340052,45239.2,29375.7,-14510.9,342830,80663.2,-11853.8,449559
0.774,0.00341536,43540.2,28429.1,-13440.1,337903,80242.7,-9125.67,454493
0.776,0.00343014,42680.9,26352,-12526.5,329110,79502.5,-5409.42,459183
0.778,0.00344492,41821.7,24275,-11613,320317,78762.2,-1693.27,463874
0.78,0.0034597,40962.5,22198,-10699.5,311524,78022,2022.88,468565
0.782,0.00347448,40103.3,20121,-9785.91,302731,77281.8,5739.13,473256
0.784,0.00348926,39244.1,18044,-8872.38,293938,76541.5,9455.28,477946
0.786,0.00350404,38384.8,15967,-7958.83,285145,75801.3,13171.5,482637
0.788,0.00351882,37525.6,13890,-7045.31,276352,75061.1,16887.7,487328
0.79,0.0035336,36666.4,11812.9,-6131.76,267559,74320.8,20603.9,492019
0.792,0.0035484,36060.2,9822.22,-5320.11,258642,73516.8,24332.4,495514
0.794,0.00356359,39303.9,9144.57,-6058.48,247843,71741.8,28248.4,480817
0.796,0.00357878,42547.4,8466.93,-6796.83,237045,69966.8,32164.4,466121
0.798,0.00359396,45791,7789.29,-7535.18,226246,68191.9,36080.3,451424
0.8,0.00360915,49034.6,7111.64,-8273.56,215447,66416.9,39996.3,436728
0.802,0.00362434,52278.2,6434,-9011.91,204648,64641.9,43912.2,422031
0.804,0.00363952,55521.9,5756.35,-9750.28,193849,62866.9,47828.2,407335
0.806,0.00365471,58765.4,5078.71,-10488.6,183050,61092,51744.2,392638
0.808,0.00366989,62009.1,4401.05,-11227,172251,59317,55660.2,377942
0.81,0.00368516,64661.7,3970.17,-11350.2,169304,58717.1,58631.3,370677
0.812,0.00370048,66834.8,3739.49,-10974.4,172728,59070.8,60835.7,369443
0.814,0.00371581,69007.9,3508.82,-10598.5,176152,59424.4,63040.2,368208
0.816,0.00373114,71181,3278.14,-10222.6,179577,59778,65244.6,366974
0.818,0.00374647,73354.2,3047.46,-9846.71,183001,60131.7,67449.1,365739
0.82,0.00376179,75527.3,2816.79,-9470.84,186425,60485.3,69653.5,364505
0.822,0.00377712,77700.4,2586.11,-9094.95,189849,60838.9,71858,363271
0.824,0.00379245,79873.5,2355.44,-8719.07,193273,61192.5,74062.4,362036
0.826,0.00380777,82046.6,2124.77,-8343.2,196697,61546.2,76266.8,360802
0.828,0.0038231,84219.8,1894.09,-7967.31,200122,61899.8,78471.3,359568
0.83,0.00383843,86392.9,1663.42,-7591.44,203546,62253.4,80675.7,358333
0.832,0.00385376,88566,1432.74,-7215.55,206970,62607.1,82880.2,357099
0.834,0.00386909,90739.1,1202.07,-6839.67,210394,62960.7,85084.6,355864
0.836,0.00388441,92912.3,971.39,-6463.79,213818,63314.3,87289.1,354630
0.838,0.00389974,95085.3,740.718,-6087.91,217242,63667.9,89493.5,353396
0.84,0.00391507,97258.4,510.046,-5712.03,220666,64021.6,91697.9,352161
0.842,0.00393035,98574.3,710.822,-5145.64,223778,64668,93725.4,351521
0.844,0.00394562,99818.5,947.69,-4563.33,226864,65338.8,95738,350930
0.846,0.00396089,101063,1184.56,-3981,229950,66009.7,97750.7,350339
0.848,0.00397617,102307,1421.43,-3398.68,233036,66680.6,99763.3,349748
0.85,0.00399144,103551,1658.31,-2816.35,236122,67351.5,101776,349157
0.852,0.00400694,103338,945.216,-1609.6,232843,67480.9,99987.7,349370
0.854,0.00402248,102827,38.3073,-275.437,228265,67499.8,97424,349747
0.856,0.00403806,100564,-594.347,954.832,222925,67474,93085.4,349767
0.858,0.00405369,95687.4,-817.864,2030.04,216449,67381.7,86099.5,349253
0.86,0.00406932,90810.5,-1041.39,3105.28,209973,67289.4,79113.5,348739
0.862,0.00408495,85933.9,-1264.9,4180.49,203496,67197.1,72127.7,348226
0.864,0.00410058,81057.1,-1488.43,5255.73,197020,67104.8,65141.6,347712
0.866,0.00411634,77997.3,-1367.44,5855.77,195260,67063.8,60832.6,346997
0.868,0.00413219,76144.3,-1017.65,6140.24,196633,67056.8,58301.2,346148
0.87,0.00414804,74291.1,-667.848,6424.72,198005,67049.9,55769.7,345299
0.872,0.00416389,72438.1,-318.06,6709.19,199377,67043,53238.3,344450
0.874,0.00417974,70584.9,31.7383,6993.66,200750,67036.1,50706.8,343601
0.876,0.00419559,68731.9,381.526,7278.13,202122,67029.2,48175.4,342753
0.878,0.00421143,67360,999.53,7870.42,204336,66950.1,46084.7,341514
0.88,0.00422727,66076.6,1666.83,8519.28,206705,66857.7,44075,340204
0.882,0.00424311,64793.1,2334.15,9168.16,209074,66765.4,42065.2,338894
0.884,0.00425896,63509.7,3001.45,9817.02,211443,66673,40055.5,337583
0.886,0.0042748,62226.3,3668.75,10465.9,213812,66580.6,38045.8,336273
0.888,0.00429064,60942.9,4336.07,11114.8,216181,66488.3,36036,334963
0.89,0.00430648,59659.5,5003.37,11763.6,218550,66395.9,34026.3,333653
0.892,0.00432233,58376.1,5670.68,12412.5,220919,66303.6,32016.6,332343
0.894,0.00433817,57092.7,6337.98,13061.4,223288,66211.2,30006.9,331033
0.896,0.00435401,55809.2,7005.3,13710.2,225657,66118.8,27997.1,329722
0.898,0.00436985,54525.8,7672.6,14359.1,228026,66026.5,25987.4,328412
0.9,0.0043857,53242.4,8339.9,15008,230395,65934.1,23977.7,327102
0.902,0.00440154,51959,9007.22,15656.8,232764,65841.8,21968,325792
0.904,0.00441756,48389.2,8359.2,15265.3,233039,67237.2,19390.5,328805
0.906,0.00443359,44627.5,7600.87,14786.6,233137,68757.4,16765.3,332182
0.908,0.00444962,40866,6842.56,14307.8,233236,70277.6,14140.2,335558
0.91,0.00446566,37104.3,6084.23,13829.1,233335,71797.8,11515,338934
0.912,0.00448169,33342.8,5325.92,13350.3,233434,73318,8889.94,342310
0.914,0.00449772,29581.3,4567.62,12871.6,233532,74838.1,6264.85,345687
0.916,0.00451375,25819.6,3809.29,12392.8,233631,76358.4,3639.68,349063
0.918,0.00452979,22058.1,3050.98,11914.1,233730,77878.5,1014.59,352439
0.92,0.00454596,19899.7,3067.65,11564.5,233430,79093,-565.129,355026
0.922,0.0045623,19464.5,3917.19,11353.7,232701,79978.8,-1021.28,356764
0.924,0.00457863,19029.2,4766.76,11142.9,231973,80864.6,-1477.44,358503
0.926,0.00459496,18594,5616.31,10932.2,231244,81750.4,-1933.58,360241
0.928,0.00461129,18120.4,6476.61,10708.9,230665,82634.1,-2394.99,362150
0.93,0.00462759,18682.1,7046.22,10823.2,226034,83575.8,-2714.14,359452
0.932,0.00464389,19243.8,7615.83,10937.5,221403,84517.6,-3033.28,356754
0.934,0.00466018,19805.4,8185.44,11051.7,216771,85459.3,-3352.43,354057
0.936,0.00467648,20367.1,8755.04,11166,212140,86401.1,-3671.57,351359
0.938,0.00469278,20928.8,9324.66,11280.3,207508,87342.9,-3990.72,348661
0.94,0.00470907,21490.4,9894.26,11394.5,202877,88284.6,-4309.86,345963
0.942,0.00472537,22052.1,10463.9,11508.8,198246,89226.3,-4629,343266
0.944,0.00474167,22613.8,11033.5,11623.1,193614,90168.1,-4948.15,340568
0.946,0.00475796,23175.4,11603.1,11737.3,188983,91109.9,-5267.29,337870
0.948,0.00477426,23737.1,12172.7,11851.6,184352,92051.6,-5586.44,335173
0.95,0.00479056,24298.8,12742.3,11965.9,179720,92993.4,-5905.58,332475
0.952,0.00480686,24860.4,13311.9,12080.1,175089,93935.1,-6224.73,329777
0.954,0.00482315,25422.1,13881.5,12194.4,170458,94876.9,-6543.87,327080
0.956,0.00483945,25983.8,14451.1,12308.7,165826,95818.6,-6863.01,324382
0.958,0.0048558,29651.2,16524,12892.9,167992,97786.9,-2964.2,325166
0.96,0.00487221,37256.3,20502.7,14073.2,178777,101057,6282.48,330364
0.962,0.00488872,49325.6,27250.8,15618.2,208377,105648,21497.1,350606
0.964,0.00490534,66718.9,37301.7,17598.2,260417,111817,43829.1,388789
0.966,0.00492193,78776.3,43373.6,18745.4,295275,115731,60228.2,413126
0.968,0.00493838,73743.3,36701.1,17224.9,275100,112426,57624.2,393119
0.97,0.00495483,68710.2,30028.5,15704.5,254924,109122,55020,373112
0.972,0.00497128,63677.1,23356,14184.1,234749,105817,52415.9,353105
0.974,0.00498773,58644.1,16683.6,12663.7,214575,102512,49811.9,333098
0.976,0.00500423,53895.2,11579.9,12059,201301,99136.6,48281.8,320002
0.978,0.00502075,49106.2,6754.62,11667.8,189518,95689.3,46961.2,308372
0.98,0.0050374,48578.6,6619.85,12090.7,188394,94257.7,48134.4,308382
0.982,0.00505405,48051.1,6485.08,12513.5,187271,92826.2,49307.6,308392
0.984,0.0050707,47523.5,6350.31,12936.4,186147,91394.7,50480.9,308401
0.986,0.00508735,46995.9,6215.55,13359.2,185024,89963.2,51654.1,308411
0.988,0.005104,46468.4,6080.78,13782.1,183900,88531.6,52827.3,308421
0.99,0.00512065,45940.8,5946.02,14204.9,182777,87100.1,54000.6,308431
0.992,0.0051373,45413.3,5811.25,14627.8,181653,85668.6,55173.8,308440
0.994,0.00515395,44885.7,5676.48,15050.6,180530,84237,56347.1,308450
0.996,0.0051706,44358.1,5541.72,15473.5,179406,82805.5,57520.3,308460
0.998,0.00518725,43830.6,5406.95,15896.3,178283,81374,58693.5,308470
1,0.0052039,43303,5272.18,16319.1,177159,79942.5,59866.7,308479
1.002,0.00522055,42775.4,5137.42,16742,176036,78510.9,61039.9,308489
1.004,0.0052372,42247.9,5002.65,17164.8,174912,77079.4,62213.2,308499
1.006,0.00525385,41720.3,4867.88,17587.7,173789,75647.8,63386.4,308509
1.008,0.0052705,41192.7,4733.11,18010.5,172665,74216.3,64559.7,308518
1.01,0.00528715,40665.2,4598.35,18433.4,171542,72784.8,65732.9,308528
1.012,0.0053038,40137.6,4463.58,18856.2,170418,71353.3,66906.1,308538
1.014,0.00532045,39610,4328.81,19279.1,169295,69921.7,68079.4,308548
1.016,0.0053371,39082.5,4194.05,19701.9,168171,68490.2,69252.6,308557
1.018,0.00535375,38554.9,4059.28,20124.8,167048,67058.7,70425.8,308567
1.02,0.0053704,38027.4,3924.52,20547.6,165924,65627.2,71599,308577
1.022,0.00538705,37499.8,3789.75,20970.4,164801,64195.7,72772.3,308587
1.024,0.00540371,36894.8,3689.52,21428.8,163676,62789,73926.2,308706
1.026,0.0054203,37286.3,3144.86,21430.2,162561,61062,75328.5,307420
1.028,0.00543707,35587.9,1912.8,21259.2,160550,59611.2,71757.5,309065
1.03,0.00545395,33786.6,825.384,22243.8,158525,58932.6,67096.2,309892
1.032,0.00547082,31985.4,-262.027,23228.4,156500,58253.9,62434.8,310718
1.034,0.00548769,30184,-1349.5,24213,154476,57575.2,57773.2,311545
1.036,0.00550456,28382.7,-2436.91,25197.6,152451,56896.6,53111.8,312371
1.038,0.00552144,26581.5,-3524.32,26182.2,150426,56217.9,48450.4,313197
1.04,0.00553831,24780.2,-4611.74,27166.8,148402,55539.3,43789.1,314024
1.042,0.00555518,22978.8,-5699.21,28151.5,146377,54860.6,39127.4,314850
1.044,0.00557206,21896.5,-6297.84,29659.1,143461,54657.6,35828.7,314402
1.046,0.00558908,21942,-5864.07,30157,145042,55474.9,34504.3,309522
1.048,0.00560611,21983.1,-5424.49,30590.8,146825,56298.4,33166,304569
1.05,0.00562313,22024.1,-4984.91,31024.6,148608,57121.8,31827.7,299616
1.052,0.00564015,22065.2,-4545.31,31458.4,150391,57945.4,30489.4,294662
1.054,0.00565717,22106.2,-4105.73,31892.2,152174,58768.9,29151.1,289709
1.056,0.0056742,22147.3,-3666.15,32326,153957,59592.3,27812.8,284756
1.058,0.00569122,22188.3,-3226.57,32759.8,155740,60415.8,26474.5,279803
1.06,0.00570824,22229.4,-2786.99,33193.5,157523,61239.3,25136.2,274850
1.062,0.00572527,22270.4,-2347.39,33627.4,159306,62062.8,23797.9,269896
1.064,0.00574229,22311.5,-1907.81,34061.2,161089,62886.3,22459.6,264943
1.066,0.00575931,22352.5,-1468.23,34494.9,162872,63709.8,21121.3,259990
1.068,0.00577634,22393.6,-1028.65,34928.7,164655,64533.3,19783,255037
1.07,0.00579336,22434.7,-589.048,35362.6,166438,65356.8,18444.7,250084
1.072,0.00581038,22475.7,-149.47,35796.3,168221,66180.3,17106.4,245131
1.074,0.00582743,22538.7,626.144,35820.5,168775,66330.8,16230.7,238552
1.076,0.00584452,22663.9,2355.02,34682.6,165841,64572.5,16667.3,227361
1.078,0.00586162,22789,4083.91,33544.6,162907,62814.1,17103.9,216171
1.08,0.00587874,22569.6,5663.22,32729.1,159596,61123.4,17042.3,206757
1.082,0.00589597,21549.6,6337.5,32899.2,156513,60074,15458,205889
1.084,0.00591325,21246,6338.23,32817.4,156170,59738.6,14263.6,209137
1.086,0.00593053,20942.3,6338.95,32735.5,155826,59403.1,13069.3,212384
1.088,0.00594782,20638.7,6339.68,32653.6,155482,59067.7,11874.9,215631
1.09,0.0059651,20335,6340.41,32571.7,155139,58732.2,10680.5,218879
1.092,0.00598238,20031.4,6341.13,32489.8,154795,58396.8,9486.16,222126
1.094,0.00599966,19727.7,6341.86,32407.9,154452,58061.4,8291.81,225374
1.096,0.00601695,19424.1,6342.58,32326.1,154108,57725.9,7097.46,228621
1.098,0.00603423,19120.4,6343.31,32244.2,153765,57390.5,5903.04,231868
1.1,0.00605151,18816.8,6344.03,32162.3,153421,57055,4708.69,235116
1.102,0.00606879,18513.1,6344.76,32080.4,153078,56719.6,3514.34,238363
1.104,0.00608608,18209.5,6345.48,31998.5,152734,56384.1,2320,241611
1.106,0.00610336,17905.9,6346.21,31916.6,152390,56048.7,1125.65,244858
1.108,0.00612065,18345.7,6374.02,31078.2,151189,55577.4,631.635,246468
1.11,0.00613794,19093.4,6413.06,29926.5,149632,55049.9,427.665,247400
1.112,0.00615523,19841.1,6452.09,28774.9,148075,54522.4,223.695,248331
1.114,0.00617251,20588.8,6491.13,27623.2,146517,53994.9,19.7254,249263
1.116,0.0061898,21336.6,6530.16,26471.5,144960,53467.3,-184.257,250195
1.118,0.00620709,22084.3,6569.19,25319.8,143403,52939.8,-388.227,251127
1.12,0.00622438,22832,6608.23,24168.2,141846,52412.3,-592.197,252059
1.122,0.00624177,23245.7,7512.86,21829.8,139692,52284.8,1196.79,249340
1.124,0.00625918,23592.3,8591.45,19252.8,137417,52237.7,3386.31,245886
1.126,0.00627659,23938.9,9670.11,16675.7,135143,52190.6,5575.96,242433
1.128,0.00629399,24285.5,10748.7,14098.8,132868,52143.5,7765.48,238980
1.13,0.0063114,24632.1,11827.3,11521.9,130594,52096.4,9955.01,235527
1.132,0.00632881,24978.7,12905.9,8944.93,128320,52049.3,12144.5,232074
1.134,0.00634626,25072.9,13649.8,7340.83,126020,52228.1,14034.9,228957
1.136,0.00636376,24792.8,13897.4,7178.96,123684,52741.9,15482,226338
1.138,0.00638126,24512.8,14145,7017.1,121349,53255.8,16928.9,223719
1.14,0.00639875,24394.9,14001.4,6735.61,119749,52793.5,16874.3,220325
1.142,0.00641625,24306,13787.7,6432.71,118282,52156.5,16550.8,216792
1.144,0.00643374,24217.1,13574,6129.78,116814,51519.4,16227.3,213259
1.146,0.00645123,24128.3,13360.2,5826.87,115347,50882.4,15903.8,209727
1.148,0.00646872,24039.4,13146.5,5523.97,113880,50245.4,15580.4,206194
1.15,0.00648621,23950.5,12932.8,5221.06,112412,49608.4,15256.9,202661
1.152,0.0065037,23861.6,12719.1,4918.15,110945,48971.4,14933.4,199128
1.154,0.00652119,23772.8,12505.4,4615.23,109477,48334.4,14609.9,195595
1.156,0.00653868,23683.9,12291.7,4312.32,108010,47697.4,14286.5,192062
1.158,0.00655618,23595,12078,4009.41,106543,47060.4,13963,188529
1.16,0.00657367,23506.1,11864.3,3706.51,105075,46423.3,13639.5,184996
1.162,0.00659116,23417.3,11650.6,3403.6,103608,45786.3,13316.1,181463
1.164,0.00660865,23328.4,11436.8,3100.68,102140,45149.3,12992.6,177930
1.166,0.00662614,23239.5,11223.1,2797.77,100673,44512.3,12669.1,174398
1.168,0.00664364,23035.4,11081.8,2444.3,99782.4,43813.9,12388.2,171323
1.17,0.00666114,22549.9,11117.2,1967.35,100300,42965.8,12211.3,169368
1.172,0.00667864,22064.3,11152.6,1490.37,100818,42117.5,12034.3,167412
1.174,0.00669614,21578.7,11188,1013.42,101336,41269.3,11857.4,165457
1.176,0.00671364,21093.2,11223.5,536.471,101854,40421.1,11680.5,163502
1.178,0.00673119,19963.5,10908.1,168.556,100944,39462,10613.4,161334
1.18,0.00674884,17338.1,9778.22,53.8434,96720,38245.4,7479.06,158673
1.182,0.0067665,14712.5,8648.27,-60.8763,92495.7,37028.7,4344.57,156012
1.184,0.00678415,12087.1,7518.38,-175.589,88271.6,35812,1210.26,153350
1.186,0.0068018,9461.73,6388.5,-290.302,84047.6,34595.4,-1924.04,150689
1.188,0.00681945,6836.32,5258.61,-405.015,79823.5,33378.8,-5058.35,148028
1.19,0.00683715,6791.21,5132.81,-304.331,80247.4,33360,-4835.27,147374
1.192,0.00685485,7335.01,5236.17,-154.494,81732.1,33614.6,-3845.96,147179
1.194,0.00687255,7878.8,5339.53,-4.65773,83216.8,33869.2,-2856.66,146984
1.196,0.00689025,8422.59,5442.89,145.179,84701.4,34123.8,-1867.35,146789
1.198,0.00690795,8966.39,5546.26,295.015,86186.1,34378.4,-878.036,146594
1.2,0.00692566,9510.21,5649.63,444.86,87670.9,34633,111.333,146399
1.202,0.00694336,10054,5752.99,594.697,89155.5,34887.7,1100.64,146203
1.204,0.00696106,10597.8,5856.35,744.533,90640.2,35142.3,2089.95,146008
1.206,0.00697876,11141.6,5959.71,894.37,92124.9,35396.9,3079.26,145813
1.208,0.00699646,11685.4,6063.08,1044.21,93609.5,35651.5,4068.57,145618
1.21,0.00701417,12229.2,6166.44,1194.05,95094.3,35906.1,5057.94,145423
1.212,0.00703187,12773,6269.81,1343.89,96578.9,36160.7,6047.25,145227
1.214,0.00704957,13316.8,6373.17,1493.72,98063.6,36415.3,7036.56,145032
1.216,0.00706729,13820.9,6817.08,1754.44,100252,36684.1,8624.85,145631
1.218,0.00708503,14276.8,7673.8,2149.57,103295,36970.1,10939.3,147191
1.22,0.00710276,16406.1,8500.04,2576.27,107233,37738.2,13919.5,148941
1.222,0.0071205,19733.8,9304.47,3025.61,111812,38851.7,17376.6,150827
1.224,0.00713823,23061.4,10108.9,3474.94,116391,39965.3,20833.7,152713
1.226,0.00715597,26389.1,10913.3,3924.27,120971,41078.8,24290.7,154599
1.228,0.00717371,29717,11717.8,4373.63,125550,42192.3,27748,156486
1.23,0.00719144,33044.7,12522.3,4822.97,130130,43305.9,31205.1,158372
1.232,0.00720923,35821.3,12949.4,4838.24,132294,44182,33644.8,158485
1.234,0.0072271,37564.4,12669.2,4039.47,129928,44612.8,34176.5,155272
1.236,0.00724496,38106.1,12361.9,3484.69,127175,44844.7,34343.9,153520
1.238,0.00726282,37326.8,12024.9,3198.13,123995,44857.7,34110.9,153374
1.24,0.00728068,36547.6,11687.9,2911.59,120816,44870.8,33877.8,153227
1.242,0.00729854,35768.3,11351,2625.06,117636,44883.8,33644.7,153081
1.244,0.0073164,34989.1,11014,2338.52,114457,44896.9,33411.6,152934
1.246,0.00733426,34209.8,10677.1,2051.96,111277,44909.9,33178.5,152788
1.248,0.00735211,33430.5,10340.1,1765.43,108098,44922.9,32945.4,152641
1.25,0.00736997,32651.2,10003.1,1478.89,104918,44936,32712.4,152495
1.252,0.00738783,31872,9666.18,1192.35,101739,44949,32479.3,152348
1.254,0.00740569,31092.7,9329.22,905.813,98559,44962.1,32246.2,152202
1.256,0.00742354,30313.4,8992.24,619.259,95379.3,44975.1,32013.1,152055
1.258,0.0074414,29534.2,8655.29,332.721,92199.8,44988.1,31780,151909
1.26,0.00745928,29334,8375.35,89.1079,90232.8,44808,31768,153567
1.262,0.00747716,29324.5,8114.18,-140.369,88665,44564.3,31828.8,155820
1.264,0.00749504,29315,7853.01,-369.86,87097.1,44320.5,31889.6,158073
1.266,0.00751292,29305.5,7591.84,-599.337,85529.3,44076.8,31950.4,160326
1.268,0.00753081,29296,7330.68,-828.814,83961.5,43833,32011.2,162579
1.27,0.00754869,29286.5,7069.52,-1058.29,82393.7,43589.3,32072.1,164832
1.272,0.00756657,29277,6808.36,-1287.77,80826,43345.6,32132.9,167085
1.274,0.00758445,29267.5,6547.18,-1517.26,79258.1,43101.8,32193.7,169338
1.276,0.00760242,29378.3,5908.43,-1713.83,79256.2,41914.1,32665.9,171020
1.278,0.00762041,29508.9,5207.28,-1904.97,79513,40570.4,33206.2,172607
1.28,0.0076384,29639.6,4506.14,-2096.1,79769.9,39226.7,33746.4,174193
1.282,0.00765638,29770.2,3805,-2287.24,80026.8,37883,34286.6,175780
1.284,0.00767437,29900.9,3103.81,-2478.39,80283.6,36539.2,34826.9,177367
1.286,0.00769236,30031.5,2402.67,-2669.52,80540.5,35195.5,35367.2,178954
1.288,0.00771034,30162.2,1701.53,-2860.66,80797.4,33851.8,35907.4,180541
1.29,0.00772833,30292.8,1000.38,-3051.79,81054.2,32508.1,36447.6,182128
1.292,0.00774637,30481.3,924.115,-3207.51,81450.8,31894.1,36522.1,181624
1.294,0.00776443,30686.7,1031.72,-3352.79,81888.5,31494.8,36459.5,180505
1.296,0.0077825,30229.7,1236.15,-3057.25,80656.1,31093.7,35423,179156
1.298,0.00780057,29717.3,1448.68,-2724.83,79284,30692.4,34305,177788
1.3,0.00781864,29204.8,1661.21,-2392.41,77911.9,30291.1,33187,176420
1.302,0.00783672,28692.4,1873.76,-2059.96,76539.8,29889.8,32069,175053
1.304,0.00785479,28179.9,2086.29,-1727.54,75167.7,29488.5,30951,173685
1.306,0.00787286,27667.5,2298.82,-1395.12,73795.6,29087.2,29833,172317
1.308,0.00789093,27155.1,2511.35,-1062.69,72423.5,28685.9,28715,170949
1.31,0.00790901,26642.6,2723.89,-730.27,71051.4,28284.6,27597,169581
1.312,0.00792708,26130.2,2936.43,-397.827,69679.2,27883.3,26479,168213
1.314,0.00794515,25617.7,3148.96,-65.4034,68307.1,27482,25361,166846
1.316,0.00796323,25105.3,3361.5,267.02,66935,27080.7,24243,165478
1.318,0.0079813,24592.9,3574.03,599.443,65563,26679.5,23125,164110
1.32,0.00799937,24080.4,3786.57,931.886,64190.8,26278.2,22006.9,162742
1.322,0.00801744,23683.7,4032.2,1239.5,63545.5,25975.9,21094.6,160801
1.324,0.0080355,23634.2,4377.04,1472.77,65078.7,25970.5,20798.5,157139
1.326,0.00805356,23584.6,4721.89,1706.04,66612,25965.2,20502.4,153477
1.328,0.00807161,23535,5066.73,1939.31,68145.3,25959.8,20206.3,149815
1.33,0.00808967,23485.5,5411.59,2172.6,69678.6,25954.4,19910.1,146152
1.332,0.00810773,23435.9,5756.43,2405.87,71211.8,25949,19614,142491
1.334,0.00812579,23386.3,6101.27,2639.14,72745.1,25943.7,19317.9,138829
1.336,0.00814385,23336.8,6446.11,2872.41,74278.3,25938.3,19021.8,135167
1.338,0.00816191,23287.2,6790.98,3105.69,75811.7,25932.9,18725.7,131504
1.34,0.00817996,23237.6,7135.82,3338.96,77344.9,25927.5,18429.6,127843
1.342,0.00819805,23027.7,7205.51,3634.33,76484.9,26095.3,18127,124395
1.344,0.00821619,22567,6844.67,4026.87,71880.1,26534,17814.3,121284
1.346,0.00823432,22106.2,6483.82,4419.41,67275.2,26972.7,17501.6,118172
1.348,0.00825245,21645.5,6122.96,4811.97,62670.1,27411.4,17188.9,115060
1.35,0.00827059,21184.7,5762.11,5204.51,58065.2,27850.1,16876.2,111949
1.352,0.00828872,20724,5401.27,5597.05,53460.3,28288.8,16563.4,108837
1.354,0.00830685,20263.2,5040.43,5989.59,48855.5,28727.5,16250.7,105725
1.356,0.00832499,19802.5,4679.58,6382.13,44250.6,29166.1,15938,102614
1.358,0.00834312,19341.7,4318.72,6774.69,39645.5,29604.8,15625.3,99502.1
1.36,0.00836129,19078.4,4129.04,7196.33,37349.1,30145.9,16089,99769.3
1.362,0.00837949,18936.4,4044.55,7635.84,36471.1,30750,17029.9,102113
1.364,0.00839768,18794.5,3960.05,8075.36,35593.2,31354,17970.7,104456
1.366,0.00841589,18615.7,3897.41,8392.53,34971,31841.2,18533.6,105944
1.368,0.00843411,18364.1,3877.93,8468.21,34853.6,32097.9,18350.5,105742
1.37,0.00845234,18112.6,3858.45,8543.88,34736.2,32354.6,18167.3,105540
1.372,0.00847056,17861,3838.97,8619.56,34618.8,32611.3,17984.2,105339
1.374,0.00848878,17609.5,3819.49,8695.23,34501.4,32868,17801,105137
1.376,0.008507,17357.9,3800.01,8770.91,34384,33124.7,17617.9,104935
1.378,0.00852523,17106.3,3780.53,8846.59,34266.7,33381.4,17434.7,104734
1.38,0.00854345,16854.8,3761.05,8922.26,34149.3,33638.1,17251.6,104532
1.382,0.00856167,16603.2,3741.57,8997.94,34031.9,33894.7,17068.4,104331
1.384,0.0085799,16351.7,3722.09,9073.61,33914.5,34151.4,16885.3,104129
1.386,0.00859812,16100.1,3702.61,9149.29,33797.1,34408.1,16702.1,103927
1.388,0.00861634,15848.5,3683.13,9224.97,33679.7,34664.8,16519,103726
1.39,0.00863457,15597,3663.65,9300.64,33562.3,34921.5,16335.9,103524
1.392,0.00865279,15345.4,3644.17,9376.32,33445,35178.2,16152.7,103322
1.394,0.00867102,15156.9,3622.5,9405,33458.5,35387.1,15947.5,102965
1.396,0.00868931,15493,3582.68,9042.58,34561.6,35198,15558.3,101310
1.398,0.00870759,15829.1,3542.85,8680.17,35664.6,35008.9,15169.2,99655.4
1.4,0.00872588,16165.3,3503.03,8317.75,36767.7,34819.8,14780,98000.7
1.402,0.00874419,16480.7,3701.66,7445.2,39679.2,34587.2,15225.9,99808.1
1.404,0.0087625,16793.4,3932.44,6503.85,42834.6,34348.7,15784.3,102082
1.406,0.00878081,17106,4163.21,5562.55,45989.8,34110.2,16342.7,104356
1.408,0.00879912,17418.7,4393.99,4621.25,49145,33871.8,16901.1,106630
1.41,0.00881743,17731.3,4624.76,3679.95,52300.2,33633.3,17459.5,108904
1.412,0.00883574,18044,4855.53,2738.65,55455.5,33394.8,18017.9,111178
1.414,0.00885405,18356.7,5086.31,1797.29,58610.9,33156.3,18576.3,113452
1.416,0.0088724,18468.1,5209.79,1233.95,59846.5,32866.8,18796.4,114281
1.418,0.00889076,18418.6,5247.41,973.11,59545.9,32536.4,18745.6,113952
1.42,0.00890913,18369.1,5285.02,712.267,59245.2,32206,18694.9,113624
1.422,0.00892749,18319.5,5322.63,451.409,58944.5,31875.5,18644.2,113296
1.424,0.00894586,18270,5360.24,190.566,58643.8,31545.1,18593.5,112968
1.426,0.00896422,18220.5,5397.86,-70.2768,58343.2,31214.7,18542.8,112639
1.428,0.00898258,18000.6,5385.53,-333.681,57554.3,30822.4,18400.7,111927
1.43,0.00900094,17341,5244.24,-603.698,55504.4,30270.4,18022.8,110223
1.432,0.00901929,16681.3,5102.94,-873.732,53454.4,29718.3,17644.8,108518
1.434,0.00903764,16021.7,4961.65,-1143.75,51404.6,29166.3,17266.9,106814
1.436,0.00905599,15362.1,4820.36,-1413.77,49354.7,28614.3,16889,105109
1.438,0.00907435,14702.4,4679.07,-1683.79,47304.9,28062.2,16511,103405
1.44,0.0090927,14042.8,4537.77,-1953.82,45254.9,27510.2,16133.1,101700
1.442,0.00911105,13383.1,4396.47,-2223.84,43205.1,26958.2,15755.1,99995.7
1.444,0.00912941,12755.2,4272.15,-2480.79,41327.3,26420.9,15388.5,98362.7
1.446,0.00914776,12562.6,4380.47,-2558.62,41808.8,26085.5,15175.9,97709
1.448,0.00916611,12370,4488.79,-2636.45,42290.2,25750.2,14963.3,97055.4
1.45,0.00918447,12177.3,4597.11,-2714.28,42771.7,25414.9,14750.6,96401.7
1.452,0.00920282,11984.7,4705.43,-2792.11,43253.2,25079.6,14538,95748
1.454,0.00922117,11792.1,4813.75,-2869.94,43734.7,24744.2,14325.4,95094.4
1.456,0.00923952,11599.4,4922.07,-2947.76,44216.1,24408.9,14112.8,94440.7
1.458,0.00925788,11406.8,5030.39,-3025.59,44697.6,24073.6,13900.2,93787
1.46,0.00927623,11214.2,5138.71,-3103.42,45179.1,23738.3,13687.6,93133.4
1.462,0.00929458,11021.5,5247.03,-3181.25,45660.6,23402.9,13475,92479.7
1.464,0.00931294,10828.9,5355.35,-3259.08,46142.1,23067.6,13262.4,91826
1.466,0.00933129,10636.3,5463.67,-3336.91,46623.5,22732.3,13049.8,91172.4
1.468,0.00934964,10443.6,5571.99,-3414.74,47105,22397,12837.2,90518.7
1.47,0.009368,10251,5680.31,-3492.57,47586.5,22061.6,12624.6,89865
1.472,0.00938635,10058.4,5788.63,-3570.4,48068,21726.3,12412,89211.4
1.474,0.0094047,9865.74,5896.95,-3648.22,48549.5,21391,12199.4,88557.7
1.476,0.00942306,9673.11,6005.26,-3726.05,49030.9,21055.7,11986.8,87904
1.478,0.00944141,9480.46,6113.59,-3803.88,49512.4,20720.3,11774.2,87250.3
1.48,0.0094598,9257.38,5947.44,-3422.95,48459.9,20802.9,11201.6,86129.7
1.482,0.0094782,9012.4,5584.04,-2712.33,46304.9,21185.7,10370.2,84673.6
1.484,0.00949661,8767.43,5220.64,-2001.71,44150,21568.6,9538.79,83217.4
1.486,0.00951502,8522.46,4857.25,-1291.09,41995,21951.5,8707.4,81761.2
1.488,0.00953343,8277.47,4493.83,-580.422,39840,22334.3,7875.97,80305
1.49,0.00955184,8032.49,4130.43,130.199,37685,22717.2,7044.58,78848.8
1.492,0.00957025,7787.52,3767.03,840.819,35530.1,23100.1,6213.2,77392.6
1.494,0.00958866,7542.55,3403.64,1551.44,33375.1,23482.9,5381.81,75936.5
1.496,0.00960709,7357.31,3283.6,2242.66,32929.1,23577.8,4826.21,75721.5
1.498,0.00962553,7209.93,3317.74,2921.51,33565.6,23490.1,4445.38,76292.9
1.5,0.00964398,7062.55,3351.87,3600.37,34202.1,23402.5,4064.54,76864.2
1.502,0.00966242,6915.16,3386.01,4279.23,34838.6,23314.8,3683.7,77435.5
1.504,0.00968086,6775.59,3429.16,4918.47,35475.3,23217.6,3321.12,77896.9
1.506,0.00969936,6783.14,3642.21,4811.11,36116.3,22939.7,3302.64,76284.5
1.508,0.00971785,6790.7,3855.24,4703.75,36757.3,22661.7,3284.15,74672.1
1.51,0.00973634,6798.25,4068.28,4596.4,37398.3,22383.8,3265.67,73059.8
1.512,0.00975483,6805.8,4281.31,4489.04,38039.3,22105.9,3247.19,71447.5
1.514,0.00977333,6813.36,4494.36,4381.68,38680.3,21827.9,3228.71,69835.1
1.516,0.00979181,6774.6,4507.55,4189.88,37854.4,21608.7,3571.65,68496.6
1.518,0.00981028,6727,4482.59,3981.96,36748.6,21400.7,3983.57,67210.3
1.52,0.00982876,6679.4,4457.64,3774.05,35642.7,21192.7,4395.5,65924
1.522,0.00984723,6631.8,4432.68,3566.14,34536.9,20984.6,4807.42,64637.8
1.524,0.00986571,6584.2,4407.73,3358.21,33431,20776.6,5219.37,63351.4
1.526,0.00988418,6536.61,4382.77,3150.29,32325.2,20568.6,5631.29,62065.1
1.528,0.00990266,6489.01,4357.82,2942.38,31219.4,20360.5,6043.21,60778.8
1.53,0.00992113,6441.41,4332.86,2734.46,30113.5,20152.5,6455.14,59492.6
1.532,0.00993961,6400.23,4316.54,2536.96,29092.2,19944,6828.19,58260
1.534,0.00995808,6459.24,4434.9,2501.92,29390.2,19728.6,6594.72,57866.2
1.536,0.00997654,6518.25,4553.26,2466.88,29688,19513.1,6361.26,57472.4
1.538,0.00999501,6577.26,4671.61,2431.84,29985.9,19297.7,6127.8,57078.6
1.54,0.0100135,6636.26,4789.97,2396.81,30283.8,19082.2,5894.34,56684.7
1.542,0.0100319,6695.27,4908.33,2361.77,30581.7,18866.8,5660.87,56290.9
1.544,0.0100504,6754.28,5026.68,2326.73,30879.6,18651.3,5427.41,55897.1
1.546,0.0100689,6813.29,5145.04,2291.69,31177.5,18435.9,5193.95,55503.3
1.548,0.0100873,6872.3,5263.39,2256.65,31475.4,18220.5,4960.49,55109.5
1.55,0.0101058,6931.3,5381.75,2221.61,31773.3,18005,4727.04,54715.6
1.552,0.0101243,6990.31,5500.11,2186.57,32071.2,17789.6,4493.56,54321.8
1.554,0.0101428,6992.05,5518.39,2272.67,32067.5,17708.2,4636.83,54261.3
1.556,0.0101613,6960.16,5477.89,2429.92,31886.7,17705.6,5001.34,54396.5
1.558,0.0101798,6928.27,5437.4,2587.17,31706,17702.9,5365.86,54531.8
1.56,0.0101983,6896.38,5396.9,2744.42,31525.2,17700.3,5730.37,54667
1.562,0.0102168,6864.48,5356.41,2901.67,31344.4,17697.7,6094.91,54802.3
1.564,0.0102354,6832.59,5315.91,3058.92,31163.6,17695.1,6459.43,54937.5
1.566,0.0102539,6800.7,5275.41,3216.17,30982.9,17692.4,6823.94,55072.8
1.568,0.0102724,6768.81,5234.92,3373.42,30802.1,17689.8,7188.46,55208
1.57,0.0102909,6736.91,5194.42,3530.68,30621.3,17687.2,7553,55343.3
1.572,0.0103094,6705.02,5153.93,3687.93,30440.6,17684.6,7917.51,55478.5
1.574,0.0103279,6673.13,5113.43,3845.17,30259.8,17681.9,8282.03,55613.8
1.576,0.0103465,6772.84,5058.57,4184.81,30116.5,17615.6,8461.85,55562.5
1.578,0.010365,6984.18,4991.52,4679.16,30005.1,17495.1,8485.02,55353
1.58,0.0103836,7195.54,4924.47,5173.53,29893.7,17374.7,8508.18,55143.5
1.582,0.0104021,7406.88,4857.42,5667.87,29782.3,17254.2,8531.35,54934
1.584,0.0104206,7618.22,4790.37,6162.22,29670.8,17133.8,8554.51,54724.6
1.586,0.0104392,7829.57,4723.32,6656.56,29559.4,17013.3,8577.67,54515.1
1.588,0.0104577,8040.92,4656.26,7150.93,29448,16892.8,8600.84,54305.6
1.59,0.0104762,8252.26,4589.21,7645.28,29336.6,16772.4,8624,54096.1
1.592,0.0104948,8463.61,4522.16,8139.62,29225.2,16651.9,8647.17,53886.6
1.594,0.0105133,8510.78,4470.87,8132.85,29025.5,16620.4,8794.18,53901.2
1.596,0.0105319,8522.81,4422.95,8018.82,28807.1,16608,8967.69,53963.7
1.598,0.0105504,8534.85,4375.02,7904.79,28588.6,16595.5,9141.22,54026.2
1.6,0.010569,8546.89,4327.1,7790.76,28370.1,16583.1,9314.73,54088.7
1.602,0.0105875,8558.92,4279.18,7676.74,28151.6,16570.6,9488.25,54151.3
1.604,0.010606,8570.96,4231.26,7562.71,27933.1,16558.2,9661.76,54213.8
1.606,0.0106246,8337.77,4193.08,7362.28,26738.7,16429.5,9486.07,53347.1
1.608,0.0106432,7941.31,4161.39,7104.31,24894.4,16223.5,9077.87,51861.6
1.61,0.0106617,7544.88,4129.7,6846.36,23050.2,16017.6,8669.7,50376.3
1.612,0.0106803,7148.44,4098.01,6588.41,21206,15811.6,8261.53,48891
1.614,0.0106989,6752,4066.33,6330.46,19361.8,15605.6,7853.36,47405.6
1.616,0.0107174,6355.54,4034.64,6072.49,17517.5,15399.6,7445.17,45920.2
1.618,0.010736,5959.1,4002.95,5814.54,15673.3,15193.7,7037,44434.9
1.62,0.0107545,5562.67,3971.26,5556.59,13829.1,14987.7,6628.83,42949.6
1.622,0.0107731,5428.34,3952.09,5362.76,12905.6,14865.5,6450.19,42094.6
1.624,0.0107917,5590.59,3947.09,5241.5,13023.7,14838,6531.25,41952.9
1.626,0.0108103,5752.86,3942.08,5120.23,13141.9,14810.5,6612.32,41811.2
1.628,0.0108288,5915.11,3937.08,4998.97,13260.1,14783,6693.38,41669.5
1.63,0.0108474,6077.36,3932.07,4877.71,13378.2,14755.6,6774.45,41527.9
1.632,0.010866,6239.62,3927.07,4756.45,13496.4,14728.1,6855.52,41386.2
1.634,0.0108845,6401.87,3922.07,4635.19,13614.6,14700.6,6936.58,41244.5
1.636,0.0109031,6564.13,3917.06,4513.92,13732.7,14673.1,7017.65,41102.8
1.638,0.0109217,6726.39,3912.06,4392.66,13850.9,14645.7,7098.71,40961.1
1.64,0.0109403,6888.64,3907.06,4271.4,13969.1,14618.2,7179.78,40819.5
1.642,0.0109588,7050.89,3902.05,4150.14,14087.2,14590.7,7260.84,40677.8
1.644,0.0109774,7213.16,3897.05,4028.87,14205.4,14563.2,7341.91,40536.1
1.646,0.010996,7375.41,3892.05,3907.61,14323.6,14535.8,7422.98,40394.4
1.648,0.0110145,7537.66,3887.04,3786.34,14441.7,14508.3,7504.04,40252.7
1.65,0.0110331,7699.92,3882.04,3665.08,14559.9,14480.8,7585.11,40111
1.652,0.0110517,7862.17,3877.04,3543.82,14678,14453.3,7666.17,39969.4
1.654,0.0110703,8024.43,3872.03,3422.55,14796.2,14425.9,7747.24,39827.7
1.656,0.0110888,8111.18,3912.78,3269.55,14926.6,14384.7,7842.39,39568.1
1.658,0.0111074,8138.59,3768.35,2924.03,14379.1,14399.3,7921.13,38998.8
1.66,0.011126,8006.35,3529.88,2648.57,13532.9,14406.5,7752.89,38294.5
1.662,0.0111446,7874.11,3291.42,2373.1,12686.8,14413.7,7584.65,37590.3
1.664,0.0111632,7741.86,3052.94,2097.62,11840.7,14420.9,7416.41,36886
1.666,0.0111818,7609.62,2814.47,1822.15,10994.5,14428.1,7248.17,36181.8
1.668,0.0112004,7477.38,2576.01,1546.68,10148.4,14435.3,7079.93,35477.6
1.67,0.011219,7345.14,2337.54,1271.22,9302.29,14442.5,6911.7,34773.4
1.672,0.0112376,7212.89,2099.06,995.734,8456.12,14449.7,6743.45,34069.1
1.674,0.0112562,7080.65,1860.6,720.268,7610,14456.9,6575.21,33364.9
1.676,0.0112748,6663.89,1454.56,569.628,6231.82,14451,5966.86,32420.2
1.678,0.0112934,6739.96,1336.33,470.33,5966.69,14424.9,5892.01,32640.7
1.68,0.011312,6831.63,1227.24,369.663,5734.65,14398.7,5836.61,32889.7
1.682,0.0113306,6923.31,1118.14,268.991,5502.59,14372.4,5781.21,33138.7
1.684,0.0113492,7014.97,1009.05,168.324,5270.55,14346.2,5725.81,33387.7
1.686,0.0113678,7106.64,899.954,67.6574,5038.51,14319.9,5670.41,33636.7
1.688,0.0113864,7197.37,782.852,-37.1542,4851.33,14271.9,5615.72,33921.5
1.69,0.011405,7287.59,661.306,-144.268,4688.99,14211.9,5561.44,34226.1
1.692,0.0114236,7377.79,539.768,-251.376,4526.65,14151.8,5507.16,34530.7
1.694,0.0114422,7468,418.229,-358.483,4364.32,14091.8,5452.87,34835.2
1.696,0.0114608,7558.21,296.691,-465.591,4201.99,14031.7,5398.59,35139.8
1.698,0.0114794,7648.42,175.152,-572.698,4039.66,13971.7,5344.31,35444.4
1.7,0.011498,7738.63,53.6067,-679.812,3877.32,13911.6,5290.02,35749
1.702,0.0115166,7828.84,-67.9318,-786.919,3714.99,13851.6,5235.74,36053.6
1.704,0.0115352,7919.05,-189.47,-894.027,3552.66,13791.5,5181.45,36358.2
1.706,0.0115538,8009.26,-311.009,-1001.13,3390.32,13731.5,5127.17,36662.8
1.708,0.0115724,8083.58,-409.644,-1096.61,3235.66,13685.5,5059.82,36912.6
1.71,0.011591,8079.7,-395.579,-1134.88,3118.74,13708.5,4928.18,36892.6
1.712,0.0116096,8091.66,-363.063,-1173.47,3042.23,13718.6,4826.48,36888.4
1.714,0.0116283,8185.19,-235.528,-1213.79,3173.85,13662.5,4878.91,36965.5
1.716,0.0116469,8278.71,-107.994,-1254.1,3305.47,13606.4,4931.33,37042.7
1.718,0.0116655,8372.25,19.5485,-1294.41,3437.1,13550.2,4983.77,37119.9
1.72,0.0116841,8465.77,147.083,-1334.73,3568.71,13494.1,5036.19,37197.1
1.722,0.0117028,8559.3,274.618,-1375.04,3700.33,13438,5088.62,37274.3
1.724,0.0117214,8652.83,402.152,-1415.35,3831.95,13381.9,5141.05,37351.4
1.726,0.01174,8728.06,526.166,-1453.6,3975.07,13322.3,5180.77,37380.1
1.728,0.0117586,8605.65,612.145,-1469.57,4242.44,13225.4,5083.2,36884.9
1.73,0.0117773,8483.24,698.119,-1485.54,4509.79,13128.5,4985.63,36389.6
1.732,0.0117959,8360.84,784.093,-1501.51,4777.14,13031.6,4888.07,35894.4
1.734,0.0118145,8238.44,870.067,-1517.48,5044.5,12934.7,4790.5,35399.2
1.736,0.0118331,8116.03,956.042,-1533.45,5311.85,12837.9,4692.94,34903.9
1.738,0.0118518,7993.62,1042.02,-1549.42,5579.22,12741,4595.37,34408.7
1.74,0.0118704,7871.22,1128,-1565.39,5846.57,12644.1,4497.8,33913.5
1.742,0.011889,7748.81,1213.97,-1581.36,6113.92,12547.2,4400.23,33418.2
1.744,0.0119076,7626.41,1299.94,-1597.33,6381.27,12450.3,4302.67,32923
1.746,0.0119263,7504,1385.92,-1613.3,6648.64,12353.4,4205.1,32427.7
1.748,0.0119449,7381.6,1471.9,-1629.26,6915.99,12256.5,4107.53,31932.5
1.75,0.0119635,7259.19,1557.87,-1645.23,7183.34,12159.6,4009.97,31437.3
1.752,0.0119821,7136.79,1643.85,-1661.2,7450.7,12062.7,3912.4,30942.1
1.754,0.0120007,7014.39,1729.82,-1677.17,7718.05,11965.8,3814.83,30446.8
1.756,0.0120194,6891.98,1815.8,-1693.14,7985.42,11868.9,3717.26,29951.6
1.758,0.012038,6763.32,1897.4,-1710.55,8230.68,11771.6,3622.38,29462.9
1.76,0.0120566,6443.32,1845.16,-1771.93,7799.82,11662.8,3609.63,29174.8
1.762,0.0120752,6098.32,1785.37,-1803.94,7342.14,11499.4,3528.99,28836.8
1.764,0.0120939,5718.77,1715.13,-1795.36,6847.38,11260.4,3354.57,28429.7
1.766,0.0121125,5339.25,1644.9,-1786.79,6352.65,11021.4,3180.17,28022.6
1.768,0.0121311,4959.72,1574.66,-1778.22,5857.93,10782.5,3005.76,27615.5
1.77,0.0121498,4580.2,1504.43,-1769.64,5363.2,10543.5,2831.36,27208.5
1.772,0.0121684,4200.67,1434.2,-1761.07,4868.47,10304.5,2656.95,26801.4
1.774,0.012187,3821.12,1363.96,-1752.5,4373.72,10065.6,2482.54,26394.3
1.776,0.0122057,3691.93,1420.77,-1737.82,4353.01,9918.46,2506.61,26032.4
1.778,0.0122243,3615.31,1504.25,-1721.86,4431.84,9790.66,2572.36,25679.9
1.78,0.0122429,3538.68,1587.73,-1705.89,4510.67,9662.86,2638.11,25327.5
1.782,0.0122616,3462.05,1671.21,-1689.93,4589.5,9535.07,2703.86,24975.1
1.784,0.0122802,3382.59,1749.93,-1665.77,4682.45,9404.07,2771.48,24630.2
1.786,0.0122988,3293.69,1812.74,-1614.25,4822.45,9262.47,2845.34,24310.6
1.788,0.0123175,3204.79,1875.55,-1562.74,4962.45,9120.86,2919.2,23991
1.79,0.0123361,3115.89,1938.35,-1511.23,5102.46,8979.25,2993.06,23671.3
1.792,0.0123547,3026.98,2001.17,-1459.71,5242.47,8837.64,3066.93,23351.7
1.794,0.0123734,2938.08,2063.97,-1408.2,5382.47,8696.03,3140.79,23032
1.796,0.012392,2849.18,2126.78,-1356.68,5522.47,8554.43,3214.65,22712.4
1.798,0.0124106,2760.28,2189.59,-1305.17,5662.47,8412.82,3288.51,22392.8
1.8,0.0124292,2671.38,2252.4,-1253.66,5802.47,8271.21,3362.37,22073.1
1.802,0.0124479,2582.47,2315.21,-1202.14,5942.48,8129.6,3436.24,21753.5
1.804,0.0124665,2493.57,2378.02,-1150.63,6082.48,7987.99,3510.1,21433.8
1.806,0.0124851,2404.67,2440.82,-1099.11,6222.49,7846.39,3583.96,21114.2
1.808,0.0125038,2316.06,2453.27,-1053.99,5948.99,7729.75,3488.7,20726.5
1.81,0.0125224,2227.78,2408.36,-1016.15,5204.61,7641.54,3200.85,20261.2
1.812,0.0125411,2139.49,2363.45,-978.307,4460.19,7553.33,2912.99,19795.8
1.814,0.0125597,2051.21,2318.54,-940.467,3715.81,7465.12,2625.14,19330.6
1.816,0.0125784,1962.93,2273.63,-902.626,2971.44,7376.91,2337.3,18865.3
1.818,0.012597,1874.65,2228.72,-864.785,2227.06,7288.7,2049.45,18400
1.82,0.0126157,1786.36,2183.81,-826.942,1482.64,7200.49,1761.58,17934.6
1.822,0.0126343,1698.08,2138.9,-789.101,738.264,7112.28,1473.74,17469.3
1.824,0.0126529,1619.9,2104.3,-763.842,123.25,7030.29,1225.4,17057.6
1.826,0.0126716,1594.89,2123.96,-804.832,189.387,6981.04,1185.09,16927.5
1.828,0.0126902,1569.88,2143.62,-845.822,255.525,6931.79,1144.77,16797.4
1.83,0.0127089,1544.88,2163.28,-886.815,321.666,6882.54,1104.46,16667.3
1.832,0.0127275,1519.87,2182.94,-927.805,387.804,6833.29,1064.15,16537.2
1.834,0.0127462,1494.87,2202.6,-968.795,453.941,6784.04,1023.83,16407.1
1.836,0.0127648,1469.86,2222.26,-1009.79,520.079,6734.79,983.521,16277
1.838,0.0127835,1444.85,2241.92,-1050.78,586.22,6685.54,943.207,16146.9
1.84,0.0128021,1419.85,2261.58,-1091.77,652.358,6636.29,902.894,16016.8
1.842,0.0128208,1411.99,2281.58,-1123.48,805.64,6594.83,882.34,15953.9
1.844,0.0128394,1492.65,2303.34,-1107.33,1408.66,6593.56,963.754,16238.3
1.846,0.012858,1573.31,2325.11,-1091.17,2011.67,6592.29,1045.17,16522.7
1.848,0.0128767,1653.98,2346.88,-1075.02,2614.72,6591.02,1126.59,16807.2
1.85,0.0128953,1734.64,2368.64,-1058.86,3217.74,6589.75,1208,17091.6
1.852,0.012914,1843.68,2253.79,-1102.09,3217.07,6574.63,1248.02,16901.4
1.854,0.0129326,1969.59,2057.76,-1180.6,2857.73,6551.28,1263.44,16429.2
1.856,0.0129513,2095.5,1861.73,-1259.11,2498.39,6527.94,1278.87,15957
1.858,0.0129699,2221.42,1665.69,-1337.62,2139.03,6504.59,1294.29,15484.8
1.86,0.0129886,2446,1580.51,-1358.41,2422.42,6414.69,1600.16,15326.1
1.862,0.0130072,2679.06,1504.84,-1374.25,2761.02,6319.07,1930.98,15194.4
1.864,0.0130259,2912.12,1429.17,-1390.08,3099.62,6223.44,2261.8,15062.7
1.866,0.0130445,3145.19,1353.5,-1405.92,3438.24,6127.82,2592.63,14930.9
1.868,0.0130631,3203.91,1301.71,-1338.92,3384.08,6005.32,2665.11,14681
1.87,0.0130818,3206.92,1257.54,-1245.46,3204.42,5874.23,2655.05,14393.4
1.872,0.0131004,3209.93,1213.37,-1152,3024.77,5743.14,2644.98,14105.7
1.874,0.0131191,3212.94,1169.21,-1058.54,2845.11,5612.05,2634.91,13818
1.876,0.0131377,3215.95,1125.04,-965.078,2665.45,5480.96,2624.85,13530.3
1.878,0.0131564,3282.5,1083.98,-918.466,2666.21,5414.61,2628.58,13415.1
1.88,0.013175,3354.56,1043.2,-875.917,2682.61,5353.89,2633.52,13314.9
1.882,0.0131937,3426.62,1002.42,-833.367,2699.01,5293.16,2638.45,13214.7
1.884,0.0132124,3498.68,961.64,-790.818,2715.41,5232.43,2643.39,13114.4
1.886,0.013231,3570.74,920.856,-748.266,2731.81,5171.7,2648.32,13014.2
1.888,0.0132497,3642.8,880.074,-705.716,2748.21,5110.97,2653.26,12914
1.89,0.0132683,3714.86,839.293,-663.166,2764.61,5050.24,2658.19,12813.7
1.892,0.013287,3786.92,798.512,-620.617,2781.01,4989.51,2663.12,12713.5
1.894,0.0133056,3858.98,757.728,-578.065,2797.41,4928.78,2668.06,12613.3
1.896,0.0133243,3931.04,716.946,-535.515,2813.81,4868.06,2672.99,12513
1.898,0.0133429,4003.1,676.165,-492.966,2830.21,4807.33,2677.93,12412.8
1.9,0.0133616,4075.15,635.383,-450.416,2846.61,4746.6,2682.86,12312.6
1.902,0.0133802,4147.21,594.602,-407.866,2863.01,4685.87,2687.8,12212.4
1.904,0.0133989,4219.27,553.818,-365.314,2879.41,4625.14,2692.73,12112.1
1.906,0.0134175,4291.33,513.037,-322.765,2895.81,4564.41,2697.66,12011.9
1.908,0.0134362,4363.39,472.255,-280.215,2912.21,4503.68,2702.6,11911.7
1.91,0.0134548,4435.45,431.474,-237.666,2928.61,4442.96,2707.53,11811.4
1.912,0.0134735,4504.57,423.386,-207.256,2983.97,4363.63,2726.77,11720
1.914,0.0134921,4573.57,416.604,-177.33,3040.89,4283.55,2746.59,11628.9
1.916,0.0135108,4642.56,409.823,-147.406,3097.81,4203.48,2766.4,11537.8
1.918,0.0135294,4711.56,403.042,-117.482,3154.73,4123.41,2786.21,11446.7
1.92,0.0135481,4780.56,396.261,-87.5576,3211.65,4043.34,2806.03,11355.6
1.922,0.0135668,4849.56,389.48,-57.6316,3268.57,3963.27,2825.84,11264.5
1.924,0.0135854,4918.56,382.698,-27.7074,3325.49,3883.2,2845.65,11173.4
1.926,0.0136041,4987.55,375.917,2.21675,3382.41,3803.13,2865.47,11082.3
1.928,0.0136227,5056.55,369.136,32.1409,3439.32,3723.06,2885.28,10991.2
1.93,0.0136414,5125.55,362.355,62.0651,3496.24,3642.99,2905.09,10900.1
1.932,0.01366,5194.55,355.574,91.9911,3553.17,3562.91,2924.91,10808.9
1.934,0.0136787,5231.72,365.942,129.338,3605.2,3498.55,2935.64,10722.4
1.936,0.0136973,5249.56,386.736,171.198,3654.26,3443.73,2940.86,10638.5
1.938,0.013716,5267.39,407.529,213.057,3703.33,3388.92,2946.07,10554.7
1.94,0.0137346,5285.22,428.323,254.919,3752.4,3334.1,2951.29,10470.8
1.942,0.0137533,5315.14,494.348,308.502,3677.28,3261.36,2939.62,10377.8
1.944,0.0137719,5351,582.653,367.859,3540.99,3179.79,2919.65,10280.1
1.946,0.0137906,5386.87,670.958,427.216,3404.7,3098.22,2899.67,10182.5
1.948,0.0138092,5422.73,759.263,486.573,3268.41,3016.66,2879.69,10084.9
1.95,0.0138279,5458.6,847.573,545.933,3132.11,2935.08,2859.71,9987.29
1.952,0.0138465,5494.46,935.878,605.29,2995.82,2853.51,2839.73,9889.68
1.954,0.0138652,5530.33,1024.18,664.648,2859.53,2771.94,2819.75,9792.06
1.956,0.0138838,5566.19,1112.49,724.005,2723.24,2690.37,2799.77,9694.45
1.958,0.0139025,5602.05,1200.79,783.362,2586.95,2608.81,2779.8,9596.84
1.96,0.0139211,5637.92,1289.1,842.722,2450.65,2527.23,2759.82,9499.22
1.962,0.0139398,5667.89,1377.12,904.629,2342.17,2446.55,2741.41,9399.05
1.964,0.0139584,5666.87,1463.66,979.938,2379.81,2370.52,2731.25,9285.5
1.966,0.0139771,5665.86,1550.19,1055.25,2417.46,2294.48,2721.08,9171.95
1.968,0.0139958,5664.84,1636.73,1130.56,2455.1,2218.45,2710.92,9058.4
1.97,0.0140144,5663.82,1723.27,1205.87,2492.75,2142.41,2700.76,8944.84
1.972,0.0140331,5662.81,1809.81,1281.18,2530.39,2066.38,2690.6,8831.29
1.974,0.0140517,5661.79,1896.34,1356.48,2568.03,1990.35,2680.44,8717.74
1.976,0.0140704,5657.29,1918.48,1367.5,2487.15,1961.63,2657.84,8628.77
1.978,0.014089,5651.51,1917.17,1355.11,2363.12,1950.13,2630.72,8548.74
1.98,0.0141077,5645.74,1915.86,1342.71,2239.09,1938.63,2603.59,8468.71
1.982,0.0141263,5639.97,1914.55,1330.32,2115.06,1927.14,2576.47,8388.69
1.984,0.014145,5634.19,1913.24,1317.93,1991.03,1915.64,2549.35,8308.67
1.986,0.0141637,5628.42,1911.93,1305.53,1867,1904.15,2522.23,8228.64
1.988,0.0141823,5666.74,1869.06,1315.26,1783.22,1886.42,2505.69,8148.77
1.99,0.014201,5816.36,1721.32,1380.81,1801.06,1852.96,2515.88,8069.29
1.992,0.0142196,5965.98,1573.58,1446.36,1818.89,1819.49,2526.07,7989.82
1.994,0.0142383,6115.6,1425.84,1511.91,1836.73,1786.03,2536.27,7910.34
1.996,0.0142569,6265.23,1278.09,1577.46,1854.56,1752.57,2546.46,7830.86
1.998,0.0142756,6414.85,1130.35,1643.01,1872.4,1719.11,2556.65,7751.39
2,0.0142942,6564.48,982.604,1708.56,1890.23,1685.65,2566.84,7671.91
