"PointID","x","y","Displacement_x","Displacement_y","Sxx","Syy","Sxy","Von_Mises_Stress"
0, 1.000080000000000e+00, 1.257210000000000e-03, 5.599010612520296e-06, 2.076765022191510e-02, -1.145141336140449e+04, -1.102684673266465e+04, 8.477456768395463e+02, 1.747840883101225e+03
1, 9.798550000000000e-01, 5.416750000000000e-03, -9.736982885354696e-05, 2.022967352399097e-02, -1.273471132058324e+04, -8.754189323264562e+03, 1.481303956276115e+03, 4.962015821685275e+03
2, 9.596080000000000e-01, 9.461560000000001e-03, -1.970381945346657e-04, 1.969144982382323e-02, -1.529473716931051e+04, -5.274175179917631e+03, 4.392532616523792e+03, 1.332625355199903e+04
3, 9.393450000000000e-01, 1.339430000000000e-02, -2.931991186885621e-04, 1.915373327370845e-02, -2.020439018878206e+04, -2.798776566877884e+03, 7.467898199327630e+03, 2.293541801705606e+04
4, 9.190670000000000e-01, 1.721730000000000e-02, -3.857942405811497e-04, 1.861715624075157e-02, -3.267183185663480e+04, -2.165146902530133e+03, 1.073271683180926e+04, 3.730177836586619e+04
5, 8.987730000000000e-01, 2.093270000000000e-02, -4.748842502893310e-04, 1.808191615694590e-02, -4.032393673996592e+04, -1.325570012883223e+03, 1.277815287104400e+04, 4.662614471048524e+04
6, 8.784640000000000e-01, 2.454230000000000e-02, -5.605484547740996e-04, 1.754829770385181e-02, -4.752309237586144e+04, -1.268846631646268e+03, 1.416251047591727e+04, 5.423801306545173e+04
7, 8.581410000000000e-01, 2.804760000000000e-02, -6.428792290445306e-04, 1.701640418739592e-02, -5.557187451019824e+04, 6.654566775107332e+01, 1.520062026938767e+04, 6.340243864548521e+04
8, 8.378050000000000e-01, 3.144970000000000e-02, -7.217489568328196e-04, 1.648663890103055e-02, -8.273213683491541e+04, 2.966278373628726e+03, 1.658321996149021e+04, 9.189249755241555e+04
9, 8.174540000000000e-01, 3.474970000000000e-02, -7.966657393804814e-04, 1.595870530088381e-02, -9.505370070500165e+04, 2.752260726934749e+03, 2.388429504871415e+04, 1.088478033380626e+05
10, 7.970910000000000e-01, 3.794800000000000e-02, -8.684209971520593e-04, 1.543336255015019e-02, -1.031935532606992e+05, 3.625501534359668e+03, 2.152991130918939e+04, 1.151714321836628e+05
11, 7.767150000000000e-01, 4.104500000000000e-02, -9.366248161484034e-04, 1.491080174005421e-02, -1.251702828599868e+05, 4.171633566114323e+03, 2.408302417263866e+04, 1.380191999613682e+05
12, 7.563270000000000e-01, 4.404060000000000e-02, -1.001272609672547e-03, 1.439071379625213e-02, -1.423267395448566e+05, 5.736532699411633e+03, 2.483045315182416e+04, 1.561695815534511e+05
13, 7.359270000000000e-01, 4.693450000000000e-02, -1.062370874648729e-03, 1.387354177958383e-02, -1.568451767189154e+05, 5.969897305560543e+03, 2.649704943655543e+04, 1.712224367452135e+05
14, 7.155150000000000e-01, 4.972610000000000e-02, -1.120101868188586e-03, 1.335942164103440e-02, -1.697930953123506e+05, 6.403697104649415e+03, 2.772767608555651e+04, 1.847176378759255e+05
15, 6.950930000000000e-01, 5.241420000000000e-02, -1.174422392547551e-03, 1.284843477384967e-02, -1.814772487124662e+05, 8.323449206505480e+03, 2.810896170910359e+04, 1.979514077848000e+05
16, 6.746590000000000e-01, 5.499760000000000e-02, -1.225455058582321e-03, 1.234078444257212e-02, -2.157637767200371e+05, 1.356380495206650e+04, 2.715595794124705e+04, 2.356712199705396e+05
17, 6.542150000000000e-01, 5.747460000000000e-02, -1.272180091851775e-03, 1.183617198413113e-02, -2.315886386629384e+05, 1.197684758814862e+04, 3.498511319261272e+04, 2.534166108863588e+05
18, 6.337610000000000e-01, 5.984290000000000e-02, -1.315870912465313e-03, 1.133530272283900e-02, -2.378440711799079e+05, 1.189878194291694e+04, 3.064128606004945e+04, 2.571517962830204e+05
19, 6.132970000000000e-01, 6.210030000000000e-02, -1.355917419896284e-03, 1.083824987182386e-02, -2.594710936412924e+05, 1.115871575896195e+04, 3.166836981898476e+04, 2.779425054287054e+05
20, 5.928230000000000e-01, 6.424370000000000e-02, -1.392323033015096e-03, 1.034443738539490e-02, -2.689561353533368e+05, 1.152687828661660e+04, 3.377787906381794e+04, 2.885039018743939e+05
21, 5.723410000000000e-01, 6.627000000000000e-02, -1.425217124519528e-03, 9.854811843023566e-03, -3.001055744345951e+05, 1.371805933948095e+04, 2.950340226398868e+04, 3.193228399218702e+05
22, 5.518500000000000e-01, 6.817540000000000e-02, -1.453784401152184e-03, 9.369039725564571e-03, -3.261887622552154e+05, 1.418186916297513e+04, 3.163669714991532e+04, 3.462018040944321e+05
23, 5.313510000000000e-01, 6.995570000000000e-02, -1.478555190637237e-03, 8.887577786029820e-03, -3.451952771811671e+05, 1.508540331717895e+04, 3.255492649972173e+04, 3.661167323381443e+05
24, 5.108440000000000e-01, 7.160630000000000e-02, -1.499363322538910e-03, 8.410515889452082e-03, -3.660614000969326e+05, 1.697931372370588e+04, 3.056615400161198e+04, 3.878883183675751e+05
25, 4.903300000000000e-01, 7.312210000000000e-02, -1.516050200203097e-03, 7.938552858255135e-03, -3.815502327399782e+05, 2.745533104038695e+04, 3.011679790593440e+04, 4.134170258561225e+05
26, 4.698100000000000e-01, 7.449720000000000e-02, -1.528830421306230e-03, 7.471180560492945e-03, -3.932522835844095e+05, 4.189561049197434e+04, 3.241732037846696e+04, 4.399513840882792e+05
27, 4.492840000000000e-01, 7.572540000000000e-02, -1.537584723132687e-03, 7.008131802452356e-03, -4.462519899219057e+05, 4.823807600515916e+04, 2.925195471534429e+04, 4.979388845222145e+05
28, 4.287520000000000e-01, 7.679970000000000e-02, -1.540729091082406e-03, 6.549162487379456e-03, -4.800532767418595e+05, 4.801903445693903e+04, 3.276889435034916e+04, 5.321236393946599e+05
29, 4.082160000000000e-01, 7.771220000000000e-02, -1.539421638640766e-03, 6.096071695113029e-03, -5.330039587437967e+05, 4.873438429848633e+04, 2.208373083677691e+04, 5.834126022261310e+05
30, 3.875760000000000e-01, 7.844390000000000e-02, -1.532022332904193e-03, 5.646099707185496e-03, -5.717388597184184e+05, 5.001836149320812e+04, 2.953785856321574e+04, 6.245574292911787e+05
31, 3.668650000000000e-01, 7.894160000000000e-02, -1.518449739170880e-03, 5.201363773734239e-03, -6.302531160269888e+05, 5.050981274743898e+04, 1.480919979848144e+04, 6.814069377312078e+05
32, 3.461490000000000e-01, 7.918989999999999e-02, -1.497353121893266e-03, 4.763175633496083e-03, -6.857312812480298e+05, 4.906032854354779e+04, 1.842038906332657e+04, 7.357145864756762e+05
33, 3.254310000000000e-01, 7.917720000000000e-02, -1.469234993283226e-03, 4.332507237088063e-03, -7.389697536621667e+05, 4.681163353766130e+04, 7.698333203790751e+03, 7.859322145109922e+05
34, 3.047140000000000e-01, 7.889030000000000e-02, -1.433626410764162e-03, 3.910248270269775e-03, -8.046829383440046e+05, 4.562443711198128e+04, -3.455640513196449e+03, 8.503354623678074e+05
35, 2.840020000000000e-01, 7.831420000000000e-02, -1.390173991034974e-03, 3.497198104573242e-03, -8.832526005358576e+05, 4.267964357183913e+04, -1.801183735001091e+04, 9.266327351314586e+05
36, 2.632960000000000e-01, 7.743220000000001e-02, -1.338460833684192e-03, 3.094236316413759e-03, -9.695824890343954e+05, 4.029796075385889e+04, -3.324299101851269e+04, 1.012066652287266e+06
37, 2.426010000000000e-01, 7.622460000000000e-02, -1.278226259620715e-03, 2.702689838858338e-03, -1.070894077111312e+06, 3.974592584364056e+04, -5.395017632222947e+04, 1.115869034548668e+06
38, 2.219220000000000e-01, 7.466879999999999e-02, -1.208941558826285e-03, 2.323708290752029e-03, -1.189028942039741e+06, 3.737954400944716e+04, -7.953378909368976e+04, 1.236681150937403e+06
39, 2.012640000000000e-01, 7.273780000000001e-02, -1.129843660065291e-03, 1.959291594958936e-03, -1.326507884282600e+06, 3.454543569726287e+04, -1.063375676819071e+05, 1.377569182665692e+06
40, 1.806310000000000e-01, 7.039890000000000e-02, -1.040744522929556e-03, 1.611235547233570e-03, -1.487352078524926e+06, 2.924290792787535e+04, -1.398564006586001e+05, 1.542173662125796e+06
41, 1.600330000000000e-01, 6.761140000000000e-02, -9.402236862705224e-04, 1.282383673342673e-03, -1.676915516385381e+06, 2.213372215230881e+04, -1.697290388372639e+05, 1.732628090928342e+06
42, 1.394760000000000e-01, 6.432340000000000e-02, -8.280729177099179e-04, 9.756285134160645e-04, -1.858620289312328e+06, 1.880518649850462e+04, -1.982013616657073e+05, 1.918817744416622e+06
43, 1.189730000000000e-01, 6.046550000000000e-02, -7.058570813912768e-04, 6.938075528807806e-04, -2.092798095305551e+06, 2.191736764914956e+03, -2.828119672641975e+05, 2.170002956631632e+06
44, 9.853700000000000e-02, 5.594070000000000e-02, -5.681639704130664e-04, 4.460534284343095e-04, -2.539235546639237e+06, -1.858144940025790e+04, -4.059358433085993e+05, 2.648175355496366e+06
45, 7.818849999999999e-02, 5.060340000000000e-02, -4.119262018385733e-04, 2.398792417687845e-04, -3.178933030869453e+06, -5.321587486792100e+04, -5.412210583491956e+05, 3.307837462047494e+06
46, 5.795880000000000e-02, 4.421300000000000e-02, -2.300950135291114e-04, 8.692812431780742e-05, -4.338900348700717e+06, -1.560777400436954e+05, -5.663869514116850e+05, 4.333495320224774e+06
47, 3.790390000000000e-02, 3.630690000000000e-02, 0.000000000000000e+00, 0.000000000000000e+00, -3.121250231954162e+06, -4.461501671932362e+05, 1.080895000611631e+05, 2.683820731080561e+06
48, 1.815790000000000e-02, 2.570150000000000e-02, 0.000000000000000e+00, 0.000000000000000e+00, -4.305370959220557e+05, 6.844193703689326e+04, 1.079717999524881e+04, 4.994460848941025e+05
49, 0.000000000000000e+00, 0.000000000000000e+00, 0.000000000000000e+00, 0.000000000000000e+00, 2.719659515029631e+04, -1.562074230634244e+04, -9.607621619447376e+04, 1.968651357144396e+05
50, 2.265850000000000e-02, -2.172400000000000e-02, 0.000000000000000e+00, 0.000000000000000e+00, 4.424011528562215e+05, -4.394006633923229e+04, 1.087656281424584e+05, 5.327735250079668e+05
51, 4.372870000000000e-02, -2.856010000000000e-02, 0.000000000000000e+00, 0.000000000000000e+00, 3.139583530573369e+06, 5.955331058906594e+05, 5.855128126856344e+05, 2.800623783838958e+06
52, 6.449020000000000e-02, -3.290520000000000e-02, 2.139754575301271e-04, 1.231217695321686e-04, 4.550490675189485e+06, 1.598718042083366e+05, 1.423504931111335e+05, 4.399839624551296e+06
53, 8.507679999999999e-02, -3.594290000000000e-02, 3.648601704549986e-04, 2.990459884258805e-04, 3.228937912461470e+06, 2.317692477144553e+04, 2.769575971522347e+03, 3.205765773165527e+06
54, 1.055450000000000e-01, -3.813560000000000e-02, 4.834864131145527e-04, 5.252478642972727e-04, 2.556130655799644e+06, 1.928328450633407e+04, 4.511811582299235e+04, 2.538451725508966e+06
55, 1.259250000000000e-01, -3.972410000000000e-02, 5.777425644605328e-04, 7.892162232966648e-04, 2.238549222165050e+06, -1.722041048815530e+04, 9.865953929312673e+04, 2.264383239289344e+06
56, 1.462380000000000e-01, -4.085400000000000e-02, 6.619844161449480e-04, 1.078503836006001e-03, 2.019453264572139e+06, 6.693693224163744e+03, 5.671999397048391e+04, 2.015953799797241e+06
57, 1.664980000000000e-01, -4.162220000000000e-02, 7.294812255485704e-04, 1.389850125477461e-03, 1.716371673301677e+06, 9.210840428921645e+03, 7.280901942341129e+04, 1.713360067975320e+06
58, 1.867150000000000e-01, -4.209820000000000e-02, 7.854929902264234e-04, 1.720513744611346e-03, 1.524237068581210e+06, 1.356719153638087e+04, 8.186744969657573e+04, 1.519517224216273e+06
59, 2.069000000000000e-01, -4.233380000000000e-02, 8.320432764070222e-04, 2.067447895720788e-03, 1.375034780820431e+06, 1.736917305258855e+04, 8.520796376609523e+04, 1.368319221114825e+06
60, 2.270570000000000e-01, -4.236980000000000e-02, 8.706913203620467e-04, 2.428549395303027e-03, 1.238685568757851e+06, 1.410302816702775e+04, 8.054784679441548e+04, 1.235133280748577e+06
61, 2.471950000000000e-01, -4.223880000000000e-02, 9.015670953590797e-04, 2.802296444208814e-03, 1.109887431946233e+06, 1.585833741031940e+04, 8.087869904408397e+04, 1.105922743923519e+06
62, 2.673160000000000e-01, -4.196780000000000e-02, 9.258080633901194e-04, 3.186976071208903e-03, 1.002836566895447e+06, 1.788614446957638e+04, 8.035001664808806e+04, 9.979738650577441e+05
63, 2.874270000000000e-01, -4.157950000000000e-02, 9.445228006294692e-04, 3.581626210101593e-03, 9.129699319390685e+05, 1.758325078370820e+04, 7.691834402425891e+04, 9.085059357979714e+05
64, 3.075300000000000e-01, -4.109350000000000e-02, 9.582107208535419e-04, 3.985293793158835e-03, 8.307322718679631e+05, 1.742160421682275e+04, 7.291865266598458e+04, 8.262824951199400e+05
65, 3.276300000000000e-01, -4.052670000000000e-02, 9.674515205270704e-04, 4.397221871787788e-03, 7.570949261562637e+05, 1.663862111403043e+04, 6.917741927919436e+04, 7.532712665629258e+05
66, 3.477290000000000e-01, -3.989380000000000e-02, 9.727878089444089e-04, 4.816719957459723e-03, 6.909802164657135e+05, 1.627764409472275e+04, 6.548303507204691e+04, 6.872959134848829e+05
67, 3.678290000000000e-01, -3.920820000000000e-02, 9.746813095692490e-04, 5.243183811194162e-03, 6.308275344088892e+05, 1.586679709658358e+04, 6.132655050766675e+04, 6.270729555836166e+05
68, 3.879340000000000e-01, -3.848140000000000e-02, 9.735508560880829e-04, 5.676116884373307e-03, 5.764931586996441e+05, 1.514757746296502e+04, 5.716033470049068e+04, 5.728682894228250e+05
69, 4.081110000000000e-01, -3.771960000000000e-02, 9.697531325484636e-04, 6.116480364663591e-03, 5.278855324238548e+05, 1.433575676796315e+04, 5.310933018331365e+04, 5.244194655867548e+05
70, 4.283910000000000e-01, -3.689040000000000e-02, 9.627605529482010e-04, 6.564554349130336e-03, 4.850600467571474e+05, 1.354511888097870e+04, 4.924693704068358e+04, 4.816921947069776e+05
71, 4.486760000000000e-01, -3.599200000000000e-02, 9.526604802907926e-04, 7.017851012868176e-03, 4.482870432569511e+05, 1.268747557442139e+04, 4.563496852872158e+04, 4.450586307169836e+05
72, 4.689660000000000e-01, -3.503220000000000e-02, 9.397977945913869e-04, 7.476106319706711e-03, 4.166141789275944e+05, 1.163805687311918e+04, 4.260712536845855e+04, 4.138443281753846e+05
73, 4.892610000000000e-01, -3.401800000000000e-02, 9.244654655676811e-04, 7.939135179550283e-03, 3.889238760058709e+05, 1.074228527255150e+04, 4.014339616319875e+04, 3.866099902894982e+05
74, 5.095640000000000e-01, -3.295580000000000e-02, 9.069129559199822e-04, 8.406885633703952e-03, 3.647890637611741e+05, 9.755187338912025e+03, 3.808581254541781e+04, 3.631131640086832e+05
75, 5.298740000000000e-01, -3.185120000000000e-02, 8.873440100266690e-04, 8.879214996831706e-03, 3.426524783098950e+05, 8.793436215074791e+03, 3.650335673605897e+04, 3.417482117004723e+05
76, 5.501910000000000e-01, -3.070950000000000e-02, 8.658988643581739e-04, 9.355990259427637e-03, 3.209751985997767e+05, 8.242787293030764e+03, 3.515581103030541e+04, 3.205390542173073e+05
77, 5.705160000000000e-01, -2.953530000000000e-02, 8.426946872343260e-04, 9.837081029652830e-03, 2.998141605965458e+05, 7.599612575866524e+03, 3.352991273547384e+04, 2.998105439558853e+05
78, 5.908500000000000e-01, -2.833280000000000e-02, 8.178808296122790e-04, 1.032245174557939e-02, 2.805492433617315e+05, 6.696086555608106e+03, 3.237613924850851e+04, 2.814043515357119e+05
79, 6.111930000000000e-01, -2.710560000000000e-02, 7.915462704765990e-04, 1.081198525935938e-02, 2.598091647169422e+05, 6.017203423380621e+03, 3.128236504902124e+04, 2.613899482946380e+05
80, 6.315450000000000e-01, -2.585710000000000e-02, 7.637929976347472e-04, 1.130579470681694e-02, 2.440542580731790e+05, 5.639471623214175e+03, 2.978953994006526e+04, 2.457463675364201e+05
81, 6.519070000000000e-01, -2.459010000000000e-02, 7.346862986957968e-04, 1.180352362879632e-02, 2.234164547283625e+05, 4.863801742062169e+03, 2.722781790804950e+04, 2.252347184594014e+05
82, 6.722800000000000e-01, -2.330710000000000e-02, 7.041999937816133e-04, 1.230504277855430e-02, 2.031472159212967e+05, 4.162068516335159e+03, 2.554687395436611e+04, 2.054401615145766e+05
83, 6.926620000000000e-01, -2.201020000000000e-02, 6.725518968922143e-04, 1.281029196815902e-02, 1.830526469192819e+05, 3.778194573045949e+03, 2.402841530065970e+04, 1.856038475664950e+05
84, 7.130560000000000e-01, -2.070110000000000e-02, 6.396473638856137e-04, 1.331935886233094e-02, 1.661199496260680e+05, 3.042091032420846e+03, 2.320455027324929e+04, 1.695529196947802e+05
85, 7.334610000000000e-01, -1.938120000000000e-02, 6.057172476939470e-04, 1.383198980974335e-02, 1.521901334526716e+05, 2.436074955645069e+03, 2.199264011635620e+04, 1.560800529006865e+05
86, 7.538770000000000e-01, -1.805140000000000e-02, 5.708102105012301e-04, 1.434814314854691e-02, 1.370475356088710e+05, 1.565390744312169e+03, 2.004185104889282e+04, 1.412873481631152e+05
87, 7.743050000000000e-01, -1.671250000000000e-02, 5.348251770181182e-04, 1.486768606851330e-02, 1.181847089123959e+05, -6.419658672263597e+01, 1.879807265541446e+04, 1.240817222397096e+05
88, 7.947460000000000e-01, -1.536480000000000e-02, 4.977048755982173e-04, 1.539055185252805e-02, 1.021138469174937e+05, 2.859190818864996e+02, 2.052722803495130e+04, 1.097925099926639e+05
89, 8.151990000000000e-01, -1.400830000000000e-02, 4.598312996985370e-04, 1.591674803929034e-02, 9.149018748103271e+04, -1.612562100007485e+03, 1.311650590252159e+04, 9.672793230454902e+04
90, 8.356650000000000e-01, -1.264280000000000e-02, 4.207752245765474e-04, 1.644582578740659e-02, 6.345655173779061e+04, -2.822617311355644e+03, 1.270625127842426e+04, 7.098396675339538e+04
91, 8.561440000000000e-01, -1.126750000000000e-02, 3.803126475201023e-04, 1.697766908586583e-02, 4.263860225945435e+04, -6.949259208090119e+02, 1.463459323758732e+04, 5.229225508111335e+04
92, 8.766380000000000e-01, -9.881770000000000e-03, 3.391487825979256e-04, 1.751228152097891e-02, 3.668501700674083e+04, -1.591730320266407e+03, 1.325144464169836e+04, 4.655655191596066e+04
93, 8.971450000000000e-01, -8.484230000000001e-03, 2.971192879776644e-04, 1.804932888111854e-02, 2.794553598213146e+04, -4.124542655042800e+03, 1.099880530346097e+04, 3.888939207815295e+04
94, 9.176680000000000e-01, -7.073410000000000e-03, 2.541589490563824e-04, 1.858877264915981e-02, 1.819669078182757e+04, -5.922054508360266e+03, 8.847212534933611e+03, 2.991331731731042e+04
95, 9.382060000000000e-01, -5.647530000000000e-03, 2.101995639686023e-04, 1.913034221454344e-02, 3.470482440098546e+03, -7.882275354607125e+03, 6.537224157406285e+03, 1.731549330172131e+04
96, 9.587590000000000e-01, -4.204500000000000e-03, 1.652050818993811e-04, 1.967381541881780e-02, -4.007855510881763e+03, -8.309947546463660e+03, 3.910021908927512e+03, 8.925305663997719e+03
97, 9.793290000000000e-01, -2.741940000000000e-03, 1.191905857481044e-04, 2.021866480652769e-02, -9.650671417266389e+03, -1.041821880977622e+04, 1.056117218983309e+03, 2.247368087492745e+03
98, 9.999160000000000e-01, -1.257210000000000e-03, 7.235213123247846e-05, 2.076421270895832e-02, -1.137413223879339e+04, -1.176440589361342e+04, 3.464280019036995e+02, 7.952125298676760e+02
99, 2.965208526196640e-01, -2.451291204343565e-02, 6.168269084273541e-04, 3.753190979364789e-03, 6.940664791404053e+05, 2.241183591064487e+04, 9.429054046447363e+04, 6.976265360896380e+05
100, 3.569550691458233e-01, -2.225937713288704e-02, 6.098820046948947e-04, 5.002694445613967e-03, 5.207349867961415e+05, 1.927435326022406e+04, 7.665382413005581e+04, 5.243720072632498e+05
101, 2.357521292249362e-01, -2.612922374397977e-02, 5.885496550255627e-04, 2.577031897662139e-03, 9.409837007845703e+05, 2.595508849881976e+04, 1.137940711650848e+05, 9.429070600175206e+05
102, 4.175395537093936e-01, -1.978668907414103e-02, 5.817206678934253e-04, 6.315984127231343e-03, 3.940276647328808e+05, 1.661058675557624e+04, 5.958163779592836e+04, 3.957821837813162e+05
103, 1.751367101315091e-01, -2.542483001771199e-02, 4.904113529411348e-04, 1.514603585256252e-03, 1.291318114716783e+06, 2.462866695691728e+04, 1.347593462042137e+05, 1.295045359291998e+06
104, 4.545161237720396e-01, 5.410499663149525e-02, -1.058216307892109e-03, 7.125370415127492e-03, -3.021461394448738e+05, 4.424739578125555e+04, 4.182852224987221e+04, 3.563523289398962e+05
105, 4.984928440317798e-01, -1.590850127774330e-02, 5.125320580766781e-04, 8.143708149967687e-03, 2.840007146611517e+05, 1.157679021011585e+04, 4.134007340406810e+04, 2.846942241941671e+05
106, 3.174663951753988e-01, 6.223768294924557e-02, -1.112726298250012e-03, 4.165461507820414e-03, -6.205337944944989e+05, 4.732884311091309e+04, 3.443763643767751e+04, 6.714047258717446e+05
107, 2.563717303565273e-01, 5.966322547531767e-02, -9.868741491089088e-04, 2.955695385614737e-03, -8.163344527134348e+05, 4.749453995233789e+04, 1.181690385009774e+04, 8.641522351046563e+05
108, 3.756939939814997e-01, 6.148855564182976e-02, -1.156165608597033e-03, 5.387815567290436e-03, -4.650167015859666e+05, 4.383565206788135e+04, 4.133576913829560e+04, 5.155242972548225e+05
109, 1.331764993897024e-01, 4.104774463271259e-02, -4.685141346877689e-04, 8.672450192863915e-04, -1.378586725298932e+06, 6.459916567092136e+04, -1.354201474320962e+04, 1.443440009334531e+06
110, 2.151334798234129e-01, 5.783655425665940e-02, -8.915380301478595e-04, 2.194431056441743e-03, -1.012142114002648e+06, 4.641693268578313e+04, -1.658216951242895e+04, 1.059078433690761e+06
111, 5.390439783578407e-01, -1.368921905163664e-02, 4.654842125237960e-04, 9.086470069441296e-03, 2.458420229713999e+05, 8.770664328303857e+03, 3.724705504190674e+04, 2.484999024669080e+05
112, 4.171750027518464e-01, 5.955074979533879e-02, -1.150411046750548e-03, 6.291829214159629e-03, -3.877829599299171e+05, 4.283715661125247e+04, 4.145011364072023e+04, 4.385272311422005e+05
113, 5.796418763382618e-01, -1.132888697481147e-02, 4.115991109101740e-04, 1.004715422984258e-02, 2.082430295960932e+05, 7.936635112172181e+03, 3.320124362107552e+04, 2.110259272769397e+05
114, 4.579843708690872e-01, -1.795387507594605e-02, 5.517685784016905e-04, 7.219701957025882e-03, 3.320727763237087e+05, 1.418606467243046e+04, 4.900527672104678e+04, 3.326530174678842e+05
115, 1.742940777616075e-01, 5.338799194168506e-02, -7.423372213726765e-04, 1.497466243548698e-03, -1.254771795474226e+06, 4.924066655992641e+04, -5.133100650516177e+04, 1.308047395951578e+06
116, 9.710402222757537e-02, -1.854828260839096e-02, 2.287563540845333e-04, 4.012969651486314e-04, 1.940499471776847e+06, -9.737714216959630e+02, 2.604276520132013e+05, 2.010126513876255e+06
117, 5.189774796231875e-01, 5.374676487811309e-02, -1.093681028012837e-03, 8.600569420873399e-03, -2.669853269303668e+05, 1.487786461781119e+04, 3.457747266811444e+04, 2.902227854841548e+05
118, 6.203290590016649e-01, -9.338681345593056e-03, 3.631672733374811e-04, 1.102623268293967e-02, 1.742862154040794e+05, 6.289839472127756e+03, 3.171947879023830e+04, 1.795752868998603e+05
119, 1.374487160331137e-01, -2.687496070907593e-02, 4.363335357987452e-04, 9.357979554127678e-04, 1.750174876133942e+06, -6.011140501906944e+03, 1.240649113449157e+05, 1.773628409203962e+06
120, 5.596387496012009e-01, 5.071566089060470e-02, -1.048894084779956e-03, 9.555028432603894e-03, -2.326733817199357e+05, 1.343559319006187e+04, 3.497055556468025e+04, 2.558542291174007e+05
121, 6.609827153956152e-01, -6.310240884540755e-03, 2.865110114567093e-04, 1.201951703570965e-02, 1.415475903352638e+05, 5.248166228498300e+03, 2.707537778062470e+04, 1.466623241998098e+05
122, 6.033984443620632e-01, 4.523925165445848e-02, -9.445818326719834e-04, 1.060177870435438e-02, -1.857944174867169e+05, 1.297093950136570e+04, 3.422503611006272e+04, 2.102215011019099e+05
123, 7.020103535966860e-01, -3.111390526276716e-03, 2.018775935103037e-04, 1.303615797329542e-02, 1.040409206692374e+05, 3.844196256725161e+03, 2.475278326695328e+04, 1.117594949024018e+05
124, 5.755684299532306e-02, -1.475369716728351e-02, 6.561079986923679e-05, 3.981374515632922e-05, 2.784534852687098e+06, 3.912626444669964e+05, 4.437052158256599e+05, 2.552498606628867e+06
125, 9.060053040963247e-02, 3.560010455049589e-02, -2.930378206710998e-04, 3.385369759934175e-04, -2.101895604880696e+06, 7.196221306942595e+04, -1.547022141523579e+05, 2.195766133475383e+06
126, 6.425569992028460e-01, 4.076809820674596e-02, -8.578711840336367e-04, 1.155334797104009e-02, -1.489704754142101e+05, 9.887779151036673e+03, 3.229366625602830e+04, 1.714860593883354e+05
127, 7.425676713184176e-01, -1.802184129515955e-03, 1.616903350773125e-04, 1.405532751198780e-02, 8.324864349544184e+04, 1.743634495359417e+03, 2.213265393090482e+04, 9.274957666859886e+04
128, 6.794554790031843e-01, 3.455015607646333e-02, -7.237890611607778e-04, 1.246355704808329e-02, -1.148137790752674e+05, 7.874110530816853e+03, 2.919770039055327e+04, 1.358761976520566e+05
129, 7.233793830986925e-01, 3.102487013943550e-02, -6.566629945790549e-04, 1.356121705091759e-02, -9.839295229786837e+04, 5.912263960855080e+03, 2.610145076534772e+04, 1.166392775483565e+05
130, 7.843494364326934e-01, 2.390274058805750e-03, 4.579085376007857e-05, 1.511726667516878e-02, 4.218402058037266e+04, 7.014651531834703e+02, 1.828542361218151e+04, 5.530125922144562e+04
131, 5.454676153951814e-02, 2.401897778829271e-02, -6.853503055467582e-05, 2.893715371596875e-05, -2.644302822041975e+06, -2.442485113643454e+05, 2.751688980196919e+04, 2.400685196167912e+06
132, 7.640247874542017e-01, 2.555744565522233e-02, -5.368369104187218e-04, 1.459116017330733e-02, -7.793797576435324e+04, 5.774567866847909e+03, 2.342031880786532e+04, 9.592619711764851e+04
133, 8.229295107187748e-01, 4.300233002464899e-03, -1.430412555004932e-05, 1.610960913144364e-02, 2.241052554328892e+04, -2.000727795566976e+03, 1.643666344623831e+04, 4.094587782125852e+04
134, 8.046566490081991e-01, 1.839946429817115e-02, -3.707767041501061e-04, 1.563338264675123e-02, -3.393075990948058e+04, 6.989867583928967e+02, 1.941288914796306e+04, 5.202557462023368e+04
135, 8.440270490961900e-01, 1.089332864254128e-02, -1.916774507737779e-04, 1.665442062302198e-02, -9.921082603400024e+03, -3.517594955721437e+02, 1.477734973755310e+04, 3.106528940483013e+04
136, 9.686534179528660e-01, 2.042627793953139e-03, -3.825873804775324e-06, 1.993388114845334e-02, -1.038768539876729e+04, -8.218931892407969e+03, 3.360352036625370e+03, 7.061965378813104e+03
137, 8.665349974513943e-01, 8.204479495203282e-03, -1.296333798485584e-04, 1.724175914918552e-02, -6.811966714356617e+03, -1.576866233275264e+03, 1.317645577608457e+04, 2.686786601729783e+04
138, 3.973268305362796e-01, -2.062836453280328e-02, 5.930511307414596e-04, 5.872017145205310e-03, 4.316894748002314e+05, 1.752678835870274e+04, 6.515692460207218e+04, 4.341801816468187e+05
139, 4.066700510668398e-01, -2.659281018491663e-03, 2.064175063539380e-04, 6.069966256462027e-03, 2.336221704508661e+05, 2.373880073444953e+04, 7.846918962685819e+04, 2.620699978370308e+05
140, 4.269223676397205e-01, -1.818542477264619e-03, 1.894256360486258e-04, 6.517433146703638e-03, 2.100178164906644e+05, 2.310637565229074e+04, 7.044581747612410e+04, 2.340648190476186e+05
141, 4.160748716342525e-01, 1.536155603904590e-02, -1.856211370679933e-04, 6.272310734391451e-03, 4.793506664395383e+04, 3.004233644926194e+04, 7.845205874487245e+04, 1.579210305154311e+05
142, 3.957310706537015e-01, 1.449338912604128e-02, -1.632618872780675e-04, 5.825669083481972e-03, 5.814350112512094e+04, 3.084880266405481e+04, 8.727595023377225e+04, 1.766730497866386e+05
143, 4.363670491508843e-01, 1.618760295133900e-02, -2.077457188269115e-04, 6.723087528247022e-03, 3.643745909173621e+04, 2.921570062488325e+04, 7.058319050415244e+04, 1.413509848651061e+05
144, 4.051964526601900e-01, 3.152834713834579e-02, -5.333712913066018e-04, 6.029909681318731e-03, -1.174852248288517e+05, 3.423610899095557e+04, 7.986324387781030e+04, 2.202996006051936e+05
145, 3.848128117936778e-01, 3.076188516682927e-02, -5.080737095025558e-04, 5.585539085161441e-03, -1.214654675627919e+05, 3.677003242285241e+04, 8.313433981057747e+04, 2.295294039522368e+05
146, 3.753524428032796e-01, 1.356859858717361e-02, -1.404572646674131e-04, 5.384157318205643e-03, 7.291043172100795e+04, 3.366447422018448e+04, 9.622029868947384e+04, 1.964017023849913e+05
147, 3.644173846774071e-01, 2.988645409861292e-02, -4.810967633875038e-04, 5.147072597345483e-03, -1.246575794615514e+05, 4.083286954821063e+04, 9.680354044637976e+04, 2.546974489178644e+05
148, 3.550134956621845e-01, 1.257057333110983e-02, -1.169394886295080e-04, 4.949651834586682e-03, 8.321058606188135e+04, 3.446408456821749e+04, 1.059310298171146e+05, 2.173976856370128e+05
149, 3.439974420069055e-01, 2.973245781499734e-02, -4.690286470280785e-04, 4.714426045909046e-03, -1.391106943355782e+05, 4.146738097346225e+04, 1.010332762357071e+05, 2.709969241707372e+05
150, 3.345561861413926e-01, 1.175186653708911e-02, -9.797699144261262e-05, 4.519538848499550e-03, 9.792409294511388e+04, 3.571715244140979e+04, 1.149225364001173e+05, 2.381143862461413e+05
151, 3.236084648859458e-01, 2.848484668563251e-02, -4.347753179011940e-04, 4.289964510713963e-03, -1.417809856891702e+05, 4.448931679868736e+04, 1.094147894684527e+05, 2.873725982180995e+05
152, 3.143303878446695e-01, 1.091172861632015e-02, -7.958079275913866e-05, 4.101759473643379e-03, 1.148263104596588e+05, 3.863150191731940e+04, 1.250406010253535e+05, 2.614311696564322e+05
153, 3.032408532210827e-01, 2.754866912925832e-02, -4.073070139272600e-04, 3.873786596452122e-03, -1.499293277845042e+05, 4.691894918975308e+04, 1.184279528391503e+05, 3.079772137714443e+05
154, 2.939539767717528e-01, 1.001939063924226e-02, -6.113958555822253e-05, 3.689049574501350e-03, 1.297024470216586e+05, 4.100694457945692e+04, 1.362596705481114e+05, 2.865897475922579e+05
155, 2.828296347109930e-01, 2.713220734740742e-02, -3.901664100005644e-04, 3.465364732526040e-03, -1.618536421678953e+05, 5.075033065567031e+04, 1.280063594741503e+05, 3.327806507651323e+05
156, 2.733885986292580e-01, 9.103913709920631e-03, -4.329016505341398e-05, 3.281702991235185e-03, 1.470733557914534e+05, 4.339569280641822e+04, 1.482965770492383e+05, 3.141919108763325e+05
157, 2.624180698607566e-01, 2.586783501818393e-02, -3.570188071051074e-04, 3.066596932857289e-03, -1.759252169274410e+05, 5.635117937563732e+04, 1.402735150365306e+05, 3.642237778651469e+05
158, 2.529513835064207e-01, 8.525498647222548e-03, -3.298338641782016e-05, 2.886891197103399e-03, 1.629238717611347e+05, 4.594224133384456e+04, 1.622652810512727e+05, 3.449707054171718e+05
159, 2.420041412463820e-01, 2.497529745393339e-02, -3.309764921965768e-04, 2.678438702795577e-03, -1.969708635036211e+05, 5.839079590264196e+04, 1.523872200303611e+05, 3.976141803420083e+05
160, 2.324783599824982e-01, 7.702710819772898e-03, -1.928904358149206e-05, 2.502726031230397e-03, 1.840169428947131e+05, 4.904887795555352e+04, 1.785676059203522e+05, 3.817878181528662e+05
161, 2.215823702425378e-01, 2.397561795711019e-02, -3.032808431503196e-04, 2.302053368115780e-03, -2.198194026718096e+05, 6.358611147913011e+04, 1.669766735427732e+05, 4.379994560279704e+05
162, 2.121325115698451e-01, 6.410467661081484e-03, 1.059128101419677e-06, 2.133522564558804e-03, 2.104169703836254e+05, 5.078054938253351e+04, 1.977667157085158e+05, 4.265330963460742e+05
163, 2.011663454080357e-01, 2.296567656220408e-02, -2.754753961523826e-04, 1.939249839120818e-03, -2.507689259877125e+05, 6.576414868509494e+04, 1.819197778750120e+05, 4.822576175553848e+05
164, 1.916646013131764e-01, 6.122736367823681e-03, 2.494233008890259e-06, 1.776211088580102e-03, 2.316584229575564e+05, 5.430773760357776e+04, 2.211110835157314e+05, 4.764595582098535e+05
165, 3.255525552210641e-01, -6.161447547465032e-03, 2.651906192478038e-04, 4.337564788516645e-03, 3.563869525169500e+05, 2.886466291451317e+04, 1.121408704949059e+05, 3.969548457039460e+05
166, 2.646894232509986e-01, -8.340506671611615e-03, 2.839881928453555e-04, 3.117369783684828e-03, 4.854026683262870e+05, 3.327536477052138e+04, 1.450149344651208e+05, 5.371558651753702e+05
167, 1.807269234638549e-01, 2.189447272204787e-02, -2.465147378635789e-04, 1.591428242395854e-03, -2.944666503053734e+05, 6.746100868149336e+04, 2.019929800753432e+05, 5.423986415346056e+05
168, 1.712197765907188e-01, 5.003864087505491e-03, 1.582292065666696e-05, 1.435849579059883e-03, 2.519710942749451e+05, 6.040968021202039e+04, 2.547216316254035e+05, 5.442685126198450e+05
169, 1.602426840341227e-01, 2.138865991864423e-02, -2.259136067794492e-04, 1.260899083181888e-03, -3.474485990819755e+05, 6.796864213661486e+04, 2.207224786349136e+05, 6.061725287413016e+05
170, 2.037692397470149e-01, -1.034914650557998e-02, 2.804205943865568e-04, 1.991003164531657e-03, 6.723561718182022e+05, 3.094682551608322e+04, 1.858138913301748e+05, 7.412915474823383e+05
171, 2.916999765043648e-01, 4.426039903148235e-02, -7.287555593469606e-04, 3.642148462587515e-03, -4.333258064178125e+05, 5.489228320026268e+04, 8.677885442202484e+04, 5.181497672772987e+05
172, 1.507262204296524e-01, 4.193183260823651e-03, 2.244369231548277e-05, 1.114086073113304e-03, 2.787062821957196e+05, 8.758241993161457e+04, 2.910054912960043e+05, 6.125888626023689e+05
173, 3.537537079013051e-01, 4.827208157291081e-02, -8.590590412449024e-04, 4.919306624221591e-03, -3.671145832778141e+05, 4.613609323531787e+04, 7.039459893916093e+04, 4.365749876914418e+05
174, 1.397136229518096e-01, 2.099975485568201e-02, -2.059281022208311e-04, 9.516993212652299e-04, -4.538443447472755e+05, 7.219412417661595e+04, 2.436953408270431e+05, 7.171235230774590e+05
175, 1.295462050507191e-01, 2.895094086866376e-03, 3.346610598837809e-05, 8.049934159730237e-04, 3.446656518052694e+05, 7.902948307917960e+04, 3.443987483137788e+05, 7.382442451491687e+05
176, 1.191521560559205e-01, 2.012333267723078e-02, -1.739727654722513e-04, 6.648965246560730e-04, -6.235374953358079e+05, 9.424559136419118e+04, 2.662088149521049e+05, 8.936895949855264e+05
177, 1.080886766322981e-01, -1.434166924619944e-05, 5.558064407558141e-05, 5.208480212014329e-04, 5.178974221321314e+05, 6.480095226728484e+04, 4.080906340647315e+05, 9.335139385405042e+05
178, 2.290595946644183e-01, 4.112394933858098e-02, -6.120218999023797e-04, 2.440477878646299e-03, -5.886389725184509e+05, 6.170379200133751e+04, 9.259676856846272e+04, 6.761969813305342e+05
179, 3.459241474687385e-01, -5.280135464756558e-03, 2.524710309866903e-04, 4.762543056267898e-03, 3.207295000956837e+05, 2.725343218499759e+04, 1.032601602933791e+05, 3.588576949872680e+05
180, 2.852249789379561e-01, -7.661787197075484e-03, 2.805733549123899e-04, 3.519952788489383e-03, 4.386037879883658e+05, 3.212573873379793e+04, 1.322203512593194e+05, 4.849260661939613e+05
181, 3.956003701982225e-01, 4.825293871018150e-02, -8.887997637082589e-04, 5.818411826486944e-03, -3.064675047694031e+05, 4.288122982934013e+04, 6.495182470951430e+04, 3.727190584047521e+05
182, 3.863679656039212e-01, -3.541874220538175e-03, 2.231945070404884e-04, 5.626913778240606e-03, 2.598227182523388e+05, 2.516566721882668e+04, 8.616139032566590e+04, 2.911341139941373e+05
183, 7.630082210649703e-01, -1.683932405478732e-04, 1.159982472045234e-04, 1.457344773603830e-02, 7.096174780451685e+04, 9.311429461883838e+02, 2.092350969476582e+04, 8.158099440807998e+04
184, 7.221165178549034e-01, -2.386671879896191e-03, 1.803092704677879e-04, 1.353977409691494e-02, 9.365772837335817e+04, 2.944334109283670e+03, 2.361910503020312e+04, 1.022759423746391e+05
185, 6.813490575644440e-01, -5.026272236468695e-03, 2.525156178276266e-04, 1.252248417892764e-02, 1.207410618779435e+05, 4.340989361544418e+03, 2.542573346320671e+04, 1.270230237806953e+05
186, 6.700514205024029e-01, 1.200943009480344e-02, -1.651534800318412e-04, 1.223706209489325e-02, 2.083243854048177e+04, 5.282155687606946e+03, 2.964528876011195e+04, 6.129587163493226e+04
187, 6.507436095443034e-01, 9.724469617936471e-03, -1.042114394409686e-04, 1.176232878900592e-02, 4.244746737094859e+04, 5.597182088560859e+03, 3.005195396758257e+04, 7.050122888625537e+04
188, 6.585972170885982e-01, 2.855958551875440e-02, -5.674682368598485e-04, 1.194987206217958e-02, -7.773098555875434e+04, 4.988081434166485e+03, 3.395087988314151e+04, 1.070191245691037e+05
189, 6.914402908656641e-01, 1.520975427006638e-02, -2.505096366442442e-04, 1.276652802693339e-02, 1.211876562369005e+03, 6.293440533169726e+03, 2.941754653796913e+04, 5.905413168986280e+04
190, 6.408436581122263e-01, -8.308025859652041e-03, 3.370727338073693e-04, 1.152584714335403e-02, 1.610116737365010e+05, 6.091995618758022e+03, 2.936270249885874e+04, 1.656767330081416e+05
191, 5.999777577336088e-01, -1.017319331688185e-02, 3.839963528585423e-04, 1.053444372856347e-02, 1.897243045283277e+05, 7.372921689408524e+03, 3.116253106412308e+04, 1.927081736526913e+05
192, 5.887616024017648e-01, 6.914165488212533e-03, -2.337683224898736e-05, 1.025905387815158e-02, 7.247687615176704e+04, 9.277435391280820e+03, 3.678083899047963e+04, 9.698190439361641e+04
193, 5.684052808662257e-01, 5.719726871149628e-03, 8.431609487920611e-06, 9.773538110736510e-03, 9.267227794846577e+04, 1.098361711820932e+04, 3.903500142524151e+04, 1.129954098771941e+05
194, 5.775195922504133e-01, 2.398253745901509e-02, -4.259204590002880e-04, 9.985551378974977e-03, -3.472528887020969e+04, 9.350143605872874e+03, 3.792593076367366e+04, 8.772769599800045e+04
195, 5.571515349656804e-01, 2.232351574757130e-02, -3.802187555818125e-04, 9.501851062878111e-03, -1.932789740685769e+04, 9.790200952427533e+03, 4.169893414419717e+04, 8.833497657841643e+04
196, 5.979431170668756e-01, 2.519796775079432e-02, -4.623266684320063e-04, 1.047446637834766e-02, -6.050170979574934e+04, 1.291203676662391e+04, 3.709369963196131e+04, 1.043712048118112e+05
197, 7.026714032463355e-01, 3.307350982476356e-02, -6.982180641305696e-04, 1.304170877863608e-02, -1.078488896454676e+05, 7.020564206715505e+03, 2.690645261389590e+04, 1.268495967567660e+05
198, 5.593113618335217e-01, -1.250046520892452e-02, 4.387921455638243e-04, 9.564032150761959e-03, 2.266740477862808e+05, 8.755573073714415e+03, 3.561137788758885e+04, 2.292621699305449e+05
199, 5.187649537457070e-01, -1.486169353188113e-02, 4.909027737442834e-04, 8.612856069892311e-03, 2.644900396582069e+05, 9.993115993454874e+03, 3.883297176734387e+04, 2.660839772326697e+05
200, 5.076921965629095e-01, 2.218307329771115e-03, 9.696091264014113e-05, 8.349826091512217e-03, 1.356431032637656e+05, 1.396765005174563e+04, 4.489861457516751e+04, 1.512232068084401e+05
201, 4.873986433704672e-01, 1.181039459401317e-03, 1.220100981887824e-04, 7.882583916927715e-03, 1.499785923015225e+05, 1.682942294255376e+04, 4.943283632953503e+04, 1.658406540366798e+05
202, 4.966194656028796e-01, 1.934467626271270e-02, -2.934233929328360e-04, 8.089469049408420e-03, 3.450590499245409e+02, 2.009085987444166e+04, 4.715698382459086e+04, 9.635881456271863e+04
203, 4.763431748988570e-01, 1.825370403979853e-02, -2.632658368283346e-04, 7.625133949947973e-03, 7.371819265683496e+03, 2.407944545884595e+04, 5.338160247402909e+04, 1.080626054830788e+05
204, 4.860578366563697e-01, 3.670910442424759e-02, -6.848858609992367e-04, 7.843634230995029e-03, -1.421453391222376e+05, 2.730257284331619e+04, 4.379954900662306e+04, 1.907516627508666e+05
205, 5.169176985164646e-01, 1.994335935477508e-02, -3.127749422007843e-04, 8.558837962433953e-03, -4.743678710806508e+03, 1.416104660383655e+04, 4.399100107701614e+04, 8.999011802556015e+04
206, 4.659122849665016e-01, 3.584565405751972e-02, -6.557676665567138e-04, 7.384688063339265e-03, -1.429604015581360e+05, 3.388683467056539e+04, 5.058139493337160e+04, 2.037372204957969e+05
207, 5.073801417642654e-01, 3.694836126629831e-02, -7.004487074002292e-04, 8.334166373838268e-03, -1.376598791799859e+05, 1.831796679937620e+04, 4.108685687373263e+04, 1.762997664984612e+05
208, 4.255042211984943e-01, 3.276145417967536e-02, -5.688604113445680e-04, 6.478068376193345e-03, -1.141974477538783e+05, 3.270086636092573e+04, 6.784749093607135e+04, 1.999806060473185e+05
209, 4.782031906629673e-01, -1.692800596420961e-02, 5.325968172152792e-04, 7.678605158845309e-03, 3.063284367845730e+05, 1.279799860797643e+04, 4.485983595399742e+04, 3.069360481654493e+05
210, 4.377615561649102e-01, -1.892015496718379e-02, 5.684715457627637e-04, 6.765394059952504e-03, 3.609977741733860e+05, 1.567116044981166e+04, 5.401693807136825e+04, 3.618311602670711e+05
211, 7.437995247830567e-01, 2.907365860617513e-02, -6.168678367965703e-04, 1.407681840630339e-02, -8.901984476009877e+04, 5.605683784598851e+03, 2.481518444792986e+04, 1.068511308742332e+05
212, 3.771599174236252e-01, -2.142636025480181e-02, 6.019415658119284e-04, 5.434682890792413e-03, 4.735765808615241e+05, 1.851468876717149e+04, 7.084228049642075e+04, 4.766086869332393e+05
213, 6.218943807040979e-01, 4.341022781815626e-02, -9.109420988977745e-04, 1.104951126697227e-02, -1.744199389721668e+05, 1.161732547167878e+04, 3.135624637695690e+04, 1.963230004588332e+05
214, 6.296675380922808e-01, 2.448237643370344e-02, -4.568930932692387e-04, 1.124266857497016e-02, -5.517047973726524e+04, 9.034766894930692e+03, 3.424455773471545e+04, 9.387796670617737e+04
215, 5.814676933777930e-01, 4.439866935626801e-02, -9.124688752951295e-04, 1.007524222146369e-02, -1.834026593280268e+05, 1.281874871254252e+04, 3.370214985747181e+04, 2.074757349510674e+05
216, 3.312274326488422e-01, 4.612386330115190e-02, -7.976971940145663e-04, 4.447351315681402e-03, -3.725062016171995e+05, 4.944437424107866e+04, 7.896710374355619e+04, 4.505391241187772e+05
217, 2.710279663853664e-01, 4.299515715254759e-02, -6.864044807625688e-04, 3.234421675549771e-03, -4.747766075743451e+05, 5.760180008557858e+04, 8.988880527684481e+04, 5.619134792820954e+05
218, 5.390455428341940e-01, 5.238266303217255e-02, -1.075007625801270e-03, 9.069414579157057e-03, -2.518058559014157e+05, 1.380909672899576e+04, 3.455775179474690e+04, 2.744599349582468e+05
219, 6.114472204034992e-01, 1.035802388696049e-02, -1.103824568576488e-04, 1.080420124879537e-02, 4.285197146968817e+04, 9.459624547683154e+03, 3.406638563788118e+04, 7.587570991216415e+04
220, 5.481464598881551e-01, 4.391424796774106e-03, 4.249428619671227e-05, 9.294272156159467e-03, 1.085438520177945e+05, 9.628929168028300e+03, 4.057798172314882e+04, 1.279470686075769e+05
221, 4.369713267450843e-01, 6.210740459687750e-02, -1.222986488466242e-03, 6.731806535900458e-03, -3.917899768324171e+05, 4.490031811965093e+04, 3.785270012372721e+04, 4.432039274780307e+05
222, 4.776658622515376e-01, 5.502642382875403e-02, -1.095262619449088e-03, 7.650050562561736e-03, -2.920743586007997e+05, 3.506128257510079e+04, 3.537729598358519e+04, 3.346997759365970e+05
223, 4.672216742651403e-01, 6.822137221719886e-05, 1.479512779740933e-04, 7.422502271059603e-03, 1.675488520461557e+05, 1.873599481069318e+04, 5.561279594415767e+04, 1.857858949691505e+05
224, 7.838712537706656e-01, 2.237803476451621e-02, -4.644282715464766e-04, 1.509880748891034e-02, -6.108801350831077e+04, 5.626969219874675e+03, 2.061000863052828e+04, 7.842180017969418e+04
225, 5.279391987118984e-01, 3.223725334036668e-03, 7.195493429206510e-05, 8.820384254739992e-03, 1.228552869045038e+05, 1.101997256746392e+04, 4.221456381137446e+04, 1.401264255021262e+05
226, 2.240945376964768e-01, -9.587620610872932e-03, 2.827320513466325e-04, 2.354126442851747e-03, 6.046860010994750e+05, 3.636415202398616e+04, 1.713170780943572e+05, 6.636172760889630e+05
227, 4.471002731846575e-01, -9.168098744713615e-04, 1.700827871230380e-04, 6.968251925379591e-03, 1.884257161049836e+05, 2.114121346060801e+04, 6.256105699147638e+04, 2.089010489024388e+05
228, 3.661288396845953e-01, -4.394762525783355e-03, 2.381650813088173e-04, 5.191148804826184e-03, 2.887954608821478e+05, 2.652006312409554e+04, 9.477767763003407e+04, 3.236041053152991e+05
229, 1.546440068756184e-01, -2.520108376499952e-02, 4.494706041339699e-04, 1.189415675142051e-03, 1.473348176944696e+06, 6.765781597693294e+03, 1.351123446192483e+05, 1.491269695600295e+06
230, 1.882221366659534e-01, 3.826074051584353e-02, -5.173053496717735e-04, 1.720575596227396e-03, -7.379148299306743e+05, 7.106043078376687e+04, 9.460635880931150e+04, 8.308082961529831e+05
231, 1.543914041184917e-01, 4.912107034456465e-02, -6.343176881197448e-04, 1.182811957182873e-03, -1.382881946122914e+06, 5.171556780698704e+04, -6.992424568014866e+04, 1.441397803352566e+06
232, 5.370927014694915e-01, 2.057153489439007e-02, -3.331229104511093e-04, 9.029706488153034e-03, -1.126126665551390e+04, 1.056408632339137e+04, 4.260637769765552e+04, 8.796339985877604e+04
233, 1.206636050110365e-01, -1.834415102198253e-02, 2.846637136984119e-04, 6.930795620554795e-04, 1.560271328495432e+06, 1.637192980473194e+04, 2.275279608534754e+05, 1.609565545468114e+06
234, 8.631313342926250e-02, 1.043432805688596e-03, 2.978193121871954e-05, 2.692937722963328e-04, 4.534562813700597e+05, 1.011455931782489e+05, 4.994964347906081e+05, 1.059296735805553e+06
235, 1.106095889185965e-01, 3.867169228023645e-02, -3.850217940708461e-04, 5.682354346554867e-04, -1.683576029922959e+06, 8.003448317401313e+04, -7.720888292955598e+04, 1.770357841883692e+06
236, 3.368165213239255e-01, -2.303433487990625e-02, 6.147736027762033e-04, 4.578786322621558e-03, 5.727670519666398e+05, 2.028285580069458e+04, 8.232997980027991e+04, 5.764995137107997e+05
237, 4.563612726504259e-01, 1.708420333116029e-02, -2.320393078356401e-04, 7.171970509838728e-03, 1.997426519495341e+04, 2.693273602493619e+04, 6.111187743637552e+04, 1.224216752519179e+05
238, 4.456317431566468e-01, 3.339001461812384e-02, -5.914162396918814e-04, 6.927495683046729e-03, -1.250297689738891e+05, 3.296863584730480e+04, 5.883865465643343e+04, 1.970062056209347e+05
239, 3.167674574315031e-01, -2.377538963541589e-02, 6.170099771929246e-04, 4.164014019042864e-03, 6.299718666126421e+05, 2.144531903513682e+04, 8.817658415175155e+04, 6.335653076655015e+05
240, 7.729445970665597e-02, -1.752507912106143e-02, 1.594108926367062e-04, 1.973290153990868e-04, 2.487391923123510e+06, -3.048972793737366e+04, 2.575978480301489e+05, 2.570049535317974e+06
241, 7.252862014530212e-02, 3.083776928774613e-02, -1.843582567657249e-04, 1.645168339955573e-04, -2.490460883819899e+06, 1.130346110773783e+05, -1.298379959934522e+05, 2.616413654750487e+06
242, 6.994351787411089e-02, 1.216950509271565e-02, -4.244868464585908e-05, 1.220138188017298e-04, -7.828466428900573e+05, 5.105015375230921e+04, 3.902216860294138e+05, 1.142136473649692e+06
243, 3.053917014711016e-01, -6.863402861304940e-03, 2.727745930997795e-04, 3.924612493588493e-03, 3.953630656130070e+05, 3.056099688494711e+04, 1.216726383248045e+05, 4.385173577134055e+05
244, 2.497228322075046e-02, 2.402640398398414e-03, 1.177367576080448e-06, -9.451880680270299e-06, 3.705212799219201e+04, -1.017411094773765e+04, -1.114299696979609e+05, 2.278088458158842e+05
245, 4.989473083532157e-01, 5.518919255669726e-02, -1.113522858606456e-03, 8.137190366550652e-03, -2.815339875368843e+05, 2.151750941944259e+04, 3.336784427843884e+04, 3.103125230064542e+05
246, 7.121516210256057e-01, 1.460595551967098e-02, -2.419966190090247e-04, 1.328401795728094e-02, -1.740262933451629e+03, 5.381675950327582e+03, 2.788448492429601e+04, 5.622188196278609e+04
247, 2.763702683359829e-01, -2.506910702819862e-02, 6.106903403960882e-04, 3.353045562184062e-03, 7.657430696952592e+05, 2.331297832165407e+04, 1.003904382662033e+05, 7.691003841880078e+05
248, 8.873385472785349e-01, 6.844391408278278e-03, -1.014082937449797e-04, 1.778651609924352e-02, -6.510726757289292e+03, -2.295748094036669e+03, 1.198807540767816e+04, 2.434382576860889e+04
249, 9.962521156902329e-02, 1.917857730881604e-02, -1.413623674731872e-04, 4.216070818168919e-04, -7.792428562218054e+05, 1.592524166722003e+05, 2.905417052732244e+05, 1.103825759464186e+06
250, 2.557921536609737e-01, -2.522121516525769e-02, 5.938014235660222e-04, 2.954205112860641e-03, 8.451598952108000e+05, 2.428331090516212e+04, 1.075536621007685e+05, 8.485926747188171e+05
251, 7.326436531224615e-01, 1.392908380138819e-02, -2.315780129309259e-04, 1.379939472654772e-02, -2.400454949019788e+03, 4.153985763718754e+03, 2.632487213663318e+04, 5.305616142444860e+04
252, 2.442929978870507e-01, -8.841726120787759e-03, 2.822302603051775e-04, 2.728010652569381e-03, 5.375098969345327e+05, 3.535423356346464e+04, 1.586314528751897e+05, 5.939832166154288e+05
253, 3.995007411905830e-02, -1.161067152480321e-02, 2.379468936509032e-05, -1.341008722414799e-06, 1.031355685199634e+06, 3.024499603497958e+05, 2.454219137440367e+05, 8.787668739216392e+05
254, 8.043761192319334e-01, -8.566257281116389e-04, 1.236190052066583e-04, 1.563285596464188e-02, 5.505142777525191e+04, -2.035791324078436e+02, 1.625346828477061e+04, 6.410785219847647e+04
255, 3.728297782789732e-02, 1.860236346631203e-02, -2.207887305739436e-05, -4.891664005985017e-06, -1.017644219268566e+06, -2.138922661631054e+05, 9.277509834082462e+04, 8.248915550600826e+05
256, 2.774419946245726e-01, 6.094101662917976e-02, -1.039206137376406e-03, 3.363160450484546e-03, -7.401809241268083e+05, 4.803843251523287e+04, 2.099560883464935e+04, 7.893370740986031e+05
257, 5.272315251059175e-01, 3.640340721383552e-02, -6.971154744509184e-04, 8.795481582672885e-03, -1.324496197784801e+05, 1.361424886208365e+04, 4.133716834141864e+04, 1.678383140650400e+05
258, 5.083404437921797e-02, 4.581799144869038e-03, -2.855696906060191e-07, 1.200633468035432e-05, 6.350554051236426e+04, 4.610918066666012e+04, 9.506305221845962e+04, 1.909203208782123e+05
259, 2.490426759473710e-01, 4.254632631819232e-02, -6.577665324607676e-04, 2.812528973978125e-03, -5.272793501565096e+05, 6.113752546954784e+04, 9.335777294620675e+04, 6.173306363687397e+05
260, 2.163684835035404e-01, -2.701679002700320e-02, 5.800138934304613e-04, 2.223754365803461e-03, 1.053892459093111e+06, 2.596730953611778e+04, 1.187154082027964e+05, 1.054989813064938e+06
261, 6.319627623250758e-01, 8.005179788726667e-03, -5.806160030042771e-05, 1.130336204234542e-02, 5.344993983302257e+04, 6.434294924796623e+03, 3.223004856916408e+04, 7.978455357535749e+04
262, 3.114372276557584e-01, 4.471425339351094e-02, -7.537852856922904e-04, 4.040250834063541e-03, -3.975335256017593e+05, 5.093619413855803e+04, 8.357334429988176e+04, 4.786053750573901e+05
263, 2.356884134652882e-01, 5.867724256479173e-02, -9.387687621017335e-04, 2.567433492194947e-03, -9.055385015904929e+05, 4.882286533096626e+04, -5.591423866582772e+01, 9.543613734732795e+05
264, 3.383946157052069e-01, 6.335777825715755e-02, -1.158534341741815e-03, 4.598074664536379e-03, -5.784827620649775e+05, 4.649592573758037e+04, 3.500319502757293e+04, 6.288873149109946e+05
265, 1.951580192305350e-01, -2.592057073090863e-02, 5.307531091639720e-04, 1.850522220141568e-03, 1.161693852581295e+06, 2.598665902791256e+04, 1.307836246761654e+05, 1.165439082673412e+06
266, 2.079444632386854e-01, 4.033501394168094e-02, -5.753251686094544e-04, 2.061010348038205e-03, -6.600780252549183e+05, 6.710424025988582e+04, 9.374319580003404e+04, 7.509628448295277e+05
267, 9.479046644594288e-01, 3.329224375259112e-03, -3.039887497941620e-05, 1.938373702725454e-02, -8.936266692866207e+03, -5.985212446340001e+03, 5.919063041227364e+03, 1.220040779277624e+04
268, 3.561712635176024e-01, 6.624998309437961e-02, -1.237648827184777e-03, 4.972485959189087e-03, -5.734710679473674e+05, 4.614904416806855e+04, 3.339492569825219e+04, 6.232094090973858e+05
269, 1.945815262482765e-01, 5.549283344264481e-02, -8.153920830608590e-04, 1.835465434852415e-03, -1.126927507806720e+06, 4.777826390772933e+04, -3.234186465324457e+04, 1.176485288873700e+06
270, 2.977935989933491e-01, 6.155964200056977e-02, -1.076454613228060e-03, 3.766728151027866e-03, -6.747869467591154e+05, 4.808604119384917e+04, 2.843938120644323e+04, 7.251072681511808e+05
271, 9.078621578882508e-01, 5.667274229115189e-03, -7.777098969754993e-05, 1.832596775402317e-02, -6.964880478475797e+03, -3.467212350683366e+03, 9.967607795393793e+03, 2.023972586235682e+04
272, 1.825817478992424e-01, -9.081920198856432e-03, 2.417355109607345e-04, 1.627685761178458e-03, 7.377380318197889e+05, 2.867544235975658e+04, 2.061819419588152e+05, 8.202522347006432e+05
273, 5.473154535762672e-01, 3.607904473465572e-02, -6.988561377842911e-04, 9.266524777242621e-03, -1.290410425344469e+05, 1.201148340103266e+04, 4.063929230404388e+04, 1.627944206312772e+05
274, 7.530729938319840e-01, 1.313628422854849e-02, -2.181964125695415e-04, 1.431649836235582e-02, -2.260114743198827e+03, 3.859607137567893e+03, 2.501714357660157e+04, 5.040715114770050e+04
275, 3.748556537104224e-01, 4.373238303807285e-02, -7.783967566552194e-04, 5.369977442436737e-03, -2.768610740602630e+05, 4.311088472141475e+04, 7.465754900824832e+04, 3.530963790557185e+05
276, 6.131635011745523e-01, 2.949827386178269e-02, -5.715264947881982e-04, 1.084098512471280e-02, -8.711693913535020e+04, 1.389717292261650e+04, 3.713918494520176e+04, 1.253839186994690e+05
277, 1.615549999555386e-01, -8.423645609178222e-03, 2.110411526930486e-04, 1.285845280456742e-03, 8.327648901466602e+05, 3.254840827138186e+04, 2.365752256063088e+05, 9.296331358915467e+05
278, 1.684665400829101e-01, 3.589271030097479e-02, -4.540762479197964e-04, 1.395309442294197e-03, -8.269815977378460e+05, 7.762994380989677e+04, 9.694137360683572e+04, 9.251554251954121e+05
279, 8.256084584492730e-01, 2.063599800034852e-02, -4.366687690484189e-04, 1.617368964383066e-02, -5.192328761373259e+04, 1.315360751071557e+03, 1.855191388879476e+04, 6.489258598222363e+04
280, 3.972984879188702e-01, 6.550620359910081e-02, -1.262605103379377e-03, 5.856257979569709e-03, -4.780875455754969e+05, 4.376589845255374e+04, 3.495539042266778e+04, 5.265154644664696e+05
281, 6.627065683700449e-01, 4.403640084504622e-02, -9.485805916682342e-04, 1.204760112637868e-02, -1.724084736078686e+05, 9.952313161846769e+03, 2.997839831682618e+04, 1.919642519164408e+05
282, 9.271814000509705e-01, 4.566893966412862e-03, -5.566521758702053e-05, 1.883551690979253e-02, -7.724827772791306e+03, -4.462325048052607e+03, 7.163180829830080e+03, 1.469314678454919e+04
283, 5.666099503639990e-01, 3.514156773900353e-02, -6.857710674633725e-04, 9.723249930732330e-03, -1.219423304464057e+05, 9.919149761442755e+03, 3.841401119205356e+04, 1.526105991930366e+05
284, 1.494596596362294e-01, 3.329163864126687e-02, -3.882678633573513e-04, 1.099782833878090e-03, -9.119401387529684e+05, 7.242612554543989e+04, 1.164674345680250e+05, 1.011551084003291e+06
285, 4.157211108020577e-01, 4.328993327621897e-02, -7.940998145817811e-04, 6.260587544892813e-03, -2.351273801772136e+05, 4.008041580023605e+04, 6.367255054121617e+04, 3.032426515786664e+05
286, 1.420183368662139e-01, -1.083000509133579e-02, 2.227881082785387e-04, 9.884422476960995e-04, 1.039063514887789e+06, 3.911962299690206e+04, 2.536188586021196e+05, 1.121239443064888e+06
287, 7.723941052487970e-01, 1.222809467856913e-02, -2.014561705940826e-04, 1.480852352590706e-02, -2.865629050417624e+03, 5.004608629497357e+03, 2.139809323129517e+04, 4.351383937184990e+04
288, 6.445251630204021e-01, 2.466895360166448e-02, -4.669362651324150e-04, 1.160563032171910e-02, -3.931759978793030e+04, 4.373595188033210e+03, 3.492524952321707e+04, 8.238939698446369e+04
289, 7.017993879064316e-02, -4.170715886349615e-03, 4.639415939425322e-05, 1.235199451353858e-04, 1.068079734095576e+06, 2.136131689951915e+05, 5.143972901198254e+05, 1.337359861520051e+06
290, 4.338320994818889e-01, 4.597756208071748e-02, -8.641950660915295e-04, 6.661989638384218e-03, -2.600933326622179e+05, 3.955136553339844e+04, 5.710324966276345e+04, 3.206712797319610e+05
291, 8.319934002763331e-02, 1.967812476841416e-02, -1.213070275571501e-04, 2.495462869387851e-04, -1.260641919043699e+06, 1.792202552636875e+05, 2.765016829988126e+05, 1.542405849251713e+06
