"arc_length","Displacement_Magnitude","Sxx","Sxy","Sxz","Syy","Syz","Szz","Von_Mises_Stress"
0,0,2.62935e+06,186463,1666.1,5.19706e+06,751073,2.45767e+06,3.41536e+06
0.00189736,1.09234e-06,2.5875e+06,177034,900.289,5.10769e+06,739120,2.40871e+06,3.28615e+06
0.00379474,2.18469e-06,2.54564e+06,167606,134.495,5.01833e+06,727167,2.35976e+06,3.15693e+06
0.0056921,3.27703e-06,2.50379e+06,158177,-631.319,4.92897e+06,715214,2.3108e+06,3.02771e+06
0.00758946,4.36938e-06,2.46193e+06,148749,-1397.13,4.8396e+06,703261,2.26184e+06,2.89849e+06
0.00948684,5.69936e-06,2.39251e+06,137478,-1152.52,4.7019e+06,694953,2.18308e+06,2.79621e+06
0.0113842,7.36856e-06,2.29287e+06,124188,199.735,4.51122e+06,690640,2.07166e+06,2.72346e+06
0.0132816,9.09561e-06,2.19322e+06,110898,1551.99,4.32053e+06,686327,1.96024e+06,2.6507e+06
0.0151789,1.0853e-05,2.09357e+06,97607.4,2904.3,4.12984e+06,682014,1.84881e+06,2.57795e+06
0.0170763,1.26279e-05,1.99393e+06,84317.4,4256.56,3.93915e+06,677701,1.73739e+06,2.5052e+06
0.0189737,1.4414e-05,1.89428e+06,71027.5,5608.82,3.74846e+06,673388,1.62597e+06,2.43245e+06
0.020871,1.62076e-05,1.79464e+06,57737.1,6961.12,3.55777e+06,669076,1.51454e+06,2.35969e+06
0.0227684,1.80063e-05,1.69499e+06,44447.2,8313.38,3.36708e+06,664763,1.40312e+06,2.28694e+06
0.0246658,1.96678e-05,1.64018e+06,44803,6789.36,3.28018e+06,652826,1.34013e+06,2.26066e+06
0.0265631,2.12958e-05,1.60679e+06,51681.5,3890.47,3.24289e+06,637245,1.30029e+06,2.25659e+06
0.0284605,2.29561e-05,1.5734e+06,58559.8,991.625,3.2056e+06,621663,1.26045e+06,2.25253e+06
0.0303579,2.46422e-05,1.54002e+06,65438.2,-1907.22,3.1683e+06,606082,1.22061e+06,2.24846e+06
0.0322552,2.63492e-05,1.50663e+06,72316.7,-4806.11,3.13101e+06,590501,1.18077e+06,2.24439e+06
0.0341526,2.80732e-05,1.47324e+06,79195,-7704.96,3.09372e+06,574920,1.14093e+06,2.24032e+06
0.03605,2.98112e-05,1.43986e+06,86073.4,-10603.8,3.05643e+06,559338,1.10109e+06,2.23626e+06
0.0379473,3.15611e-05,1.40647e+06,92951.9,-13502.7,3.01914e+06,543757,1.06125e+06,2.23219e+06
0.0398447,3.33208e-05,1.37308e+06,99830.2,-16401.5,2.98185e+06,528176,1.02141e+06,2.22812e+06
0.0417421,3.5089e-05,1.3397e+06,106709,-19300.4,2.94455e+06,512595,981568,2.22405e+06
0.0436394,3.68643e-05,1.30631e+06,113587,-22199.3,2.90726e+06,497013,941728,2.21999e+06
0.0455368,3.86459e-05,1.27292e+06,120465,-25098.1,2.86997e+06,481432,901888,2.21592e+06
0.0474342,4.10346e-05,1.23043e+06,129127,-30265.7,2.82319e+06,468744,849911,2.21506e+06
0.0493315,4.50738e-05,1.16347e+06,142577,-41525.1,2.75093e+06,463824,765345,2.22279e+06
0.0512289,4.91551e-05,1.0965e+06,156026,-52784.4,2.67867e+06,458904,680780,2.23053e+06
0.0531263,5.32688e-05,1.02954e+06,169476,-64043.7,2.60641e+06,453984,596214,2.23827e+06
0.0550236,5.7408e-05,962584,182926,-75303.1,2.53415e+06,449064,511649,2.246e+06
0.056921,6.15675e-05,895623,196375,-86562.4,2.46189e+06,444144,427083,2.25374e+06
0.0588184,6.57014e-05,870205,202803,-92003.2,2.42818e+06,441053,399706,2.26793e+06
0.0607157,6.98629e-05,870430,204897,-93852.4,2.41826e+06,439091,407630,2.28609e+06
0.0626131,7.40782e-05,870655,206990,-95701.6,2.40835e+06,437128,415554,2.30426e+06
0.0645105,7.83384e-05,870879,209083,-97550.8,2.39843e+06,435166,423478,2.32242e+06
0.0664078,8.26366e-05,871104,211177,-99400,2.38852e+06,433203,431402,2.34059e+06
0.0683052,8.69672e-05,871329,213270,-101249,2.3786e+06,431241,439326,2.35875e+06
0.0702026,9.13257e-05,871553,215363,-103098,2.36868e+06,429278,447250,2.37692e+06
0.0720999,9.61748e-05,853657,213451,-98741.6,2.32708e+06,423212,444436,2.36156e+06
0.0739973,0.000101284,825873,209352,-90998.7,2.26818e+06,414906,435765,2.32792e+06
0.0758947,0.000106393,798090,205253,-83255.8,2.20928e+06,406600,427094,2.29428e+06
0.077792,0.000111504,770305,201154,-75512.4,2.15038e+06,398293,418421,2.26063e+06
0.0796894,0.000116616,742522,197055,-67769.5,2.09148e+06,389987,409750,2.22699e+06
0.0815868,0.000121728,714738,192956,-60026.5,2.03259e+06,381681,401078,2.19335e+06
0.0834841,0.000126841,686954,188857,-52283.2,1.97369e+06,373375,392406,2.1597e+06
0.0853815,0.000131955,659170,184758,-44540.3,1.91479e+06,365069,383734,2.12606e+06
0.0872789,0.000137069,631387,180659,-36797.3,1.85589e+06,356763,375063,2.09242e+06
0.0891762,0.000142184,603604,176560,-29054.4,1.79699e+06,348457,366392,2.05878e+06
0.0910736,0.000147299,575819,172461,-21311.1,1.73809e+06,340150,357719,2.02513e+06
0.092971,0.000152082,559495,163518,-17718.8,1.6883e+06,338783,360543,2.06891e+06
0.0948683,0.000156788,546447,153190,-15312.9,1.6411e+06,339399,366652,2.13483e+06
0.0967657,0.000161511,533398,142862,-12906.8,1.5939e+06,340015,372761,2.20074e+06
0.0986631,0.000166249,520350,132535,-10500.8,1.54671e+06,340631,378870,2.26666e+06
0.10056,0.000171003,507302,122207,-8094.9,1.49951e+06,341247,384979,2.33257e+06
0.102458,0.00017577,494253,111879,-5688.81,1.45232e+06,341863,391088,2.39849e+06
0.104355,0.000180549,481204,101552,-3282.87,1.40512e+06,342479,397197,2.4644e+06
0.106253,0.000185339,468156,91224.2,-876.931,1.35792e+06,343095,403306,2.53032e+06
0.10815,0.000191633,454832,91693.4,-2657.56,1.3184e+06,347732,399768,2.53218e+06
0.110047,0.000198347,441432,95177.7,-5607.22,1.28101e+06,353491,393536,2.51617e+06
0.111945,0.000205063,428031,98661.9,-8556.89,1.24363e+06,359250,387305,2.50015e+06
0.113842,0.000211781,414630,102146,-11506.4,1.20624e+06,365009,381073,2.48414e+06
0.115739,0.0002185,401230,105630,-14456.1,1.16886e+06,370768,374841,2.46812e+06
0.117637,0.000225221,387830,109114,-17405.7,1.13148e+06,376527,368610,2.45211e+06
0.119534,0.000231943,374429,112598,-20355.3,1.09409e+06,382286,362378,2.43609e+06
0.121431,0.000238666,361028,116082,-23305,1.05671e+06,388045,356146,2.42008e+06
0.123329,0.00024539,347628,119566,-26254.6,1.01932e+06,393804,349915,2.40406e+06
0.125226,0.000252092,344181,127641,-29498.1,1.00939e+06,396766,343034,2.36437e+06
0.127124,0.00025866,402740,164309,-34572.9,1.17045e+06,382308,332114,2.1772e+06
0.129021,0.00026525,461300,200977,-39647.7,1.33151e+06,367850,321194,1.99004e+06
0.130918,0.000271897,502363,226078,-43941.1,1.44886e+06,357946,309578,1.85746e+06
0.132816,0.000278646,500986,223115,-46339.1,1.46019e+06,359087,296274,1.85731e+06
0.134713,0.000285406,499608,220152,-48737.1,1.47151e+06,360228,282969,1.85716e+06
0.13661,0.000292178,498230,217189,-51135,1.48284e+06,361370,269664,1.85701e+06
0.138508,0.000298961,496852,214227,-53533,1.49416e+06,362511,256360,1.85686e+06
0.140405,0.000305753,495474,211264,-55931,1.50549e+06,363652,243055,1.8567e+06
0.142302,0.000312553,494097,208301,-58328.9,1.51681e+06,364793,229751,1.85655e+06
0.1442,0.000319363,492719,205339,-60726.9,1.52814e+06,365935,216446,1.8564e+06
0.146097,0.00032618,491341,202376,-63124.9,1.53946e+06,367076,203142,1.85625e+06
0.147995,0.000333005,489963,199413,-65522.9,1.55079e+06,368217,189837,1.8561e+06
0.149892,0.000339837,488585,196451,-67920.8,1.56211e+06,369358,176533,1.85595e+06
0.151789,0.000347051,487718,194313,-69316.8,1.56884e+06,370536,165444,1.85491e+06
0.153687,0.00035617,489421,196335,-65663.4,1.55239e+06,371896,165524,1.84939e+06
0.155584,0.000365296,491125,198357,-62010.1,1.53593e+06,373256,165604,1.84388e+06
0.157481,0.00037443,492829,200379,-58356.8,1.51948e+06,374617,165684,1.83837e+06
0.159379,0.000383572,494532,202402,-54703.4,1.50303e+06,375977,165763,1.83286e+06
0.161276,0.00039272,496236,204423,-51050.1,1.48658e+06,377337,165843,1.82734e+06
0.163174,0.000401874,497939,206445,-47396.8,1.47012e+06,378697,165923,1.82183e+06
0.165071,0.000411034,499643,208468,-43743.4,1.45367e+06,380057,166003,1.81632e+06
0.166968,0.000420199,501347,210490,-40090.1,1.43722e+06,381417,166082,1.81081e+06
0.168866,0.00042937,503050,212512,-36436.8,1.42076e+06,382778,166162,1.80529e+06
0.170763,0.000438545,504754,214534,-32783.4,1.40431e+06,384138,166242,1.79978e+06
0.17266,0.000447725,506458,216556,-29130.1,1.38786e+06,385498,166322,1.79427e+06
0.174558,0.000456908,508161,218578,-25476.8,1.37141e+06,386858,166401,1.78876e+06
0.176455,0.000466504,536409,241268,-24908.1,1.41527e+06,383623,180259,1.82765e+06
0.178352,0.000476335,579764,275722,-26095.3,1.49346e+06,377773,201959,1.89182e+06
0.18025,0.000486168,623120,310176,-27282.4,1.57165e+06,371923,223660,1.95599e+06
0.182147,0.000496004,666478,344632,-28469.7,1.64985e+06,366072,245361,2.02017e+06
0.184045,0.000505842,709834,379086,-29656.9,1.72804e+06,360222,267061,2.08434e+06
0.185942,0.000515682,753190,413540,-30844,1.80623e+06,354372,288761,2.14851e+06
0.187839,0.000525524,796548,447995,-32031.3,1.88442e+06,348521,310462,2.21269e+06
0.189737,0.000535079,823761,468358,-32743,1.92099e+06,343877,329874,2.27082e+06
0.191634,0.000543925,811091,453905,-32279.9,1.8547e+06,342215,343634,2.31404e+06
0.193531,0.000552774,798420,439452,-31816.8,1.78842e+06,340553,357394,2.35725e+06
0.195429,0.00056178,785272,424632,-30761.3,1.72229e+06,339511,369351,2.39225e+06
0.197326,0.000572534,766650,405593,-22911.3,1.65799e+06,345588,360620,2.33304e+06
0.199223,0.000583291,748027,386554,-15061.2,1.59368e+06,351665,351890,2.27382e+06
0.201121,0.00059405,729405,367516,-7211.24,1.52938e+06,357741,343160,2.2146e+06
0.203018,0.000604812,710783,348477,638.732,1.46507e+06,363818,334430,2.15538e+06
0.204916,0.000615576,692160,329438,8488.83,1.40077e+06,369895,325699,2.09616e+06
0.206813,0.000626342,673538,310400,16338.8,1.33646e+06,375972,316969,2.03694e+06
0.20871,0.000637109,654916,291361,24188.8,1.27216e+06,382049,308239,1.97772e+06
0.210608,0.000648239,644406,278518,29849.1,1.234e+06,384577,300143,1.93753e+06
0.212505,0.000659832,644206,273546,32727,1.22905e+06,382596,292852,1.92151e+06
0.214402,0.000671432,644006,268575,35604.8,1.2241e+06,380615,285562,1.90549e+06
0.2163,0.000683038,643805,263603,38482.7,1.21915e+06,378634,278271,1.88947e+06
0.218197,0.00069465,643605,258632,41360.6,1.21421e+06,376654,270981,1.87345e+06
0.220095,0.000706841,640268,251059,47866.5,1.21199e+06,372298,276942,1.91329e+06
0.221992,0.000719121,636476,243107,54899.3,1.21018e+06,367598,284829,1.96124e+06
0.223889,0.000731407,632685,235155,61932.3,1.20836e+06,362898,292715,2.00919e+06
0.225787,0.000743698,628893,227204,68965.2,1.20655e+06,358198,300602,2.05714e+06
0.227684,0.000755995,625101,219252,75998,1.20473e+06,353498,308488,2.10509e+06
0.229581,0.000768297,621309,211301,83030.9,1.20292e+06,348798,316374,2.15304e+06
0.231479,0.000780604,617518,203349,90063.9,1.20111e+06,344098,324261,2.20099e+06
0.233376,0.000792915,613726,195397,97096.6,1.19929e+06,339398,332147,2.24893e+06
0.235273,0.000805231,609934,187446,104130,1.19748e+06,334698,340034,2.29688e+06
0.237171,0.000817551,606142,179494,111162,1.19566e+06,329998,347920,2.34483e+06
0.239068,0.000829875,602350,171543,118195,1.19385e+06,325298,355806,2.39278e+06
0.240966,0.000842203,598558,163591,125228,1.19203e+06,320597,363693,2.44073e+06
0.242863,0.000854535,594767,155640,132261,1.19022e+06,315897,371580,2.48868e+06
0.24476,0.000867829,580667,158323,135954,1.15064e+06,314065,348875,2.48382e+06
0.246658,0.000881292,564770,162860,139065,1.10447e+06,312733,320837,2.46974e+06
0.248555,0.000894755,548872,167398,142176,1.05831e+06,311401,292798,2.45567e+06
0.250452,0.00090822,532975,171936,145287,1.01214e+06,310069,264759,2.4416e+06
0.25235,0.000921684,517078,176474,148398,965977,308737,236720,2.42752e+06
0.254247,0.000935149,501180,181011,151509,919812,307405,208681,2.41345e+06
0.256144,0.000948615,485283,185549,154620,873648,306073,180643,2.39938e+06
0.258042,0.000962082,469385,190087,157731,827481,304741,152603,2.3853e+06
0.259939,0.000975549,453488,194624,160842,781317,303409,124565,2.37123e+06
0.261837,0.000989325,445909,196904,164556,759496,301322,110163,2.36155e+06
0.263734,0.00100345,447655,196652,168945,764963,298389,111050,2.35681e+06
0.265631,0.00101758,449401,196399,173335,770431,295456,111936,2.35207e+06
0.267529,0.00103176,450511,195842,177179,776408,293476,112130,2.34134e+06
0.269426,0.00104629,447058,193087,177096,786044,298347,107345,2.28762e+06
0.271323,0.00106082,443605,190333,177014,795680,303219,102561,2.2339e+06
0.273221,0.00107536,440151,187579,176931,805316,308090,97776.5,2.18018e+06
0.275118,0.0010899,436698,184825,176848,814952,312961,92992,2.12646e+06
0.277016,0.00110444,433244,182070,176766,824588,317833,88207.7,2.07274e+06
0.278913,0.00111899,429791,179316,176683,834224,322704,83423.4,2.01902e+06
0.28081,0.00113354,426338,176562,176601,843860,327576,78639,1.9653e+06
0.282708,0.00114809,422884,173808,176518,853496,332447,73854.7,1.91158e+06
0.284605,0.00116264,419431,171054,176436,863132,337319,69070.4,1.85786e+06
0.286502,0.0011772,415978,168299,176353,872768,342190,64285.9,1.80414e+06
0.2884,0.00119214,422912,175514,180013,901632,347753,70016.3,1.79324e+06
0.290297,0.0012076,443571,195900,188619,955899,354230,89638.6,1.83892e+06
0.292194,0.00122307,464230,216287,197225,1.01017e+06,360707,109261,1.88459e+06
0.294092,0.00123853,484889,236673,205831,1.06443e+06,367184,128883,1.93027e+06
0.295989,0.00125399,505547,257059,214436,1.1187e+06,373660,148506,1.97595e+06
0.297887,0.00126945,526206,277445,223042,1.17297e+06,380137,168128,2.02162e+06
0.299784,0.00128491,546865,297831,231648,1.22724e+06,386614,187750,2.0673e+06
0.301681,0.00130038,567524,318217,240253,1.2815e+06,393091,207373,2.11298e+06
0.303579,0.00131584,588183,338603,248859,1.33577e+06,399568,226995,2.15865e+06
0.305476,0.00133248,586656,341845,249643,1.33852e+06,401349,232526,2.16966e+06
0.307373,0.00134941,579644,340849,248494,1.32853e+06,401970,234572,2.17209e+06
0.309271,0.00136635,572632,339852,247344,1.31854e+06,402590,236618,2.17453e+06
0.311168,0.00138328,565620,338855,246194,1.30855e+06,403211,238664,2.17696e+06
0.313065,0.00140022,558608,337858,245045,1.29856e+06,403832,240710,2.17939e+06
0.314963,0.00141716,551151,336139,243416,1.28795e+06,403927,242912,2.18104e+06
0.31686,0.00143403,538693,326296,236392,1.27033e+06,398116,246873,2.17387e+06
0.318758,0.00145089,526235,316453,229369,1.25272e+06,392304,250833,2.1667e+06
0.320655,0.00146776,513777,306610,222346,1.23511e+06,386492,254794,2.15952e+06
0.322552,0.00148463,501318,296767,215322,1.21749e+06,380681,258754,2.15235e+06
0.32445,0.0015015,488860,286924,208299,1.19988e+06,374869,262714,2.14517e+06
0.326347,0.00151836,476402,277081,201276,1.18227e+06,369058,266675,2.138e+06
0.328244,0.00153523,463944,267238,194253,1.16466e+06,363246,270635,2.13083e+06
0.330142,0.0015521,451486,257396,187229,1.14704e+06,357434,274596,2.12365e+06
0.332039,0.00156898,439028,247553,180206,1.12943e+06,351623,278556,2.11648e+06
0.333937,0.00158586,427072,237860,173269,1.1108e+06,346245,282433,2.11029e+06
0.335834,0.00160306,424601,231014,167968,1.07291e+06,349045,284742,2.12256e+06
0.337731,0.00162025,422131,224167,162667,1.03502e+06,351844,287050,2.13484e+06
0.339629,0.00163745,419660,217320,157365,997130,354644,289358,2.14712e+06
0.341526,0.00165466,417189,210474,152064,959242,357444,291667,2.1594e+06
0.343423,0.00167277,409103,214037,142427,953747,357982,271995,2.20406e+06
0.345321,0.00169118,399148,221064,131348,959028,357768,245013,2.25949e+06
0.347218,0.00170959,389194,228090,120268,964309,357554,218030,2.31492e+06
0.349115,0.00172801,379240,235117,109189,969591,357339,191046,2.37036e+06
0.351013,0.00174651,373163,242043,99671.4,977478,357243,170886,2.39997e+06
0.35291,0.00176532,379744,248642,95251.5,993875,357535,172992,2.3453e+06
0.354808,0.00178413,386325,255241,90831.7,1.01027e+06,357826,175098,2.29063e+06
0.356705,0.00180294,392906,261841,86411.8,1.02667e+06,358118,177204,2.23596e+06
0.358602,0.00182175,399487,268440,81991.9,1.04306e+06,358410,179310,2.18129e+06
0.3605,0.00184056,406068,275039,77572.1,1.05946e+06,358701,181416,2.12662e+06
0.362397,0.0018598,391038,278489,66837.8,1.02132e+06,362633,156618,2.05175e+06
0.364294,0.00187913,371811,281328,54877.5,972599,367271,126596,1.97294e+06
0.366192,0.00189846,352585,284167,42917.3,923876,371910,96573.9,1.89414e+06
0.368089,0.00191778,333358,287006,30957,875152,376548,66551.8,1.81534e+06
0.369987,0.00193711,314131,289845,18996.7,826428,381187,36529.7,1.73654e+06
0.371884,0.00195714,302099,291475,8754.09,805921,379369,15081.4,1.69941e+06
0.373781,0.00197773,295844,292135,-108.991,808077,372368,519.274,1.69575e+06
0.375679,0.00199833,289589,292795,-8972.07,810232,365366,-14042.9,1.6921e+06
0.377576,0.00201892,283334,293456,-17835.1,812389,358364,-28605,1.68844e+06
0.379473,0.00203952,277079,294116,-26698.2,814544,351362,-43167.1,1.68478e+06
0.381371,0.00206012,270824,294776,-35561.1,816700,344361,-57729,1.68113e+06
0.383268,0.00208072,264570,295436,-44424.1,818856,337358,-72291.1,1.67747e+06
0.385165,0.00210132,258315,296096,-53287.2,821011,330357,-86853.2,1.67382e+06
0.387063,0.00212192,252060,296757,-62150.2,823167,323355,-101415,1.67016e+06
0.38896,0.00214252,245805,297417,-71013.2,825323,316353,-115977,1.6665e+06
0.390858,0.00216313,239550,298077,-79876.3,827478,309351,-130540,1.66285e+06
0.392755,0.00218373,233295,298737,-88739.4,829634,302350,-145102,1.65919e+06
0.394652,0.00220437,228399,300619,-98372.1,835467,294913,-158413,1.66179e+06
0.39655,0.00222546,243948,320891,-119588,896630,280935,-152898,1.75855e+06
0.398447,0.00224655,259496,341162,-140805,957794,266958,-147384,1.85531e+06
0.400344,0.00226772,283203,362076,-157430,1.02606e+06,255937,-136496,1.94662e+06
0.402242,0.00228921,342090,385757,-154253,1.12494e+06,257670,-102441,2.01436e+06
0.404139,0.0023107,400976,409437,-151075,1.22383e+06,259402,-68386.6,2.08211e+06
0.406036,0.00233219,459863,433118,-147899,1.32271e+06,261134,-34331.3,2.14986e+06
0.407934,0.00235358,498988,443814,-143563,1.38019e+06,261497,-7310.59,2.18045e+06
0.409831,0.0023745,448696,395758,-133988,1.25028e+06,255659,-12116.8,2.04292e+06
0.411729,0.00239577,382161,349577,-123690,1.1138e+06,250949,-33253,1.91609e+06
0.413626,0.00241738,300489,305146,-112718,971200,247293,-69609.3,1.79924e+06
0.415523,0.00243899,218817,260714,-101745,828597,243636,-105966,1.6824e+06
0.417421,0.0024606,137143,216282,-90773.5,685993,239979,-142322,1.56556e+06
0.419318,0.00248221,55470.3,171851,-79801.3,543391,236323,-178678,1.44872e+06
0.421215,0.00250459,51109.1,164379,-74695.3,525182,239963,-155354,1.51789e+06
0.423113,0.00252708,57503.3,162049,-70405.9,524280,244618,-123726,1.61294e+06
0.42501,0.00254957,63897,159719,-66116,523376,249273,-92098.9,1.708e+06
0.426907,0.00257207,70290.7,157388,-61826.1,522472,253927,-60472.1,1.80305e+06
0.428805,0.00259456,76684.4,155058,-57536.2,521569,258582,-28845.3,1.8981e+06
0.430702,0.00261706,83078.6,152728,-53246.8,520666,263237,2783.05,1.99315e+06
0.4326,0.00263956,89472.3,150397,-48956.9,519762,267892,34409.8,2.0882e+06
0.434497,0.00266206,95866,148067,-44667,518859,272547,66036.6,2.18326e+06
0.436394,0.00268456,102260,145737,-40377.6,517956,277201,97665,2.27831e+06
0.438292,0.00270707,108654,143406,-36087.7,517052,281856,129292,2.37336e+06
0.440189,0.00273055,120772,146662,-14195.6,534399,300008,142800,2.41838e+06
0.442086,0.00275444,135293,152263,15084,559407,323823,148705,2.44241e+06
0.443984,0.00277834,149814,157864,44363.4,584413,347639,154609,2.46643e+06
0.445881,0.00280223,164334,163465,73642.9,609419,371455,160513,2.49045e+06
0.447779,0.00282613,178855,169066,102922,634427,395271,166418,2.51448e+06
0.449676,0.00285002,193376,174667,132202,659433,419086,172322,2.5385e+06
0.451573,0.00287435,207202,181005,159352,729399,425468,190485,2.59499e+06
0.453471,0.00289879,220841,187545,185924,811567,427118,211975,2.6603e+06
0.455368,0.00292324,234480,194084,212497,893734,428769,233465,2.7256e+06
0.457265,0.00294737,226971,190322,229887,931464,421823,221700,2.71464e+06
0.459163,0.00297137,210367,182130,243328,950082,411181,195632,2.67087e+06
0.46106,0.00299537,193763,173939,256769,968700,400540,169565,2.62711e+06
0.462957,0.00301937,177158,165747,270210,987319,389898,143497,2.58334e+06
0.464855,0.00304337,160554,157555,283651,1.00594e+06,379256,117430,2.53957e+06
0.466752,0.00306737,143951,149364,297092,1.02456e+06,368614,91362.7,2.49581e+06
0.46865,0.00309166,133713,144547,305587,1.02215e+06,359927,77479.7,2.42868e+06
0.470547,0.00311623,129693,143026,309251,999216,353150,75498.3,2.33873e+06
0.472444,0.0031408,125673,141506,312915,976280,346373,73517.4,2.24878e+06
0.474342,0.00316537,121654,139986,316578,953344,339596,71536.6,2.15883e+06
0.476239,0.00318994,117634,138465,320242,930407,332819,69555.1,2.06888e+06
0.478136,0.00321451,113615,136945,323905,907471,326042,67574.3,1.97893e+06
0.480034,0.00323909,109595,135425,327569,884535,319264,65593.4,1.88898e+06
0.481931,0.00326366,105576,133904,331233,861599,312487,63612,1.79902e+06
0.483828,0.00328823,101556,132384,334896,838662,305710,61631.2,1.70907e+06
0.485726,0.00331281,97536.7,130864,338560,815726,298933,59650.3,1.61912e+06
0.487623,0.00333738,93517.1,129343,342223,792790,292156,57668.9,1.52917e+06
0.489521,0.00336253,102090,134498,336104,728273,289246,79789.3,1.39301e+06
0.491418,0.00338781,113632,141228,327677,653953,287247,107593,1.24595e+06
0.493315,0.00341309,129802,151578,327786,622091,282933,128871,1.16292e+06
0.495213,0.00343834,156203,169934,346775,684137,273496,135718,1.22149e+06
0.49711,0.0034636,182605,188290,365764,746184,264059,142565,1.28006e+06
0.499007,0.00348948,187618,199532,368242,767250,261371,146698,1.30372e+06
0.500905,0.0035165,141618,193702,344321,710264,276384,140372,1.2682e+06
0.502802,0.00354351,95618,187873,320400,653279,291397,134046,1.23268e+06
0.5047,0.00357099,79451.5,185556,305181,636359,297994,132915,1.22906e+06
0.506597,0.00359897,96474,187145,299645,664009,295229,137564,1.26092e+06
0.508494,0.00362696,113497,188735,294109,691659,292463,142213,1.29279e+06
0.510392,0.00365494,130518,190324,288572,719309,289698,146862,1.32465e+06
0.512289,0.00368293,147541,191914,283035,746959,286932,151510,1.35651e+06
0.514186,0.00371091,164563,193503,277499,774609,284167,156159,1.38837e+06
0.516084,0.0037389,181585,195092,271962,802259,281402,160808,1.42024e+06
0.517981,0.00376688,198608,196682,266426,829909,278636,165457,1.4521e+06
0.519878,0.00379487,215630,198271,260889,857559,275870,170106,1.48396e+06
0.521776,0.00382286,232652,199861,255353,885209,273105,174754,1.51583e+06
0.523673,0.00385085,249674,201450,249816,912859,270340,179403,1.54769e+06
0.525571,0.00387875,263050,202892,243200,935564,268981,183389,1.58107e+06
0.527468,0.00390656,272273,204167,235356,952638,269223,186621,1.61617e+06
0.529365,0.00393438,281496,205442,227511,969712,269466,189853,1.65127e+06
0.531263,0.00396219,290719,206717,219666,986786,269708,193085,1.68638e+06
0.53316,0.00399,299942,207991,211821,1.00386e+06,269951,196316,1.72148e+06
0.535057,0.00401781,309165,209266,203977,1.02093e+06,270193,199548,1.75658e+06
0.536955,0.00404562,318388,210541,196132,1.03801e+06,270436,202780,1.79169e+06
0.538852,0.00407343,327611,211815,188287,1.05508e+06,270678,206012,1.82679e+06
0.540749,0.00410165,319124,205777,164820,1.01646e+06,269662,200314,1.80124e+06
0.542647,0.00413002,304190,197077,135667,957572,268187,191367,1.75361e+06
0.544544,0.00415839,289258,188377,106515,898683,266713,182420,1.70599e+06
0.546442,0.00418676,274324,179677,77362,839792,265239,173472,1.65836e+06
0.548339,0.00421513,259391,170977,48209.2,780902,263764,164525,1.61073e+06
0.550236,0.0042435,244458,162278,19056.7,722012,262290,155578,1.56311e+06
0.552134,0.00427186,236823,162027,6814.6,695694,264704,148260,1.54939e+06
0.554031,0.0043002,233857,167184,5393.55,690219,269607,141986,1.55738e+06
0.555928,0.00432951,235820,157241,-2197.68,665198,272909,146882,1.58072e+06
0.557826,0.00435897,238556,144931,-10755.8,637113,275959,153528,1.60648e+06
0.559723,0.00438853,240627,134134,10081.8,640754,271071,160713,1.60216e+06
0.561621,0.00441808,242716,123299,30200,643619,266378,167885,1.59859e+06
0.563518,0.00444764,244804,112464,50317.3,646483,261685,175057,1.59501e+06
0.565415,0.00447719,246892,101629,70434.6,649346,256992,182229,1.59143e+06
0.567313,0.00450674,248981,90794.3,90552.8,652211,252299,189401,1.58786e+06
0.56921,0.0045363,251069,79959.5,110670,655075,247606,196573,1.58428e+06
0.571107,0.00456597,243882,76579.5,115794,638599,247883,189857,1.59494e+06
0.573005,0.00459568,233595,75691.6,115907,615660,249821,178499,1.61036e+06
0.574902,0.00462539,223308,74803.3,116019,592720,251759,167141,1.62579e+06
0.576799,0.00465509,213021,73915,116132,569780,253697,155783,1.64121e+06
0.578697,0.0046848,202733,73027,116244,546841,255635,144425,1.65663e+06
0.580594,0.00471452,192446,72138.7,116357,523901,257573,133067,1.67206e+06
0.582492,0.00474423,182159,71250.4,116469,500962,259511,121710,1.68748e+06
0.584389,0.00477394,171872,70362.4,116582,478023,261449,110352,1.7029e+06
0.586286,0.00480365,161585,69474.2,116695,455083,263387,98993.9,1.71833e+06
0.588184,0.00483434,160651,69705.2,116760,442399,266424,96326.3,1.7462e+06
0.590081,0.00486649,173526,71589.2,116754,444855,271081,106488,1.79245e+06
0.591978,0.00489863,186401,73472.8,116749,447311,275739,116649,1.8387e+06
0.593876,0.00493078,199276,75356.5,116743,449768,280397,126811,1.88495e+06
0.595773,0.00496292,212151,77240.1,116738,452224,285054,136972,1.9312e+06
0.59767,0.00499507,225026,79124.1,116732,454680,289712,147134,1.97745e+06
0.599568,0.00502722,237901,81007.7,116727,457137,294370,157295,2.0237e+06
0.601465,0.00505933,246740,84984.9,119742,467838,296568,163713,2.04589e+06
0.603363,0.00509137,246231,93811.2,129753,497638,293071,161460,2.01236e+06
0.60526,0.00512341,245721,102637,139764,527438,289574,159207,1.97884e+06
0.607157,0.00515545,245212,111464,149775,557238,286076,156954,1.94531e+06
0.609055,0.00518749,244703,120290,159786,587038,282579,154701,1.91178e+06
0.610952,0.00521953,244193,129116,169797,616838,279081,152448,1.87825e+06
0.612849,0.00525224,268672,152986,176660,667741,278216,150342,1.91949e+06
0.614747,0.00528507,298053,179808,182905,722784,277866,148266,1.97541e+06
0.616644,0.0053179,327433,206630,189151,777826,277516,146190,2.03132e+06
0.618541,0.00535073,356814,233451,195396,832868,277167,144114,2.08723e+06
0.620439,0.00538356,386195,260274,201641,887911,276817,142038,2.14314e+06
0.622336,0.0054164,415575,287095,207887,942953,276468,139962,2.19905e+06
0.624234,0.00544923,444956,313917,214132,997995,276118,137886,2.25496e+06
0.626131,0.00548264,445685,324615,214324,1.02683e+06,272114,126624,2.2193e+06
0.628028,0.00551638,429823,325976,211011,1.0405e+06,265994,110044,2.13059e+06
0.629926,0.00555012,413961,327337,207698,1.05416e+06,259873,93464,2.04189e+06
0.631823,0.00558386,398099,328698,204384,1.06782e+06,253753,76883.7,1.95318e+06
0.63372,0.00561761,382236,330059,201071,1.08148e+06,247633,60303.5,1.86448e+06
0.635618,0.0056514,370675,330132,193385,1.09133e+06,245582,51465.1,1.80923e+06
0.637515,0.00568529,366186,328088,178509,1.09492e+06,250219,55351.7,1.80898e+06
0.639413,0.00571918,361696,326043,163633,1.09851e+06,254856,59238.7,1.80874e+06
0.64131,0.00575306,357206,323999,148758,1.10209e+06,259493,63125.7,1.80849e+06
0.643207,0.00578695,352717,321955,133882,1.10568e+06,264131,67012.3,1.80824e+06
0.645105,0.00582084,348227,319910,119007,1.10927e+06,268768,70899.4,1.808e+06
0.647002,0.005855,348092,320638,111462,1.10729e+06,268447,66655.9,1.7894e+06
0.648899,0.00588925,349493,322343,106503,1.10334e+06,266378,59544.8,1.76433e+06
0.650797,0.00592351,350894,324049,101544,1.0994e+06,264309,52434,1.73925e+06
0.652694,0.00595777,352295,325754,96585.4,1.09545e+06,262240,45323.3,1.71418e+06
0.654592,0.00599203,353697,327459,91626.3,1.0915e+06,260171,38212.2,1.68911e+06
0.656489,0.00602629,355098,329165,86667.4,1.08756e+06,258101,31101.4,1.66404e+06
0.658386,0.00606055,356499,330870,81708.4,1.08361e+06,256032,23990.6,1.63897e+06
0.660284,0.00609481,357900,332575,76749.3,1.07967e+06,253963,16879.5,1.6139e+06
0.662181,0.00612907,359301,334281,71790.3,1.07572e+06,251894,9768.76,1.58883e+06
0.664078,0.00616418,349221,329297,79445.4,1.06381e+06,256647,9167.37,1.56971e+06
0.665976,0.00619993,330404,319224,96698.5,1.04583e+06,266591,13518.7,1.55512e+06
0.667873,0.00623568,311588,309152,113951,1.02785e+06,276535,17870,1.54053e+06
0.66977,0.00627143,292772,299079,131204,1.00987e+06,286479,22221.4,1.52594e+06
0.671668,0.00630718,273955,289006,148457,991893,296423,26572.7,1.51135e+06
0.673565,0.00634294,255298,278849,165601,973621,306156,31173,1.49778e+06
0.675462,0.00637931,247953,262705,174993,934433,300846,53521.3,1.55674e+06
0.67736,0.00641568,240609,246560,184385,895245,295537,75869.8,1.6157e+06
0.679257,0.00645205,233265,230415,193777,856057,290227,98218,1.67466e+06
0.681155,0.00648843,225921,214271,203169,816869,284918,120566,1.73362e+06
0.683052,0.0065248,218576,198126,212561,777681,279608,142915,1.79258e+06
0.684949,0.00656118,211232,181981,221953,738493,274299,165263,1.85154e+06
0.686847,0.00659755,203888,165837,231345,699305,268989,187611,1.9105e+06
0.688744,0.00663393,196543,149692,240737,660117,263680,209960,1.96946e+06
0.690641,0.00667043,176087,128941,241721,595039,250180,216813,1.9922e+06
0.692539,0.00670698,149548,106052,238805,517949,232881,216478,1.99815e+06
0.694436,0.00674354,123009,83164.1,235890,440859,215582,216144,2.00409e+06
0.696334,0.0067801,96469.9,60275.8,232974,363769,198283,215809,2.01003e+06
0.698231,0.00681666,69930.7,37387.5,230058,286679,180984,215474,2.01598e+06
0.700128,0.00685322,43391.8,14499.2,227143,209590,163685,215140,2.02192e+06
0.702026,0.0068903,36137.1,3674.98,226379,174235,148344,224608,2.02302e+06
0.703923,0.00692802,52000.2,7312.85,228195,188912,135352,245828,2.01831e+06
0.70582,0.00696614,57391.6,12590.9,225763,202898,130369,242440,1.97363e+06
0.707718,0.00700434,60459.6,18231.6,222388,216727,127161,233594,1.92008e+06
0.709615,0.00704254,63527.5,23872.3,219012,230556,123953,224749,1.86653e+06
0.711513,0.00708074,66597.2,29513.7,215638,244388,120746,215905,1.81298e+06
0.71341,0.00711894,69665.1,35154.4,212263,258217,117538,207060,1.75944e+06
0.715307,0.00715715,72733.1,40795.1,208887,272045,114330,198214,1.70589e+06
0.717205,0.00719535,75802.7,46436.6,205513,285877,111123,189371,1.65234e+06
0.719102,0.00723355,78025.4,51689.7,201964,298158,107719,179675,1.59767e+06
0.720999,0.00727179,91386.5,62050.2,200702,330843,106900,181185,1.55779e+06
0.722897,0.00731004,104747,72410.7,199439,363527,106081,182695,1.51792e+06
0.724794,0.00734828,118109,82771.3,198177,396212,105263,184205,1.47805e+06
0.726691,0.00738653,131470,93131.9,196915,428897,104444,185716,1.43818e+06
0.728589,0.00742478,144831,103492,195652,461582,103626,187226,1.39831e+06
0.730486,0.00746355,291339,174907,221720,738183,133713,322693,1.53535e+06
0.732384,0.00750234,442859,248620,248816,1.02396e+06,164965,463201,1.67905e+06
0.734281,0.00754159,408187,247327,248481,982563,171501,403868,1.70817e+06
0.736178,0.00758094,334364,230263,242377,872368,172840,302514,1.71318e+06
0.738076,0.00762029,260542,213199,236274,762173,174180,201161,1.7182e+06
0.739973,0.0076603,216721,177786,233806,653202,179569,182121,1.90806e+06
0.74187,0.00770042,186347,147671,229006,558826,186967,167271,2.0095e+06
0.743768,0.00774054,155973,117556,224206,464450,194365,152421,2.11094e+06
0.745665,0.00778066,125599,87440,219405,370073,201763,137571,2.21238e+06
0.747562,0.00782078,95224.9,57324.8,214605,275696,209161,122721,2.31382e+06
0.74946,0.0078609,64850.9,27209.6,209805,181320,216559,107871,2.41526e+06
0.751357,0.00790102,34476.7,-2905.91,205005,86942.8,223957,93020.1,2.5167e+06
0.753255,0.00794141,39706.7,11225.4,203598,115793,225286,68882.9,2.4324e+06
0.755152,0.00798186,52960.5,35328.2,202957,172413,225248,42652.7,2.30624e+06
0.757049,0.0080223,66215.4,59432.5,202315,229038,225210,16421.8,2.18008e+06
0.758947,0.00806275,79469.2,83535.3,201673,285658,225171,-9808.43,2.05392e+06
0.760844,0.0081032,92722.9,107638,201032,342278,225133,-36038.6,1.92776e+06
0.762741,0.00814364,105977,131741,200390,398898,225095,-62268.2,1.80161e+06
0.764639,0.00818409,119232,155845,199749,455522,225056,-88499.1,1.67544e+06
0.766536,0.00822454,132485,179948,199107,512143,225018,-114729,1.54928e+06
0.768433,0.00826498,145739,204050,198465,568763,224980,-140960,1.42313e+06
0.770331,0.00830557,176703,250162,199512,686677,221923,-171810,1.20458e+06
0.772228,0.00834707,205985,265468,192432,769104,221648,-153696,1.2468e+06
0.774126,0.00838887,229611,274892,184985,852414,227197,-118878,1.29898e+06
0.776023,0.00843067,253235,284315,177538,935722,232745,-84060.5,1.35116e+06
0.77792,0.00847246,276861,293739,170090,1.01903e+06,238294,-49243,1.40334e+06
0.779818,0.00851426,300487,303163,162643,1.10234e+06,243842,-14425.6,1.45552e+06
0.781715,0.00855651,288431,293022,161212,1.0852e+06,249537,-1875.96,1.43027e+06
0.783612,0.00859916,246118,266292,164884,982862,255356,-8211.79,1.33936e+06
0.78551,0.0086421,223483,248028,165736,913379,255379,-13676.9,1.33826e+06
0.787407,0.0086851,204240,231224,166103,849558,254404,-18991.1,1.35265e+06
0.789304,0.0087281,184997,214420,166469,785736,253428,-24306.2,1.36703e+06
0.791202,0.0087711,165754,197616,166836,721914,252452,-29621.2,1.3814e+06
0.793099,0.0088141,146511,180811,167202,658093,251477,-34935.5,1.39579e+06
0.794997,0.0088571,127268,164007,167569,594271,250501,-40250.5,1.41016e+06
0.796894,0.0089001,108025,147203,167935,530449,249526,-45565.5,1.42454e+06
0.798791,0.0089431,88781.6,130399,168302,466628,248550,-50879.8,1.43892e+06
0.800689,0.00898611,69538.3,113595,168668,402805,247574,-56194.8,1.4533e+06
0.802586,0.00902911,50295.1,96790.4,169035,338983,246599,-61509.9,1.46768e+06
0.804483,0.00907211,31052.1,79986,169401,275162,245623,-66824.1,1.48206e+06
0.806381,0.009115,15659,63005.1,168408,219887,244989,-66147.1,1.51124e+06
0.808278,0.00915779,4424.23,45833.3,165946,173844,244723,-58998.1,1.55639e+06
0.810176,0.00920057,-6810.9,28661.2,163483,127800,244457,-51849.6,1.60154e+06
0.812073,0.00924335,-18045.6,11489.4,161021,81756.8,244191,-44700.6,1.64669e+06
0.81397,0.00928614,-29280.4,-5682.46,158559,35713.5,243925,-37551.6,1.69185e+06
0.815868,0.00932892,-40515.5,-22854.5,156097,-10330.5,243659,-30403.1,1.737e+06
0.817765,0.00937171,-51750.2,-40026.3,153634,-56373.8,243393,-23254.1,1.78215e+06
0.819662,0.00941513,-61796.1,-50128.3,155237,-86480.1,247929,-24157.9,1.79621e+06
0.82156,0.00945907,-70915.8,-54719.7,160008,-104165,256209,-31339,1.78602e+06
0.823457,0.00950361,-64729.5,-51104.7,160077,-91695.2,265758,-26381.5,1.77721e+06
0.825354,0.0095485,-49585.1,-42686.8,157393,-61577.5,276051,-14319.4,1.7692e+06
0.827252,0.0095934,-34440.7,-34268.9,154709,-31459.7,286345,-2257.35,1.76119e+06
0.829149,0.0096383,-19296.3,-25850.9,152024,-1342.03,296638,9804.69,1.75317e+06
0.831047,0.0096832,-4151.93,-17433,149340,28775.7,306931,21866.7,1.74516e+06
0.832944,0.0097281,10992.5,-9015.13,146656,58893.5,317225,33928.8,1.73715e+06
0.834841,0.009773,26136.9,-597.21,143972,89011.2,327518,45990.9,1.72914e+06
0.836739,0.0098179,41281.3,7820.71,141288,119129,337811,58052.9,1.72113e+06
0.838636,0.0098628,56425.7,16238.6,138604,149247,348105,70115,1.71311e+06
0.840533,0.0099077,71570.1,24656.5,135920,179364,358398,82177,1.7051e+06
0.842431,0.00995297,94451.1,37018.2,129447,234108,365816,100017,1.72776e+06
0.844328,0.00999868,126388,53996.1,118540,317678,369868,124619,1.78631e+06
0.846226,0.0100444,158325,70974.2,107633,401248,373920,149222,1.84487e+06
0.848123,0.0100901,190262,87952.3,96726.5,484819,377973,173824,1.90343e+06
0.85002,0.0101358,222199,104930,85819.6,568389,382025,198427,1.96198e+06
0.851918,0.0101815,254137,121908,74912.7,651959,386077,223029,2.02054e+06
0.853815,0.0102273,259400,116829,66843.1,656873,379341,229243,2.03913e+06
0.855712,0.0102732,257913,106168,59491.6,641882,369876,230803,2.0476e+06
0.85761,0.0103191,256426,95507,52140.2,626889,360410,232363,2.05608e+06
0.859507,0.0103656,233751,82992.3,52584.4,566562,342529,217212,2.01209e+06
0.861404,0.0104121,206554,70082.3,54692.2,496561,322852,198496,1.95691e+06
0.863302,0.0104586,179358,57172.2,56799.8,426560,303175,179780,1.90173e+06
0.865199,0.0105052,152161,44262.1,58907.3,356560,283498,161064,1.84654e+06
0.867097,0.0105517,124965,31352.1,61015.2,286558,263821,142348,1.79136e+06
0.868994,0.0105983,97768.1,18442,63122.8,216558,244144,123632,1.73618e+06
0.870891,0.0106449,76526,5937.6,62594.9,159921,224085,106980,1.6937e+06
0.872789,0.0106918,66777.4,-5783.64,56980,129078,203289,94311.8,1.67572e+06
0.874686,0.0107387,57028.7,-17505,51365,98235.7,182492,81643.9,1.65775e+06
0.876583,0.0107855,47280.1,-29226.4,45750.1,67393.2,161696,68976,1.63978e+06
0.878481,0.0108324,37531.4,-40947.6,40135.2,36550.8,140900,56307.8,1.6218e+06
0.880378,0.0108793,27782.8,-52669,34520.2,5708.37,120104,43639.9,1.60383e+06
0.882275,0.0109262,19088.6,-62603.2,29451.7,-20251.8,102627,31778.1,1.58687e+06
0.884173,0.010974,19971.2,-56304.6,29347.4,-1864.62,115307,27238.3,1.57911e+06
0.88607,0.0110217,20854,-50006,29242.9,16522.6,127986,22698.8,1.57136e+06
0.887968,0.0110694,21736.8,-43707.5,29138.4,34909.8,140666,18159.2,1.5636e+06
0.889865,0.0111172,22619.5,-37408.8,29034.1,53296.9,153345,13619.5,1.55584e+06
0.891762,0.0111649,23502.3,-31110.3,28929.6,71684.1,166025,9079.96,1.54809e+06
0.89366,0.0112127,24385,-24811.7,28825.2,90071.3,178704,4540.43,1.54033e+06
0.895557,0.0112604,25267.7,-18513.1,28720.8,108458,191384,0.668621,1.53257e+06
0.897454,0.0113082,26150.5,-12214.5,28616.3,126846,204063,-4538.86,1.52482e+06
0.899352,0.0113559,27033.3,-5915.97,28511.9,145233,216743,-9078.38,1.51706e+06
0.901249,0.0114045,37346.2,3895.88,30326.1,179581,228575,963.216,1.52298e+06
0.903147,0.0114531,48128.4,13882.4,32235.8,214723,240365,11730.5,1.52958e+06
0.905044,0.0115017,58910.6,23869,34145.5,249865,252155,22497.9,1.53618e+06
0.906941,0.0115502,69692.9,33855.7,36055.2,285008,263946,33265.3,1.54277e+06
0.908839,0.011599,79537.9,41380.7,37627.2,318316,276071,40804.1,1.55216e+06
0.910736,0.0116484,85083.6,37613.6,37650.3,343212,289733,33532.1,1.5743e+06
0.912633,0.0116979,90629.5,33846.6,37673.4,368109,303396,26260.1,1.59645e+06
0.914531,0.0117473,96175.1,30079.5,37696.4,393004,317059,18988.1,1.61859e+06
0.916428,0.0117967,101721,26312.4,37719.4,417900,330721,11716.1,1.64074e+06
0.918325,0.0118462,107267,22545.5,37742.5,442797,344384,4444.11,1.66288e+06
0.920223,0.0118962,103076,22039.1,43086.9,429906,347719,-6211.1,1.66914e+06
0.92212,0.0119467,93686.7,23273.8,51272.6,396840,345541,-18672.8,1.66692e+06
0.924018,0.0119971,84297.3,24508.7,59458.5,363773,343362,-31134.5,1.6647e+06
0.925915,0.0120475,74907.9,25743.5,67644.2,330707,341184,-43596.2,1.66248e+06
0.927812,0.0120979,65518.5,26978.2,75829.9,297640,339006,-56057.9,1.66026e+06
0.92971,0.0121483,56129.2,28213.1,84015.8,264574,336827,-68519.6,1.65804e+06
0.931607,0.0121988,46739.8,29447.8,92201.5,231507,334649,-80981.3,1.65582e+06
0.933504,0.0122492,37350.7,30682.6,100387,198442,332470,-93442.6,1.6536e+06
0.935402,0.0122996,27961.3,31917.3,108573,165375,330292,-105904,1.65138e+06
0.937299,0.01235,18572,33152.2,116759,132309,328113,-118366,1.64916e+06
0.939196,0.0124005,9477.96,31760.9,122430,100691,324741,-127581,1.66953e+06
0.941094,0.0124512,2556.17,11060.1,109617,79725.4,312590,-112926,1.85596e+06
0.942991,0.0125021,12719.9,8711.82,112960,83010.9,307989,-103607,1.93212e+06
0.944889,0.0125533,34128.7,18443.9,126938,102257,308358,-97801.2,1.93567e+06
0.946786,0.0126044,55537.6,28176,140915,121504,308727,-91995.8,1.93922e+06
0.948683,0.0126555,76947.1,37907.9,154892,140751,309095,-86189.7,1.94278e+06
0.950581,0.0127067,98356,47640,168870,159998,309464,-80384.3,1.94633e+06
0.952478,0.0127578,119765,57372.1,182847,179244,309833,-74579,1.94988e+06
0.954375,0.0128098,108831,52921.6,191087,149249,302517,-88364.3,1.84731e+06
0.956273,0.0128618,94000.7,46762.7,198635,113321,294275,-104510,1.73195e+06
0.95817,0.0129139,86738.4,43905,201780,92893.3,279419,-98320.8,1.69952e+06
0.960068,0.012966,81428,41898.3,203790,76463,262857,-86371.5,1.68847e+06
0.961965,0.013018,76117.4,39891.8,205800,60032.3,246295,-74422.2,1.67743e+06
0.963862,0.0130701,70806.8,37885.4,207810,43601.7,229733,-62472.8,1.66638e+06
0.96576,0.0131222,65496.3,35878.6,209819,27171.4,213171,-50523.5,1.65533e+06
0.967657,0.0131742,60185.7,33872.2,211829,10740.7,196609,-38574.2,1.64429e+06
0.969554,0.0132263,54875.1,31865.7,213839,-5689.93,180047,-26624.9,1.63324e+06
0.971452,0.0132785,55701.4,30590.8,215550,-3183.54,167288,-10118.8,1.65026e+06
0.973349,0.0133308,61945.6,29962.2,216997,16042.3,157887,10410.7,1.69204e+06
0.975246,0.0133831,68189.9,29333.6,218443,35268.1,148486,30940.1,1.73382e+06
0.977144,0.0134353,74434.2,28704.8,219890,54493.4,139084,51469.3,1.7756e+06
0.979041,0.0134876,80678.5,28076.2,221336,73719.3,129683,71998.8,1.81739e+06
0.980938,0.0135399,86922.8,27447.6,222783,92945.1,120282,92528.2,1.85917e+06
0.982836,0.0135922,93167,26818.7,224229,112170,110880,113057,1.90095e+06
0.984733,0.0136461,108128,38818.6,225175,149946,108990,131233,1.85561e+06
0.986631,0.0137002,123994,52129.9,226070,189648,107880,149165,1.80122e+06
0.988528,0.0137544,139860,65441.2,226964,229350,106769,167096,1.74682e+06
0.990425,0.0138085,155726,78752.4,227858,269053,105659,185027,1.69243e+06
0.992323,0.0138626,171592,92063.7,228753,308755,104548,202958,1.63804e+06
0.99422,0.0139167,187458,105375,229647,348457,103438,220889,1.58364e+06
0.996117,0.0139708,203324,118686,230541,388159,102328,238821,1.52925e+06
0.998015,0.014025,219190,131997,231436,427861,101217,256752,1.47486e+06
0.999912,0.0140791,235056,145309,232330,467563,100107,274683,1.42046e+06
1.00181,0.0141331,252542,159490,230902,509798,98146.8,294754,1.38799e+06
1.00371,0.0141871,269454,171637,226143,546839,97433.8,313151,1.376e+06
1.0056,0.0142413,281016,175420,215817,561831,102540,321564,1.38164e+06
1.0075,0.0142954,294598,178944,199362,576636,107322,331932,1.43659e+06
1.0094,0.0143494,308498,182428,181941,591413,112054,342609,1.49932e+06
1.0113,0.0144035,322801,188222,169325,610712,115088,347477,1.47609e+06
1.01319,0.0144586,326185,181076,172964,587637,113284,351561,1.44539e+06
1.01509,0.0145141,312224,167874,173999,547210,111291,354832,1.47943e+06
1.01699,0.0145696,292256,157939,171658,516258,109480,352717,1.47851e+06
1.01889,0.0146251,272289,148005,169318,485305,107669,350602,1.4776e+06
1.02078,0.0146806,252323,138070,166977,454352,105858,348487,1.47668e+06
1.02268,0.0147361,232355,128135,164636,423400,104047,346371,1.47576e+06
1.02458,0.0147917,212388,118200,162296,392447,102236,344256,1.47484e+06
1.02648,0.0148472,195711,107591,159410,357822,101076,340600,1.48713e+06
1.02837,0.0149027,185013,95755.5,155535,316524,101099,334145,1.52341e+06
1.03027,0.0149583,174316,83920.1,151660,275227,101122,327690,1.5597e+06
1.03217,0.0150138,163618,72084.7,147785,233930,101145,321236,1.59598e+06
1.03406,0.0150694,152920,60249.3,143910,192632,101169,314780,1.63226e+06
1.03596,0.0151249,142222,48413.9,140034,151335,101192,308325,1.66854e+06
1.03786,0.0151805,131524,36578.5,136159,110037,101215,301871,1.70482e+06
1.03976,0.015236,120826,24743.1,132284,68739.5,101238,295415,1.74111e+06
1.04165,0.0152916,110128,12907.8,128409,27442.2,101261,288961,1.77739e+06
1.04355,0.0153471,99430.7,1072.37,124534,-13855.1,101285,282506,1.81367e+06
1.04545,0.0154034,89605.3,3906.54,119688,-10414,107450,264947,1.79199e+06
1.04735,0.0154603,80416,17427.7,114136,25620.2,118091,239300,1.72809e+06
1.04924,0.0155171,71226.8,30948.8,108583,61654.4,128732,213652,1.66418e+06
1.05114,0.0155739,62037.1,44469.7,103030,97687.7,139372,188005,1.60028e+06
1.05304,0.0156308,52847.9,57990.8,97477.7,133722,150013,162357,1.53638e+06
1.05494,0.0156876,43658.7,71512,91925.2,169756,160653,136710,1.47247e+06
1.05683,0.0157444,34469.2,85032.4,86372.5,205788,171294,111063,1.40857e+06
1.05873,0.0158015,32635.8,98827.4,87191.2,253847,179994,89976.5,1.37298e+06
1.06063,0.0158593,53080.6,113449,107306,338314,182816,82706,1.42313e+06
1.06253,0.0159171,73526.8,128072,127422,422787,185638,75434.9,1.47329e+06
1.06442,0.0159748,93971.6,142694,147536,507254,188460,68164.4,1.52344e+06
1.06632,0.0160326,114418,157317,167652,591727,191282,60893.4,1.57359e+06
1.06822,0.0160905,132747,173483,184816,671931,193137,53818.5,1.59179e+06
1.07011,0.0161486,145945,193397,194823,741797,192645,47218.1,1.53249e+06
1.07201,0.0162068,159143,213309,204831,811659,192154,40618,1.47319e+06
1.07391,0.0162652,164583,221949,199993,805366,195882,32972.9,1.4165e+06
1.07581,0.0163239,164016,221860,183664,740118,202877,24519.9,1.36186e+06
1.0777,0.0163826,163450,221771,167334,674866,209872,16066.4,1.3072e+06
1.0796,0.0164413,162883,221682,151005,609619,216866,7613.35,1.25255e+06
1.0815,0.0165001,162384,216171,141235,554895,221403,4693.55,1.23495e+06
1.0834,0.0165589,161996,201673,142344,517633,221862,10948.8,1.27878e+06
1.08529,0.0166178,161608,187173,143452,480368,222321,17204.4,1.32262e+06
1.08719,0.0166767,161220,172674,144561,443106,222780,23459.6,1.36645e+06
1.08909,0.0167356,160832,158174,145669,405841,223240,29715.4,1.41028e+06
1.09099,0.0167945,160444,143676,146778,368579,223698,35970.5,1.45411e+06
1.09288,0.0168534,160056,129176,147886,331314,224158,42226.2,1.49795e+06
1.09478,0.0169123,159669,114677,148995,294052,224617,48481.4,1.54178e+06
1.09668,0.0169723,165155,119056,149032,309411,236431,49962,1.52423e+06
1.09858,0.0170325,171394,125857,148931,331522,249701,50829.7,1.49881e+06
1.10047,0.0170927,177633,132657,148831,353633,262972,51697.7,1.47338e+06
1.10237,0.0171528,183873,139458,148731,375744,276242,52565.4,1.44796e+06
1.10427,0.017213,190113,146260,148630,397856,289513,53433.1,1.42254e+06
1.10616,0.0172732,196352,153060,148530,419967,302783,54300.9,1.39711e+06
1.10806,0.0173338,197621,147041,145516,431783,309268,61964.7,1.39217e+06
1.10996,0.0173944,198113,139017,142046,441989,314692,70690.6,1.39044e+06
1.11186,0.017455,198605,130993,138577,452194,320116,79417.6,1.3887e+06
1.11375,0.0175159,197519,128377,136653,452044,310568,81926.9,1.38695e+06
1.11565,0.0175767,196105,126886,135052,449739,297904,83142.3,1.3852e+06
1.11755,0.0176376,194691,125396,133451,447433,285241,84357.8,1.38344e+06
1.11945,0.0176985,193276,123905,131849,445126,272576,85573.5,1.38169e+06
1.12134,0.0177594,191862,122415,130248,442822,259913,86788.8,1.37994e+06
1.12324,0.0178208,180231,110703,131695,436513,249838,90252.8,1.39628e+06
1.12514,0.0178823,166184,96574.3,133864,429258,240376,94248.4,1.4169e+06
1.12704,0.0179438,152136,82444.6,136033,422002,230914,98244.2,1.43752e+06
1.12893,0.0180054,138089,68315.9,138202,414747,221453,102240,1.45814e+06
1.13083,0.0180669,124041,54186.4,140371,407491,211990,106236,1.47876e+06
1.13273,0.0181284,109994,40057.6,142540,400237,202529,110231,1.49938e+06
1.13463,0.01819,101497,28966.6,142722,389039,191314,112996,1.51718e+06
1.13652,0.0182516,98614.3,20948.6,140896,373856,178328,114517,1.53213e+06
1.13842,0.0183133,95731.3,12930.2,139069,358672,165340,116038,1.54707e+06
1.14032,0.0183749,92848.5,4912.19,137243,343489,152354,117559,1.56201e+06
1.14221,0.0184373,97197.7,10457,136667,329060,145557,108944,1.53375e+06
1.14411,0.0184999,103346,19376,136403,314823,140300,97807.4,1.49475e+06
1.14601,0.0185626,109495,28295.3,136139,300583,135042,86670.7,1.45574e+06
1.14791,0.0186252,115643,37214.1,135875,286344,129785,75534.6,1.41673e+06
1.1498,0.0186879,119606,42510.9,134666,273913,127121,68867.4,1.38731e+06
1.1517,0.0187506,119624,41273,131752,264745,129133,70262.9,1.37519e+06
1.1536,0.0188133,119642,40034.8,128837,255575,131145,71658.6,1.36306e+06
1.1555,0.018876,119660,38797.1,125924,246408,133157,73053.8,1.35094e+06
1.15739,0.0189387,119678,37558.9,123009,237238,135169,74449.5,1.33881e+06
1.15929,0.0190017,114366,30728,118779,211823,139678,74810.9,1.33961e+06
1.16119,0.0190653,99440,13809.6,112173,157106,148691,73307.4,1.36369e+06
1.16309,0.0191288,84514.9,-3107.51,105568,102392,157703,71804.1,1.38777e+06
1.16498,0.0191924,69588.9,-20025.6,98962.8,47675.2,166716,70300.8,1.41186e+06
1.16688,0.019256,54663.6,-36943,92357.9,-7038.86,175728,68797.2,1.43594e+06
1.16878,0.0193196,39737.6,-53861.2,85752.4,-61755.7,184741,67294,1.46003e+06
1.17068,0.0193832,24812.5,-70778.3,79147.4,-116469,193753,65790.6,1.48411e+06
1.17257,0.0194468,9886.34,-87696.7,72542,-171187,202766,64287.1,1.5082e+06
1.17447,0.0195104,-4999.9,-104582,65943.6,-225718,211781,62817.9,1.53214e+06
1.17637,0.0195745,-8649.57,-112147,61265.1,-227725,221659,71221.4,1.51434e+06
1.17826,0.0196386,-12299.3,-119713,56586.9,-229731,231536,79623.9,1.49655e+06
1.18016,0.0197029,-15609.5,-126585,52264.1,-232368,240557,85941.7,1.4808e+06
1.18206,0.019768,-15462.9,-126404,51564.3,-241424,240849,71017.3,1.48585e+06
1.18396,0.0198331,-15316.3,-126222,50864.5,-250482,241141,56091.7,1.4909e+06
1.18585,0.0198982,-15169.6,-126040,50164.6,-259538,241434,41167.3,1.49595e+06
1.18775,0.0199633,-15023,-125858,49464.8,-268595,241726,26242.9,1.50099e+06
1.18965,0.0200284,-14876.4,-125677,48764.9,-277652,242018,11317.3,1.50604e+06
1.19155,0.0200935,-13084.4,-122441,48065.8,-276697,242413,-1107.38,1.50477e+06
1.19344,0.0201587,-5103.01,-107716,47369.2,-238080,243195,-4129.64,1.47971e+06
1.19534,0.0202239,2878.1,-92991.8,46672.8,-199464,243977,-7151.49,1.45466e+06
1.19724,0.0202891,10859.5,-78267.1,45976.2,-160848,244759,-10173.8,1.42961e+06
1.19914,0.0203543,18840.4,-63543.2,45279.7,-122233,245541,-13195.7,1.40456e+06
1.20103,0.0204195,26821.9,-48818.1,44583.2,-83614.7,246322,-16217.9,1.3795e+06
1.20293,0.0204852,42562.6,-42594.2,44655.4,-68328.1,248402,-21788.5,1.38911e+06
1.20483,0.0205513,62981.2,-41493.2,45191.1,-67101.7,251263,-28895.6,1.41961e+06
1.20673,0.0206173,83398.8,-40391.7,45726.7,-65873,254125,-36002.1,1.45011e+06
1.20862,0.0206836,90012.3,-44060.3,47081.5,-76524.6,253144,-39189.9,1.47014e+06
1.21052,0.0207503,77285.8,-54410.4,49583.7,-103815,246780,-36886.7,1.4755e+06
1.21242,0.0208169,64558.5,-64761,52086.1,-131106,240415,-34583.3,1.48086e+06
1.21431,0.0208835,51832,-75111,54588.3,-158396,234051,-32280.1,1.48623e+06
1.21621,0.0209501,39104.6,-85462,57090.6,-185689,227686,-29976.8,1.49159e+06
1.21811,0.0210167,26378.2,-95811.7,59592.9,-212977,221322,-27673.5,1.49695e+06
1.22001,0.0210833,13650.8,-106163,62095.2,-240270,214958,-25370.2,1.50231e+06
1.2219,0.0211498,8375.28,-108584,69113.8,-226579,199859,-16659.9,1.50763e+06
1.2238,0.0212162,3408.01,-110676,76319.9,-211189,184398,-7683.63,1.51295e+06
1.2257,0.0212826,-1558.81,-112769,83525.6,-195799,168938,1292.12,1.51826e+06
1.2276,0.0213491,-6525.71,-114861,90732,-180408,153477,10268.6,1.52358e+06
1.22949,0.0214159,-24580.2,-123868,90311.6,-198366,147256,9054.25,1.50316e+06
1.23139,0.021483,-48854.9,-136162,86267.4,-232170,145425,2997.42,1.4705e+06
1.23329,0.0215501,-76114.2,-145737,84443,-264085,141524,-5362.43,1.4439e+06
1.23519,0.0216177,-64769,-141110,86798.7,-234457,133614,8993.24,1.44025e+06
1.23708,0.0216855,-51943.4,-133544,87973.3,-212953,133649,22022.9,1.44212e+06
1.23898,0.0217534,-39116.9,-125978,89147.8,-191447,133684,35053.4,1.44399e+06
1.24088,0.0218212,-26291.3,-118412,90322.5,-169942,133719,48083,1.44586e+06
1.24278,0.021889,-13464.8,-110846,91497.1,-148436,133753,61113.5,1.44773e+06
1.24467,0.0219568,-639.146,-103280,92671.6,-126931,133788,74143.1,1.4496e+06
1.24657,0.0220246,12187.3,-95713.7,93846.3,-105425,133823,87173.6,1.45147e+06
1.24847,0.0220924,25013,-88147.8,95020.9,-83920.7,133857,100203,1.45334e+06
1.25036,0.0221602,37839.5,-80581.6,96195.5,-62415,133892,113234,1.45521e+06
1.25226,0.0222283,49021.7,-72992.2,94934.7,-54343.3,139081,127405,1.45537e+06
1.25416,0.022297,57846.3,-65369,90178.8,-65549.1,151668,143215,1.45306e+06
1.25606,0.0223656,66670.4,-57746.2,85423.3,-76754,164253,159024,1.45075e+06
1.25795,0.0224343,75495,-50122.8,80667.4,-87959.7,176840,174835,1.44844e+06
1.25985,0.0225037,71295.5,-50096.7,77119.8,-102848,181245,174323,1.44274e+06
1.26175,0.0225734,64188.2,-51766.7,73841.6,-118560,183824,170168,1.43627e+06
1.26365,0.022643,57080.9,-53436.5,70563.7,-134270,186402,166013,1.42981e+06
1.26554,0.0227126,49973.6,-55106.5,67285.5,-149982,188981,161858,1.42334e+06
1.26744,0.0227822,42866.6,-56776.3,64007.6,-165693,191559,157703,1.41688e+06
1.26934,0.0228518,35759,-58446.3,60729.4,-181405,194138,153548,1.41041e+06
1.27124,0.0229215,35321.1,-54611,66996.8,-169976,191654,147227,1.41108e+06
1.27313,0.0229913,35335.7,-50402,73912,-156705,188827,140759,1.41224e+06
1.27503,0.023061,35350.1,-46193.3,80826.8,-143435,185999,134292,1.4134e+06
1.27693,0.0231307,35364.4,-41984.4,87741.9,-130165,183172,127824,1.41456e+06
1.27883,0.0232004,35378.8,-37775.7,94656.7,-116895,180344,121356,1.41571e+06
1.28072,0.0232701,35393.5,-33566.8,101572,-103625,177517,114888,1.41687e+06
1.28262,0.0233399,35407.6,-29358.1,108487,-90355.5,174689,108420,1.41803e+06
1.28452,0.0234096,35450.5,-25154.6,115191,-76945,171361,101390,1.42025e+06
1.28641,0.0234801,35949.3,-21039.1,118501,-61282.8,159964,85304.5,1.4397e+06
1.28831,0.0235506,36448.1,-16923.3,121812,-45619.7,148566,69217.6,1.45915e+06
1.29021,0.023621,36946.9,-12807.7,125122,-29957.5,137169,53131.9,1.4786e+06
1.29211,0.0236915,37445.9,-8691.9,128432,-14294,125771,37045.3,1.49805e+06
1.294,0.0237622,38468.8,-6559.8,128968,152.989,115639,25013.2,1.50584e+06
1.2959,0.0238332,40131.2,-6844.33,126122,13121.2,107049,17920.7,1.4994e+06
1.2978,0.0239042,39827.3,-7007.77,122571,21929.3,99573.4,10136.7,1.49227e+06
1.2997,0.0239759,19461.3,-5935.07,111820,-11699.2,103468,-4706.97,1.47808e+06
1.30159,0.0240475,-903.318,-4862.39,101070,-45325.6,107363,-19549.7,1.4639e+06
1.30349,0.0241192,-21269.3,-3789.55,90318.6,-78954.4,111258,-34393.3,1.44971e+06
1.30539,0.0241909,-41633.9,-2717.02,79568,-112581,115152,-49236.1,1.43552e+06
1.30729,0.0242628,-46787.8,1872.21,72055,-114956,117758,-58646.6,1.39864e+06
1.30918,0.0243348,-44430.7,8197.19,66140.9,-101902,119728,-65374.1,1.35056e+06
1.31108,0.0244068,-42073.5,14522.5,60226.5,-88846.1,121698,-72102,1.30247e+06
1.31298,0.0244788,-39716.4,20847.5,54312.4,-75791.4,123667,-78829.5,1.25439e+06
1.31488,0.0245508,-37359,27173,48398.2,-62735.6,125637,-85557.3,1.2063e+06
1.31677,0.0246228,-35002.1,33497.8,42483.9,-49681.1,127607,-92284.8,1.15822e+06
1.31867,0.0246948,-32644.7,39823.3,36569.8,-36625.3,129577,-99012.7,1.11013e+06
1.32057,0.0247668,-30287.6,46148.3,30655.7,-23570.6,131547,-105740,1.06205e+06
1.32246,0.0248388,-27930.5,52473.7,24741.3,-10515,133516,-112468,1.01396e+06
1.32436,0.0249108,-25573.4,58798.6,18827.2,2539.75,135486,-119196,965877
1.32626,0.0249828,-23215.9,65124.2,12913,15595.5,137456,-125923,917791
1.32816,0.0250548,-20859.1,71448.9,6998.75,28650.1,139426,-132651,869708
1.33005,0.0251269,-18501.7,77774.5,1084.55,41705.8,141396,-139379,821622
1.33195,0.0251994,-16205,76484.6,735.811,50926.9,148401,-137328,791521
1.33385,0.0252727,-26837,54439.9,-1811.91,48799.1,159461,-130301,758806
1.33575,0.0253461,-33948,37516.7,-4358.49,54612.1,170629,-126901,754343
1.33764,0.0254197,-35660.3,25895,-6798.93,46598.1,177118,-121161,797253
1.33954,0.0254938,-30660.7,20864.7,-9106.86,21390.2,177788,-112510,899053
1.34144,0.0255678,-25660.1,15835.6,-11415.1,-3817.81,178458,-103860,1.00086e+06
1.34334,0.0256419,-20785.2,10651.7,-13706.9,-29084.5,179187,-95130.6,1.10194e+06
1.34523,0.0257157,-22719.2,-2941.83,-15118.3,-57606.3,183127,-82098.9,1.16368e+06
1.34713,0.0257895,-24653,-16534.3,-16529.7,-86125.8,187066,-69068.2,1.22541e+06
1.34903,0.0258633,-26587,-30127.5,-17941.2,-114647,191006,-56036.9,1.28714e+06
1.35092,0.025937,-28520.8,-43720.3,-19352.5,-143167,194945,-43005.8,1.34887e+06
1.35282,0.0260108,-30454.7,-57313.5,-20764,-171688,198885,-29974.5,1.4106e+06
1.35472,0.026085,-4419.36,-69160.1,-12452.5,-211471,183233,-2301.99,1.40282e+06
1.35662,0.0261592,28349,-80586.7,-1800.5,-253965,162865,28895.7,1.3783e+06
1.35851,0.0262337,45010.4,-94930.3,1030.62,-288733,144593,47294.8,1.36991e+06
1.36041,0.0263084,32828.7,-113365,-8790.1,-302933,131361,48165,1.37416e+06
1.36231,0.0263833,13508,-131554,-20234.3,-304536,120806,50709.2,1.36344e+06
1.36421,0.0264582,-5811.17,-149741,-31677.6,-306140,110252,53253,1.35272e+06
1.3661,0.0265331,-25131.2,-167929,-43121.7,-307743,99696.8,55796.7,1.34201e+06
1.368,0.026608,-41127.7,-182591,-53657.4,-304933,89981.7,57115.8,1.32904e+06
1.3699,0.0266829,-43205.9,-182483,-60391.7,-283642,83779.9,53302.6,1.30666e+06
1.3718,0.0267578,-45283.8,-182376,-67125.6,-262352,77578.7,49489.8,1.28428e+06
1.37369,0.0268326,-47361.8,-182268,-73859.9,-241059,71377.3,45676.8,1.2619e+06
1.37559,0.0269075,-49439.7,-182161,-80593.7,-219769,65176.1,41863.9,1.23952e+06
1.37749,0.0269827,-50610.5,-178126,-84969.5,-201964,62377.5,37861.8,1.21599e+06
1.37939,0.0270588,-48816.9,-161264,-81641.1,-195546,70695.6,33243.5,1.18875e+06
1.38128,0.027135,-47023.6,-144402,-78312.8,-189130,79013.6,28624.4,1.16151e+06
1.38318,0.0272111,-45230.2,-127540,-74984.5,-182713,87331.3,24005.8,1.13426e+06
1.38508,0.0272873,-43436.6,-110678,-71656,-176295,95649.8,19387,1.10702e+06
1.38697,0.0273634,-41643.2,-93816.1,-68327.7,-169878,103967,14768.4,1.07978e+06
1.38887,0.0274395,-39849.9,-76953.9,-64999.4,-163462,112285,10149.3,1.05253e+06
1.39077,0.0275157,-38056.3,-60091.8,-61671,-157044,120604,5530.95,1.02529e+06
1.39267,0.0275918,-36262.9,-43229.5,-58342.6,-150627,128922,911.894,998047
1.39456,0.0276679,-31769.8,-26557,-54403.7,-143287,136948,-3871.92,969561
1.39646,0.027744,-22880.4,-10190.9,-49470.4,-134442,144501,-8924.97,939047
1.39836,0.0278201,-14661.1,3306.22,-44231.3,-129928,150286,-12587.3,915027
1.40026,0.0278962,-8396.33,8427.73,-38098,-138060,150907,-12188.8,909961
1.40215,0.027973,-6588.54,10978.7,-32232.4,-137912,153267,-10185.5,910620
1.40405,0.0280504,-9602.82,10747.4,-26656.1,-128804,157506,-6446.65,917472
1.40595,0.028128,-11745.9,8266.37,-21922.1,-123469,161543,-4078,926410
1.40785,0.0282057,-10351.5,-3350.5,-20607.3,-133451,164758,-7272.95,943821
1.40974,0.0282834,-11951.4,-11452.3,-18748.7,-137894,166458,-9521.28,952704
1.41164,0.028361,-13591.6,-19507,-16882.5,-142262,168137,-11757.1,961472
1.41354,0.0284387,-15231.7,-27562.2,-15016.7,-146632,169816,-13992.6,970242
1.41544,0.0285164,-16872,-35616.9,-13150.5,-151001,171495,-16228.4,979010
1.41733,0.028594,-18512.1,-43671.5,-11284.6,-155370,173174,-18464,987779
1.41923,0.0286717,-20152.3,-51726.8,-9418.53,-159739,174853,-20699.8,996548
1.42113,0.0287493,-21792.5,-59781.3,-7552.57,-164108,176532,-22935.4,1.00532e+06
1.42303,0.028827,-23432.8,-67836,-5686.4,-168476,178210,-25171.2,1.01409e+06
1.42492,0.0289047,-25072.8,-75891.2,-3820.58,-172846,179890,-27406.7,1.02286e+06
1.42682,0.0289823,-26713.1,-83945.9,-1954.4,-177215,181568,-29642.5,1.03162e+06
1.42872,0.02906,-28353.2,-92000.5,-88.4418,-181584,183247,-31878.2,1.04039e+06
1.43061,0.0291377,-29993.4,-100056,1777.59,-185953,184926,-34113.9,1.04916e+06
1.43251,0.0292156,-32998.7,-102353,1502.49,-186192,186465,-39326.4,1.05499e+06
1.43441,0.0292945,-40814.7,-84362.1,-6317.39,-171880,187510,-55029.7,1.05046e+06
1.43631,0.0293734,-48630.1,-66373,-14137.1,-157569,188555,-70732,1.04594e+06
1.4382,0.0294525,-50121.7,-61697.6,-17145.7,-153389,189740,-80712.3,1.04754e+06
1.4401,0.0295318,-46488.1,-67813.5,-16255.2,-157421,191039,-86054.1,1.05411e+06
1.442,0.0296111,-42854.4,-73929.4,-15364.6,-161452,192338,-91396.3,1.06069e+06
1.4439,0.0296904,-39220.7,-80045.9,-14474.2,-165485,193638,-96738.1,1.06726e+06
1.44579,0.0297696,-35587,-86161.8,-13583.6,-169516,194937,-102080,1.07384e+06
1.44769,0.0298489,-31953.4,-92277.6,-12693.1,-173548,196236,-107422,1.08041e+06
1.44959,0.0299282,-28319.6,-98394.1,-11802.6,-177581,197535,-112764,1.08699e+06
1.45149,0.0300075,-24686,-104510,-10912.1,-181612,198834,-118106,1.09356e+06
1.45338,0.0300867,-21052.2,-110626,-10021.5,-185644,200133,-123448,1.10014e+06
1.45528,0.030166,-18569.7,-108105,-7095.31,-174747,197296,-128471,1.08382e+06
1.45718,0.0302452,-17313.7,-96381.3,-1999.77,-147942,190051,-133154,1.04309e+06
1.45907,0.0303247,-10763.7,-89110.7,2196.75,-131703,183905,-134185,1.01094e+06
1.46097,0.0304049,8783.81,-92771.4,4187.13,-141401,180456,-126252,999810
1.46287,0.0304851,28330,-96431.8,6177.36,-151099,177008,-118319,988682
1.46477,0.0305654,41083.8,-101177,10214.2,-155370,175177,-101840,1.03044e+06
1.46666,0.030646,39296.4,-107857,13661,-157774,169160,-88153.3,1.03943e+06
1.46856,0.0307266,37508.3,-114537,17107.7,-160179,163142,-74467.2,1.04841e+06
1.47046,0.0308072,35720.6,-121217,20554.3,-162583,157125,-60781.4,1.05739e+06
1.47236,0.0308877,33932.9,-127897,24001.2,-164987,151108,-47094.6,1.06637e+06
1.47425,0.0309683,32145.2,-134576,27447.8,-167391,145090,-33408.8,1.07535e+06
1.47615,0.0310489,30357.1,-141257,30894.6,-169795,139073,-19722.7,1.08433e+06
1.47805,0.0311295,28569.7,-147936,34341.3,-172199,133056,-6036.25,1.09331e+06
1.47995,0.03121,26781.7,-154616,37788.1,-174604,127038,7649.91,1.10229e+06
1.48184,0.0312906,24994,-161296,41234.7,-177008,121021,21335.6,1.11128e+06
1.48374,0.0313712,23206.3,-167976,44681.6,-179412,115004,35022.5,1.12026e+06
1.48564,0.0314517,21418.5,-174656,48128.2,-181816,108987,48708.2,1.12924e+06
1.48754,0.0315325,22469.4,-179874,55130.3,-186538,104159,64475.3,1.14879e+06
1.48943,0.0316141,33706.6,-179846,74888.1,-199572,103598,87708.4,1.20626e+06
1.49133,0.0316958,32115.5,-181666,81339.9,-213802,99494.2,96167.4,1.205e+06
1.49323,0.0317776,21041.4,-184851,77954.3,-228915,92770.9,93704.1,1.16032e+06
1.49512,0.0318594,9966.61,-188035,74568.5,-244028,86047,91240.9,1.11564e+06
1.49702,0.0319412,-1107.49,-191220,71182.8,-259141,79323.6,88777.7,1.07096e+06
1.49892,0.032023,-6344.79,-189897,70934,-269856,74279,91824.3,1.0685e+06
1.50082,0.0321048,-7985.72,-185795,72617.5,-277861,70269.2,98265.4,1.09204e+06
1.50271,0.0321866,-9626.63,-181694,74301.2,-285866,66259.2,104707,1.11559e+06
1.50461,0.0322684,-11267.5,-177593,75984.7,-293870,62249.4,111148,1.13914e+06
1.50651,0.0323502,-12908.5,-173492,77668.4,-301875,58239.3,117589,1.16269e+06
1.50841,0.032432,-14549.3,-169391,79351.9,-309879,54229.5,124030,1.18624e+06
1.5103,0.0325138,-16190.2,-165289,81035.6,-317884,50219.4,130471,1.20979e+06
1.5122,0.0325963,-35248.5,-163431,80702.5,-335697,55290.4,118373,1.20812e+06
1.5141,0.0326788,-54656.8,-161618,80329,-353706,60543.6,105902,1.20594e+06
1.516,0.0327614,-73210.2,-159511,80040.2,-370263,65744.1,93580.8,1.20439e+06
1.51789,0.0328447,-67970.3,-149208,82112.7,-346352,69486.2,85390.7,1.22027e+06
1.51979,0.0329279,-62730.7,-138905,84185,-322443,73228,77201.2,1.23614e+06
1.52169,0.0330112,-57490.8,-128602,86257.4,-298532,76970.1,69011.1,1.25201e+06
1.52359,0.0330945,-52251.3,-118299,88329.7,-274623,80712,60821.6,1.26789e+06
1.52548,0.0331778,-47011.7,-107996,90402,-250713,84453.8,52632.1,1.28376e+06
1.52738,0.0332611,-41771.8,-97692.5,92474.4,-226802,88195.9,44442,1.29964e+06
1.52928,0.0333443,-36532.3,-87389.6,94546.7,-202893,91937.8,36252.5,1.31551e+06
1.53117,0.0334277,-29021.3,-76503.3,96668.4,-176657,94975.3,27143.9,1.33388e+06
1.53307,0.0335112,-13912,-63917.8,98963.7,-143060,95441.2,14581.1,1.36099e+06
1.53497,0.0335954,-32031.8,-65841.2,99239.6,-151689,101751,5803.55,1.35033e+06
1.53687,0.0336796,-40286.4,-64735.5,91780.8,-140221,108770,-9029.54,1.29722e+06
1.53876,0.0337638,-48541.6,-63629.8,84321.4,-128753,115790,-23863.7,1.24411e+06
1.54066,0.033848,-56796.2,-62524,76862.8,-117286,122809,-38696.7,1.191e+06
1.54256,0.0339323,-65051.3,-61418.2,69403.4,-105817,129829,-53530.8,1.13789e+06
1.54446,0.0340165,-73306,-60312.5,61944.6,-94349.5,136848,-68363.9,1.08478e+06
1.54635,0.0341007,-81561.1,-59206.7,54485.4,-82881.3,143868,-83197.9,1.03167e+06
1.54825,0.034185,-89815.7,-58101,47026.6,-71413.8,150887,-98031,978567
1.55015,0.0342692,-98070.9,-56995.3,39567.2,-59945.3,157907,-112865,925456
1.55205,0.0343534,-106325,-55889.5,32108.6,-48478,164926,-127698,872351
1.55394,0.0344376,-115357,-54755.8,19390,-33794.4,173316,-145979,779640
1.55584,0.0345229,-120726,-61779,22022.8,-46155.1,174134,-141710,790717
1.55774,0.0346085,-121887,-67456,21700.7,-50477.8,175883,-131228,800529
1.55964,0.034694,-123048,-73132.5,21378.5,-54799.9,177632,-120746,810341
1.56153,0.0347795,-124209,-78809.3,21056.2,-59121.5,179381,-110264,820153
1.56343,0.0348651,-125371,-84486.1,20734.3,-63444.7,181130,-99781.8,829964
1.56533,0.0349505,-123914,-90884.3,21493.1,-76881.4,180781,-88936.9,839429
1.56722,0.0350358,-115795,-99118.2,25003.5,-113516,175092,-77170.5,848009
1.56912,0.0351211,-107677,-107353,28514.2,-150153,169402,-65403.4,856589
1.57102,0.0352064,-99558.4,-115587,32024.7,-186787,163713,-53637,865169
1.57292,0.0352917,-91439.1,-123821,35535.3,-223424,158023,-41869.7,873750
1.57481,0.035377,-83321.2,-132055,39045.8,-260059,152334,-30103.4,882330
1.57671,0.0354632,-81116.2,-139670,36572.4,-277527,157248,-22741.8,899221
1.57861,0.0355497,-80711.2,-147096,32278.5,-289161,165388,-16721.1,918640
1.58051,0.0356361,-80306.3,-154523,27984.3,-300796,173528,-10700.1,938061
1.5824,0.0357225,-79900.7,-161948,23690.4,-312430,181668,-4679.28,957479
1.5843,0.035809,-79496.4,-169375,19396.2,-324064,189809,1341.63,976900
1.5862,0.0358956,-72897.6,-173319,18119.9,-336945,194671,11486.1,980124
1.5881,0.0359823,-62925.7,-175368,18486.4,-350506,197748,23876.6,974530
1.58999,0.0360689,-52954.6,-177417,18853,-364065,200826,36266.3,968936
1.59189,0.0361555,-40476.3,-179531,15068.2,-367999,204563,44150.9,963702
1.59379,0.036242,-27671.9,-181653,10742.2,-370676,208385,51447.1,958514
1.59569,0.0363291,-23912.3,-183231,10432.6,-381191,211318,58417.6,976590
1.59758,0.0364166,-26363.6,-184436,12880.9,-397090,213641,65163.8,1.01064e+06
1.59948,0.0365041,-28820.3,-185668,15244.9,-412904,215810,71873.7,1.04446e+06
1.60138,0.0365915,-31939.7,-190188,7142.39,-418156,198969,74040.6,1.04993e+06
1.60327,0.0366789,-35059.2,-194709,-960.911,-423409,182127,76207.6,1.05541e+06
1.60517,0.0367663,-38943.2,-196468,-3942.34,-422494,171856,80167.4,1.06139e+06
1.60707,0.0368537,-43284.5,-196578,-3863.56,-417894,165509,85198.9,1.06768e+06
1.60897,0.0369411,-47625.4,-196687,-3784.99,-413294,159162,90230,1.07397e+06
1.61086,0.0370284,-51966.5,-196797,-3706.51,-408694,152815,95261.5,1.08027e+06
1.61276,0.0371158,-56307.4,-196906,-3627.94,-404094,146468,100293,1.08656e+06
1.61466,0.0372032,-60648.5,-197016,-3549.47,-399493,140121,105324,1.09285e+06
1.61656,0.0372909,-67962.2,-196617,2635.61,-392226,138414,99845.2,1.09382e+06
1.61845,0.0373787,-75250.4,-196222,8767.57,-384983,136665,94458.4,1.09484e+06
1.62035,0.0374671,-79095.4,-193423,9930.87,-372987,129334,84986.4,1.0717e+06
1.62225,0.0375556,-82075.9,-190019,9846.34,-359797,120601,74487.8,1.04248e+06
1.62415,0.0376441,-85056.2,-186615,9761.92,-346607,111869,63989.7,1.01327e+06
1.62604,0.0377326,-88036.8,-183211,9677.4,-333416,103135,53491.1,984050
1.62794,0.0378211,-91017.1,-179807,9592.98,-320227,94402.7,42992.9,954835
1.62984,0.0379098,-92426.2,-177140,15387.1,-318192,89761.3,32970.5,929555
1.63174,0.0379987,-93259.4,-174744,23334.3,-320245,86619.3,23123.8,905719
1.63363,0.0380875,-94092.6,-172347,31282.1,-322298,83477.1,13276.6,881881
1.63553,0.0381763,-94925.8,-169950,39229.3,-324351,80335,3429.87,858045
1.63743,0.0382652,-95759,-167554,47177,-326404,77192.8,-6417.3,834208
1.63932,0.038354,-96592.2,-165157,55124.2,-328457,74050.8,-16264,810372
1.64122,0.0384428,-97425.5,-162761,63072.1,-330511,70908.6,-26111.8,786534
1.64312,0.0385316,-98258.7,-160364,71019.3,-332564,67766.6,-35958.5,762698
1.64502,0.0386205,-99091.9,-157968,78967.1,-334617,64624.4,-45805.7,738860
1.64691,0.0387093,-99925.1,-155571,86914.3,-336670,61482.4,-55652.4,715024
1.64881,0.0387982,-90929.7,-144797,94186.2,-326508,62370.1,-67365,727119
1.65071,0.0388873,-80286.7,-132530,100291,-313031,64995,-78052.8,749399
1.65261,0.0389771,-92662.7,-138884,96071.9,-313840,70176.4,-69260.6,734561
1.6545,0.0390668,-105037,-145237,91853.4,-314650,75357.2,-60469.1,719725
1.6564,0.0391569,-117407,-160261,91740.9,-337937,82411.2,-51515.4,686473
1.6583,0.0392471,-126155,-172241,88760.5,-363363,87764.4,-44644.3,727364
1.6602,0.0393375,-132077,-180463,82885.4,-386877,91490.9,-39424.4,829093
1.66209,0.0394279,-137999,-188685,77010.6,-410389,95217.3,-34204.8,930815
1.66399,0.0395183,-143923,-196907,71135.2,-433902,98944.3,-28984.7,1.03254e+06
1.66589,0.0396088,-149845,-205128,65260.4,-457414,102671,-23765.1,1.13427e+06
1.66779,0.0396992,-155767,-213350,59385.3,-480927,106397,-18545.2,1.23599e+06
1.66968,0.0397899,-155741,-216649,56994.3,-490600,102868,-16447,1.2626e+06
1.67158,0.0398808,-151357,-216343,57154.5,-490138,94025.6,-16634.5,1.23419e+06
1.67348,0.0399717,-146975,-216037,57314.6,-489676,85183.6,-16822.1,1.20578e+06
1.67537,0.0400627,-142592,-215730,57474.6,-489213,76340.8,-17009.6,1.17737e+06
1.67727,0.0401535,-139500,-217161,55679.9,-487216,64647.4,-15725.3,1.11841e+06
1.67917,0.0402441,-138052,-220801,51398.2,-483265,49326,-12568.7,1.02056e+06
1.68107,0.0403348,-136604,-224440,47116.9,-479315,34005.8,-9412.37,922725
1.68296,0.0404255,-135156,-228080,42835.2,-475364,18684.4,-6255.74,824882
1.68486,0.0405163,-130709,-227250,38754.9,-468518,6380.97,-1880.46,754335
1.68676,0.0406076,-119040,-214637,36728.9,-451027,12150.2,2140.93,760735
1.68866,0.0406991,-109372,-203590,36754.4,-430362,30947.2,770.436,764550
1.69055,0.0407906,-99703.1,-192543,36779.8,-409695,49745.3,-600.079,768365
1.69245,0.0408825,-96264,-185348,32244,-390219,61958.9,-3673.56,744693
1.69435,0.0409745,-94745.1,-179342,26302,-371109,72142.8,-7272.02,712548
1.69625,0.0410665,-93226.1,-173335,20359.7,-351999,82327.5,-10870.6,680402
1.69814,0.0411585,-91707.2,-167329,14417.7,-332889,92511.5,-14469.1,648256
1.70004,0.0412504,-90188.5,-161322,8475.27,-313777,102696,-18068,616107
1.70194,0.0413424,-88669.7,-155315,2533.3,-294668,112880,-21666.5,583962
1.70384,0.0414344,-87150.6,-149309,-3409,-275557,123065,-25265.1,551816
1.70573,0.0415264,-85631.8,-143302,-9350.97,-256447,133249,-28863.5,519671
1.70763,0.0416186,-85938.6,-140741,-15364.4,-254405,138122,-32390.9,500141
1.70953,0.0417113,-91728.3,-140403,-12856.6,-254187,138611,-37856.8,470886
1.71142,0.041804,-97518.6,-140065,-10348.6,-253969,139100,-43323.2,441628
1.71332,0.0418967,-103308,-139727,-7840.82,-253751,139588,-48789,412373
1.71522,0.0419894,-107965,-137900,-5516.56,-250668,140123,-53461.6,391637
1.71712,0.0420823,-110685,-149372,-4310.41,-285888,136556,-48687.2,456749
1.71901,0.0421753,-112201,-159528,-3312.77,-318790,132967,-42934.1,532109
1.72091,0.0422682,-113717,-169683,-2315.24,-351690,129379,-37181.3,607465
1.72281,0.0423612,-115233,-179839,-1317.76,-384593,125789,-31427.9,682828
1.72471,0.0424541,-116749,-189995,-320.238,-417493,122201,-25675.1,758184
1.7266,0.0425473,-123213,-196998,765.65,-436441,121622,-32132.4,791556
1.7285,0.0426408,-133895,-204251,4413.29,-452944,122456,-39001.6,816204
1.7304,0.0427344,-144545,-215057,11051.1,-480909,121885,-33767.8,873691
1.7323,0.042828,-155195,-225862,17688.5,-508874,121313,-28534.3,931175
1.73419,0.0429216,-165846,-236668,24326.3,-536840,120741,-23300.4,988665
1.73609,0.0430153,-176496,-247474,30963.7,-564804,120169,-18066.9,1.04615e+06
1.73799,0.0431089,-184744,-255714,37161.9,-585207,120332,-11773.9,1.08866e+06
1.73989,0.0432027,-183424,-253738,41608.8,-575490,123419,-1262.92,1.07154e+06
1.74178,0.0432965,-182104,-251761,46056.1,-565772,126506,9248.55,1.05442e+06
1.74368,0.0433903,-179718,-250353,50738.1,-556903,128907,20844,1.03794e+06
1.74558,0.0434849,-169006,-253380,57253.5,-554644,125955,40900.7,1.0264e+06
1.74747,0.0435795,-166927,-257535,56133,-561557,119655,42152.4,1.0118e+06
1.74937,0.0436744,-175360,-263062,45714.9,-579635,109276,20508.4,993450
1.75127,0.0437692,-182967,-267978,36270.3,-594991,99397.5,1507.26,975203
1.75317,0.0438641,-184100,-268091,34466.5,-588973,93449.3,3250.32,957738
1.75506,0.0439591,-185232,-268203,32662.6,-582956,87501.3,4992.97,940274
1.75696,0.044054,-186365,-268316,30857.9,-576937,81552.6,6735.17,922807
1.75886,0.044149,-187497,-268428,29054,-570920,75604.7,8477.83,905343
1.76076,0.0442439,-188630,-268541,27250.2,-564902,69656.4,10220.9,887878
1.76265,0.0443389,-189763,-268654,25446.2,-558885,63708.4,11963.5,870414
1.76455,0.0444338,-190895,-268766,23642.4,-552867,57760.1,13706.6,852950
1.76645,0.0445288,-192028,-268879,21838.5,-546850,51812.1,15449.2,835486
1.76835,0.0446237,-193160,-268991,20033.8,-540831,45863.5,17191.4,818018
1.77024,0.0447187,-194052,-268574,18145.9,-533344,39713,18461.4,798043
1.77214,0.0448134,-193355,-264671,15705.1,-516178,32229.1,16619.3,761531
1.77404,0.0449082,-192658,-260768,13264.2,-499013,24745.6,14777.3,725022
1.77594,0.0450029,-191961,-256864,10823.4,-481847,17261.7,12935.2,688510
1.77783,0.0450978,-190700,-250863,9709.79,-469826,12199.5,7537.83,660688
1.77973,0.0451931,-192001,-244456,9469.76,-470939,12775.6,-2984.08,660171
1.78163,0.0452893,-202675,-247610,7243.62,-471889,25788,6436.48,765957
1.78352,0.0453854,-213350,-250764,5017.62,-472839,38801.2,15857.3,871749
1.78542,0.0454815,-220738,-250491,6359.33,-470938,52740,20300,951022
1.78732,0.0455777,-225222,-247190,10854.3,-466519,67498.2,20343.6,1.00687e+06
1.78922,0.0456738,-229705,-243889,15349.1,-462100,82255.7,20387,1.06271e+06
1.79111,0.0457699,-234189,-240587,19844.3,-457682,97014.4,20429.9,1.11856e+06
1.79301,0.0458664,-233576,-238095,20680.9,-447981,103664,17410.1,1.13885e+06
1.79491,0.0459633,-226590,-236613,16942,-431673,100175,10559.1,1.11469e+06
1.79681,0.0460602,-219604,-235132,13203.5,-415366,96685.5,3708.24,1.09054e+06
1.7987,0.0461571,-212618,-233650,9464.68,-399058,93195.9,-3142.79,1.06638e+06
1.8006,0.0462538,-203614,-234541,10061.9,-390948,88781.1,-14958,1.00379e+06
1.8025,0.0463504,-194261,-235841,11409.2,-384255,84206.2,-27632.9,934559
1.8044,0.046447,-184908,-237142,12756.7,-377563,79631.3,-40307.1,865327
1.80629,0.0465436,-175555,-238443,14104.4,-370872,75055.9,-52982.2,796089
1.80819,0.0466402,-166203,-239744,15451.9,-364180,70480.9,-65656.4,726857
1.81009,0.0467372,-160493,-238520,21386.6,-365387,72876.8,-68836.9,719018
1.81199,0.0468343,-159555,-236893,21047.9,-364581,75249.1,-66647.7,716965
1.81388,0.0469315,-160770,-235292,17002.6,-361985,76958.8,-62538.5,712204
1.81578,0.0470287,-161986,-233691,12957.8,-359389,78668.1,-58429.4,707442
1.81768,0.0471259,-163201,-232090,8912.88,-356794,80377.4,-54320.1,702681
1.81957,0.0472236,-172736,-241822,4985.22,-378174,81045.1,-49874,706361
1.82147,0.0473214,-183858,-253715,1079.74,-404125,81514.3,-45363.3,711650
1.82337,0.0474192,-194979,-265608,-2825.59,-430074,81983.4,-40853,716939
1.82527,0.047517,-206101,-277502,-6731.4,-456026,82452.8,-36342.4,722229
1.82716,0.0476147,-217222,-289395,-10636.7,-481976,82922,-31832.1,727518
1.82906,0.0477128,-221900,-295019,-15058.9,-498241,83477.3,-27254.8,732518
1.83096,0.0478111,-232372,-299751,-15631.4,-522206,85928.4,-26215.2,754369
1.83286,0.0479094,-242845,-304482,-16203.8,-546172,88379.6,-25175.5,776220
1.83475,0.0480077,-253317,-309214,-16776.3,-570137,90830.8,-24135.9,798071
1.83665,0.048106,-263790,-313946,-17349,-594105,93282.2,-23096.3,819924
1.83855,0.0482043,-274263,-318677,-17921.5,-618070,95733.4,-22056.7,841775
1.84045,0.0483028,-272822,-310816,-14481.4,-611659,96058.2,-12061.6,827833
1.84234,0.0484015,-263257,-294369,-8305.42,-584534,94933.2,4039.4,789486
1.84424,0.0485002,-253692,-277922,-2129.11,-557409,93808,20141.2,751138
1.84614,0.048599,-246217,-267479,4184.35,-536012,93331.2,34435.6,723937
1.84804,0.048698,-248766,-285830,11157.8,-542079,95962.7,40067.8,750182
1.84993,0.048797,-251315,-304180,18130.7,-548148,98594,45698.9,776427
1.85183,0.048896,-253865,-322532,25104,-554219,101225,51330.2,802675
1.85373,0.0489949,-256633,-341181,32049.8,-560808,103827,57039,827788
1.85562,0.0490939,-258628,-358774,39091.9,-565556,106534,62472.9,856913
1.85752,0.0491929,-260624,-376367,46133.6,-570303,109241,67906.8,886035
1.85942,0.0492919,-264809,-395925,53251.3,-577547,112491,72765.5,919049
1.86132,0.0493918,-271657,-412076,64069.3,-593629,108779,50575.6,939032
1.86321,0.0494917,-277970,-429818,73667.8,-612709,103529,26627.1,961543
1.86511,0.0495915,-270755,-410637,69077.5,-585247,99304.8,23764.1,919790
1.86701,0.0496914,-266679,-394813,64513.4,-562630,95169.9,16357.7,883106
1.86891,0.0497912,-262603,-378989,59948.9,-540011,91034.9,8951.09,846421
1.8708,0.049891,-258527,-363166,55384.8,-517393,86900,1544.69,809737
1.8727,0.0499908,-254449,-347341,50820.8,-494773,82764.6,-5862.78,773050
1.8746,0.0500906,-250373,-331517,46256.7,-472155,78629.7,-13269.2,736366
1.8765,0.0501906,-247733,-319975,42571.5,-458266,76083.2,-20156.5,710090
1.87839,0.050291,-253510,-333525,44039.3,-495533,82845.9,-24000.3,744816
1.88029,0.0503915,-259287,-347076,45507,-532803,89609,-27844.2,779544
1.88219,0.0504919,-265063,-360626,46974.9,-570070,96371.7,-31688,814271
1.88409,0.0505924,-262335,-366139,49329.4,-594021,103718,-33463.6,873989
1.88598,0.050693,-258273,-364355,49357.9,-604568,111234,-33995.9,919551
1.88788,0.050794,-253766,-359851,41240.4,-591056,107445,-42859.5,922736
1.88978,0.0508949,-248758,-355271,32894.3,-576340,102990,-52199.2,926330
1.89167,0.0509959,-243750,-350691,24547.3,-561623,98535,-61539.4,929923
1.89357,0.0510969,-238743,-346112,16201.2,-546907,94080.3,-70879,933516
1.89547,0.0511982,-236284,-338029,3316.63,-525243,90043,-74561.7,917805
1.89737,0.0512999,-236186,-326708,-13764.7,-497156,86391.6,-73011.8,884238
