"arc_length","Displacement_Magnitude","Sxx","Sxy","Sxz","Syy","Syz","Szz","Von_Mises_Stress"
0,0,2.80222e+06,195168,2679.85,5.5399e+06,793469,2.61931e+06,3.63618e+06
0.00189736,1.15801e-06,2.75756e+06,185149,1907.78,5.44445e+06,780683,2.56702e+06,3.49789e+06
0.00379474,2.31601e-06,2.71289e+06,175129,1135.73,5.34899e+06,767897,2.51473e+06,3.3596e+06
0.0056921,3.47402e-06,2.66823e+06,165109,363.664,5.25354e+06,755111,2.46245e+06,3.22131e+06
0.00758946,4.63203e-06,2.62356e+06,155090,-408.405,5.15809e+06,742325,2.41016e+06,3.08302e+06
0.00948684,6.04397e-06,2.54948e+06,143124,-105.843,5.01107e+06,733421,2.32608e+06,2.97353e+06
0.0113842,7.81853e-06,2.44316e+06,129025,1374.76,4.80751e+06,728772,2.20716e+06,2.89562e+06
0.0132816,9.65493e-06,2.33684e+06,114926,2855.35,4.60396e+06,724123,2.08823e+06,2.81771e+06
0.0151789,1.15237e-05,2.23051e+06,100827,4336,4.4004e+06,719474,1.96931e+06,2.7398e+06
0.0170763,1.34112e-05,2.12419e+06,86727.8,5816.6,4.19684e+06,714825,1.85039e+06,2.66189e+06
0.0189737,1.53106e-05,2.01786e+06,72628.8,7297.2,3.99329e+06,710176,1.73146e+06,2.58398e+06
0.020871,1.72179e-05,1.91154e+06,58529.4,8777.85,3.78973e+06,705528,1.61254e+06,2.50607e+06
0.0227684,1.91308e-05,1.80521e+06,44430.4,10258.4,3.58617e+06,700879,1.49361e+06,2.42816e+06
0.0246658,2.08928e-05,1.74679e+06,44851.3,8675.19,3.49351e+06,688127,1.42647e+06,2.40001e+06
0.0265631,2.26172e-05,1.71127e+06,52212.7,5627.4,3.45385e+06,671501,1.38408e+06,2.39564e+06
0.0284605,2.43763e-05,1.67575e+06,59573.9,2579.65,3.41419e+06,654875,1.34169e+06,2.39127e+06
0.0303579,2.6163e-05,1.64022e+06,66935.2,-468.093,3.37453e+06,638250,1.2993e+06,2.3869e+06
0.0322552,2.7972e-05,1.6047e+06,74296.6,-3515.89,3.33488e+06,621624,1.2569e+06,2.38254e+06
0.0341526,2.97994e-05,1.56918e+06,81657.8,-6563.63,3.29522e+06,604999,1.21451e+06,2.37817e+06
0.03605,3.16418e-05,1.53366e+06,89019.1,-9611.38,3.25556e+06,588373,1.17212e+06,2.3738e+06
0.0379473,3.34969e-05,1.49814e+06,96380.5,-12659.2,3.2159e+06,571748,1.12973e+06,2.36943e+06
0.0398447,3.53626e-05,1.46261e+06,103742,-15706.9,3.17624e+06,555122,1.08734e+06,2.36506e+06
0.0417421,3.72373e-05,1.42709e+06,111103,-18754.7,3.13659e+06,538496,1.04494e+06,2.36069e+06
0.0436394,3.91198e-05,1.39157e+06,118464,-21802.5,3.09693e+06,521871,1.00255e+06,2.35632e+06
0.0455368,4.10089e-05,1.35605e+06,125826,-24850.2,3.05727e+06,505245,960160,2.35195e+06
0.0474342,4.35472e-05,1.3108e+06,135078,-30319.2,3.00758e+06,491719,904818,2.3511e+06
0.0493315,4.78502e-05,1.23944e+06,149406,-42289.3,2.93095e+06,486514,814703,2.35967e+06
0.0512289,5.21982e-05,1.16808e+06,163734,-54259.5,2.85432e+06,481309,724588,2.36825e+06
0.0531263,5.65808e-05,1.09672e+06,178063,-66229.6,2.77769e+06,476104,634473,2.37683e+06
0.0550236,6.09906e-05,1.02536e+06,192391,-78199.8,2.70107e+06,470899,544358,2.3854e+06
0.056921,6.5422e-05,954001,206720,-90169.9,2.62444e+06,465694,454243,2.39398e+06
0.0588184,6.98239e-05,926921,213578,-95987.8,2.58861e+06,462404,425123,2.40944e+06
0.0607157,7.42544e-05,927173,215826,-98008.3,2.57796e+06,460295,433652,2.42916e+06
0.0626131,7.87426e-05,927425,218074,-100029,2.56732e+06,458187,442181,2.44888e+06
0.0645105,8.32791e-05,927678,220321,-102049,2.55668e+06,456078,450711,2.46859e+06
0.0664078,8.78564e-05,927930,222569,-104070,2.54603e+06,453969,459240,2.48831e+06
0.0683052,9.24685e-05,928182,224817,-106090,2.53539e+06,451861,467769,2.50803e+06
0.0702026,9.71104e-05,928434,227064,-108110,2.52474e+06,449752,476299,2.52774e+06
0.0720999,0.000102275,909441,225004,-103520,2.48045e+06,443247,473352,2.51167e+06
0.0739973,0.000107717,879947,220593,-95322.1,2.4178e+06,434344,464144,2.47607e+06
0.0758947,0.00011316,850454,216182,-87124.4,2.35514e+06,425441,454936,2.44047e+06
0.077792,0.000118604,820958,211771,-78926.2,2.29249e+06,416538,445727,2.40486e+06
0.0796894,0.000124048,791465,207360,-70728.5,2.22984e+06,407635,436519,2.36926e+06
0.0815868,0.000129494,761971,202949,-62530.7,2.16718e+06,398732,427311,2.33365e+06
0.0834841,0.00013494,732476,198537,-54332.6,2.10453e+06,389828,418102,2.29805e+06
0.0853815,0.000140387,702982,194126,-46134.8,2.04187e+06,380925,408894,2.26245e+06
0.0872789,0.000145834,673489,189715,-37937.1,1.97922e+06,372022,399686,2.22684e+06
0.0891762,0.000151282,643995,185304,-29739.3,1.91657e+06,363119,390478,2.19124e+06
0.0910736,0.00015673,614500,180893,-21541.1,1.85391e+06,354216,381269,2.15564e+06
0.092971,0.000161821,597168,171366,-17750,1.80079e+06,352752,384347,2.20295e+06
0.0948683,0.000166828,583312,160377,-15218.4,1.75038e+06,353415,390937,2.27395e+06
0.0967657,0.000171853,569455,149388,-12686.6,1.69998e+06,354078,397526,2.34496e+06
0.0986631,0.000176895,555599,138399,-10155,1.64958e+06,354741,404116,2.41597e+06
0.10056,0.000181953,541743,127410,-7623.36,1.59918e+06,355404,410706,2.48697e+06
0.102458,0.000187026,527886,116420,-5091.58,1.54878e+06,356067,417295,2.55798e+06
0.104355,0.000192111,514030,105431,-2559.95,1.49837e+06,356730,423885,2.62899e+06
0.106253,0.000197209,500174,94442.1,-28.3183,1.44797e+06,357393,430475,2.7e+06
0.10815,0.000203915,485933,94983.9,-1937.22,1.40589e+06,362397,426762,2.70219e+06
0.110047,0.00021107,471586,98745.7,-5086.08,1.36613e+06,368614,420172,2.68516e+06
0.111945,0.000218227,457239,102508,-8234.93,1.32637e+06,374830,413583,2.66813e+06
0.113842,0.000225385,442890,106269,-11383.7,1.28661e+06,381046,406993,2.65111e+06
0.115739,0.000232546,428543,110031,-14532.5,1.24686e+06,387262,400403,2.63408e+06
0.117637,0.000239708,414196,113792,-17681.4,1.2071e+06,393479,393814,2.61706e+06
0.119534,0.000246871,399848,117554,-20830.1,1.16734e+06,399695,387224,2.60003e+06
0.121431,0.000254036,385501,121315,-23978.9,1.12758e+06,405911,380634,2.58301e+06
0.123329,0.000261202,371153,125077,-27127.8,1.08782e+06,412127,374045,2.56598e+06
0.125226,0.000268343,367417,133714,-30592.5,1.07735e+06,415355,366748,2.52351e+06
0.127124,0.000275341,429779,172723,-36025.3,1.24937e+06,399970,355049,2.32253e+06
0.129021,0.000282362,492142,211732,-41458.2,1.42138e+06,384585,343350,2.12155e+06
0.130918,0.000289445,535878,238430,-46057.5,1.54672e+06,374056,330919,1.97916e+06
0.132816,0.00029664,534432,235264,-48635.1,1.55885e+06,375306,316712,1.9789e+06
0.134713,0.000303848,532985,232097,-51212.6,1.57098e+06,376557,302504,1.97863e+06
0.13661,0.000311068,531539,228930,-53790.1,1.58311e+06,377807,288297,1.97837e+06
0.138508,0.000318299,530092,225763,-56367.6,1.59524e+06,379057,274090,1.9781e+06
0.140405,0.00032554,528646,222596,-58945.2,1.60737e+06,380308,259883,1.97784e+06
0.142302,0.000332791,527199,219429,-61522.7,1.6195e+06,381558,245675,1.97757e+06
0.1442,0.000340051,525753,216262,-64100.2,1.63162e+06,382809,231468,1.97731e+06
0.146097,0.00034732,524306,213096,-66677.8,1.64375e+06,384059,217261,1.97704e+06
0.147995,0.000354597,522860,209929,-69255.2,1.65588e+06,385309,203054,1.97678e+06
0.149892,0.000361881,521413,206762,-71832.8,1.66801e+06,386560,188847,1.97651e+06
0.151789,0.000369574,520503,204483,-73342.8,1.67519e+06,387837,177002,1.97532e+06
0.153687,0.000379302,522295,206678,-69473.3,1.65747e+06,389249,177057,1.96943e+06
0.155584,0.000389039,524087,208873,-65604,1.63974e+06,390661,177113,1.96354e+06
0.157481,0.000398784,525879,211067,-61734.6,1.62201e+06,392073,177169,1.95765e+06
0.159379,0.000408537,527671,213262,-57865.1,1.60428e+06,393485,177225,1.95176e+06
0.161276,0.000418297,529463,215457,-53995.8,1.58655e+06,394897,177281,1.94588e+06
0.163174,0.000428063,531254,217652,-50126.5,1.56882e+06,396309,177337,1.93999e+06
0.165071,0.000437836,533047,219847,-46257,1.55109e+06,397721,177393,1.9341e+06
0.166968,0.000447615,534838,222042,-42387.6,1.53336e+06,399133,177449,1.92821e+06
0.168866,0.000457399,536630,224237,-38518.3,1.51563e+06,400544,177504,1.92232e+06
0.170763,0.000467188,538422,226432,-34648.8,1.4979e+06,401956,177560,1.91643e+06
0.17266,0.000476982,540214,228626,-30779.5,1.48017e+06,403368,177616,1.91055e+06
0.174558,0.00048678,542006,230821,-26910.1,1.46244e+06,404780,177672,1.90466e+06
0.176455,0.000497019,572148,254971,-26365.8,1.5098e+06,401306,192626,1.94649e+06
0.178352,0.000507509,618426,291618,-27714.2,1.59422e+06,395050,216061,2.01548e+06
0.18025,0.000518001,664705,328265,-29062.6,1.67864e+06,388794,239496,2.08447e+06
0.182147,0.000528496,710985,364913,-30411.1,1.76306e+06,382538,262931,2.15346e+06
0.184045,0.000538994,757264,401560,-31759.5,1.84748e+06,376282,286366,2.22245e+06
0.185942,0.000549494,803542,438207,-33107.9,1.93189e+06,370026,309801,2.29144e+06
0.187839,0.000559996,849822,474855,-34456.4,2.01632e+06,363770,333236,2.36044e+06
0.189737,0.000570189,878889,496525,-35298.9,2.05597e+06,358774,354174,2.42306e+06
0.191634,0.000579617,865433,481192,-34891.3,1.98503e+06,356893,368944,2.46994e+06
0.193531,0.000589049,851976,465859,-34483.8,1.91408e+06,355013,383714,2.51682e+06
0.195429,0.000598649,838009,450125,-33432.7,1.84332e+06,353803,396556,2.55487e+06
0.197326,0.000610128,818193,429792,-25001.2,1.77472e+06,360298,387283,2.49161e+06
0.199223,0.00062161,798376,409459,-16569.6,1.70612e+06,366792,378010,2.42834e+06
0.201121,0.000633095,778560,389126,-8138.09,1.63752e+06,373287,368737,2.36508e+06
0.203018,0.000644582,758744,368793,293.401,1.56892e+06,379782,359464,2.30181e+06
0.204916,0.000656071,738927,348460,8725.02,1.50031e+06,386276,350191,2.23855e+06
0.206813,0.000667563,719111,328127,17156.5,1.43171e+06,392771,340918,2.17528e+06
0.20871,0.000679056,699295,307794,25588,1.36311e+06,399265,331645,2.11202e+06
0.210608,0.000690935,688098,294076,31667.6,1.32226e+06,401988,322950,2.06912e+06
0.212505,0.000703307,687853,288764,34758.6,1.31669e+06,399919,314989,2.05209e+06
0.214402,0.000715686,687608,283452,37849.6,1.31112e+06,397849,307027,2.03506e+06
0.2163,0.000728072,687362,278139,40940.6,1.30554e+06,395779,299066,2.01803e+06
0.218197,0.000740465,687117,272827,44031.5,1.29997e+06,393710,291105,2.00101e+06
0.220095,0.000753486,683537,264676,50941.2,1.29752e+06,389028,297477,2.04415e+06
0.221992,0.000766605,679473,256112,58405.4,1.29552e+06,383967,305931,2.09602e+06
0.223889,0.00077973,675409,247549,65869.7,1.29352e+06,378906,314386,2.1479e+06
0.225787,0.000792862,671345,238985,73334,1.29152e+06,373845,322841,2.19978e+06
0.227684,0.000805999,667281,230422,80798.3,1.28952e+06,368784,331295,2.25166e+06
0.229581,0.000819141,663217,221858,88262.6,1.28752e+06,363723,339749,2.30353e+06
0.231479,0.000832289,659154,213295,95726.9,1.28552e+06,358662,348204,2.35541e+06
0.233376,0.000845442,655090,204731,103191,1.28352e+06,353601,356658,2.40729e+06
0.235273,0.000858599,651026,196167,110655,1.28152e+06,348540,365112,2.45917e+06
0.237171,0.000871761,646962,187604,118120,1.27952e+06,343479,373567,2.51104e+06
0.239068,0.000884928,642898,179040,125584,1.27752e+06,338418,382021,2.56292e+06
0.240966,0.000898098,638834,170477,133048,1.27552e+06,333357,390475,2.6148e+06
0.242863,0.000911273,634770,161913,140513,1.27352e+06,328296,398930,2.66668e+06
0.24476,0.000925477,619682,164770,144431,1.23138e+06,326280,374455,2.66168e+06
0.246658,0.000939862,602672,169618,147731,1.18225e+06,324794,344237,2.64677e+06
0.248555,0.000954247,585662,174467,151031,1.13312e+06,323309,314019,2.63185e+06
0.250452,0.000968633,568652,179316,154331,1.08398e+06,321823,283801,2.61693e+06
0.25235,0.00098302,551642,184164,157631,1.03485e+06,320338,253583,2.60202e+06
0.254247,0.000997407,534632,189013,160931,985720,318852,223365,2.5871e+06
0.256144,0.00101179,517622,193862,164231,936588,317366,193148,2.57219e+06
0.258042,0.00102618,500612,198710,167531,887454,315881,162929,2.55727e+06
0.259939,0.00104057,483602,203559,170831,838322,314395,132712,2.54236e+06
0.261837,0.00105529,475500,205980,174782,815080,312112,117162,2.53211e+06
0.263734,0.00107037,477384,205679,179463,820862,308935,118056,2.52709e+06
0.265631,0.00108546,479268,205378,184143,826644,305758,118951,2.52208e+06
0.267529,0.00110061,480479,204756,188248,832976,303619,119108,2.51059e+06
0.269426,0.00111615,476851,201828,188219,843254,308943,113974,2.45255e+06
0.271323,0.00113169,473223,198900,188189,853533,314267,108839,2.39452e+06
0.273221,0.00114723,469595,195972,188160,863811,319591,103705,2.33649e+06
0.275118,0.00116278,465968,193044,188130,874089,324914,98570.7,2.27846e+06
0.277016,0.00117833,462340,190116,188101,884368,330238,93436.4,2.22043e+06
0.278913,0.00119388,458712,187188,188071,894646,335562,88302.2,2.1624e+06
0.28081,0.00120944,455084,184259,188042,904925,340886,83167.7,2.10437e+06
0.282708,0.00122499,451456,181332,188012,915203,346210,78033.4,2.04633e+06
0.284605,0.00124055,447829,178404,187983,925482,351533,72899.1,1.9883e+06
0.286502,0.00125612,444201,175475,187953,935760,356857,67764.6,1.93027e+06
0.2884,0.0012721,451744,183207,191916,966999,362896,73952.9,1.91848e+06
0.290297,0.00128863,474047,205022,201155,1.02593e+06,369879,95100.8,1.96777e+06
0.292194,0.00130517,496350,226838,210394,1.08487e+06,376861,116249,2.01706e+06
0.294092,0.0013217,518653,248653,219633,1.1438e+06,383844,137396,2.06635e+06
0.295989,0.00133823,540956,270469,228871,1.20273e+06,390827,158544,2.11564e+06
0.297887,0.00135477,563258,292284,238110,1.26167e+06,397810,179692,2.16493e+06
0.299784,0.0013713,585561,314099,247349,1.3206e+06,404793,200840,2.21422e+06
0.301681,0.00138784,607864,335914,256587,1.37953e+06,411776,221987,2.26351e+06
0.303579,0.00140437,630167,357730,265826,1.43847e+06,418759,243135,2.3128e+06
0.305476,0.00142217,628528,361199,266659,1.4414e+06,420687,249118,2.32478e+06
0.307373,0.00144028,620969,360131,265413,1.43049e+06,421366,251351,2.32754e+06
0.309271,0.00145839,613411,359064,264167,1.41957e+06,422045,253584,2.33029e+06
0.311168,0.00147651,605852,357996,262922,1.40866e+06,422724,255817,2.33305e+06
0.313065,0.00149463,598293,356929,261676,1.39775e+06,423404,258050,2.3358e+06
0.314963,0.00151274,590271,355096,259918,1.38618e+06,423531,260451,2.33776e+06
0.31686,0.00153079,577044,344659,252398,1.36722e+06,417452,264744,2.33069e+06
0.318758,0.00154884,563816,334222,244878,1.34826e+06,411373,269037,2.32362e+06
0.320655,0.00156689,550588,323784,237358,1.32931e+06,405295,273330,2.31655e+06
0.322552,0.00158495,537360,313347,229838,1.31035e+06,399216,277623,2.30948e+06
0.32445,0.001603,524132,302910,222318,1.29139e+06,393137,281916,2.30241e+06
0.326347,0.00162105,510904,292473,214798,1.27244e+06,387058,286209,2.29534e+06
0.328244,0.00163911,497677,282036,207277,1.25348e+06,380980,290502,2.28827e+06
0.330142,0.00165716,484449,271598,199757,1.23452e+06,374901,294795,2.2812e+06
0.332039,0.00167522,471221,261161,192237,1.21557e+06,368822,299088,2.27413e+06
0.333937,0.00169329,458523,250884,184808,1.19549e+06,363200,303285,2.2681e+06
0.335834,0.0017117,455813,243622,179090,1.15439e+06,366189,305664,2.28161e+06
0.337731,0.00173012,453103,236360,173371,1.11328e+06,369178,308044,2.29512e+06
0.339629,0.00174854,450393,229099,167653,1.07218e+06,372167,310424,2.30863e+06
0.341526,0.00176696,447683,221837,161935,1.03108e+06,375156,312803,2.32215e+06
0.343423,0.00178635,438907,225569,151432,1.02535e+06,375504,291712,2.37024e+06
0.345321,0.00180606,428113,232959,139337,1.0314e+06,374974,262813,2.42984e+06
0.347218,0.00182578,417319,240349,127243,1.03745e+06,374444,233914,2.48944e+06
0.349115,0.0018455,406524,247739,115148,1.0435e+06,373914,205014,2.54904e+06
0.351013,0.00186531,399884,255062,104759,1.05232e+06,373570,183418,2.5807e+06
0.35291,0.00188544,406800,262167,99934.8,1.07022e+06,373833,185658,2.52121e+06
0.354808,0.00190557,413717,269273,95110.7,1.08811e+06,374095,187898,2.46172e+06
0.356705,0.0019257,420633,276379,90286.6,1.10601e+06,374357,190138,2.40223e+06
0.358602,0.00194584,427550,283484,85462.5,1.1239e+06,374620,192378,2.34274e+06
0.3605,0.00196597,434466,290590,80638.4,1.1418e+06,374882,194617,2.28325e+06
0.362397,0.00198658,418112,294518,69130.6,1.10097e+06,379222,167717,2.20243e+06
0.364294,0.00200729,397239,297828,56325,1.04873e+06,384355,135159,2.11748e+06
0.366192,0.00202799,376367,301139,43519.6,996498,389487,102602,2.03252e+06
0.368089,0.0020487,355494,304450,30714.1,944263,394619,70043.9,1.94757e+06
0.369987,0.0020694,334621,307760,17908.6,892028,399751,37486.1,1.86262e+06
0.371884,0.00209087,321601,309629,6897.27,870073,397892,14245.1,1.82278e+06
0.373781,0.00211294,314889,310340,-2673.18,872436,390417,-1513.16,1.81917e+06
0.375679,0.00213501,308176,311051,-12243.6,874799,382942,-17271.4,1.81557e+06
0.377576,0.00215708,301463,311762,-21814,877162,375468,-33029.5,1.81196e+06
0.379473,0.00217916,294750,312473,-31384.4,879525,367993,-48787.7,1.80835e+06
0.381371,0.00220123,288038,313184,-40954.7,881888,360518,-64545.7,1.80475e+06
0.383268,0.00222331,281325,313895,-50525.1,884251,353043,-80303.8,1.80114e+06
0.385165,0.00224539,274612,314606,-60095.5,886614,345569,-96062.1,1.79754e+06
0.387063,0.00226747,267899,315317,-69666,888977,338094,-111820,1.79393e+06
0.38896,0.00228955,261187,316028,-79236.3,891340,330619,-127578,1.79033e+06
0.390858,0.00231163,254474,316739,-88806.8,893703,323144,-143337,1.78672e+06
0.392755,0.00233372,247761,317450,-98377.2,896066,315670,-159095,1.78312e+06
0.394652,0.00235583,242492,319468,-108777,902404,307730,-173504,1.78628e+06
0.39655,0.00237844,258947,341154,-131654,968571,292785,-167603,1.89136e+06
0.398447,0.00240104,275402,362840,-154531,1.03474e+06,277841,-161702,1.99643e+06
0.400344,0.00242373,300735,385249,-172471,1.10878e+06,266070,-149957,2.09565e+06
0.402242,0.00244678,364344,410768,-169116,1.2168e+06,267985,-113016,2.16963e+06
0.404139,0.00246983,427953,436288,-165761,1.32482e+06,269900,-76074.8,2.2436e+06
0.406036,0.00249288,491563,461809,-162406,1.43284e+06,271815,-39132.8,2.31758e+06
0.407934,0.00251582,533962,473420,-157796,1.49598e+06,272230,-9775.99,2.35141e+06
0.409831,0.00253824,480392,422099,-147509,1.35608e+06,265855,-14736.9,2.2036e+06
0.411729,0.00256105,408959,372649,-136428,1.20847e+06,260750,-37600.9,2.06694e+06
0.413626,0.00258423,320880,324945,-124607,1.05369e+06,256829,-77151,1.94067e+06
0.415523,0.00260741,232802,277242,-112785,898906,252908,-116701,1.8144e+06
0.417421,0.00263059,144721,229537,-100964,744120,248986,-156251,1.68812e+06
0.419318,0.00265376,56642.3,181833,-89142.9,589337,245064,-195802,1.56185e+06
0.421215,0.00267777,51915.5,173755,-83508.5,569351,249000,-170370,1.63712e+06
0.423113,0.00270189,58784.5,171190,-78735.3,568118,254028,-135898,1.74042e+06
0.42501,0.00272602,65653.1,168624,-73961.6,566885,259057,-101427,1.84373e+06
0.426907,0.00275014,72521.6,166058,-69187.8,565651,264086,-66956.1,1.94703e+06
0.428805,0.00277427,79390.1,163493,-64414.1,564417,269114,-32485.3,2.05034e+06
0.430702,0.0027984,86259.1,160927,-59640.9,563184,274142,1987.33,2.15365e+06
0.4326,0.00282253,93127.6,158361,-54867.2,561950,279171,36458.2,2.25695e+06
0.434497,0.00284667,99996.2,155796,-50093.5,560716,284200,70929,2.36026e+06
0.436394,0.0028708,106865,153230,-45320.3,559483,289228,105402,2.46356e+06
0.438292,0.00289494,113734,150664,-40546.6,558250,294256,139872,2.56687e+06
0.440189,0.00292013,126521,153986,-16921.7,577030,314046,154484,2.61563e+06
0.442086,0.00294577,141792,159779,14614.9,604210,340030,160761,2.64149e+06
0.443984,0.00297141,157063,165572,46151.3,631390,366015,167038,2.66736e+06
0.445881,0.00299704,172333,171364,77687.7,658569,391999,173314,2.69322e+06
0.447779,0.00302268,187605,177157,109224,685750,417983,179591,2.71909e+06
0.449676,0.00304832,202875,182950,140761,712930,443968,185868,2.74495e+06
0.451573,0.00307444,218050,189563,169986,789664,451123,205787,2.80672e+06
0.453471,0.00310069,233200,196398,198583,879849,453169,229410,2.87823e+06
0.455368,0.00312694,248349,203234,227181,970033,455214,253032,2.94974e+06
0.457265,0.00315286,240681,199103,245768,1.01166e+06,447775,240409,2.93838e+06
0.459163,0.00317862,223200,190256,260049,1.03241e+06,436258,212198,2.89138e+06
0.46106,0.00320439,205718,181409,274330,1.05316e+06,424741,183987,2.84439e+06
0.462957,0.00323015,188237,172562,288611,1.07391e+06,413223,155777,2.79739e+06
0.464855,0.00325592,170755,163715,302892,1.09466e+06,401706,127566,2.75039e+06
0.466752,0.00328169,153274,154868,317172,1.1154e+06,390189,99355.4,2.70339e+06
0.46865,0.00330776,142344,149716,326284,1.11289e+06,380691,84306.3,2.63046e+06
0.470547,0.00333414,137812,148176,330345,1.08765e+06,373167,82113.1,2.5322e+06
0.472444,0.00336052,133280,146635,334406,1.06241e+06,365642,79920.6,2.43395e+06
0.474342,0.0033869,128749,145094,338467,1.03718e+06,358118,77728.1,2.33569e+06
0.476239,0.00341328,124217,143553,342528,1.01194e+06,350593,75535,2.23744e+06
0.478136,0.00343967,119686,142013,346589,986699,343069,73342.5,2.13918e+06
0.480034,0.00346605,115154,140472,350650,961461,335545,71150,2.04093e+06
0.481931,0.00349243,110622,138931,354711,936223,328020,68956.9,1.94267e+06
0.483828,0.00351882,106091,137390,358772,910985,320496,66764.4,1.84442e+06
0.485726,0.0035452,101559,135850,362833,885747,312972,64571.9,1.74616e+06
0.487623,0.00357159,97027.6,134309,366894,860508,305447,62378.8,1.6479e+06
0.489521,0.00359858,105454,140079,360729,789256,301919,86220.4,1.49836e+06
0.491418,0.00362573,116936,147573,352153,707153,299332,116201,1.33672e+06
0.493315,0.00365287,133887,158890,352637,671910,294336,139180,1.24536e+06
0.495213,0.00367999,162932,178661,373163,740307,284014,146674,1.30944e+06
0.49711,0.00370711,191978,198432,393689,808704,273692,154167,1.37352e+06
0.499007,0.0037349,197678,210551,396417,832364,270728,158719,1.39959e+06
0.500905,0.00376393,147956,204249,370624,770868,287108,151986,1.36121e+06
0.502802,0.00379296,98235.1,197947,344830,709371,303488,145253,1.32284e+06
0.5047,0.00382249,80882.2,195423,328369,691313,310768,144121,1.3193e+06
0.506597,0.00385258,99538.3,197101,322290,721579,307923,149222,1.3545e+06
0.508494,0.00388267,118194,198778,316211,751845,305078,154323,1.38971e+06
0.510392,0.00391276,136850,200456,310132,782110,302234,159424,1.42491e+06
0.512289,0.00394285,155506,202133,304053,812376,299390,164524,1.46012e+06
0.514186,0.00397294,174162,203811,297974,842642,296545,169625,1.49533e+06
0.516084,0.00400303,192817,205489,291895,872907,293701,174726,1.53053e+06
0.517981,0.00403312,211473,207166,285816,903173,290856,179827,1.56574e+06
0.519878,0.00406322,230129,208844,279738,933439,288011,184927,1.60094e+06
0.521776,0.00409331,248784,210522,273658,963704,285167,190028,1.63615e+06
0.523673,0.0041234,267441,212199,267580,993970,282323,195129,1.67135e+06
0.525571,0.00415341,282131,213704,260329,1.01886e+06,281009,199513,1.70819e+06
0.527468,0.00418331,292305,215013,251746,1.03761e+06,281439,203083,1.74689e+06
0.529365,0.00421321,302480,216321,243162,1.05637e+06,281869,206652,1.7856e+06
0.531263,0.00424311,312654,217630,234578,1.07513e+06,282299,210221,1.8243e+06
0.53316,0.00427301,322829,218938,225994,1.09389e+06,282730,213790,1.863e+06
0.535057,0.00430291,333003,220247,217410,1.11265e+06,283160,217359,1.9017e+06
0.536955,0.00433281,343177,221555,208826,1.13141e+06,283590,220929,1.9404e+06
0.538852,0.00436271,353352,222863,200242,1.15017e+06,284020,224498,1.97911e+06
0.540749,0.00439307,344073,216666,174761,1.1082e+06,283046,218293,1.95178e+06
0.542647,0.00442359,327714,207736,143129,1.04414e+06,281562,208532,1.90042e+06
0.544544,0.00445411,311356,198807,111498,980075,280079,198771,1.84906e+06
0.546442,0.00448463,294997,189877,79866.8,916010,278595,189009,1.7977e+06
0.548339,0.00451515,278638,180947,48235.4,851945,277111,179248,1.74634e+06
0.550236,0.00454567,262280,172018,16604.4,787881,275627,169487,1.69498e+06
0.552134,0.00457618,253815,171918,3297.81,759253,278380,161466,1.68024e+06
0.554031,0.00460669,250401,177468,1717.14,753300,283846,154560,1.68893e+06
0.555928,0.00463824,252702,166891,-6630.98,725583,287332,159860,1.71469e+06
0.557826,0.00466996,255898,153787,-16039.5,694455,290507,167072,1.74312e+06
0.559723,0.00470178,258092,142115,6643.22,698814,285243,175090,1.73903e+06
0.561621,0.00473359,260311,130408,28540.7,702304,280186,183089,1.73574e+06
0.563518,0.00476541,262529,118701,50437.1,705794,275129,191087,1.73245e+06
0.565415,0.00479722,264748,106994,72333.6,709283,270072,199085,1.72916e+06
0.567313,0.00482904,266967,95286.7,94231.1,712774,265015,207084,1.72587e+06
0.56921,0.00486086,269185,83579.7,116128,716263,259959,215082,1.72258e+06
0.571107,0.00489279,261264,80046.1,121697,698151,260183,207703,1.73433e+06
0.573005,0.00492476,249953,79244.8,121809,672820,262172,195183,1.75111e+06
0.574902,0.00495672,238642,78443.1,121922,647489,264161,182664,1.76789e+06
0.576799,0.00498869,227331,77641.4,122034,622157,266150,170146,1.78467e+06
0.578697,0.00502066,216020,76840,122146,596826,268139,157626,1.80145e+06
0.580594,0.00505264,204709,76038.3,122258,571495,270128,145107,1.81822e+06
0.582492,0.00508461,193399,75236.6,122371,546164,272117,132588,1.835e+06
0.584389,0.00511658,182088,74435.2,122483,520833,274107,120069,1.85178e+06
0.586286,0.00514855,170777,73633.5,122595,495501,276096,107550,1.86856e+06
0.588184,0.0051816,169580,73888.8,122708,481396,279337,104606,1.8993e+06
0.590081,0.00521622,183314,75704.9,122822,483863,284427,115795,1.95065e+06
0.591978,0.00525085,197048,77520.7,122935,486330,289517,126985,2.00199e+06
0.593876,0.00528547,210782,79336.5,123048,488798,294607,138175,2.05334e+06
0.595773,0.0053201,224516,81152.3,123162,491265,299697,149365,2.10469e+06
0.59767,0.00535472,238251,82968.4,123275,493733,304786,160554,2.15603e+06
0.599568,0.00538935,251985,84784.1,123388,496200,309876,171744,2.20738e+06
0.601465,0.00542395,261394,88888.4,126766,507790,312274,178826,2.23207e+06
0.603363,0.00545848,260784,98293.5,137706,540510,308437,176391,2.19503e+06
0.60526,0.00549302,260174,107698,148646,573229,304600,173957,2.15798e+06
0.607157,0.00552755,259564,117103,159585,605949,300763,171523,2.12093e+06
0.609055,0.00556209,258954,126508,170525,638669,296926,169088,2.08388e+06
0.610952,0.00559662,258344,135913,181465,671389,293089,166654,2.04684e+06
0.612849,0.00563187,285079,161557,188976,727776,292214,164262,2.09176e+06
0.614747,0.00566727,317178,190387,195815,788807,291919,161878,2.15277e+06
0.616644,0.00570266,349276,219217,202654,849837,291624,159494,2.21378e+06
0.618541,0.00573806,381374,248046,209493,910866,291330,157110,2.27479e+06
0.620439,0.00577345,413473,276876,216332,971897,291035,154726,2.3358e+06
0.622336,0.00580885,445571,305705,223171,1.03293e+06,290740,152342,2.39681e+06
0.624234,0.00584424,477669,334535,230010,1.09396e+06,290446,149958,2.45781e+06
0.626131,0.00588026,478750,346073,230167,1.126e+06,286185,137555,2.41817e+06
0.628028,0.00591663,461867,347598,226454,1.14126e+06,279629,119350,2.32024e+06
0.629926,0.005953,444984,349123,222742,1.15653e+06,273072,101145,2.22231e+06
0.631823,0.00598937,428101,350648,219030,1.17179e+06,266515,82939.2,2.12439e+06
0.63372,0.00602574,411218,352173,215317,1.18705e+06,259959,64734.1,2.02646e+06
0.635618,0.00606218,399082,352268,206844,1.19836e+06,257920,55122.5,1.9657e+06
0.637515,0.00609873,394748,350011,190544,1.20316e+06,263308,59636,1.96603e+06
0.639413,0.00613528,390415,347754,174244,1.20797e+06,268697,64150,1.96636e+06
0.64131,0.00617183,386082,345497,157944,1.21278e+06,274085,68663.9,1.9667e+06
0.643207,0.00620838,381749,343241,141645,1.21758e+06,279473,73177.4,1.96703e+06
0.645105,0.00624493,377415,340984,125345,1.22239e+06,284861,77691.4,1.96736e+06
0.647002,0.00628178,377369,341734,117230,1.22035e+06,284670,73003.8,1.94727e+06
0.648899,0.00631875,378834,343546,112000,1.2159e+06,282511,65070.7,1.91996e+06
0.650797,0.00635571,380299,345357,106771,1.21145e+06,280351,57138,1.89266e+06
0.652694,0.00639267,381764,347169,101542,1.20699e+06,278192,49205.2,1.86536e+06
0.654592,0.00642963,383230,348980,96312.9,1.20254e+06,276033,41272.2,1.83806e+06
0.656489,0.0064666,384695,350792,91083.8,1.19809e+06,273873,33339.4,1.81075e+06
0.658386,0.00650356,386160,352603,85854.7,1.19364e+06,271714,25406.7,1.78345e+06
0.660284,0.00654053,387626,354415,80625.4,1.18919e+06,269555,17473.6,1.75615e+06
0.662181,0.0065775,389091,356226,75396.4,1.18473e+06,267396,9540.91,1.72884e+06
0.664078,0.00661539,378237,350905,83830.7,1.1721e+06,272478,8996.32,1.70837e+06
0.665976,0.00665399,358010,340157,102661,1.15324e+06,283070,14073,1.69309e+06
0.667873,0.00669259,337783,329409,121492,1.13438e+06,293662,19149.8,1.67781e+06
0.66977,0.00673119,317555,318661,140322,1.11552e+06,304254,24226.6,1.66253e+06
0.671668,0.00676979,297328,307913,159153,1.09666e+06,314846,29303.3,1.64725e+06
0.673565,0.00680839,277101,297165,177983,1.07781e+06,325438,34380.1,1.63197e+06
0.675462,0.00684766,269241,279671,188076,1.03399e+06,319185,59080.3,1.69859e+06
0.67736,0.00688693,261212,262269,198288,990507,313161,83513.1,1.76408e+06
0.679257,0.00692619,253183,244867,208500,947029,307137,107946,1.82958e+06
0.681155,0.00696546,245154,227465,218712,903550,301113,132378,1.89507e+06
0.683052,0.00700473,237125,210063,228924,860071,295089,156811,1.96057e+06
0.684949,0.00704399,229096,192661,239136,816592,289065,181243,2.02606e+06
0.686847,0.00708326,221067,175259,249348,773114,283041,205676,2.09156e+06
0.688744,0.00712253,213038,157857,259560,729635,277017,230109,2.15705e+06
0.690641,0.00716195,190501,135704,260497,657474,261984,237302,2.18286e+06
0.692539,0.00720145,161233,111347,257132,572007,242771,236498,2.19026e+06
0.694436,0.00724094,131966,86990,253768,486540,223559,235695,2.19766e+06
0.696334,0.00728044,102698,62633.1,250403,401073,204346,234890,2.20505e+06
0.698231,0.00731993,73430.5,38276.1,247038,315606,185133,234086,2.21245e+06
0.700128,0.00735943,44163.1,13919.2,243673,230139,165921,233283,2.21985e+06
0.702026,0.00739949,35914.1,2521.59,242832,191091,148876,243335,2.22188e+06
0.703923,0.00744025,52862,6659.48,245017,207688,134429,266401,2.21748e+06
0.70582,0.00748144,58599.2,12472.4,242583,222929,128913,262644,2.1686e+06
0.707718,0.00752272,61848.9,18655.5,239126,237863,125377,252939,2.10986e+06
0.709615,0.00756401,65098.6,24838.7,235668,252798,121840,243233,2.05111e+06
0.711513,0.0076053,68350.2,31022.7,232211,267737,118304,233530,1.99237e+06
0.71341,0.00764658,71599.9,37205.9,228753,282672,114768,223824,1.93363e+06
0.715307,0.00768787,74849.6,43389.1,225295,297607,111232,214119,1.87488e+06
0.717205,0.00772916,78101.2,49573.1,221838,312545,107696,204416,1.81614e+06
0.719102,0.00777044,80426.5,55341.9,218191,325756,103944,193769,1.75617e+06
0.720999,0.00781177,94932.8,66571,217038,361685,103033,195522,1.71243e+06
0.722897,0.00785311,109439,77800,215885,397615,102121,197274,1.66869e+06
0.724794,0.00789444,123945,89029.1,214731,433544,101210,199026,1.62496e+06
0.726691,0.00793578,138452,100258,213578,469473,100298,200778,1.58122e+06
0.728589,0.00797712,152958,111487,212425,505402,99386.8,202530,1.53749e+06
0.730486,0.00801905,313075,187988,241079,812906,132430,352492,1.68788e+06
0.732384,0.00806101,478673,266945,270855,1.13063e+06,166751,508033,1.84558e+06
0.734281,0.00810349,441670,265701,271446,1.08713e+06,173997,442891,1.8793e+06
0.736178,0.00814608,362068,247594,265899,967676,175549,331347,1.88695e+06
0.738076,0.00818866,282465,229486,260352,848221,177101,219803,1.89459e+06
0.739973,0.00823195,234796,190649,257290,727231,182984,198970,2.10485e+06
0.74187,0.00827535,201327,157577,251477,621577,191185,182480,2.21661e+06
0.743768,0.00831876,167857,124504,245664,515923,199385,165989,2.32836e+06
0.745665,0.00836216,134388,91431.8,239850,410268,207586,149498,2.44012e+06
0.747562,0.00840557,100919,58359.6,234037,304614,215786,133007,2.55187e+06
0.74946,0.00844897,67449.7,25287.3,228223,198960,223986,116516,2.66363e+06
0.751357,0.00849238,33980.3,-7785.23,222410,93305,232187,100025,2.77538e+06
0.753255,0.00853608,39583,7481.53,221043,125183,233744,73281.2,2.6815e+06
0.755152,0.00857986,53991,33642,220678,188055,233805,44226.4,2.54128e+06
0.757049,0.00862363,68400.2,59804,220314,250931,233865,15170.8,2.40105e+06
0.758947,0.00866741,82808.1,85964.5,219949,313803,233926,-13884,2.26082e+06
0.760844,0.00871119,97216.1,112125,219584,376675,233987,-42938.8,2.1206e+06
0.762741,0.00875496,111624,138285,219219,439546,234047,-71992.9,1.98038e+06
0.764639,0.00879874,126033,164447,218855,502422,234108,-101049,1.84014e+06
0.766536,0.00884251,140441,190608,218490,565294,234168,-130103,1.69992e+06
0.768433,0.00888629,155112,217093,218155,629091,234184,-159227,1.55831e+06
0.770331,0.00893022,188692,266973,219972,759447,230985,-193314,1.31718e+06
0.772228,0.00897517,220813,283430,212243,851446,231007,-172795,1.36424e+06
0.774126,0.00902043,247178,293322,204134,944881,237572,-133566,1.4227e+06
0.776023,0.0090657,273541,303214,196026,1.03831e+06,244138,-94335.7,1.48114e+06
0.77792,0.00911096,299905,313107,187917,1.13175e+06,250704,-55106.1,1.53959e+06
0.779818,0.00915622,326270,322999,179808,1.22518e+06,257269,-15876.5,1.59804e+06
0.781715,0.00920201,313260,311870,178115,1.20674e+06,263718,-1845,1.57064e+06
0.783612,0.00924824,266860,282914,181863,1.09341e+06,270067,-9184.1,1.47043e+06
0.78551,0.00929479,241996,263326,182641,1.01623e+06,270043,-15480.5,1.46971e+06
0.787407,0.0093414,220844,245353,182907,945269,268920,-21596.4,1.48613e+06
0.789304,0.00938801,199692,227380,183173,874310,267797,-27713.1,1.50255e+06
0.791202,0.00943461,178540,209407,183439,803351,266674,-33829.8,1.51897e+06
0.793099,0.00948122,157388,191434,183705,732393,265551,-39945.7,1.5354e+06
0.794997,0.00952783,136235,173461,183971,661434,264428,-46062.4,1.55182e+06
0.796894,0.00957444,115083,155488,184237,590475,263305,-52179.2,1.56824e+06
0.798791,0.00962104,93931,137514,184503,519517,262182,-58295,1.58466e+06
0.800689,0.00966765,72778.6,119541,184769,448558,261059,-64411.8,1.60109e+06
0.802586,0.00971426,51626.3,101568,185035,377599,259936,-70528.5,1.61751e+06
0.804483,0.00976087,30474.3,83595.1,185301,306641,258813,-76644.4,1.63393e+06
0.806381,0.00980736,13619.6,65375.3,184079,245114,258120,-76060.7,1.66681e+06
0.808278,0.00985372,1406.59,46889.1,181249,193776,257890,-68240,1.71746e+06
0.810176,0.00990009,-10806.8,28402.6,178420,142436,257660,-60419.8,1.76811e+06
0.812073,0.00994645,-23019.8,9916.39,175591,91097.4,257431,-52599.1,1.81876e+06
0.81397,0.00999281,-35232.8,-8569.85,172761,39758.7,257201,-44778.4,1.86941e+06
0.815868,0.0100392,-47446.2,-27056.3,169932,-11580.7,256971,-36958.1,1.92006e+06
0.817765,0.0100855,-59659.1,-45542.6,167103,-62919.4,256742,-29137.4,1.97071e+06
0.819662,0.0101326,-70482.4,-56479.5,168942,-96778.2,261716,-30101.1,1.98653e+06
0.82156,0.0101803,-80222.8,-61532.2,174420,-117013,270746,-37912.4,1.97521e+06
0.823457,0.0102286,-73390.2,-57774.6,174537,-103540,281280,-32247.4,1.96553e+06
0.825354,0.0102773,-56857.8,-48860.6,171516,-70340.9,292694,-18695.1,1.95679e+06
0.827252,0.010326,-40325.4,-39946.7,168495,-37141.3,304108,-5142.78,1.94806e+06
0.829149,0.0103747,-23793,-31032.8,165473,-3941.69,315522,8409.5,1.93933e+06
0.831047,0.0104234,-7260.66,-22118.8,162452,29257.9,326936,21961.8,1.9306e+06
0.832944,0.0104721,9271.75,-13204.9,159431,62457.5,338351,35514.1,1.92187e+06
0.834841,0.0105208,25804.1,-4290.96,156410,95657.1,349765,49066.4,1.91314e+06
0.836739,0.0105695,42336.5,4622.99,153389,128857,361179,62618.7,1.90441e+06
0.838636,0.0106182,58868.9,13536.9,150368,162056,372593,76171,1.89567e+06
0.840533,0.0106669,75401.3,22450.9,147347,195256,384007,89723.3,1.88694e+06
0.842431,0.0107161,100468,35694.6,140117,256504,392496,109705,1.91269e+06
0.844328,0.0107657,135526,54006.4,127961,350586,397563,137212,1.97878e+06
0.846226,0.0108153,170584,72318.4,115805,444668,402629,164719,2.04488e+06
0.848123,0.0108649,205641,90630.3,103649,538750,407695,192226,2.11098e+06
0.85002,0.0109145,240699,108942,91493.1,632831,412761,219734,2.17708e+06
0.851918,0.0109642,275757,127254,79337.1,726913,417827,247241,2.24317e+06
0.853815,0.011014,281891,121555,70095,732611,410605,254039,2.2644e+06
0.855712,0.0110638,280705,109778,61590.5,715941,400275,255596,2.27427e+06
0.85761,0.0111137,279519,98001.4,53085.9,699270,389944,257154,2.28413e+06
0.859507,0.0111641,254660,84470.9,53599.4,632136,369927,240181,2.23543e+06
0.861404,0.0112147,224749,70566.2,56037.3,554234,347843,219254,2.17423e+06
0.863302,0.0112652,194839,56661.4,58474.9,476333,325759,198327,2.11303e+06
0.865199,0.0113158,164928,42756.6,60912.5,398432,303675,177401,2.05183e+06
0.867097,0.0113663,135017,28851.9,63350.4,320530,281591,156473,1.99063e+06
0.868994,0.0114169,105107,14947.1,65788,242630,259507,135547,1.92943e+06
0.870891,0.0114676,81869.7,1494.12,65162.6,179501,237119,116904,1.8825e+06
0.872789,0.0115185,71513.4,-11086.7,58624.9,144888,214146,102670,1.86311e+06
0.874686,0.0115694,61157.1,-23667.6,52087.1,110274,191172,88435.4,1.84372e+06
0.876583,0.0116202,50800.8,-36248.5,45549.3,75660.8,168198,74201.1,1.82434e+06
0.878481,0.0116711,40444.5,-48829.3,39011.6,41047.4,145224,59966.6,1.80495e+06
0.880378,0.011722,30088.2,-61410.3,32473.8,6433.95,122250,45732.4,1.78556e+06
0.882275,0.011773,20812.2,-72055.8,26584.2,-22731,102955,32430.3,1.76719e+06
0.884173,0.0118249,21348.7,-65120.9,26582.4,-2406.03,117077,27594.9,1.75806e+06
0.88607,0.0118769,21885.2,-58186.2,26580.5,17919,131198,22759.8,1.74893e+06
0.887968,0.0119288,22421.7,-51251.5,26578.6,38244,145320,17924.7,1.7398e+06
0.889865,0.0119807,22958.2,-44316.7,26576.8,58569,159441,13089.4,1.73066e+06
0.891762,0.0120326,23494.7,-37382,26574.8,78894,173563,8254.3,1.72153e+06
0.89366,0.0120845,24031.2,-30447.3,26572.9,99219.1,187684,3419.22,1.7124e+06
0.895557,0.0121364,24567.7,-23512.5,26571.1,119544,201806,-1416.13,1.70326e+06
0.897454,0.0121883,25104.2,-16577.8,26569.2,139869,215927,-6251.22,1.69413e+06
0.899352,0.0122402,25640.7,-9643.07,26567.3,160194,230049,-11086.3,1.685e+06
0.901249,0.012293,36984.5,948.289,28792.2,198381,243266,262.052,1.69152e+06
0.903147,0.0123458,48866.2,11721.4,31127.8,237456,256437,12415.9,1.69882e+06
0.905044,0.0123986,60747.8,22494.6,33463.3,276531,269609,24569.7,1.70612e+06
0.906941,0.0124514,72629.6,33268,35799.1,315607,282780,36723.7,1.71342e+06
0.908839,0.0125044,83610.9,41326.2,37807,352854,296357,45362.8,1.72395e+06
0.910736,0.0125582,90462.5,36929.8,38312,381711,311790,37878.7,1.7493e+06
0.912633,0.0126119,97314.1,32533.5,38817.2,410569,327224,30394.6,1.77465e+06
0.914531,0.0126657,104166,28137.1,39322.2,439427,342657,22910.5,1.8e+06
0.916428,0.0127195,111017,23740.7,39827.2,468284,358091,15426.3,1.82535e+06
0.918325,0.0127733,117869,19344.5,40332.3,497142,373524,7942.24,1.85071e+06
0.920223,0.0128278,113337,18759.5,46542.2,482797,377234,-3821.05,1.8582e+06
0.92212,0.0128827,102728,20209.6,55798.2,445384,374684,-17869.2,1.85617e+06
0.924018,0.0129376,92118.6,21659.9,65054.4,407971,372133,-31917.4,1.85414e+06
0.925915,0.0129925,81509.2,23110,74310.4,370558,369582,-45965.6,1.8521e+06
0.927812,0.0130474,70899.8,24560.1,83566.4,333145,367032,-60013.8,1.85007e+06
0.92971,0.0131023,60290.4,26010.4,92822.6,295732,364481,-74062,1.84804e+06
0.931607,0.0131572,49681,27460.5,102079,258319,361931,-88110.2,1.846e+06
0.933504,0.0132121,39071.9,28910.7,111334,220907,359381,-102158,1.84397e+06
0.935402,0.013267,28462.5,30360.8,120590,183493,356830,-116206,1.84194e+06
0.937299,0.0133219,17853.1,31811.1,129847,146080,354280,-130254,1.8399e+06
0.939196,0.0133768,7631.11,30351,136264,110296,350369,-140691,1.86323e+06
0.941094,0.013432,258.187,7491.24,121812,86486.8,336459,-124572,2.07301e+06
0.942991,0.0134875,11708.4,5202.01,125459,90466.2,331224,-114205,2.15902e+06
0.944889,0.0135432,35547.4,16453.1,141019,112735,331699,-107625,2.16357e+06
0.946786,0.0135989,59386.5,27704.2,156580,135003,332174,-101046,2.16811e+06
0.948683,0.0136545,83226.2,38955.2,172140,157273,332650,-94466.2,2.17266e+06
0.950581,0.0137102,107065,50206.2,187701,179542,333125,-87887,2.1772e+06
0.952478,0.0137659,130904,61457.3,203261,201810,333600,-81307.8,2.18175e+06
0.954375,0.0138225,118939,56724.7,212393,168011,325071,-96818.1,2.06636e+06
0.956273,0.0138792,102659,50066.9,220750,127456,315458,-114990,1.93652e+06
0.95817,0.0139359,94848.4,47251.6,224064,104628,298476,-108071,1.89999e+06
0.960068,0.0139927,89221.7,45427,226077,86372.1,279595,-94681.3,1.88753e+06
0.961965,0.0140494,83594.9,43602.7,228090,68115.8,260713,-81291.6,1.87507e+06
0.963862,0.0141062,77968,41778.4,230103,49859.5,241831,-67902,1.86261e+06
0.96576,0.0141629,72341.3,39953.7,232117,31603.5,222949,-54512.3,1.85015e+06
0.967657,0.0142197,66714.5,38129.4,234130,13347.2,204067,-41122.6,1.83769e+06
0.969554,0.0142764,61087.6,36305.1,236143,-4909.08,185186,-27732.9,1.82523e+06
0.971452,0.0143333,62332.7,35064.2,237903,-1922.78,170757,-9217.85,1.84453e+06
0.973349,0.0143903,69644.8,34338.9,239440,19818.5,160259,13822.7,1.89186e+06
0.975246,0.0144473,76956.9,33613.7,240976,41559.9,149762,36863.2,1.93919e+06
0.977144,0.0145043,84269,32888.1,242513,63300.6,139264,59903.5,1.98652e+06
0.979041,0.0145613,91581.1,32162.9,244050,85041.9,128766,82944.1,2.03385e+06
0.980938,0.0146183,98893.2,31437.6,245587,106783,118269,105985,2.08118e+06
0.982836,0.0146753,106205,30712,247123,128524,107771,129025,2.12851e+06
0.984733,0.0147342,122373,43830.5,248055,171331,106043,149358,2.07732e+06
0.986631,0.0147932,139460,58386.6,248925,216325,105226,169409,2.01591e+06
0.988528,0.0148522,156547,72942.6,249794,261319,104409,189460,1.95449e+06
0.990425,0.0149113,173634,87498.7,250663,306313,103592,209512,1.89307e+06
0.992323,0.0149703,190722,102055,251532,351307,102775,229563,1.83165e+06
0.99422,0.0150293,207809,116611,252401,396301,101958,249615,1.77023e+06
0.996117,0.0150884,224896,131167,253270,441295,101141,269666,1.70882e+06
0.998015,0.0151474,241983,145723,254139,486289,100324,289718,1.6474e+06
0.999912,0.0152064,259071,160279,255009,531283,99506.8,309769,1.58598e+06
1.00181,0.0152654,277932,175642,253302,579174,97802.4,332184,1.54936e+06
1.00371,0.0153243,296219,188791,247816,621366,97429.2,352799,1.53604e+06
1.0056,0.0153834,308820,193134,235889,639104,103224,362548,1.54304e+06
1.0075,0.0154424,323674,196982,217099,656817,108704,374494,1.60593e+06
1.0094,0.0155014,338885,200752,197226,674527,114134,386787,1.67764e+06
1.0113,0.0155604,354194,207072,182825,696971,117746,392246,1.65186e+06
1.01319,0.0156206,358100,199716,186651,669805,115910,396678,1.61763e+06
1.01509,0.0156812,342616,185492,187678,623344,113659,400095,1.65706e+06
1.01699,0.0157419,319805,174536,185067,588092,111576,397179,1.657e+06
1.01889,0.0158025,296995,163579,182456,552839,109492,394263,1.65693e+06
1.02078,0.0158631,274185,152623,179846,517586,107409,391347,1.65687e+06
1.02268,0.0159238,251374,141667,177235,482333,105326,388431,1.6568e+06
1.02458,0.0159844,228564,130710,174625,447080,103243,385515,1.65674e+06
1.02648,0.016045,209752,119097,171362,407461,101867,381058,1.67151e+06
1.02837,0.0161057,198206,106290,166915,359906,101776,373802,1.71322e+06
1.03027,0.0161663,186660,93483.5,162468,312351,101685,366546,1.75493e+06
1.03217,0.016227,175114,80676.8,158020,264796,101594,359291,1.79664e+06
1.03406,0.0162876,163567,67870,153573,217241,101504,352034,1.83835e+06
1.03596,0.0163483,152021,55063.3,149126,169687,101413,344779,1.88006e+06
1.03786,0.0164089,140475,42256.6,144679,122132,101322,337523,1.92177e+06
1.03976,0.0164696,128928,29449.8,140231,74577.1,101231,330267,1.96348e+06
1.04165,0.0165302,117382,16643,135784,27022.5,101140,323011,2.0052e+06
1.04355,0.0165909,105836,3836.31,131337,-20532.1,101050,315756,2.04691e+06
1.04545,0.0166524,94938.2,6829.54,125841,-16671.1,107988,295943,2.02205e+06
1.04735,0.0167146,84512.9,21333.3,119581,24647.3,120046,266984,1.94869e+06
1.04924,0.0167767,74087.6,35837,113322,65965.8,132105,238025,1.87533e+06
1.05114,0.0168389,63661.8,50340.5,107062,107283,144164,209066,1.80197e+06
1.05304,0.016901,53236.5,64844.2,100802,148602,156222,180107,1.72861e+06
1.05494,0.0169632,42811.2,79347.9,94542.2,189920,168281,151148,1.65525e+06
1.05683,0.0170253,32385.6,93850.9,88282.4,231236,180339,122189,1.58189e+06
1.05873,0.0170877,30474.4,108612,89187.9,286585,190282,98547,1.54095e+06
1.06063,0.0171509,54349,124151,111794,384416,193815,91010.6,1.59819e+06
1.06253,0.0172141,78225.2,139691,134402,482254,197349,83473.6,1.65544e+06
1.06442,0.0172773,102100,155229,157009,580085,200882,75937.2,1.71268e+06
1.06632,0.0173405,125976,170769,179616,677923,204416,68400.3,1.76992e+06
1.06822,0.0174038,147105,188127,198890,770485,206842,60882.5,1.79051e+06
1.07011,0.0174674,161577,209899,210082,850273,206583,53409.9,1.72223e+06
1.07201,0.017531,176048,231670,221273,930056,206324,45937.6,1.65395e+06
1.07391,0.0175949,182126,241657,215936,922959,210440,37390.7,1.58874e+06
1.07581,0.0176591,181706,242523,197803,848605,217941,28012.7,1.52591e+06
1.0777,0.0177233,181285,243388,179669,774246,225443,18634.2,1.46307e+06
1.0796,0.0177876,180865,244253,161536,699892,232944,9256.17,1.40024e+06
1.0815,0.0178519,180441,238772,150910,637375,237592,6096.35,1.38002e+06
1.0834,0.0179164,180010,222768,152733,594497,237507,13247.3,1.43047e+06
1.08529,0.0179808,179580,206763,154557,551617,237423,20398.6,1.48093e+06
1.08719,0.0180453,179150,190759,156380,508740,237338,27549.5,1.53138e+06
1.08909,0.0181098,178719,174755,158203,465859,237254,34701,1.58184e+06
1.09099,0.0181743,178289,158751,160027,422982,237169,41851.8,1.63229e+06
1.09288,0.0182387,177859,142746,161850,380101,237084,49003.3,1.68274e+06
1.09478,0.0183032,177429,126742,163673,337224,237000,56154.2,1.7332e+06
1.09668,0.0183689,183571,131018,163843,355124,250412,58251.6,1.71247e+06
1.09858,0.0184348,190556,137895,163799,380822,265555,59700.4,1.68262e+06
1.10047,0.0185007,197541,144772,163756,406522,280699,61149.5,1.65276e+06
1.10237,0.0185666,204526,151649,163713,432220,295842,62598.3,1.62291e+06
1.10427,0.0186325,211512,158526,163670,457921,310986,64047.2,1.59305e+06
1.10616,0.0186984,218497,165403,163627,483619,326130,65496,1.56319e+06
1.10806,0.0187648,220584,158530,160353,498946,334043,74861,1.55915e+06
1.10996,0.0188312,221905,149508,156573,512653,340824,85463.1,1.55914e+06
1.11186,0.0188977,223226,140484,152792,526357,347606,96066.5,1.55913e+06
1.11375,0.0189644,222236,137849,150587,525900,336970,98785.5,1.55838e+06
1.11565,0.0190311,220766,136543,148708,522496,322709,99863.9,1.55747e+06
1.11755,0.0190979,219296,135236,146830,519092,308448,100942,1.55656e+06
1.11945,0.0191646,217825,133930,144951,515686,294187,102021,1.55565e+06
1.12134,0.0192314,216355,132624,143073,512284,279927,103099,1.55474e+06
1.12324,0.0192987,203279,119498,144317,504201,268480,106087,1.57481e+06
1.12514,0.0193661,187459,103578,146299,495014,257701,109527,1.59985e+06
1.12704,0.0194336,171637,87657.4,148282,485827,246921,112967,1.62489e+06
1.12893,0.0195011,155817,71737.4,150264,476641,236142,116406,1.64993e+06
1.13083,0.0195685,139996,55816.5,152246,467452,225362,119846,1.67497e+06
1.13273,0.019636,124175,39896.4,154229,458267,214583,123285,1.70001e+06
1.13463,0.0197035,114684,27667,154102,444804,201832,125680,1.72161e+06
1.13652,0.019771,111593,19170.9,151841,427022,187089,127018,1.73975e+06
1.13842,0.0198386,108502,10674.4,149580,409239,172346,128356,1.75789e+06
1.14032,0.0199061,105412,2178.36,147320,391457,157604,129694,1.77603e+06
1.14221,0.0199746,109887,8607.72,146646,376271,150611,119975,1.74392e+06
1.14411,0.0200434,116246,18750.1,146367,361733,145547,107507,1.6993e+06
1.14601,0.0201121,122604,28892.9,146088,347193,140483,95037.7,1.65469e+06
1.14791,0.0201809,128962,39035.2,145809,332654,135419,82569.4,1.61007e+06
1.1498,0.0202497,132998,45023.2,144406,319483,133118,75190.5,1.57654e+06
1.1517,0.0203185,132845,43516.6,140977,308781,135799,76994,1.563e+06
1.1536,0.0203873,132691,42009.7,137548,298078,138481,78797.7,1.54947e+06
1.1555,0.0204561,132538,40503.3,134120,287377,141162,80600.9,1.53593e+06
1.15739,0.020525,132385,38996.4,130690,276674,143844,82404.6,1.52239e+06
1.15929,0.0205941,126575,31609.8,125830,246976,149190,82913.5,1.52355e+06
1.16119,0.0206639,110562,13618.3,118388,183018,159341,81087.8,1.5512e+06
1.16309,0.0207337,94550.4,-4371.97,110947,119064,169491,79262.2,1.57884e+06
1.16498,0.0208035,78537.7,-22363.2,103505,55106,179642,77436.8,1.60649e+06
1.16688,0.0208733,62525.8,-40353.7,96063.4,-8848.53,189792,75611,1.63414e+06
1.16878,0.0209431,46513.2,-58345,88621.5,-72806.4,199943,73785.5,1.66178e+06
1.17068,0.0210129,30501.5,-76335.3,81180.1,-136760,210093,71960,1.68943e+06
1.17257,0.0210828,14488.7,-94326.8,73738.2,-200719,220244,70134.2,1.71708e+06
1.17447,0.0211526,-1485.49,-112288,66305.3,-264457,230399,68345.8,1.74457e+06
1.17637,0.021223,-6606.41,-121796,61336.5,-265829,241885,77286.2,1.72634e+06
1.17826,0.0212935,-11727.3,-131304,56368.1,-267201,253371,86225.4,1.70811e+06
1.18016,0.0213641,-16322.5,-139941,51739.1,-269367,263834,92824.4,1.69205e+06
1.18206,0.0214357,-15563.6,-139708,50569.9,-279624,263873,75578.2,1.69807e+06
1.18396,0.0215073,-14804.6,-139475,49400.8,-289882,263912,58330.7,1.7041e+06
1.18585,0.0215789,-14045.7,-139241,48231.6,-300138,263951,41084.5,1.71012e+06
1.18775,0.0216506,-13286.8,-139008,47062.5,-310395,263990,23838.3,1.71614e+06
1.18965,0.0217222,-12527.8,-138775,45893.3,-320653,264029,6590.85,1.72216e+06
1.19155,0.0217938,-10166.4,-135306,44816.7,-319308,264314,-7787.33,1.72099e+06
1.19344,0.0218654,-1776.88,-119667,44088.2,-274322,265529,-11377.7,1.69277e+06
1.19534,0.0219371,6612.4,-104029,43359.7,-229337,266744,-14967.6,1.66455e+06
1.19724,0.0220087,15002,-88390.2,42631.2,-184351,267959,-18558,1.63633e+06
1.19914,0.0220803,23391.1,-72752.2,41902.7,-139368,269174,-22148.1,1.60811e+06
1.20103,0.022152,31780.8,-57113,41174.2,-94380.3,270389,-25738.3,1.57989e+06
1.20293,0.0222242,48855.8,-50267.6,41796.2,-77186.3,272546,-31881.8,1.59077e+06
1.20483,0.0222969,71166.8,-48721.4,43232.3,-76741.6,275272,-39564.6,1.62521e+06
1.20673,0.0223696,93476.7,-47174.7,44668.4,-76294.2,277998,-47246.8,1.65965e+06
1.20862,0.0224425,100470,-50930.3,46969.1,-89279.5,276246,-50259.7,1.68232e+06
1.21052,0.0225158,86003.8,-62113,50480.9,-121077,268221,-46730.1,1.6885e+06
1.21242,0.0225891,71536.6,-73296.4,53992.9,-152876,260196,-43200.2,1.69467e+06
1.21431,0.0226624,57070.4,-84479.1,57504.8,-184674,252171,-39670.7,1.70085e+06
1.21621,0.0227357,42603.2,-95662.7,61016.8,-216475,244145,-36141,1.70703e+06
1.21811,0.022809,28137.1,-106845,64528.6,-248271,236120,-32611.2,1.7132e+06
1.22001,0.0228823,13669.9,-118029,68040.6,-280072,228094,-29081.5,1.71938e+06
1.2219,0.0229554,7068.46,-120655,76531.9,-264071,209960,-18365.7,1.7257e+06
1.2238,0.0230285,792.28,-122927,85229.9,-246090,191405,-7351.58,1.73202e+06
1.2257,0.0231016,-5483.34,-125199,93927.4,-228109,172852,3661.91,1.73835e+06
1.2276,0.0231747,-11759.1,-127471,102626,-210126,154296,14676.3,1.74467e+06
1.22949,0.0232483,-30941.4,-137614,102285,-228674,147133,14318.7,1.72266e+06
1.23139,0.0233222,-56257.9,-151498,97650,-264580,145380,8557.57,1.68717e+06
1.23329,0.023396,-85411.1,-162307,95481.1,-298818,141131,52.4078,1.65825e+06
1.23519,0.0234705,-71866,-157025,97949.6,-264130,132050,15954.8,1.65581e+06
1.23708,0.0235452,-56888.4,-148422,99042.3,-240217,132055,30267.2,1.65891e+06
1.23898,0.0236199,-41909.7,-139819,100135,-216303,132061,44580.4,1.662e+06
1.24088,0.0236946,-26932.1,-131216,101228,-192390,132066,58892.8,1.6651e+06
1.24278,0.0237693,-11953.5,-122613,102321,-168476,132072,73206,1.66819e+06
1.24467,0.023844,3024.18,-114011,103413,-144564,132077,87518.4,1.67129e+06
1.24657,0.0239187,18002.8,-105407,104506,-120649,132083,101832,1.67439e+06
1.24847,0.0239934,32980.5,-96804.6,105599,-96736.5,132088,116144,1.67748e+06
1.25036,0.0240681,47959.1,-88201.5,106692,-72822.6,132094,130457,1.68058e+06
1.25226,0.0241432,60409.2,-79689.6,105221,-64662,137807,146725,1.68028e+06
1.25416,0.0242188,69233,-71308.3,100071,-79107.1,151711,165800,1.67513e+06
1.25606,0.0242945,78056.2,-62927.3,94921.1,-93551.2,165614,184874,1.66997e+06
1.25795,0.0243701,86880,-54545.7,89771.1,-107996,179518,203950,1.66481e+06
1.25985,0.0244467,82123.6,-54353.4,85776.7,-124906,184898,203796,1.65752e+06
1.26175,0.0245234,74335.3,-55989.4,82040,-142367,188376,199350,1.64976e+06
1.26365,0.0246001,66547,-57625.2,78303.6,-159828,191854,194904,1.642e+06
1.26554,0.0246769,58758.6,-59261.2,74566.8,-177289,195332,190458,1.63424e+06
1.26744,0.0247536,50970.6,-60897,70830.3,-194749,198810,186012,1.62648e+06
1.26934,0.0248304,43182,-62532.9,67093.6,-212211,202288,181565,1.61872e+06
1.27124,0.0249073,41580.9,-57992.4,74179.2,-199542,199481,174261,1.61935e+06
1.27313,0.0249842,40399.7,-53032.7,81999.3,-184830,196248,166762,1.62056e+06
1.27503,0.0250611,39218.3,-48073.3,89818.8,-170118,193016,159263,1.62176e+06
1.27693,0.0251381,38036.7,-43113.6,97638.8,-155406,189783,151764,1.62296e+06
1.27883,0.025215,36855.3,-38154.2,105458,-140694,186550,144265,1.62417e+06
1.28072,0.0252919,35674.1,-33194.5,113278,-125982,183317,136766,1.62537e+06
1.28262,0.0253689,34492.3,-28235.1,121098,-111271,180084,129267,1.62657e+06
1.28452,0.0254459,33476.4,-23285.9,128670,-96326.2,176273,121110,1.62909e+06
1.28641,0.0255236,35122.5,-18506.1,132239,-77648.8,163155,102352,1.65277e+06
1.28831,0.0256014,36768.6,-13726,135808,-58970.3,150035,83593.4,1.67646e+06
1.29021,0.0256791,38414.7,-8946.19,139377,-40293,136916,64835.8,1.70014e+06
1.29211,0.0257569,40061.2,-4166.07,142946,-21614.2,123796,46077.3,1.72382e+06
1.294,0.0258349,41558.4,-1745.9,143207,-4961.13,112229,31900.7,1.73367e+06
1.2959,0.0259132,42875.4,-2200.71,139438,9227.31,102552,23306.3,1.72668e+06
1.2978,0.0259916,41859.1,-2517.07,134835,18865.4,94165.7,13895.9,1.71898e+06
1.2997,0.0260708,17037.7,-1419.95,121715,-17914.3,98945.8,-3845.18,1.70419e+06
1.30159,0.0261499,-7781.96,-322.85,108597,-54691.6,103726,-21585.1,1.68939e+06
1.30349,0.026229,-32603.3,774.433,95477.4,-91471.5,108506,-39326.2,1.6746e+06
1.30539,0.0263081,-57423,1871.37,82358.7,-128249,113286,-57066.1,1.65981e+06
1.30729,0.0263876,-63488.7,6729.08,73371.6,-130173,116396,-68105.3,1.61745e+06
1.30918,0.0264672,-60293.7,13443,66425.1,-114888,118681,-75834.7,1.56149e+06
1.31108,0.0265467,-57098.6,20157.3,59478,-99602.2,120967,-83564.8,1.50552e+06
1.31298,0.0266263,-53903.6,26871.2,52531.5,-84317.3,123252,-91294.3,1.44956e+06
1.31488,0.0267059,-50708.3,33585.7,45584.8,-69031.1,125538,-99024.2,1.39359e+06
1.31677,0.0267855,-47513.6,40299.4,38637.9,-53746.4,127823,-106754,1.33763e+06
1.31867,0.026865,-44318.2,47013.9,31691.2,-38460.3,130109,-114484,1.28166e+06
1.32057,0.0269446,-41123.2,53727.8,24744.7,-23175.3,132394,-122213,1.2257e+06
1.32246,0.0270242,-37928.1,60442.1,17797.6,-7889.41,134680,-129943,1.16973e+06
1.32436,0.0271038,-34733.2,67156,10851.1,7395.55,136965,-137673,1.11377e+06
1.32626,0.0271833,-31537.8,73870.5,3904.33,22681.7,139251,-145403,1.0578e+06
1.32816,0.0272629,-28343.1,80584.2,-3042.52,37966.4,141536,-153132,1.00184e+06
1.33005,0.0273425,-25147.7,87298.8,-9989.26,53252.5,143822,-160862,945875
1.33195,0.0274226,-21667.4,85375.7,-10147,63793.5,151391,-158235,910913
1.33385,0.0275037,-31643.1,58950.6,-12682.1,61376.6,163099,-149392,873551
1.33575,0.0275848,-38403.4,38789.1,-15314.5,68251.5,174922,-145142,868957
1.33764,0.0276663,-39780.9,25767.1,-17774,59120.9,181393,-138797,918886
1.33954,0.0277482,-34466.1,21621.9,-20018.1,30087.4,181212,-129848,1.03659e+06
1.34144,0.0278301,-29150.3,17478,-22262.6,1053.91,181031,-120899,1.15431e+06
1.34334,0.027912,-23968.9,13145.6,-24483,-28058.9,180927,-111852,1.27119e+06
1.34523,0.0279936,-26067.6,-1433.5,-25410.2,-61557.3,185055,-97482.9,1.34258e+06
1.34713,0.0280753,-28166.2,-16011.5,-26337.3,-95053.1,189183,-83114.6,1.41397e+06
1.34903,0.0281569,-30265,-30590.3,-27264.4,-128551,193311,-68745.6,1.48536e+06
1.35092,0.0282385,-32363.5,-45168.6,-28191.5,-162047,197438,-54376.8,1.55675e+06
1.35282,0.0283201,-34462.3,-59747.4,-29118.7,-195545,201567,-40007.8,1.62814e+06
1.35472,0.0284022,-4174.58,-72025.1,-18688.8,-243407,183949,-8045.53,1.61685e+06
1.35662,0.0284844,33909.5,-83749.4,-5525.04,-294729,161097,28152.6,1.58566e+06
1.35851,0.0285668,54026.1,-99087.4,-1820.58,-336443,140774,49669.7,1.57445e+06
1.36041,0.0286496,41587.5,-120115,-13265.3,-353277,126441,50982.9,1.58037e+06
1.36231,0.0287326,20667.1,-141681,-26464.7,-355395,115219,54084.8,1.56973e+06
1.36421,0.0288155,-251.672,-163247,-39663.3,-357514,103997,57186.4,1.55908e+06
1.3661,0.0288984,-21171.4,-184813,-52862.6,-359633,92774.4,60287.8,1.54843e+06
1.368,0.0289813,-38489.2,-202234,-65050.7,-356662,82646.4,61972.5,1.53489e+06
1.3699,0.0290642,-40722.9,-202295,-73007.1,-332376,77098.2,57720.1,1.50923e+06
1.3718,0.0291471,-42956.3,-202356,-80962.8,-308090,71550.6,53468.2,1.48356e+06
1.37369,0.02923,-45189.9,-202417,-88919.1,-283801,66002.8,49216.1,1.45789e+06
1.37559,0.0293128,-47423.3,-202478,-96874.9,-259515,60455.2,44964.2,1.43223e+06
1.37749,0.0293961,-48816.2,-198016,-102023,-239447,58333.6,40432.7,1.40558e+06
1.37939,0.0294804,-47462.5,-178775,-97997.4,-233153,67405.3,34990.3,1.37574e+06
1.38128,0.0295648,-46109,-159534,-93971.9,-226861,76476.8,29547.1,1.34589e+06
1.38318,0.0296492,-44755.5,-140294,-89946.6,-220569,85548.1,24104.4,1.31604e+06
1.38508,0.0297336,-43401.8,-121053,-85921,-214276,94620.1,18661.5,1.28619e+06
1.38697,0.029818,-42048.2,-101813,-81895.7,-207984,103691,13218.8,1.25635e+06
1.38887,0.0299023,-40694.7,-82571.9,-77870.2,-201692,112763,7775.6,1.2265e+06
1.39077,0.0299867,-39341,-63331.2,-73844.7,-195399,121835,2333.17,1.19665e+06
1.39267,0.0300711,-37987.5,-44090.4,-69819.3,-189107,130906,-3110.02,1.16681e+06
1.39456,0.0301554,-33297.6,-24992.4,-65184.1,-181198,139674,-8643.66,1.13529e+06
1.39646,0.0302397,-23174.9,-6123.99,-59555.7,-170656,147947,-14325.7,1.10105e+06
1.39836,0.030324,-13962.6,9511.61,-53612.8,-164849,154372,-18459.9,1.07419e+06
1.40026,0.0304084,-7406.35,15709.8,-46750.3,-172872,155398,-18074.2,1.06887e+06
1.40215,0.0304935,-5437.25,18616.5,-40284.5,-171517,158201,-16009.4,1.07029e+06
1.40405,0.0305795,-8430.54,17960.8,-34247.7,-160015,162926,-12128.7,1.07903e+06
1.40595,0.0306655,-10185.3,14954.4,-29152.5,-152907,167412,-9633.77,1.08982e+06
1.40785,0.0307517,-6911.03,2401.92,-27879,-163639,170926,-12765.2,1.10897e+06
1.40974,0.0308379,-8472.66,-6227.25,-25581,-168822,172852,-14997.7,1.11792e+06
1.41164,0.030924,-10099.5,-14803.9,-23268.9,-173930,174757,-17218.3,1.12673e+06
1.41354,0.0310102,-11726,-23380.9,-20957.3,-179040,176662,-19438.6,1.13555e+06
1.41544,0.0310963,-13352.8,-31957.5,-18645.2,-184148,178567,-21659.2,1.14436e+06
1.41733,0.0311825,-14979.4,-40534,-16333.4,-189257,180473,-23879.7,1.15317e+06
1.41923,0.0312686,-16606.1,-49111.2,-14021.5,-194366,182378,-26100.2,1.16199e+06
1.42113,0.0313548,-18232.7,-57687.7,-11709.7,-199475,184283,-28320.6,1.1708e+06
1.42303,0.0314409,-19859.6,-66264.3,-9397.65,-204583,186188,-30541.2,1.17962e+06
1.42492,0.0315271,-21486,-74841.4,-7086.01,-209693,188094,-32761.5,1.18843e+06
1.42682,0.0316132,-23112.9,-83418,-4773.95,-214801,189999,-34982.2,1.19724e+06
1.42872,0.0316994,-24739.5,-91994.4,-2462.15,-219910,191904,-37202.6,1.20606e+06
1.43061,0.0317856,-26366.2,-100572,-150.25,-225019,193809,-39423.1,1.21487e+06
1.43251,0.031872,-30230.1,-103155,-704.029,-225101,195813,-45318.9,1.22084e+06
1.43441,0.0319597,-41978.1,-84616.8,-11355.7,-207470,198163,-64166.8,1.21676e+06
1.43631,0.0320473,-53725.2,-66080.9,-22007.1,-189841,200513,-83013.4,1.21268e+06
1.4382,0.0321352,-55641.5,-61967.6,-26577.9,-183780,202533,-95117.7,1.21492e+06
1.4401,0.0322233,-49590.1,-69544.1,-26220.8,-187095,204285,-101756,1.22228e+06
1.442,0.0323114,-43538.4,-77120.8,-25863.5,-190410,206036,-108395,1.22964e+06
1.4439,0.0323995,-37486.8,-84698,-25506.6,-193726,207789,-115034,1.237e+06
1.44579,0.0324876,-31435.1,-92274.7,-25149.4,-197041,209540,-121673,1.24435e+06
1.44769,0.0325757,-25383.7,-99851.2,-24792.3,-200357,211292,-128311,1.25171e+06
1.44959,0.0326638,-19331.8,-107429,-24435.2,-203673,213044,-134950,1.25907e+06
1.45149,0.0327519,-13280.4,-115005,-24078.1,-206988,214796,-141589,1.26643e+06
1.45338,0.03284,-7228.75,-122582,-23720.9,-210303,216548,-148228,1.27379e+06
1.45528,0.032928,-3551.42,-120720,-21336.1,-196049,213568,-154429,1.25473e+06
1.45718,0.0330159,-2403.66,-108802,-16790.5,-163073,205546,-160165,1.20754e+06
1.45907,0.0331042,4486.45,-101345,-13212.8,-143469,198405,-161907,1.17014e+06
1.46097,0.0331933,25475.3,-104837,-12010.8,-156688,193424,-153845,1.1568e+06
1.46287,0.0332823,46462.6,-108329,-10808.8,-169906,188444,-145783,1.14345e+06
1.46477,0.0333716,60560.5,-112532,-6591.59,-176389,185497,-128334,1.19137e+06
1.46666,0.0334612,58587.2,-118602,-3237.77,-179329,178003,-113000,1.19901e+06
1.46856,0.0335508,56613.3,-124673,116.016,-182269,170508,-97667,1.20666e+06
1.47046,0.0336404,54639.7,-130744,3469.68,-185209,163014,-82334.2,1.2143e+06
1.47236,0.03373,52666.1,-136814,6823.62,-188149,155519,-67000.1,1.22195e+06
1.47425,0.0338196,50692.5,-142885,10177.3,-191089,148025,-51667.3,1.22959e+06
1.47615,0.0339092,48718.5,-148956,13531.1,-194030,140530,-36334,1.23724e+06
1.47805,0.0339988,46745.3,-155026,16884.9,-196970,133035,-21000.5,1.24489e+06
1.47995,0.0340884,44771.3,-161097,20238.7,-199910,125540,-5667.16,1.25253e+06
1.48184,0.034178,42797.7,-167167,23592.3,-202850,118046,9665.63,1.26018e+06
1.48374,0.0342676,40824.1,-173238,26946.3,-205790,110551,24999.7,1.26782e+06
1.48564,0.0343572,38850.5,-179308,30300,-208730,103057,40332.5,1.27547e+06
1.48754,0.034447,39619.3,-184385,38487.4,-215669,96945.3,58118.8,1.29538e+06
1.48943,0.0345377,50229.1,-185896,64017,-236951,95797.2,84706.1,1.35931e+06
1.49133,0.0346285,48038.3,-187908,72517.7,-256115,90744.9,94742.6,1.35659e+06
1.49323,0.0347194,36385,-190290,68428.8,-273711,82807,92543.3,1.3046e+06
1.49512,0.0348103,24730.9,-192671,64339.6,-291309,74868.7,90343.9,1.25261e+06
1.49702,0.0349012,13077.6,-195053,60250.7,-308906,66930.8,88144.6,1.20062e+06
1.49892,0.0349922,7566.12,-192873,60385.3,-323282,61629.8,91890.3,1.19998e+06
1.50082,0.0350832,5838.92,-187883,63121.8,-335674,57953.8,99298.5,1.23098e+06
1.50271,0.0351742,4111.75,-182893,65858.6,-348066,54277.7,106707,1.26198e+06
1.50461,0.0352652,2384.63,-177904,68595.2,-360457,50601.7,114115,1.29298e+06
1.50651,0.0353562,657.377,-172914,71332,-372850,46925.5,121523,1.32398e+06
1.50841,0.0354472,-1069.74,-167924,74068.5,-385241,43249.5,128932,1.35498e+06
1.5103,0.0355382,-2796.91,-162934,76805.4,-397633,39573.4,136340,1.38598e+06
1.5122,0.0356301,-24585.7,-161599,79231.2,-416071,45213.4,124891,1.38235e+06
1.5141,0.035722,-46777.7,-160336,81651,-434631,51040.4,113063,1.37804e+06
1.516,0.0358139,-68028.5,-158787,84102.1,-451541,56811.3,101313,1.37452e+06
1.51789,0.0359066,-63087.4,-149241,87429.3,-422485,61027.8,91710.6,1.39329e+06
1.51979,0.0359994,-58146.6,-139695,90756.3,-393432,65244,82109.1,1.41206e+06
1.52169,0.0360921,-53205.5,-130148,94083.6,-364377,69460.5,72506.9,1.43083e+06
1.52359,0.0361849,-48264.8,-120602,97410.6,-335324,73676.7,62905.5,1.44959e+06
1.52548,0.0362776,-43324,-111056,100738,-306270,77892.9,53304,1.46836e+06
1.52738,0.0363704,-38382.9,-101510,104065,-277215,82109.5,43701.8,1.48713e+06
1.52928,0.0364631,-33442.1,-91964,107392,-248162,86325.7,34100.4,1.5059e+06
1.53117,0.0365559,-26074.2,-81988.2,110759,-216712,89877.5,23343.4,1.52751e+06
1.53307,0.0366488,-10571,-70896.8,114237,-177832,91039.4,8289.14,1.55904e+06
1.53497,0.0367426,-30089.5,-73550.4,115064,-185809,98563.3,-763.922,1.54768e+06
1.53687,0.0368364,-38549.8,-72690.1,108048,-171061,106613,-16736.5,1.48414e+06
1.53876,0.0369302,-47010.8,-71829.8,101032,-156312,114664,-32710.3,1.42059e+06
1.54066,0.0370241,-55471.1,-70969.4,94016.9,-141564,122714,-48682.8,1.35706e+06
1.54256,0.0371179,-63932,-70109.1,87000.7,-126815,130765,-64656.6,1.29351e+06
1.54446,0.0372117,-72392.4,-69248.8,79985.1,-112067,138815,-80629.2,1.22997e+06
1.54635,0.0373055,-80853.3,-68388.4,72969.1,-97318.2,146866,-96602.9,1.16643e+06
1.54825,0.0373993,-89313.6,-67528.1,65953.5,-82570.3,154916,-112575,1.10289e+06
1.55015,0.0374932,-97774.5,-66667.8,58937.3,-67821.2,162966,-128549,1.03934e+06
1.55205,0.037587,-106235,-65807.4,51922,-53073.6,171016,-144522,975807
1.55394,0.0376808,-115536,-64160.5,39338.3,-34481.2,180712,-164291,865506
1.55584,0.0377758,-121136,-71589.2,42922.7,-50618.9,181288,-160620,878929
1.55774,0.0378711,-123016,-78231.5,41979.5,-55962.7,182948,-150142,892216
1.55964,0.0379664,-124896,-84873.3,41036.3,-61305.6,184607,-139664,905502
1.56153,0.0380617,-126775,-91515.4,40092.8,-66647.9,186267,-129186,918788
1.56343,0.0381571,-128655,-98157.4,39149.9,-71992.2,187926,-118708,932074
1.56533,0.0382523,-127728,-104836,39543.5,-89347.5,187253,-107730,945443
1.56722,0.0383474,-119658,-111605,43340.3,-137276,180642,-95481.5,959022
1.56912,0.0384425,-111588,-118375,47137.4,-185207,174031,-83232.1,972601
1.57102,0.0385376,-103519,-125145,50934.2,-233135,167421,-70983.5,986179
1.57292,0.0386326,-95448.3,-131915,54731.2,-281066,160810,-58733.9,999758
1.57481,0.0387277,-87379.3,-138685,58528.1,-328994,154199,-46485.4,1.01334e+06
1.57671,0.0388239,-84010.1,-146212,53803.7,-350432,160090,-37365.9,1.03356e+06
1.57861,0.0389204,-82071.9,-153969,46487,-363807,169784,-29199.4,1.0558e+06
1.58051,0.0390168,-80133.8,-161726,39169.7,-377183,179479,-21032.4,1.07805e+06
1.5824,0.0391133,-78195,-169483,31852.9,-390558,189173,-12865.8,1.10029e+06
1.5843,0.0392098,-76257.4,-177241,24535.8,-403934,198868,-4699.02,1.12254e+06
1.5862,0.0393063,-68963.7,-181450,20804.8,-419713,204120,8504.96,1.1253e+06
1.5881,0.039403,-58753.3,-183729,19025.9,-436803,206953,24452.6,1.11746e+06
1.58999,0.0394996,-48543.8,-186008,17247.2,-453891,209787,40399.2,1.10961e+06
1.59189,0.039596,-33142.8,-186972,10636.7,-458155,213662,51124.6,1.10263e+06
1.59379,0.0396924,-17065.7,-187765,3396.25,-460746,217674,61167.8,1.09576e+06
1.59569,0.0397895,-11723.3,-187601,944.257,-471991,221186,70921.8,1.11609e+06
1.59758,0.039887,-13752.4,-186779,1780.39,-489178,224355,80476.1,1.1551e+06
1.59948,0.0399846,-15781.6,-185956,2616.48,-506367,227525,90031.2,1.19411e+06
1.60138,0.0400821,-17029.6,-188181,-5412.51,-510046,209233,91926.5,1.19972e+06
1.60327,0.0401796,-18283.8,-190381,-13371.8,-513832,191111,93882.7,1.2056e+06
1.60517,0.0402771,-20566.4,-190175,-16924.8,-510756,178990,98227.7,1.2105e+06
1.60707,0.0403746,-23463.8,-188529,-17845.2,-503581,170455,104000,1.21483e+06
1.60897,0.0404722,-26360.9,-186884,-18765.7,-496407,161920,109773,1.21916e+06
1.61086,0.0405697,-29258.1,-185239,-19686.3,-489231,153384,115546,1.22349e+06
1.61276,0.0406672,-32155.2,-183594,-20606.8,-482056,144850,121318,1.22782e+06
1.61466,0.0407648,-35099.4,-181982,-21460,-474862,136355,126997,1.23212e+06
1.61656,0.0408628,-43269.1,-184016,-14801.1,-465537,132470,122274,1.23254e+06
1.61845,0.0409608,-51439.5,-186051,-8141.22,-456212,128585,117550,1.23295e+06
1.62035,0.0410593,-54991.9,-183860,-6569.31,-441123,119353,106207,1.20508e+06
1.62225,0.0411579,-57384.8,-180608,-6275.16,-424585,108777,93200.6,1.17009e+06
1.62415,0.0412566,-59777.5,-177355,-5980.9,-408048,98201.5,80195,1.1351e+06
1.62604,0.0413552,-62170.3,-174103,-5686.75,-391511,87625.5,67188.7,1.10012e+06
1.62794,0.0414538,-64563,-170851,-5392.5,-374974,77050.3,54183.1,1.06513e+06
1.62984,0.0415529,-65603.1,-167762,1843.21,-372996,72546.9,43212.5,1.03694e+06
1.63174,0.0416521,-66147.4,-164734,11621.3,-376351,70268.4,32989.2,1.01124e+06
1.63363,0.0417513,-66691.6,-161706,21399.9,-379707,67989.8,22765.5,985544
1.63553,0.0418505,-67235.8,-158678,31177.9,-383063,65711.3,12542.2,959846
1.63743,0.0419497,-67780.1,-155650,40956.6,-386419,63432.6,2318.43,934148
1.63932,0.0420489,-68324.3,-152623,50734.6,-389775,61154.2,-7904.87,908450
1.64122,0.0421481,-68868.7,-149594,60513.4,-393131,58875.6,-18129.3,882751
1.64312,0.0422473,-69413,-146567,70291.5,-396487,56597.1,-28352.6,857054
1.64502,0.0423465,-69957.2,-143539,80070.1,-399843,54318.4,-38576.4,831355
1.64691,0.0424457,-70501.4,-140511,89848.2,-403198,52040,-48799.7,805658
1.64881,0.042545,-62586,-130126,97272.4,-392298,53002.8,-61678,817153
1.65071,0.0426444,-53261.4,-118393,102972,-377407,55529.4,-73819.1,838648
1.65261,0.0427444,-63850.4,-122581,99166.6,-377820,61995.4,-66388.1,815551
1.6545,0.0428445,-74438.3,-126770,95361.5,-378233,68460.6,-58957.7,792456
1.6564,0.0429449,-85372.7,-140244,94986.6,-406874,77779.9,-53861.6,751969
1.6583,0.0430457,-93150.2,-149914,92004.6,-437010,82633.4,-51858.6,794227
1.6602,0.0431467,-98408.2,-155133,86439.5,-463812,83544.9,-51898.1,903877
1.66209,0.0432478,-103666,-160351,80874.6,-490612,84456.6,-51937.6,1.01352e+06
1.66399,0.0433488,-108925,-165569,75309.1,-517413,85368.6,-51977.1,1.12317e+06
1.66589,0.0434498,-114182,-170787,69744.2,-544213,86280.3,-52016.6,1.23281e+06
1.66779,0.0435509,-119440,-176006,64179.1,-571015,87191.8,-52056.1,1.34246e+06
1.66968,0.0436521,-119698,-178687,61442.8,-581746,81697.8,-51464.9,1.37137e+06
1.67158,0.0437535,-116293,-179510,60777.8,-580709,71512.2,-50411.8,1.34116e+06
1.67348,0.043855,-112888,-180333,60112.7,-579672,61327.3,-49358.6,1.31096e+06
1.67537,0.0439564,-109483,-181156,59447.5,-578634,51141.7,-48305.3,1.28074e+06
1.67727,0.0440577,-106455,-183956,56802.2,-576376,38427.9,-44580.3,1.21671e+06
1.67917,0.0441589,-103905,-189272,51637.5,-572565,22496,-37455.9,1.10964e+06
1.68107,0.0442601,-101355,-194587,46473.2,-568754,6565.35,-30332.2,1.00257e+06
1.68296,0.0443613,-98804.3,-199903,41308.5,-564944,-9366.52,-23207.8,895504
1.68486,0.0444627,-95103.5,-201223,36659.7,-557268,-21932.8,-16269.6,817016
1.68676,0.0445648,-87773.9,-190495,34702.6,-535943,-14255.7,-13078.8,820169
1.68866,0.0446672,-80019.4,-179053,34419.9,-511159,8073.66,-14357.9,822108
1.69055,0.0447695,-72264.3,-167610,34137.1,-486375,30404.3,-15637,824048
1.69245,0.0448721,-68209.8,-159923,28634.7,-464646,45860.9,-15434.3,799175
1.69435,0.0449747,-65296,-153393,21523.1,-443859,59198.9,-14774.7,766038
1.69625,0.0450774,-62381.8,-146862,14411.2,-423072,72537.7,-14115.1,732899
1.69814,0.04518,-59468,-140332,7299.65,-402285,85875.6,-13455.5,699762
1.70004,0.0452827,-56554.3,-133801,187.436,-381496,99214.5,-12796.1,666620
1.70194,0.0453853,-53640.4,-127271,-6924.12,-360709,112552,-12136.5,633483
1.70384,0.0454879,-50726.3,-120741,-14036.1,-339922,125891,-11476.9,600344
1.70573,0.0455906,-47812.4,-114210,-21147.6,-319135,139229,-10817.3,567206
1.70763,0.0456936,-47055.8,-111741,-27132.1,-316132,144856,-9694.89,545381
1.70953,0.0457973,-49753,-109964,-23643.7,-317411,146666,-14203.9,516344
1.71142,0.045901,-52450.8,-108187,-20155.2,-318690,148475,-18713.3,487304
1.71332,0.0460047,-55148.1,-106410,-16666.8,-319969,150285,-23222.2,458268
1.71522,0.0461084,-57099.4,-103566,-13389,-317482,152074,-26907.6,437998
1.71712,0.046212,-54805.3,-111268,-13036.3,-358410,146987,-24381.5,507546
1.71901,0.0463157,-51668.8,-118045,-12950.2,-396175,141764,-20899.8,587664
1.72091,0.0464194,-48532.5,-124821,-12864.4,-433937,136541,-17418.2,667778
1.72281,0.046523,-45396.1,-131598,-12778.7,-471703,131318,-13936.2,747901
1.72471,0.0466267,-42259.8,-138374,-12692.8,-509466,126095,-10454.7,828015
1.7266,0.0467307,-49429.2,-145244,-12435.7,-536289,123627,-17009.6,858958
1.7285,0.0468352,-63925.2,-153459,-9418.88,-560872,121044,-25700,877291
1.7304,0.0469399,-76599.1,-163196,-3259.5,-594056,115478,-26603.1,931201
1.7323,0.0470445,-89272.2,-172933,2899.37,-627237,109912,-27506.2,985109
1.73419,0.0471492,-101947,-182670,9058.45,-660421,104346,-28409.3,1.03902e+06
1.73609,0.0472538,-114620,-192407,15217.3,-693602,98779.7,-29312.3,1.09293e+06
1.73799,0.0473585,-124456,-199403,21593,-718022,94408.6,-28929.9,1.13114e+06
1.73989,0.047463,-122995,-195487,28829.1,-707549,94795.9,-23429.3,1.10684e+06
1.74178,0.0475675,-121535,-191570,36065.8,-697076,95183.2,-17928.5,1.08255e+06
1.74368,0.0476721,-119167,-188422,43313.9,-687860,95189.5,-11457.6,1.05991e+06
1.74558,0.0477776,-109728,-191260,50655.9,-688451,92224.1,2582.91,1.0502e+06
1.74747,0.0478831,-105699,-194659,51663.5,-696018,85198.3,1560.57,1.03714e+06
1.74937,0.0479887,-108256,-198740,44959,-712076,73227.9,-17800.8,1.01998e+06
1.75127,0.0480943,-110156,-202104,38925.6,-725299,62093.1,-34532.7,1.0025e+06
1.75317,0.0482003,-106894,-199834,38162.2,-716265,57516,-30621.4,982467
1.75506,0.0483062,-103633,-197563,37398.5,-707230,52939,-26710.6,962434
1.75696,0.0484122,-100371,-195293,36634.4,-698194,48361.5,-22800.1,942396
1.75886,0.0485181,-97109.8,-193022,35870.7,-689160,43784.6,-18889.3,922363
1.76076,0.0486241,-93848.4,-190752,35107.3,-680125,39207.5,-14978,902329
1.76265,0.04873,-90587,-188482,34343.6,-671091,34630.6,-11067.2,882295
1.76455,0.0488359,-87325.6,-186212,33580.2,-662056,30053.5,-7155.87,862261
1.76645,0.0489419,-84064.3,-183941,32816.5,-653022,25476.5,-3245.07,842227
1.76835,0.0490478,-80802.5,-181671,32052.4,-643986,20899,665.509,822190
1.77024,0.0491537,-77278.6,-179087,31248,-633143,16134,4088.51,799515
1.77214,0.0492595,-72024.4,-174441,30175.1,-610385,10130,4298.53,759438
1.77404,0.0493652,-66770.6,-169795,29102.1,-587628,4126.31,4508.62,719365
1.77594,0.0494709,-61516.4,-165148,28029.3,-564870,-1877.73,4718.65,679289
1.77783,0.0495768,-59547.8,-159041,29035.5,-551337,-6120.66,1650.19,653040
1.77973,0.0496833,-63830.9,-153422,30799,-555337,-6095.25,-7905.59,658612
1.78163,0.0497906,-69751.2,-154419,25165.9,-560452,3749.01,-2829.6,758792
1.78352,0.0498978,-75671.9,-155416,19532.8,-565567,13593.9,2246.44,858977
1.78542,0.0500049,-82496.6,-155082,16856.4,-567153,24296.1,2312.1,933844
1.78732,0.050112,-90120.5,-153572,16791.8,-565621,35756.7,-2048.29,986355
1.78922,0.050219,-97744,-152063,16727.2,-564090,47216.7,-6408.63,1.03886e+06
1.79111,0.0503261,-105368,-150553,16662.6,-562558,58677.7,-10769.7,1.09137e+06
1.79301,0.0504335,-106536,-148510,15532.7,-555715,64221.9,-15786.4,1.11061e+06
1.79491,0.0505415,-99630.2,-145801,13070.6,-542227,62368.1,-21623.9,1.08826e+06
1.79681,0.0506494,-92725,-143093,10608.7,-528740,60514.5,-27461.3,1.06591e+06
1.7987,0.0507574,-85819.2,-140384,8146.57,-515252,58660.6,-33298.8,1.04357e+06
1.8006,0.0508651,-80580,-141779,8165.38,-505436,55747.9,-41386.6,981631
1.8025,0.0509727,-75629.9,-143886,8614.93,-496258,52651.2,-49866.2,912814
1.8044,0.0510804,-70680.2,-145994,9064.79,-487081,49554.4,-58345.1,844002
1.80629,0.051188,-65730.3,-148102,9514.84,-477903,46457.3,-66824.3,775185
1.80819,0.0512957,-60780.6,-150209,9964.69,-468725,43360.6,-75303.1,706372
1.81009,0.0514036,-61825.3,-151961,10405.4,-472521,46794.9,-75767,691368
1.81199,0.0515119,-62729.4,-150160,7637.35,-473475,50427.9,-71021.6,686775
1.81388,0.0516203,-63000,-146534,3192.27,-471732,53555.1,-64301.6,682598
1.81578,0.0517288,-63270.6,-142910,-1252.26,-469989,56681.9,-57581.6,678420
1.81768,0.0518372,-63541.4,-139285,-5696.96,-468246,59808.8,-50860.9,674242
1.81957,0.0519459,-69848.4,-142119,-7649.74,-491776,60575.3,-44819.4,676756
1.82147,0.0520546,-77290.8,-146169,-9134.02,-520060,60897.9,-38904.8,680529
1.82337,0.0521633,-84732.9,-150218,-10618.2,-548343,61220.6,-32990.8,684302
1.82527,0.052272,-92175.7,-154267,-12102.7,-576628,61543.3,-27076.8,688075
1.82716,0.0523807,-99617.7,-158316,-13586.9,-604911,61866,-21162.8,691848
1.82906,0.0524898,-103315,-160766,-16549,-625171,62403.6,-17145.5,693692
1.83096,0.0525993,-109581,-160337,-16795.6,-654072,66326.9,-21703.5,716264
1.83286,0.0527089,-115847,-159908,-17042.1,-682975,70250.3,-26261.6,738838
1.83475,0.0528184,-122113,-159479,-17288.7,-711876,74173.6,-30819.6,761410
1.83665,0.052928,-128380,-159050,-17535.4,-740780,78097.1,-35378.2,783985
1.83855,0.0530375,-134646,-158621,-17781.9,-769681,82020.3,-39936.2,806557
1.84045,0.0531471,-131761,-152915,-17740.2,-760225,82389.6,-36683.3,791525
1.84234,0.0532567,-122828,-143722,-17507.9,-725421,80410,-28268.9,751642
1.84424,0.0533663,-113896,-134530,-17275.6,-690616,78430.3,-19854.1,711758
1.84614,0.0534759,-105721,-128322,-16328.7,-662779,76649.1,-12120.4,680559
1.84804,0.053586,-101163,-136377,-11966.9,-668233,75815.7,-7638.98,690853
1.84993,0.0536961,-96605.2,-144431,-7605.24,-673689,74982.6,-3158.03,701148
1.85183,0.0538062,-92047.9,-152487,-3243.26,-679146,74149.5,1323.11,711446
1.85373,0.0539162,-87490.6,-160542,1118.38,-684602,73316.3,5804.06,721742
1.85562,0.0540263,-82785,-168349,5472.29,-688924,72572.7,10174.7,733807
1.85752,0.0541364,-78032.2,-176078,9823.29,-692883,71857.6,14509.9,746433
1.85942,0.0542465,-73980.6,-184316,14571.9,-697537,71763.4,19092.5,760139
1.86132,0.054357,-83643.3,-192316,23499.7,-718307,73559.6,11980.5,778110
1.86321,0.0544676,-95109.2,-200637,31981.5,-743172,74329.9,1883.73,797571
1.86511,0.0545784,-95374.9,-189107,30208.3,-708713,72298.3,4591.72,759843
1.86701,0.0546893,-100019,-179646,28781,-681600,70003.4,2754.81,726366
1.86891,0.0548002,-104664,-170185,27353.5,-654485,67708.4,917.898,692887
1.8708,0.0549111,-109308,-160724,25926.2,-627372,65413.5,-919.015,659411
1.8727,0.0550219,-113953,-151262,24498.9,-600255,63118.5,-2756.3,625930
1.8746,0.0551328,-118597,-141801,23071.5,-573142,60823.6,-4593.21,592453
1.8765,0.0552438,-121783,-136026,22380.2,-563437,59100.2,-6709.97,577156
1.87839,0.0553551,-121710,-138486,23333.1,-592616,58653.8,-9451.75,602469
1.88029,0.0554663,-121638,-140947,24285.9,-621798,58207.3,-12193.6,627783
1.88219,0.0555775,-121566,-143407,25238.8,-650977,57760.8,-14935.4,653096
1.88409,0.0556888,-116602,-141309,26311.9,-661445,57992.3,-14881.4,700484
1.88598,0.0558002,-112764,-140128,26083.3,-662207,60009.7,-16153.9,732215
1.88788,0.055912,-109731,-136461,26698.7,-652421,59807.2,-26261.7,737321
1.88978,0.0560238,-106378,-132181,27585.3,-641921,59166,-36956,742949
1.89167,0.0561357,-103025,-127900,28472,-631420,58524.7,-47650.9,748576
1.89357,0.0562478,-104312,-123240,22353.8,-605714,57393.4,-53153.9,721678
1.89547,0.05636,-106730,-118486,14528.3,-576300,56142.8,-57392.2,686853
1.89737,0.0564721,-109147,-113733,6703.52,-546889,54892.2,-61630.4,652031
