"arc_length","Displacement_Magnitude","Sxx","Sxy","Sxz","Syy","Syz","Szz","Von_Mises_Stress"
0,0,2.76829e+06,194161,2818.99,5.47231e+06,785114,2.58715e+06,3.592e+06
0.00189736,1.14475e-06,2.72423e+06,184274,2055.95,5.37813e+06,772487,2.53552e+06,3.45564e+06
0.00379474,2.28949e-06,2.68017e+06,174387,1292.94,5.28395e+06,759860,2.4839e+06,3.31929e+06
0.0056921,3.43424e-06,2.63611e+06,164500,529.896,5.18978e+06,747233,2.43227e+06,3.18293e+06
0.00758946,4.57898e-06,2.59206e+06,154613,-233.144,5.0956e+06,734606,2.38065e+06,3.04658e+06
0.00948684,5.97472e-06,2.51897e+06,142811,65.5108,4.95054e+06,725805,2.29765e+06,2.93861e+06
0.0113842,7.72859e-06,2.41406e+06,128911,1528.02,4.74969e+06,721198,2.18027e+06,2.86176e+06
0.0132816,9.54339e-06,2.30916e+06,115011,2990.53,4.54885e+06,716591,2.06289e+06,2.78491e+06
0.0151789,1.139e-05,2.20425e+06,101110,4453.09,4.348e+06,711984,1.94551e+06,2.70805e+06
0.0170763,1.32552e-05,2.09935e+06,87210.3,5915.6,4.14716e+06,707376,1.82813e+06,2.6312e+06
0.0189737,1.51321e-05,1.99444e+06,73310.2,7378.11,3.94631e+06,702769,1.71075e+06,2.55435e+06
0.020871,1.70167e-05,1.88953e+06,59409.7,8840.67,3.74547e+06,698162,1.59336e+06,2.4775e+06
0.0227684,1.89069e-05,1.78463e+06,45509.6,10303.2,3.54462e+06,693555,1.47598e+06,2.40065e+06
0.0246658,2.06486e-05,1.72699e+06,45931,8749.01,3.45324e+06,680946,1.40968e+06,2.37285e+06
0.0265631,2.23533e-05,1.69194e+06,53197.9,5752.87,3.41418e+06,664511,1.36779e+06,2.3685e+06
0.0284605,2.4092e-05,1.65689e+06,60464.8,2756.77,3.37512e+06,648077,1.32589e+06,2.36415e+06
0.0303579,2.58579e-05,1.62184e+06,67731.6,-239.321,3.33606e+06,631643,1.284e+06,2.3598e+06
0.0322552,2.76457e-05,1.58679e+06,74998.6,-3235.47,3.297e+06,615209,1.24211e+06,2.35545e+06
0.0341526,2.94515e-05,1.55174e+06,82265.5,-6231.56,3.25794e+06,598775,1.20022e+06,2.3511e+06
0.03605,3.12721e-05,1.51669e+06,89532.3,-9227.66,3.21888e+06,582341,1.15833e+06,2.34675e+06
0.0379473,3.31052e-05,1.48165e+06,96799.3,-12223.8,3.17982e+06,565907,1.11644e+06,2.3424e+06
0.0398447,3.49486e-05,1.4466e+06,104066,-15219.9,3.14076e+06,549472,1.07454e+06,2.33804e+06
0.0417421,3.6801e-05,1.41155e+06,111333,-18216,3.1017e+06,533038,1.03265e+06,2.33369e+06
0.0436394,3.8661e-05,1.3765e+06,118600,-21212.1,3.06264e+06,516604,990761,2.32934e+06
0.0455368,4.05275e-05,1.34145e+06,125867,-24208.2,3.02358e+06,500170,948869,2.32499e+06
0.0474342,4.30349e-05,1.29679e+06,134986,-29591.9,2.97456e+06,486794,894185,2.32411e+06
0.0493315,4.72847e-05,1.22631e+06,149077,-41386.4,2.89879e+06,481630,805153,2.33254e+06
0.0512289,5.15786e-05,1.15583e+06,163168,-53180.9,2.82302e+06,476466,716120,2.34097e+06
0.0531263,5.59066e-05,1.08536e+06,177260,-64975.4,2.74725e+06,471303,627087,2.34941e+06
0.0550236,6.02613e-05,1.01488e+06,191351,-76770,2.67148e+06,466139,538055,2.35784e+06
0.056921,6.46373e-05,944403,205443,-88564.5,2.59571e+06,460975,449022,2.36627e+06
0.0588184,6.89831e-05,917666,212183,-94296.4,2.56031e+06,457718,420232,2.38142e+06
0.0607157,7.33567e-05,917926,214386,-96286.2,2.54983e+06,455639,428626,2.40072e+06
0.0626131,7.77871e-05,918186,216589,-98276,2.53935e+06,453560,437021,2.42001e+06
0.0645105,8.22652e-05,918446,218792,-100266,2.52887e+06,451481,445416,2.43931e+06
0.0664078,8.67836e-05,918706,220995,-102256,2.51839e+06,449403,453811,2.45861e+06
0.0683052,9.13363e-05,918966,223198,-104245,2.50792e+06,447323,462206,2.4779e+06
0.0702026,9.59184e-05,919226,225401,-106235,2.49744e+06,445244,470601,2.4972e+06
0.0720999,0.000101017,900489,223360,-101705,2.45373e+06,438828,467667,2.48126e+06
0.0739973,0.000106389,871387,219004,-93616.9,2.39189e+06,430044,458553,2.44608e+06
0.0758947,0.000111762,842285,214648,-85529,2.33006e+06,421260,449438,2.41091e+06
0.077792,0.000117137,813181,210292,-77440.7,2.26822e+06,412476,440323,2.37573e+06
0.0796894,0.000122512,784078,205936,-69352.8,2.20638e+06,403692,431209,2.34056e+06
0.0815868,0.000127887,754976,201580,-61264.9,2.14455e+06,394909,422094,2.30538e+06
0.0834841,0.000133264,725872,197224,-53176.5,2.08271e+06,386125,412979,2.27021e+06
0.0853815,0.000138641,696770,192868,-45088.6,2.02088e+06,377341,403864,2.23503e+06
0.0872789,0.000144019,667667,188512,-37000.7,1.95904e+06,368557,394750,2.19986e+06
0.0891762,0.000149397,638565,184156,-28912.9,1.8972e+06,359774,385636,2.16469e+06
0.0910736,0.000154775,609461,179800,-20824.5,1.83537e+06,350990,376520,2.12951e+06
0.092971,0.000159801,592364,170389,-17081.5,1.78296e+06,349550,379529,2.17595e+06
0.0948683,0.000164743,578697,159532,-14580.4,1.73326e+06,350209,386004,2.24571e+06
0.0967657,0.000169704,565030,148674,-12079.1,1.68355e+06,350869,392478,2.31547e+06
0.0986631,0.000174682,551364,137818,-9577.96,1.63385e+06,351528,398952,2.38523e+06
0.10056,0.000179674,537698,126961,-7076.82,1.58414e+06,352187,405426,2.45499e+06
0.102458,0.000184681,524031,116103,-4575.52,1.53443e+06,352847,411900,2.52475e+06
0.104355,0.000189701,510364,105247,-2074.37,1.48473e+06,353506,418374,2.59451e+06
0.106253,0.000194733,496698,94389.7,426.772,1.43502e+06,354165,424849,2.66427e+06
0.10815,0.000201352,482621,94899.1,-1460.4,1.39346e+06,359101,421172,2.66632e+06
0.110047,0.000208413,468430,98582.4,-4572.94,1.35418e+06,365230,414662,2.64946e+06
0.111945,0.000215476,454239,102266,-7685.48,1.31489e+06,371359,408152,2.63259e+06
0.113842,0.000222542,440048,105949,-10797.9,1.27561e+06,377488,401642,2.61573e+06
0.115739,0.000229608,425857,109632,-13910.4,1.23633e+06,383617,395132,2.59887e+06
0.117637,0.000236677,411666,113315,-17023,1.19704e+06,389746,388622,2.582e+06
0.119534,0.000243746,397474,116998,-20135.4,1.15776e+06,395875,382111,2.56514e+06
0.121431,0.000250817,383284,120682,-23247.9,1.11847e+06,402005,375601,2.54828e+06
0.123329,0.000257889,369093,124365,-26360.4,1.07919e+06,408134,369091,2.53142e+06
0.125226,0.000264937,365374,132860,-29783.4,1.06882e+06,411315,361886,2.4896e+06
0.127124,0.000271843,426894,171327,-35141.2,1.23856e+06,396135,350354,2.29233e+06
0.129021,0.000278772,488413,209794,-40498.9,1.40831e+06,380954,338823,2.09506e+06
0.130918,0.000285762,531560,236120,-45033.4,1.53201e+06,370564,326567,1.95534e+06
0.132816,0.000292863,530135,232991,-47571,1.54403e+06,371794,312558,1.9552e+06
0.134713,0.000299976,528711,229861,-50108.6,1.55604e+06,373023,298549,1.95506e+06
0.13661,0.000307101,527287,226732,-52646.2,1.56806e+06,374252,284540,1.95492e+06
0.138508,0.000314237,525862,223603,-55183.8,1.58007e+06,375482,270531,1.95478e+06
0.140405,0.000321384,524438,220473,-57721.4,1.59209e+06,376711,256522,1.95464e+06
0.142302,0.00032854,523014,217344,-60259,1.6041e+06,377941,242513,1.9545e+06
0.1442,0.000335705,521589,214214,-62796.6,1.61612e+06,379170,228504,1.95436e+06
0.146097,0.000342878,520165,211085,-65334.2,1.62813e+06,380400,214495,1.95422e+06
0.147995,0.000350059,518741,207956,-67871.8,1.64015e+06,381629,200485,1.95408e+06
0.149892,0.000357248,517317,204826,-70409.3,1.65217e+06,382858,186476,1.95394e+06
0.151789,0.000364839,516419,202573,-71895,1.6593e+06,384114,174797,1.95284e+06
0.153687,0.000374437,518174,204737,-68079.1,1.64185e+06,385502,174854,1.94688e+06
0.155584,0.000384044,519930,206901,-64263.4,1.6244e+06,386889,174912,1.94092e+06
0.157481,0.000393658,521686,209065,-60447.8,1.60695e+06,388277,174970,1.93496e+06
0.159379,0.000403281,523441,211230,-56631.9,1.5895e+06,389665,175028,1.929e+06
0.161276,0.00041291,525197,213394,-52816.3,1.57205e+06,391052,175086,1.92304e+06
0.163174,0.000422546,526952,215558,-49000.6,1.5546e+06,392440,175144,1.91708e+06
0.165071,0.000432188,528708,217722,-45184.8,1.53715e+06,393828,175202,1.91112e+06
0.166968,0.000441835,530464,219886,-41369.1,1.5197e+06,395215,175260,1.90516e+06
0.168866,0.000451488,532219,222050,-37553.4,1.50225e+06,396603,175318,1.8992e+06
0.170763,0.000461147,533975,224214,-33737.6,1.48481e+06,397991,175376,1.89324e+06
0.17266,0.000470809,535730,226378,-29921.9,1.46736e+06,399378,175433,1.88728e+06
0.174558,0.000480477,537486,228542,-26106.2,1.44991e+06,400766,175491,1.88132e+06
0.176455,0.000490578,567167,252344,-25566.6,1.49658e+06,397327,190223,1.92247e+06
0.178352,0.000500928,612742,288462,-26892,1.57976e+06,391141,213307,1.99045e+06
0.18025,0.000511281,658317,324579,-28217.4,1.66294e+06,384954,236392,2.05842e+06
0.182147,0.000521636,703895,360699,-29542.9,1.74612e+06,378768,259477,2.1264e+06
0.184045,0.000531993,749470,396817,-30868.2,1.8293e+06,372581,282561,2.19437e+06
0.185942,0.000542353,795046,432934,-32193.6,1.91248e+06,366395,305645,2.26235e+06
0.187839,0.000552715,840623,469054,-33519.1,1.99567e+06,360208,328730,2.33032e+06
0.189737,0.000562772,869239,490413,-34345.7,2.03474e+06,355270,349359,2.39181e+06
0.191634,0.000572074,855952,475311,-33940.1,1.96487e+06,353417,363920,2.43726e+06
0.193531,0.00058138,842665,460208,-33534.4,1.89498e+06,351564,378482,2.48271e+06
0.195429,0.000590851,828874,444708,-32494.9,1.82528e+06,350373,391140,2.51951e+06
0.197326,0.000602176,809288,424661,-24184.5,1.75759e+06,356777,381976,2.45714e+06
0.199223,0.000613503,789702,404613,-15874,1.6899e+06,363181,372811,2.39477e+06
0.201121,0.000624832,770117,384565,-7563.64,1.62221e+06,369584,363647,2.33239e+06
0.203018,0.000636164,750532,364518,746.73,1.55453e+06,375988,354482,2.27002e+06
0.204916,0.000647498,730946,344470,9057.22,1.48684e+06,382392,345318,2.20765e+06
0.206813,0.000658835,711360,324423,17367.6,1.41915e+06,388795,336153,2.14528e+06
0.20871,0.000670173,691775,304375,25678,1.35146e+06,395199,326988,2.08291e+06
0.210608,0.000681891,680705,290855,31670.7,1.31119e+06,397885,318405,2.04058e+06
0.212505,0.000694094,680456,285632,34718.3,1.30577e+06,395847,310560,2.02371e+06
0.214402,0.000706305,680208,280408,37765.8,1.30035e+06,393808,302715,2.00684e+06
0.2163,0.000718522,679959,275184,40813.5,1.29493e+06,391770,294870,1.98997e+06
0.218197,0.000730746,679710,269960,43861,1.28951e+06,389732,287025,1.9731e+06
0.220095,0.000743589,676177,261944,50670.8,1.28715e+06,385122,293303,2.01548e+06
0.221992,0.000756528,672167,253522,58027.1,1.28523e+06,380137,301631,2.06645e+06
0.223889,0.000769473,668157,245101,65383.4,1.28332e+06,375153,309960,2.11743e+06
0.225787,0.000782425,664146,236679,72739.7,1.28141e+06,370169,318289,2.16841e+06
0.227684,0.000795382,660136,228257,80095.9,1.27949e+06,365185,326617,2.21939e+06
0.229581,0.000808344,656126,219836,87452.2,1.27758e+06,360201,334946,2.27036e+06
0.231479,0.000821312,652116,211414,94808.5,1.27567e+06,355217,343275,2.32134e+06
0.233376,0.000834284,648105,202992,102165,1.27375e+06,350233,351603,2.37232e+06
0.235273,0.000847262,644095,194571,109521,1.27184e+06,345249,359932,2.4233e+06
0.237171,0.000860243,640085,186149,116877,1.26993e+06,340264,368261,2.47428e+06
0.239068,0.000873229,636074,177728,124234,1.26801e+06,335280,376589,2.52525e+06
0.240966,0.000886219,632064,169306,131590,1.2661e+06,330296,384918,2.57623e+06
0.242863,0.000899213,628054,160885,138946,1.26419e+06,325312,393247,2.62721e+06
0.24476,0.000913222,613160,163697,142804,1.22265e+06,323320,369137,2.62224e+06
0.246658,0.000927409,596368,168468,146052,1.1742e+06,321850,339372,2.60751e+06
0.248555,0.000941596,579576,173240,149300,1.12575e+06,320380,309606,2.59278e+06
0.250452,0.000955783,562784,178012,152548,1.07729e+06,318910,279839,2.57806e+06
0.25235,0.000969972,545992,182783,155796,1.02884e+06,317440,250073,2.56333e+06
0.254247,0.000984161,529200,187555,159044,980391,315970,220308,2.5486e+06
0.256144,0.00099835,512409,192327,162292,931940,314500,190542,2.53387e+06
0.258042,0.00101254,495616,197098,165540,883488,313030,160775,2.51914e+06
0.259939,0.00102673,478824,201870,168787,835037,311560,131010,2.50442e+06
0.261837,0.00104124,470819,204259,172677,812132,309307,115696,2.49429e+06
0.263734,0.00105612,472663,203978,177284,817862,306178,116582,2.48933e+06
0.265631,0.001071,474507,203697,181892,823593,303049,117469,2.48437e+06
0.267529,0.00108594,475688,203098,185933,829865,300942,117628,2.47303e+06
0.269426,0.00110126,472105,200211,185902,840021,306177,112567,2.4159e+06
0.271323,0.00111658,468521,197325,185871,850177,311413,107505,2.35877e+06
0.273221,0.00113191,464938,194438,185839,860334,316648,102444,2.30164e+06
0.275118,0.00114724,461355,191552,185808,870490,321884,97382.3,2.24451e+06
0.277016,0.00116257,457771,188665,185777,880647,327120,92320.9,2.18738e+06
0.278913,0.00117791,454188,185779,185745,890803,332355,87259.5,2.13025e+06
0.28081,0.00119324,450605,182892,185714,900960,337591,82197.9,2.07312e+06
0.282708,0.00120859,447021,180006,185683,911116,342826,77136.5,2.01599e+06
0.284605,0.00122393,443438,177120,185651,921273,348062,72075.1,1.95886e+06
0.286502,0.00123928,439855,174233,185620,931429,353297,67013.5,1.90172e+06
0.2884,0.00125503,447259,181835,189518,962183,359231,73095,1.89013e+06
0.290297,0.00127134,469181,203296,198608,1.02015e+06,366086,93898.7,1.93869e+06
0.292194,0.00128764,491103,224756,207698,1.07812e+06,372940,114703,1.98725e+06
0.294092,0.00130394,513025,246216,216788,1.13609e+06,379795,135506,2.03581e+06
0.295989,0.00132024,534947,267677,225877,1.19406e+06,386650,156310,2.08437e+06
0.297887,0.00133655,556869,289137,234967,1.25202e+06,393505,177113,2.13293e+06
0.299784,0.00135285,578790,310597,244057,1.30999e+06,400360,197917,2.18149e+06
0.301681,0.00136915,600712,332058,253147,1.36796e+06,407215,218721,2.23005e+06
0.303579,0.00138546,622634,353518,262237,1.42593e+06,414070,239525,2.27861e+06
0.305476,0.001403,621015,356940,263056,1.42884e+06,415963,245415,2.29034e+06
0.307373,0.00142086,613574,355903,261831,1.41814e+06,416629,247618,2.29297e+06
0.309271,0.00143871,606134,354865,260605,1.40745e+06,417295,249820,2.29559e+06
0.311168,0.00145657,598694,353827,259380,1.39675e+06,417961,252023,2.29821e+06
0.313065,0.00147443,591254,352790,258155,1.38605e+06,418627,254225,2.30084e+06
0.314963,0.00149229,583354,350997,256425,1.3747e+06,418750,256592,2.30265e+06
0.31686,0.00151009,570284,340712,249025,1.35602e+06,412767,260802,2.29529e+06
0.318758,0.00152788,557214,330426,241625,1.33734e+06,406785,265012,2.28793e+06
0.320655,0.00154567,544145,320141,234225,1.31865e+06,400803,269222,2.28057e+06
0.322552,0.00156347,531075,309855,226825,1.29997e+06,394820,273432,2.27321e+06
0.32445,0.00158127,518005,299570,219425,1.28129e+06,388838,277642,2.26585e+06
0.326347,0.00159906,504935,289284,212025,1.26261e+06,382856,281852,2.25849e+06
0.328244,0.00161686,491865,278999,204625,1.24393e+06,376873,286062,2.25113e+06
0.330142,0.00163466,478796,268713,197225,1.22524e+06,370891,290272,2.24377e+06
0.332039,0.00165246,465726,258428,189825,1.20656e+06,364908,294482,2.23641e+06
0.333937,0.00167027,453179,248301,182514,1.18679e+06,359375,298599,2.23008e+06
0.335834,0.00168843,450507,241166,176885,1.14639e+06,362314,300946,2.24319e+06
0.337731,0.00170658,447834,234032,171256,1.106e+06,365253,303294,2.25629e+06
0.339629,0.00172474,445162,226897,165626,1.06561e+06,368192,305642,2.26939e+06
0.341526,0.00174289,442490,219762,159997,1.02521e+06,371131,307990,2.2825e+06
0.343423,0.00176201,433855,223433,149658,1.01956e+06,371448,287263,2.33008e+06
0.345321,0.00178144,423237,230698,137752,1.02547e+06,370894,258860,2.38913e+06
0.347218,0.00180088,412620,237963,125845,1.03138e+06,370339,230458,2.44818e+06
0.349115,0.00182032,402002,245229,113939,1.03729e+06,369784,202055,2.50724e+06
0.351013,0.00183985,395467,252431,103712,1.04595e+06,369418,180831,2.53892e+06
0.35291,0.00185969,402259,259427,98966.9,1.06361e+06,369668,183038,2.48128e+06
0.354808,0.00187953,409051,266424,94221.5,1.08127e+06,369918,185245,2.42363e+06
0.356705,0.00189937,415843,273420,89476,1.09894e+06,370168,187452,2.36599e+06
0.358602,0.00191922,422635,280416,84730.5,1.1166e+06,370418,189659,2.30835e+06
0.3605,0.00193906,429427,287413,79985.1,1.13426e+06,370667,191866,2.25071e+06
0.362397,0.00195938,413290,291261,68657.6,1.0941e+06,374926,165397,2.17159e+06
0.364294,0.00197978,392702,294498,56052.3,1.04272e+06,379964,133361,2.08831e+06
0.366192,0.00200019,372113,297735,43447,991341,385001,101325,2.00502e+06
0.368089,0.00202059,351525,300972,30841.6,939959,390038,69288.2,1.92174e+06
0.369987,0.002041,330937,304209,18236.3,888578,395075,37251.8,1.83846e+06
0.371884,0.00206215,318105,306048,7405.09,866993,393237,14390.8,1.79911e+06
0.373781,0.0020839,311503,306764,-2001.32,869338,385878,-1101.04,1.79506e+06
0.375679,0.00210565,304902,307479,-11407.7,871683,378519,-16592.9,1.79101e+06
0.377576,0.0021274,298300,308195,-20814.1,874029,371159,-32084.6,1.78696e+06
0.379473,0.00214915,291698,308910,-30220.5,876375,363800,-47576.5,1.78291e+06
0.381371,0.00217091,285097,309626,-39626.7,878720,356441,-63068,1.77885e+06
0.383268,0.00219266,278495,310341,-49033,881066,349081,-78559.8,1.7748e+06
0.385165,0.00221442,271894,311057,-58439.4,883411,341722,-94051.6,1.77075e+06
0.387063,0.00223618,265292,311772,-67845.8,885757,334363,-109543,1.7667e+06
0.38896,0.00225794,258690,312488,-77252.2,888103,327003,-125035,1.76265e+06
0.390858,0.0022797,252089,313203,-86658.6,890448,319644,-140527,1.75859e+06
0.392755,0.00230146,245487,313919,-96065,892793,312285,-156019,1.75454e+06
0.394652,0.00232325,240303,315918,-106286,899043,304467,-170184,1.75713e+06
0.39655,0.00234553,256459,337238,-128773,964035,289750,-164387,1.85967e+06
0.398447,0.0023678,272614,358557,-151260,1.02903e+06,275032,-158590,1.96222e+06
0.400344,0.00239016,297491,380581,-168895,1.10176e+06,263432,-147051,2.05913e+06
0.402242,0.00241287,359970,405638,-165602,1.20784e+06,265273,-110756,2.13175e+06
0.404139,0.00243558,422450,430696,-162308,1.31392e+06,267115,-74460.5,2.20438e+06
0.406036,0.00245829,484930,455754,-159016,1.42e+06,268956,-38164.4,2.277e+06
0.407934,0.00248089,526561,467143,-154488,1.48197e+06,269334,-9325.14,2.31018e+06
0.409831,0.00250298,473855,416690,-144376,1.34435e+06,263088,-14222.7,2.16484e+06
0.411729,0.00252546,403602,368068,-133482,1.19914e+06,258092,-36705.3,2.03044e+06
0.413626,0.0025483,316998,321155,-121859,1.04688e+06,254262,-75578,1.90625e+06
0.415523,0.00257114,230393,274242,-110236,894622,250432,-114451,1.78206e+06
0.417421,0.00259398,143787,227328,-98613.3,742359,246601,-153323,1.65786e+06
0.419318,0.00261681,57182.7,180416,-86990.2,590098,242771,-192196,1.53367e+06
0.421215,0.00264046,52523.2,172493,-81452.8,570515,246639,-167206,1.60776e+06
0.423113,0.00266423,59263.6,169994,-76762.6,569390,251577,-133331,1.70944e+06
0.42501,0.002688,66003.6,167495,-72071.8,568264,256516,-99456.9,1.81111e+06
0.426907,0.00271177,72743.6,164996,-67381,567138,261455,-65583.1,1.91279e+06
0.428805,0.00273554,79483.6,162497,-62690.3,566012,266394,-31709.2,2.01447e+06
0.430702,0.00275931,86224,159998,-58000,564887,271332,2166.31,2.11615e+06
0.4326,0.00278309,92964,157499,-53309.3,563761,276270,36040.1,2.21782e+06
0.434497,0.00280687,99704,155000,-48618.5,562635,281209,69914,2.3195e+06
0.436394,0.00283064,106444,152501,-43928.2,561510,286147,103790,2.42118e+06
0.438292,0.00285442,113184,150002,-39237.5,560384,291086,137663,2.52285e+06
0.440189,0.00287924,125726,153255,-16021.5,578820,310519,152009,2.57079e+06
0.442086,0.0029045,140703,158924,14969.3,605467,336035,158160,2.59617e+06
0.443984,0.00292975,155680,164592,45960,632113,361551,164310,2.62155e+06
0.445881,0.002955,170657,170260,76950.7,658759,387067,170459,2.64693e+06
0.447779,0.00298026,185634,175928,107941,685406,412582,176610,2.67231e+06
0.449676,0.00300551,200610,181596,138932,712052,438098,182760,2.69768e+06
0.451573,0.00303124,215469,188079,167644,787382,445098,202293,2.75835e+06
0.453471,0.0030571,230297,194784,195738,875926,447073,225458,2.82859e+06
0.455368,0.00308296,245124,201489,223831,964469,449049,248623,2.89883e+06
0.457265,0.00310848,237557,197433,242087,1.00537e+06,441724,236200,2.88733e+06
0.459163,0.00313386,220357,188750,256111,1.02577e+06,430399,208471,2.84069e+06
0.46106,0.00315924,203158,180066,270135,1.04617e+06,419074,180743,2.79404e+06
0.462957,0.00318462,185958,171383,284160,1.06658e+06,407749,153014,2.7474e+06
0.464855,0.00321,168759,162700,298184,1.08698e+06,396424,125286,2.70075e+06
0.466752,0.00323538,151560,154017,312208,1.10739e+06,385099,97557.6,2.65411e+06
0.46865,0.00326107,140822,148970,321154,1.10496e+06,375762,82771.7,2.5824e+06
0.470547,0.00328705,136395,147477,325139,1.08024e+06,368365,80627.7,2.48619e+06
0.472444,0.00331303,131969,145983,329124,1.05552e+06,360968,78484.3,2.38999e+06
0.474342,0.00333902,127542,144489,333109,1.0308e+06,353572,76341,2.29378e+06
0.476239,0.003365,123116,142996,337093,1.00608e+06,346175,74197,2.19758e+06
0.478136,0.00339099,118689,141502,341078,981364,338779,72053.6,2.10137e+06
0.480034,0.00341697,114263,140008,345063,956644,331382,69910.3,2.00517e+06
0.481931,0.00344296,109836,138515,349048,931923,323986,67766.3,1.90896e+06
0.483828,0.00346895,105410,137021,353033,907203,316589,65622.9,1.81276e+06
0.485726,0.00349493,100983,135527,357018,882483,309193,63479.5,1.71655e+06
0.487623,0.00352092,96556.8,134034,361003,857763,301796,61335.6,1.62035e+06
0.489521,0.00354751,104911,139734,354943,787891,298330,84792.9,1.47455e+06
0.491418,0.00357425,116279,147131,346513,707372,295792,114287,1.31706e+06
0.493315,0.00360098,132982,158269,346981,672815,290877,136885,1.22818e+06
0.495213,0.00362769,161481,177680,367128,739913,280709,144229,1.29104e+06
0.49711,0.0036544,189980,197091,387275,807011,270541,151574,1.3539e+06
0.499007,0.00368177,195551,208970,389950,830164,267608,156030,1.37942e+06
0.500905,0.00371036,146692,202725,364635,769690,283689,149402,1.34164e+06
0.502802,0.00373894,97834.1,196480,339319,709217,299769,142774,1.30385e+06
0.5047,0.00376802,80764,193975,323159,691426,306914,141650,1.30013e+06
0.506597,0.00379764,99057.4,195630,317184,721119,304119,146649,1.33429e+06
0.508494,0.00382726,117351,197285,311208,750812,301323,151648,1.36846e+06
0.510392,0.00385689,135643,198941,305232,780504,298528,156647,1.40263e+06
0.512289,0.00388651,153937,200596,299257,810197,295732,161646,1.4368e+06
0.514186,0.00391614,172230,202251,293281,839890,292936,166645,1.47096e+06
0.516084,0.00394576,190523,203907,287305,869581,290141,171644,1.50513e+06
0.517981,0.00397539,208816,205562,281330,899274,287345,176644,1.5393e+06
0.519878,0.00400502,227109,207217,275354,928967,284549,181643,1.57346e+06
0.521776,0.00403465,245402,208873,269378,958659,281754,186642,1.60763e+06
0.523673,0.00406428,263695,210528,263403,988352,278958,191641,1.6418e+06
0.525571,0.00409382,278098,212012,256279,1.01276e+06,277666,195938,1.67759e+06
0.527468,0.00412326,288070,213301,247847,1.03115e+06,278086,199437,1.71522e+06
0.529365,0.00415269,298043,214589,239416,1.04955e+06,278506,202936,1.75286e+06
0.531263,0.00418213,308015,215878,230984,1.06794e+06,278926,206435,1.7905e+06
0.53316,0.00421157,317988,217167,222552,1.08633e+06,279346,209934,1.82813e+06
0.535057,0.00424101,327960,218455,214121,1.10472e+06,279766,213433,1.86577e+06
0.536955,0.00427045,337932,219744,205689,1.12312e+06,280185,216932,1.9034e+06
0.538852,0.0042999,347905,221033,197258,1.14151e+06,280605,220431,1.94104e+06
0.540749,0.00432978,338744,214912,172248,1.1002e+06,279653,214349,1.91401e+06
0.542647,0.00435983,322620,206094,141204,1.03717e+06,278200,204780,1.86344e+06
0.544544,0.00438987,306497,197276,110162,974135,276748,195212,1.81288e+06
0.546442,0.00441992,290373,188458,79118.3,911101,275295,185644,1.76232e+06
0.548339,0.00444996,274249,179640,48075,848067,273843,176075,1.71175e+06
0.550236,0.00448001,258126,170823,17032.1,785034,272390,166507,1.66119e+06
0.552134,0.00451005,249781,170702,3972.55,756882,275092,158638,1.64669e+06
0.554031,0.00454008,246414,176148,2420.76,751050,280451,151858,1.65527e+06
0.555928,0.00457114,248684,165807,-5767.47,723971,283866,157062,1.68029e+06
0.557826,0.00460236,251836,152992,-14995.6,693561,286977,164144,1.70788e+06
0.559723,0.00463369,253949,141544,7242.97,697829,281814,171963,1.70396e+06
0.561621,0.004665,256088,130063,28711.5,701248,276854,179764,1.7008e+06
0.563518,0.00469632,258227,118582,50179.1,704666,271894,187564,1.69765e+06
0.565415,0.00472764,260365,107101,71646.8,708084,266934,195365,1.69449e+06
0.567313,0.00475896,262504,95619.6,93115.3,711504,261974,203166,1.69133e+06
0.56921,0.00479028,264643,84138.5,114583,714922,257014,210966,1.68818e+06
0.571107,0.00482171,256870,80691.8,120039,697245,257228,203730,1.69967e+06
0.573005,0.00485318,245784,79930.7,120144,672517,259171,191466,1.71605e+06
0.574902,0.00488465,234698,79169.3,120249,647790,261114,179203,1.73244e+06
0.576799,0.00491611,223612,78407.9,120354,623062,263057,166940,1.74882e+06
0.578697,0.00494758,212526,77646.8,120459,598335,265000,154677,1.76521e+06
0.580594,0.00497905,201440,76885.4,120564,573607,266943,142414,1.78159e+06
0.582492,0.00501052,190354,76124,120669,548879,268886,130151,1.79797e+06
0.584389,0.005042,179268,75362.9,120774,524152,270829,117888,1.81436e+06
0.586286,0.00507347,168182,74601.5,120879,499424,272772,105625,1.83074e+06
0.588184,0.00510599,167011,74874.6,120988,485681,275947,102740,1.86077e+06
0.590081,0.00514006,180477,76675.5,121104,488156,280940,113700,1.91094e+06
0.591978,0.00517413,193943,78476.1,121220,490631,285934,124660,1.96111e+06
0.593876,0.0052082,207409,80276.7,121336,493105,290928,135620,2.01128e+06
0.595773,0.00524227,220876,82077.3,121452,495580,295921,146580,2.06145e+06
0.59767,0.00527635,234342,83878.2,121568,498055,300915,157540,2.11162e+06
0.599568,0.00531042,247808,85678.8,121684,500529,305909,168500,2.16179e+06
0.601465,0.00534447,257035,89719.9,124998,511928,308260,175435,2.18593e+06
0.603363,0.00537845,256442,98950.8,135720,543998,304492,173045,2.14977e+06
0.60526,0.00541243,255849,108182,146443,576068,300724,170655,2.11362e+06
0.607157,0.00544641,255256,117412,157165,608139,296955,168265,2.07746e+06
0.609055,0.0054804,254663,126643,167888,640209,293187,165875,2.04131e+06
0.610952,0.00551438,254070,135874,178610,672279,289419,163485,2.00515e+06
0.612849,0.00554907,280252,160973,185965,727456,288520,161139,2.04914e+06
0.614747,0.0055839,311686,189185,192659,787167,288185,158802,2.10886e+06
0.616644,0.00561872,343120,217397,199353,846876,287849,156464,2.16858e+06
0.618541,0.00565355,374554,245609,206047,906586,287513,154127,2.22829e+06
0.620439,0.00568837,405988,273821,212741,966297,287177,151789,2.28801e+06
0.622336,0.0057232,437422,302032,219435,1.02601e+06,286841,149452,2.34772e+06
0.624234,0.00575803,468856,330244,226129,1.08572e+06,286505,147114,2.40744e+06
0.626131,0.00579346,469909,341541,226275,1.1171e+06,282302,134968,2.36896e+06
0.628028,0.00582924,453369,343042,222630,1.13208e+06,275859,117142,2.27363e+06
0.629926,0.00586502,436828,344543,218985,1.14705e+06,269415,99315.9,2.1783e+06
0.631823,0.0059008,420288,346044,215339,1.16203e+06,262972,81489.6,2.08296e+06
0.63372,0.00593658,403748,347545,211694,1.17701e+06,256529,63663.6,1.98763e+06
0.635618,0.00597243,391816,347614,203388,1.18801e+06,254517,54240.3,1.9284e+06
0.637515,0.00600839,387461,345329,187418,1.19248e+06,259787,58628.6,1.92852e+06
0.639413,0.00604434,383105,343043,171449,1.19694e+06,265058,63017.4,1.92865e+06
0.64131,0.0060803,378750,340757,155479,1.2014e+06,270328,67406.3,1.92877e+06
0.643207,0.00611625,374394,338472,139510,1.20587e+06,275599,71794.6,1.92889e+06
0.645105,0.00615221,370038,336186,123541,1.21033e+06,280869,76183.4,1.92902e+06
0.647002,0.00618846,369956,336900,115587,1.20829e+06,280679,71585.6,1.90932e+06
0.648899,0.00622482,371381,338671,110459,1.20396e+06,278562,63818.2,1.88262e+06
0.650797,0.00626118,372805,340443,105332,1.19963e+06,276445,56051.2,1.85593e+06
0.652694,0.00629754,374230,342215,100205,1.1953e+06,274328,48284.2,1.82923e+06
0.654592,0.00633391,375655,343986,95077.4,1.19097e+06,272212,40516.8,1.80254e+06
0.656489,0.00637027,377079,345758,89950.1,1.18664e+06,270095,32749.8,1.77585e+06
0.658386,0.00640663,378504,347530,84822.9,1.18231e+06,267978,24982.8,1.74915e+06
0.660284,0.006443,379929,349301,79695.5,1.17798e+06,265862,17215.4,1.72246e+06
0.662181,0.00647936,381353,351073,74568.2,1.17365e+06,263745,9448.39,1.69576e+06
0.664078,0.00651663,370706,345846,82807.4,1.16125e+06,268719,8900.79,1.67571e+06
0.665976,0.0065546,350874,335294,101217,1.14271e+06,279087,13846.1,1.6607e+06
0.667873,0.00659256,331042,324742,119626,1.12417e+06,289455,18791.5,1.6457e+06
0.66977,0.00663052,311211,314190,138036,1.10563e+06,299824,23736.9,1.63069e+06
0.671668,0.00666849,291379,303638,156445,1.08709e+06,310192,28682.3,1.61569e+06
0.673565,0.00670646,271713,292997,174738,1.06822e+06,320336,33890,1.60177e+06
0.675462,0.00674507,263883,275993,184729,1.02574e+06,314460,57798.7,1.66517e+06
0.67736,0.00678369,256052,258988,194721,983260,308584,81707.8,1.72857e+06
0.679257,0.0068223,248222,241984,204712,940780,302708,105616,1.79197e+06
0.681155,0.00686092,240392,224980,214704,898299,296832,129525,1.85537e+06
0.683052,0.00689953,232562,207975,224695,855818,290956,153434,1.91877e+06
0.684949,0.00693815,224732,190971,234687,813337,285080,177343,1.98217e+06
0.686847,0.00697677,216902,173967,244678,770856,279205,201252,2.04557e+06
0.688744,0.00701539,209071,156962,254670,728375,273329,225161,2.10898e+06
0.690641,0.00705415,187031,135300,255584,657817,258643,232200,2.13359e+06
0.692539,0.00709299,158398,111477,252286,574232,239870,231413,2.14022e+06
0.694436,0.00713183,129765,87653.4,248989,490648,221098,230627,2.14684e+06
0.696334,0.00717067,101132,63830.2,245691,407064,202325,229840,2.15347e+06
0.698231,0.00720951,72498.9,40006.9,242394,323479,183553,229054,2.16009e+06
0.700128,0.00724834,43866.2,16183.6,239096,239895,164780,228268,2.16672e+06
0.702026,0.00728774,35750,5009.02,238266,201615,148109,238085,2.16829e+06
0.703923,0.00732782,52229,8997.41,240393,217645,133957,260615,2.16381e+06
0.70582,0.00736831,57815.4,14689.9,238005,232598,128553,256935,2.11592e+06
0.707718,0.0074089,60984.7,20759.1,234615,247308,125087,247443,2.05839e+06
0.709615,0.00744949,64154,26828.4,231225,262017,121621,237950,2.00087e+06
0.711513,0.00749008,67325.1,32898.5,227835,276731,118155,228460,1.94334e+06
0.71341,0.00753067,70494.4,38967.7,224445,291441,114689,218968,1.88582e+06
0.715307,0.00757126,73663.8,45036.9,221055,306150,111223,209475,1.8283e+06
0.717205,0.00761185,76834.9,51107,217666,320864,107757,199985,1.77077e+06
0.719102,0.00765244,79101.1,56771.7,214090,333891,104081,189572,1.71204e+06
0.720999,0.00769308,93267.6,67767.3,212954,369096,103174,191282,1.66926e+06
0.722897,0.00773372,107434,78762.9,211818,404302,102268,192991,1.62649e+06
0.724794,0.00777436,121600,89758.5,210681,439508,101361,194700,1.58371e+06
0.726691,0.007815,135767,100754,209545,474714,100455,196409,1.54094e+06
0.728589,0.00785564,149933,111750,208408,509920,99548.6,198118,1.49816e+06
0.730486,0.00789686,306355,186471,236424,810255,131754,344726,1.64618e+06
0.732384,0.00793811,468130,263590,265536,1.12057e+06,165205,496788,1.80138e+06
0.734281,0.00797987,431973,262305,266130,1.07812e+06,172243,433117,1.83375e+06
0.736178,0.00802173,354198,244535,260726,961489,173728,324084,1.8403e+06
0.738076,0.00806359,276423,226764,255323,844862,175212,215052,1.84684e+06
0.739973,0.00810614,229925,188837,252331,726600,180981,194737,2.05274e+06
0.74187,0.0081488,197268,156537,246636,623262,189007,178650,2.16257e+06
0.743768,0.00819146,164611,124238,240941,519924,197034,162563,2.27239e+06
0.745665,0.00823412,131954,91938.1,235246,416585,205060,146476,2.38221e+06
0.747562,0.00827678,99296.8,59638.6,229551,313247,213087,130389,2.49203e+06
0.74946,0.00831944,66639.7,27339.1,223856,209909,221114,114302,2.60186e+06
0.751357,0.00836211,33982.5,-4960.65,218162,106570,229140,98214,2.71168e+06
0.753255,0.00840506,39436.6,9949.71,216812,137719,230628,72076.4,2.6206e+06
0.755152,0.00844808,53479.4,35499.3,216443,199176,230641,43673.8,2.48425e+06
0.757049,0.00849111,67523.5,61050.5,216073,260637,230655,15270.4,2.34788e+06
0.758947,0.00853413,81566.4,86600.1,215703,322094,230668,-13132.1,2.21153e+06
0.760844,0.00857715,95609.2,112150,215333,383551,230682,-41534.7,2.07517e+06
0.762741,0.00862018,109652,137699,214964,445008,230696,-69936.6,1.93882e+06
0.764639,0.0086632,123696,163250,214594,506469,230709,-98340,1.80245e+06
0.766536,0.00870622,137739,188800,214224,567926,230723,-126743,1.6661e+06
0.768433,0.00874925,152038,214667,213884,630287,230692,-155213,1.52839e+06
0.770331,0.00879242,184781,263381,215646,757734,227497,-188547,1.29345e+06
0.772228,0.00883659,216061,279370,208080,847382,227469,-168530,1.33925e+06
0.774126,0.00888107,241743,288960,200147,938463,233843,-130256,1.3962e+06
0.776023,0.00892554,267424,298549,192214,1.02954e+06,240219,-91982.5,1.45315e+06
0.77792,0.00897002,293106,308138,184281,1.12062e+06,246594,-53709.2,1.51011e+06
0.779818,0.00901449,318789,317728,176349,1.2117e+06,252968,-15435.9,1.56706e+06
0.781715,0.00905948,306070,306825,174682,1.19358e+06,259271,-1767.34,1.54023e+06
0.783612,0.0091049,260786,278544,178329,1.08286e+06,265511,-8966.29,1.44235e+06
0.78551,0.00915063,236531,259436,179083,1.00752e+06,265513,-15112.6,1.44102e+06
0.787407,0.00919642,215900,241908,179340,938284,264441,-21076.7,1.45634e+06
0.789304,0.0092422,195269,224380,179596,869045,263369,-27041.7,1.47166e+06
0.791202,0.00928799,174638,206853,179852,799807,262296,-33006.6,1.48698e+06
0.793099,0.00933378,154007,189325,180108,730570,261224,-38970.7,1.5023e+06
0.794997,0.00937957,133375,171797,180364,661332,260152,-44935.6,1.51762e+06
0.796894,0.00942535,112744,154270,180620,592093,259079,-50900.6,1.53294e+06
0.798791,0.00947114,92113.2,136742,180877,522856,258007,-56864.7,1.54826e+06
0.800689,0.00951693,71481.9,119214,181133,453618,256935,-62829.6,1.56358e+06
0.802586,0.00956272,50850.5,101687,181389,384379,255862,-68794.6,1.5789e+06
0.804483,0.00960851,30219.6,84158.7,181645,315142,254790,-74758.7,1.59422e+06
0.806381,0.00965418,13788.8,66397.7,180450,255130,254138,-74179.5,1.62554e+06
0.808278,0.00969973,1894.85,48384.5,177687,205082,253940,-66532,1.67415e+06
0.810176,0.00974528,-9999.5,30371.1,174924,155034,253742,-58885,1.72276e+06
0.812073,0.00979083,-21893.4,12357.9,172161,104987,253544,-51237.6,1.77137e+06
0.81397,0.00983638,-33787.3,-5655.27,169399,54939.5,253346,-43590.1,1.81998e+06
0.815868,0.00988193,-45681.7,-23668.7,166636,4891.33,253149,-35943.1,1.86859e+06
0.817765,0.00992748,-57575.6,-41681.9,163873,-45156.1,252951,-28295.7,1.9172e+06
0.819662,0.00997374,-68109.4,-52334.9,165683,-78160.1,257820,-29239.1,1.93229e+06
0.82156,0.0100206,-77583.5,-57251,171057,-97879.8,266640,-36879.3,1.92125e+06
0.823457,0.010068,-70913.8,-53568.4,171174,-84642.2,276906,-31364.2,1.91184e+06
0.825354,0.0101159,-54795.7,-44853.3,168213,-52115.4,288020,-18149.6,1.90338e+06
0.827252,0.0101637,-38677.6,-36138.1,165253,-19588.6,299134,-4934.9,1.89492e+06
0.829149,0.0102115,-22559.5,-27423,162292,12938.2,310247,8279.71,1.88647e+06
0.831047,0.0102593,-6441.37,-18707.9,159332,45465,321361,21494.3,1.87801e+06
0.832944,0.0103072,9676.76,-9992.75,156372,77991.8,332475,34709,1.86955e+06
0.834841,0.010355,25794.9,-1277.61,153411,110519,343588,47923.6,1.86109e+06
0.836739,0.0104028,41913,7437.54,150451,143045,354702,61138.2,1.85263e+06
0.838636,0.0104507,58031.1,16152.6,147491,175572,365816,74352.9,1.84417e+06
0.840533,0.0104985,74149.2,24867.8,144530,208099,376929,87567.5,1.83572e+06
0.842431,0.0105467,98531.7,37740.8,137470,267815,385182,107039,1.86079e+06
0.844328,0.0105955,132588,55480.6,125611,359359,390085,133834,1.92512e+06
0.846226,0.0106442,166645,73220.6,113752,450903,394989,160628,1.98946e+06
0.848123,0.0106929,200701,90960.6,101893,542446,399892,187423,2.05379e+06
0.85002,0.0107416,234757,108700,90033.3,633990,404795,214218,2.11812e+06
0.851918,0.0107904,268814,126440,78174,725534,409699,241013,2.18245e+06
0.853815,0.0108393,274792,120885,69151.3,731113,402673,247641,2.20292e+06
0.855712,0.0108882,273664,109434,60846.4,714935,392629,249166,2.21228e+06
0.85761,0.0109372,272536,97983.1,52541.5,698758,382585,250690,2.22164e+06
0.859507,0.0109867,248331,84791.2,53043,633297,363096,234153,2.17412e+06
0.861404,0.0110363,219202,71228.1,55423.9,557320,341592,213763,2.11445e+06
0.863302,0.011086,190073,57664.8,57804.4,481344,320088,193373,2.05479e+06
0.865199,0.0111356,160944,44101.6,60184.9,405368,298585,172983,1.99512e+06
0.867097,0.0111852,131814,30538.4,62565.7,329390,277081,152593,1.93546e+06
0.868994,0.0112349,102685,16975.2,64946.3,253414,255577,132203,1.87579e+06
0.870891,0.0112846,80070.6,3866.93,64339.8,191865,233779,114052,1.82987e+06
0.872789,0.0113346,70029.8,-8362.92,57967.8,158166,211413,100223,1.81048e+06
0.874686,0.0113846,59989.1,-20592.9,51595.8,124466,189047,86394.4,1.79108e+06
0.876583,0.0114345,49948.3,-32822.9,45223.7,90765.7,166681,72565.7,1.77169e+06
0.878481,0.0114845,39907.5,-45052.8,38851.7,57065.8,144316,58736.7,1.75229e+06
0.880378,0.0115345,29866.7,-57282.8,32479.6,23365.9,121950,44908,1.7329e+06
0.882275,0.0115845,20872.6,-67627.5,26740.1,-5017.07,103163,31985,1.71456e+06
0.884173,0.0116355,21384.6,-60848.2,26746.9,14895.3,116883,27289.2,1.70583e+06
0.88607,0.0116864,21896.8,-54068.9,26753.5,34807.6,130604,22593.6,1.6971e+06
0.887968,0.0117374,22409,-47289.7,26760.2,54720,144324,17898,1.68837e+06
0.889865,0.0117883,22921,-40510.3,26767,74632.4,158044,13202.1,1.67964e+06
0.891762,0.0118393,23433.2,-33731.1,26773.6,94544.7,171765,8506.54,1.67091e+06
0.89366,0.0118902,23945.3,-26951.9,26780.3,114457,185485,3810.95,1.66218e+06
0.895557,0.0119412,24457.4,-20172.5,26787.1,134369,199206,-884.897,1.65344e+06
0.897454,0.0119921,24969.6,-13393.3,26793.7,154282,212926,-5580.49,1.64471e+06
0.899352,0.0120431,25481.7,-6614.03,26800.4,174194,226647,-10276.1,1.63598e+06
0.901249,0.0120949,36543.6,3720.42,28961.9,211518,239493,773.209,1.64264e+06
0.903147,0.0121467,48130.4,14231.6,31230.6,249708,252295,12606.1,1.65006e+06
0.905044,0.0121986,59717.2,24742.8,33499.3,287898,265098,24439.1,1.65748e+06
0.906941,0.0122504,71304.2,35254.2,35768.1,326088,277900,36272.2,1.6649e+06
0.908839,0.0123024,82010.2,43107.5,37721.3,362442,291090,44684.6,1.67541e+06
0.910736,0.0123552,88675.2,38767.5,38227.7,390373,306057,37406,1.70008e+06
0.912633,0.0124079,95340.4,34427.7,38734.3,418305,321024,30127.3,1.72474e+06
0.914531,0.0124607,102005,30087.7,39240.7,446236,335991,22848.7,1.74941e+06
0.916428,0.0125135,108670,25747.7,39747.1,474167,350959,15570,1.77407e+06
0.918325,0.0125663,115336,21407.9,40253.6,502098,365926,8291.37,1.79874e+06
0.920223,0.0126198,110923,20837.9,46296.8,488131,369520,-3152.65,1.80587e+06
0.92212,0.0126736,100595,22280.9,55296.4,451790,367041,-16820.8,1.80364e+06
0.924018,0.0127275,90266.7,23724,64296.2,415450,364562,-30489,1.80141e+06
0.925915,0.0127814,79938.6,25167,73295.8,379110,362083,-44157.1,1.79918e+06
0.927812,0.0128352,69610.6,26610,82295.4,342770,359604,-57825.3,1.79695e+06
0.92971,0.0128891,59282.6,28053.2,91295.2,306429,357125,-71493.5,1.79472e+06
0.931607,0.012943,48954.6,29496.2,100295,270089,354646,-85161.6,1.79249e+06
0.933504,0.0129968,38626.9,30939.2,109294,233750,352167,-98829.3,1.79026e+06
0.935402,0.0130507,28298.9,32382.2,118294,197410,349688,-112498,1.78803e+06
0.937299,0.0131046,17970.9,33825.4,127294,161070,347209,-126166,1.7858e+06
0.939196,0.0131584,8026.74,32444.9,133534,126331,343410,-136319,1.80828e+06
0.941094,0.0132126,904.845,10302.6,119486,103369,329899,-120625,2.01242e+06
0.942991,0.013267,11989,8089.51,123009,107211,324788,-110571,2.09605e+06
0.944889,0.0133216,35055.8,18994.7,138099,128694,325208,-104230,2.10035e+06
0.946786,0.0133762,58122.6,29899.9,153188,150177,325627,-97889.9,2.10466e+06
0.948683,0.0134309,81190,40805.1,168277,171661,326046,-91548.4,2.10897e+06
0.950581,0.0134855,104257,51710.3,183366,193144,326465,-85207.9,2.11328e+06
0.952478,0.0135401,127324,62615.5,198456,214627,326884,-78867.3,2.11759e+06
0.954375,0.0135956,115758,58083.1,207314,181931,318595,-93924.8,2.00464e+06
0.956273,0.0136512,100020,51691.3,215421,142708,309257,-111561,1.87756e+06
0.95817,0.0137069,92447.7,48961.8,218620,120588,292751,-104825,1.84134e+06
0.960068,0.0137625,86981.8,47176.5,220554,102879,274397,-91804.5,1.82854e+06
0.961965,0.0138182,81515.7,45391.4,222487,85170.1,256043,-78783.7,1.81574e+06
0.963862,0.0138739,76049.6,43606.4,224421,67460.9,237688,-65763,1.80295e+06
0.96576,0.0139295,70583.7,41821,226354,49752,219334,-52742.3,1.79015e+06
0.967657,0.0139852,65117.7,40036,228288,32042.8,200980,-39721.5,1.77735e+06
0.969554,0.0140409,59651.6,38251,230221,14333.6,182626,-26700.8,1.76456e+06
0.971452,0.0140966,60882,37051,231911,17302,168597,-8708.36,1.78294e+06
0.973349,0.0141525,68024.5,36368.3,233386,38526.5,158387,13673.8,1.82886e+06
0.975246,0.0142084,75167.1,35685.6,234861,59751.1,148177,36056,1.87478e+06
0.977144,0.0142643,82309.6,35002.5,236337,80975.1,137966,58438,1.92069e+06
0.979041,0.0143203,89452.2,34319.8,237812,102200,127756,80820.2,1.96661e+06
0.980938,0.0143762,96594.7,33637.1,239287,123424,117546,103202,2.01253e+06
0.982836,0.0144321,103737,32954.1,240762,144648,107335,125584,2.05844e+06
0.984733,0.0144897,119373,45698.5,241658,186271,105634,145287,2.00869e+06
0.986631,0.0145476,135891,59837.3,242494,230011,104817,164712,1.949e+06
0.988528,0.0146055,152408,73976.1,243330,273752,103999,184136,1.88931e+06
0.990425,0.0146634,168926,88114.8,244167,317492,103182,203561,1.82962e+06
0.992323,0.0147213,185444,102254,245003,361233,102364,222985,1.76992e+06
0.99422,0.0147791,201962,116392,245839,404973,101546,242409,1.71023e+06
0.996117,0.014837,218479,130531,246675,448714,100729,261834,1.65054e+06
0.998015,0.0148949,234997,144670,247511,492454,99911.3,281259,1.59085e+06
0.999912,0.0149528,251515,158809,248347,536195,99093.7,300683,1.53116e+06
1.00181,0.0150105,269751,173721,246682,582715,97421.5,322395,1.49578e+06
1.00371,0.0150683,287400,186447,241343,623607,97044.1,342357,1.48302e+06
1.0056,0.0151263,299452,190523,229727,640526,102648,351777,1.48952e+06
1.0075,0.0151842,313663,194076,211443,657296,107959,363319,1.55065e+06
1.0094,0.015242,328214,197546,192108,674042,113223,375195,1.62039e+06
1.0113,0.0152998,342906,203567,178096,695592,116718,380447,1.59527e+06
1.01319,0.0153588,346765,196538,181784,669411,114970,384746,1.56155e+06
1.01509,0.0154182,331798,182767,182772,624306,112827,388040,1.59969e+06
1.01699,0.0154777,309665,172107,180246,589985,110834,385168,1.59964e+06
1.01889,0.0155371,287534,161446,177721,555664,108841,382297,1.59959e+06
1.02078,0.0155965,265402,150786,175196,521343,106848,379426,1.59954e+06
1.02268,0.0156559,243269,140126,172671,487022,104856,376554,1.59949e+06
1.02458,0.0157154,221138,129466,170146,452701,102863,373682,1.59944e+06
1.02648,0.0157748,202916,118200,166984,414235,101558,369342,1.61367e+06
1.02837,0.0158342,191799,105834,162666,368237,101503,362333,1.65384e+06
1.03027,0.0158937,180683,93467.3,158348,322240,101448,355325,1.694e+06
1.03217,0.0159531,169566,81100.7,154029,276243,101393,348317,1.73417e+06
1.03406,0.0160126,158449,68734,149711,230246,101338,341308,1.77434e+06
1.03596,0.016072,147333,56367.4,145393,184248,101283,334300,1.8145e+06
1.03786,0.0161315,136216,44000.9,141074,138251,101227,327292,1.85467e+06
1.03976,0.0161909,125099,31634.2,136756,92253.9,101172,320283,1.89484e+06
1.04165,0.0162504,113983,19267.7,132438,46256.8,101117,313275,1.935e+06
1.04355,0.0163098,102866,6901.07,128119,259.686,101062,306267,1.97517e+06
1.04545,0.0163701,92325.2,9810.29,122770,4108.71,107761,287077,1.95128e+06
1.04735,0.016431,82204.4,23848.2,116671,44271.8,119381,259013,1.88071e+06
1.04924,0.0164919,72083.6,37886,110572,84434.9,131000,230950,1.81015e+06
1.05114,0.0165528,61962.4,51923.6,104472,124597,142619,202885,1.73959e+06
1.05304,0.0166137,51841.7,65961.5,98372.4,164760,154239,174822,1.66903e+06
1.05494,0.0166746,41720.9,79999.4,92273,204923,165858,146758,1.59847e+06
1.05683,0.0167355,31599.9,94036.5,86173.4,245084,177477,118694,1.52791e+06
1.05873,0.0167967,29720.3,108300,87006.2,298770,187043,95771.4,1.48871e+06
1.06063,0.0168586,52800.1,123244,108834,393403,190388,88420.8,1.54449e+06
1.06253,0.0169205,75881.6,138190,130663,488042,193734,81069.8,1.60028e+06
1.06442,0.0169824,98961.5,153134,152491,582675,197079,73719.2,1.65607e+06
1.06632,0.0170443,122043,168080,174320,677314,200425,66368.2,1.71185e+06
1.06822,0.0171063,142463,184808,192925,766891,202707,59051.1,1.73239e+06
1.07011,0.0171686,156432,205865,203715,844213,202411,51814.9,1.66746e+06
1.07201,0.0172308,170401,226920,214504,921530,202115,44579.1,1.60253e+06
1.07391,0.0172935,176221,236546,209311,914659,206065,36305.7,1.53962e+06
1.07581,0.0173564,175730,237322,191745,842614,213300,27229.9,1.47829e+06
1.0777,0.0174193,175240,238098,174178,770564,220536,18153.7,1.41695e+06
1.0796,0.0174822,174750,238874,156612,698519,227771,9077.83,1.35562e+06
1.0815,0.0175452,174300,233544,146334,638002,232250,6017.85,1.33552e+06
1.0834,0.0176083,173917,218091,148142,596610,232156,12933,1.38376e+06
1.08529,0.0176715,173534,202638,149950,555215,232062,19848.7,1.43201e+06
1.08719,0.0177346,173151,187185,151759,513823,231968,26763.8,1.48026e+06
1.08909,0.0177978,172768,171731,153567,472429,231875,33679.6,1.52851e+06
1.09099,0.0178609,172386,156279,155375,431037,231780,40594.7,1.57676e+06
1.09288,0.0179241,172003,140825,157183,389642,231687,47510.4,1.62501e+06
1.09478,0.0179872,171620,125373,158992,348250,231593,54425.6,1.67326e+06
1.09668,0.0180516,177553,129522,159125,365737,244519,56493.8,1.6535e+06
1.09858,0.0181161,184296,136186,159043,390778,259115,57939.9,1.62502e+06
1.10047,0.0181806,191040,142851,158961,415819,273713,59386.3,1.59655e+06
1.10237,0.0182451,197783,149515,158879,440860,288309,60832.5,1.56807e+06
1.10427,0.0183096,204527,156180,158797,465903,302906,62278.6,1.53959e+06
1.10616,0.0183741,211270,162844,158715,490943,317502,63724.7,1.51111e+06
1.10806,0.0184391,213226,156080,155533,505551,325145,72828.3,1.50702e+06
1.10996,0.0185042,214434,147217,151867,518528,331699,83128.5,1.50674e+06
1.11186,0.0185692,215641,138352,148200,531504,338253,93430,1.50647e+06
1.11375,0.0186345,214708,135831,146053,531021,327989,96067.5,1.50529e+06
1.11565,0.0186999,213329,134629,144222,527739,314224,97110.4,1.50392e+06
1.11755,0.0187652,211951,133428,142391,524455,300460,98153.2,1.50255e+06
1.11945,0.0188305,210572,132226,140559,521171,286695,99196.3,1.50119e+06
1.12134,0.0188959,209194,131025,138728,517889,272931,100239,1.49982e+06
1.12324,0.0189618,196559,118357,139908,509891,261878,103035,1.51886e+06
1.12514,0.0190278,181263,102977,141800,500778,251468,106245,1.54273e+06
1.12704,0.0190939,165965,87596.9,143692,491666,241057,109455,1.5666e+06
1.12893,0.0191599,150669,72217.5,145584,482554,230647,112665,1.59047e+06
1.13083,0.0192259,135372,56837.2,147475,473440,220236,115875,1.61434e+06
1.13273,0.019292,120076,41457.6,149367,464329,209826,119085,1.6382e+06
1.13463,0.019358,110912,29667.8,149225,451203,197526,121340,1.65844e+06
1.13652,0.0194241,107949,21509.2,147027,434022,183317,122630,1.675e+06
1.13842,0.0194902,104987,13350.2,144828,416840,169107,123921,1.69156e+06
1.14032,0.0195563,102024,5191.58,142630,399659,154898,125211,1.70812e+06
1.14221,0.0196234,106220,11326.1,141963,385036,148197,115806,1.67631e+06
1.14411,0.0196907,112196,21016.4,141677,371051,143365,103742,1.63246e+06
1.14601,0.0197579,118172,30707.1,141392,357063,138533,91676.9,1.58861e+06
1.14791,0.0198252,124148,40397.2,141106,343078,133701,79612.6,1.54476e+06
1.1498,0.0198925,127948,46121.8,139741,330448,131529,72478.5,1.51184e+06
1.1517,0.0199598,127821,44691.8,136429,320266,134158,74239.1,1.49862e+06
1.1536,0.0200272,127694,43261.7,133117,310083,136786,76000,1.4854e+06
1.1555,0.0200945,127568,41832,129805,299902,139415,77760.5,1.47217e+06
1.15739,0.0201619,127441,40401.8,126493,289719,142044,79521.4,1.45895e+06
1.15929,0.0202296,121895,33338.3,121805,261231,147235,80026.9,1.45978e+06
1.16119,0.0202979,106577,16114.1,114634,199728,157051,78268.6,1.48594e+06
1.16309,0.0203662,91259.9,-1108.94,107464,138229,166865,76510.6,1.5121e+06
1.16498,0.0204344,75941.8,-18332.9,100293,76725.8,176680,74752.6,1.53826e+06
1.16688,0.0205027,60624.6,-35556.2,93123.2,15226.2,186495,72994.2,1.56442e+06
1.16878,0.020571,45306.5,-52780.2,85952.5,-46276.7,196310,71236.3,1.59059e+06
1.17068,0.0206393,29989.4,-70003.2,78782.3,-107776,206125,69478.2,1.61675e+06
1.17257,0.0207076,14671.2,-87227.4,71611.6,-169279,215940,67719.9,1.64291e+06
1.17447,0.0207759,-610.605,-104423,64449.6,-230572,225759,65997.3,1.66892e+06
1.17637,0.0208448,-5700.27,-113743,59676.9,-232198,236811,74513.4,1.65174e+06
1.17826,0.0209138,-10789.8,-123063,54904.5,-233824,247863,83028.5,1.63457e+06
1.18016,0.0209828,-15353.4,-131524,50454.6,-236168,257927,89299.2,1.61943e+06
1.18206,0.0210528,-14558.8,-131231,49292.2,-245830,257930,72701.4,1.62503e+06
1.18396,0.0211229,-13764.2,-130937,48129.8,-255494,257932,56102.4,1.63063e+06
1.18585,0.0211929,-12969.6,-130644,46967.4,-265156,257934,39504.5,1.63622e+06
1.18775,0.0212629,-12175,-130351,45805.1,-274818,257937,22906.7,1.64182e+06
1.18965,0.021333,-11380.4,-130057,44642.6,-284482,257939,6307.64,1.64742e+06
1.19155,0.021403,-9069.36,-126678,43573.5,-283000,258177,-7530.22,1.64638e+06
1.19344,0.0214731,-1053.94,-111688,42855,-239601,259302,-10986.7,1.62041e+06
1.19534,0.0215431,6961.21,-96698,42136.6,-196201,260427,-14442.8,1.59443e+06
1.19724,0.0216132,14976.6,-81708.1,41418.1,-152801,261551,-17899.3,1.56845e+06
1.19914,0.0216832,22991.6,-66718.9,40699.6,-109404,262676,-21355.5,1.54248e+06
1.20103,0.0217533,31007.2,-51728.6,39981.1,-66002.2,263801,-24811.8,1.5165e+06
1.20293,0.0218239,47344.7,-45209.2,40577.3,-49564.7,265778,-30691.7,1.52703e+06
1.20483,0.021895,68699.4,-43794.4,41965.9,-49376.6,268267,-38032.8,1.55957e+06
1.20673,0.021966,90052.9,-42379.2,43354.5,-49185.9,270757,-45373.2,1.5921e+06
1.20862,0.0220373,96735,-45989.2,45601.5,-61765.5,268988,-48204.1,1.61313e+06
1.21052,0.022109,82861.5,-56638.1,49051.1,-92229.8,261254,-44716.1,1.61802e+06
1.21242,0.0221806,68987.1,-67287.5,52500.8,-122696,253520,-41227.9,1.62291e+06
1.21431,0.0222523,55113.6,-77936.4,55950.4,-153160,245786,-37740,1.6278e+06
1.21621,0.0223239,41239.1,-88586.2,59400.1,-183627,238051,-34252,1.63269e+06
1.21811,0.0223956,27365.7,-99234.7,62849.7,-214090,230317,-30763.9,1.63758e+06
1.22001,0.0224672,13491.2,-109884,66299.4,-244557,222583,-27275.9,1.64248e+06
1.2219,0.0225387,7080.41,-112364,74525.3,-229035,205092,-16887.4,1.64779e+06
1.2238,0.0226102,978.271,-114506,82949.6,-211606,187196,-6212.26,1.65312e+06
1.2257,0.0226816,-5123.34,-116648,91373.4,-194179,169301,4462.21,1.65846e+06
1.2276,0.0227531,-11225.1,-118789,99797.9,-176749,151404,15137.5,1.66379e+06
1.22949,0.022825,-29656.2,-128587,99501.6,-194645,144520,14800.6,1.64234e+06
1.23139,0.0228972,-53947.2,-142023,95061.5,-229326,142866,9230.99,1.60817e+06
1.23329,0.0229694,-81939.2,-152502,92985.7,-262406,138795,1032.95,1.58029e+06
1.23519,0.0230422,-68934.6,-147449,95318.6,-228882,130049,16215.8,1.57747e+06
1.23708,0.0231152,-54498.6,-139160,96315,-205681,130032,29890.2,1.58032e+06
1.23898,0.0231882,-40061.5,-130872,97311.4,-182479,130016,43565.5,1.58317e+06
1.24088,0.0232612,-25625.5,-122583,98307.9,-159278,129999,57239.9,1.58602e+06
1.24278,0.0233342,-11188.5,-114294,99304.3,-136076,129983,70915.3,1.58887e+06
1.24467,0.0234072,3247.57,-106006,100301,-112876,129966,84589.7,1.59172e+06
1.24657,0.0234801,17684.6,-97716.7,101297,-89673.1,129950,98265,1.59457e+06
1.24847,0.0235531,32120.6,-89428.3,102294,-66472.5,129933,111939,1.59743e+06
1.25036,0.0236261,46557.7,-81139.4,103290,-43270.6,129916,125615,1.60028e+06
1.25226,0.0236995,58472.2,-73002.6,101840,-35436.1,135362,141200,1.59991e+06
1.25416,0.0237734,66769.1,-65083.5,96877.7,-49653.6,148645,159528,1.59494e+06
1.25606,0.0238473,75065.4,-57164.8,91916.2,-63870,161928,177854,1.58997e+06
1.25795,0.0239212,83362.3,-49245.5,86954.3,-78087.4,175211,196182,1.585e+06
1.25985,0.023996,78830.2,-49046.8,83123.7,-94209,180393,196076,1.5778e+06
1.26175,0.0240709,71433.9,-50571.8,79545.4,-110757,183767,191854,1.5701e+06
1.26365,0.0241459,64037.6,-52096.6,75967.3,-127304,187140,187632,1.5624e+06
1.26554,0.0242208,56641.2,-53621.6,72389,-143852,190513,183410,1.5547e+06
1.26744,0.0242958,49245.2,-55146.4,68810.9,-160399,193887,179189,1.547e+06
1.26934,0.0243707,41848.6,-56671.4,65232.6,-176947,197260,174967,1.5393e+06
1.27124,0.0244458,40240.9,-52246,71996.8,-164610,194539,167970,1.5398e+06
1.27313,0.024521,39026,-47416.8,79463.1,-150314,191405,160785,1.54085e+06
1.27503,0.0245961,37810.9,-42587.9,86928.9,-136018,188271,153600,1.54191e+06
1.27693,0.0246713,36595.6,-37758.7,94395.1,-121722,185137,146414,1.54296e+06
1.27883,0.0247464,35380.6,-32929.8,101861,-107427,182003,139229,1.54402e+06
1.28072,0.0248215,34165.6,-28100.6,109327,-93130.2,178868,132044,1.54507e+06
1.28262,0.0248967,32950.2,-23271.7,116793,-78835.2,175734,124859,1.54612e+06
1.28452,0.0249719,31899.7,-18459.6,124019,-64341.5,172044,117041,1.54846e+06
1.28641,0.0250478,33497.6,-13924.6,127376,-46673.1,159390,99034.9,1.57138e+06
1.28831,0.0251237,35095.6,-9389.35,130733,-29003.5,146735,81027.6,1.59431e+06
1.29021,0.0251997,36693.6,-4854.35,134090,-11335.1,134081,63021.6,1.61724e+06
1.29211,0.0252756,38291.9,-319.055,137447,6334.69,121426,45014.7,1.64017e+06
1.294,0.0253518,39735,1992.37,137653,22234.2,110300,31424.1,1.64964e+06
1.2959,0.0254282,40990.4,1594.58,134019,35980,101034,23214.1,1.64272e+06
1.2978,0.0255047,39991.8,1310.92,129586,45340.3,93003.8,14213.1,1.63512e+06
1.2997,0.025582,15997.4,2192.49,116992,9963.78,97580,-2862.89,1.62063e+06
1.30159,0.0256592,-7995.47,3074.06,104400,-25410.4,102156,-19937.7,1.60614e+06
1.30349,0.0257364,-31989.9,3955.78,91806.5,-60787.2,106732,-37013.7,1.59164e+06
1.30539,0.0258137,-55982.8,4837.19,79213.7,-96161.2,111308,-54088.6,1.57715e+06
1.30729,0.0258912,-61860.1,9398.69,70582.1,-97990.8,114268,-64661,1.53644e+06
1.30918,0.0259688,-58792.1,15776.6,63906.8,-83257,116429,-72021.7,1.48278e+06
1.31108,0.0260465,-55724,22154.8,57230.9,-68522.3,118590,-79382.9,1.42912e+06
1.31298,0.0261242,-52656,28532.7,50555.6,-53788.5,120752,-86743.6,1.37546e+06
1.31488,0.0262018,-49587.7,34911.2,43880.1,-39053.6,122913,-94104.8,1.32181e+06
1.31677,0.0262795,-46519.9,41288.9,37204.5,-24320,125074,-101466,1.26815e+06
1.31867,0.0263572,-43451.6,47667.3,30528.9,-9585.07,127236,-108827,1.21449e+06
1.32057,0.0264348,-40383.6,54045.2,23853.6,5148.73,129397,-116187,1.16083e+06
1.32246,0.0265125,-37315.5,60423.5,17177.8,19883.4,131558,-123549,1.10718e+06
1.32436,0.0265902,-34247.5,66801.4,10502.5,34617.2,133719,-130909,1.05352e+06
1.32626,0.0266678,-31179.1,73179.9,3826.95,49352.2,135881,-138271,999860
1.32816,0.0267455,-28111.4,79557.5,-2848.67,64085.7,138042,-145631,946204
1.33005,0.0268232,-25043,85936,-9524.2,78820.7,140203,-152992,892545
1.33195,0.0269014,-21663.7,84071.7,-9674.79,88938.9,147370,-150473,859234
1.33385,0.0269805,-30976.5,58715.2,-12014.5,86484.7,158434,-141953,823981
1.33575,0.0270596,-37318.4,39305.7,-14454.7,92858.2,169590,-137847,819454
1.33764,0.027139,-38577.9,26833,-16731.3,84162.2,175683,-131812,866409
1.33954,0.0272189,-33518.8,22985,-18803.8,56727.3,175481,-123377,977365
1.34144,0.0272988,-28458.7,19138.3,-20876.6,29292.5,175279,-114944,1.08833e+06
1.34334,0.0273787,-23399.2,15291.3,-22949.2,1858.68,175077,-106510,1.19929e+06
1.34523,0.0274583,-25437.7,1322.59,-23730.6,-29946.2,179122,-92765.1,1.26627e+06
1.34713,0.0275379,-27350.3,-12465.7,-24534.9,-61671.3,183090,-79115.6,1.33403e+06
1.34903,0.0276176,-29263.1,-26254.8,-25339.2,-93398,187060,-65465.5,1.40179e+06
1.35092,0.0276972,-31175.6,-40043.4,-26143.4,-125124,191028,-51815.5,1.46955e+06
1.35282,0.0277768,-33088.4,-53832.5,-26947.7,-156851,194998,-38165.4,1.53731e+06
1.35472,0.0278568,-4309.08,-65540.8,-16964.9,-202729,178329,-7725.45,1.52495e+06
1.35662,0.027937,31858.7,-76748.6,-4385.28,-252015,156692,26756.8,1.4933e+06
1.35851,0.0280174,51060.5,-91324.1,-816.016,-291920,137470,47304.6,1.48125e+06
1.36041,0.0280981,39451.9,-111248,-11665.9,-307852,123953,48658.3,1.48689e+06
1.36231,0.028179,19738.9,-131739,-24172.4,-309850,113385,51685.8,1.47745e+06
1.36421,0.0282599,27.2956,-152228,-36678,-311847,102818,54713,1.46802e+06
1.3661,0.0283407,-19685.2,-172719,-49184.3,-313845,92249.4,57739.9,1.45859e+06
1.368,0.0284216,-36004.6,-189264,-60742,-310970,82720.4,59413.1,1.44626e+06
1.3699,0.0285024,-38115.1,-189289,-68330.2,-287690,77539.7,55412.6,1.42179e+06
1.3718,0.0285832,-40225.4,-189315,-75917.8,-264410,72359.5,51412.4,1.39732e+06
1.37369,0.028664,-42335.7,-189339,-83505.8,-241127,67179.2,47412.1,1.37285e+06
1.37559,0.0287448,-44446,-189365,-91093.4,-217847,61999,43412,1.34838e+06
1.37749,0.0288259,-45774.5,-185095,-96011.7,-198584,60030.8,39135.6,1.32296e+06
1.37939,0.0289082,-44548.1,-166799,-92208.8,-192444,68556.3,33958.8,1.29442e+06
1.38128,0.0289904,-43321.9,-148501,-88405.9,-186305,77081.6,28781.3,1.26587e+06
1.38318,0.0290726,-42095.7,-130205,-84603.2,-180165,85606.6,23604.3,1.23733e+06
1.38508,0.0291549,-40869.4,-111908,-80800.1,-174025,94132.4,18427,1.20878e+06
1.38697,0.0292371,-39643.2,-93611.3,-76997.4,-167886,102657,13250,1.18024e+06
1.38887,0.0293194,-38417.1,-75314.2,-73194.5,-161747,111183,8072.55,1.1517e+06
1.39077,0.0294016,-37190.7,-57017.3,-69391.6,-155607,119708,2895.77,1.12315e+06
1.39267,0.0294838,-35964.5,-38720.3,-65588.7,-149468,128234,-2281.72,1.09461e+06
1.39456,0.029566,-31570.7,-20574.9,-61218.1,-141812,136472,-7548.63,1.06433e+06
1.39646,0.0296482,-22018.9,-2673.75,-55922.3,-131685,144245,-12962.2,1.03124e+06
1.39836,0.0297304,-13343.4,12150.8,-50326.5,-126134,150282,-16927.3,1.00524e+06
1.40026,0.0298125,-7225.44,17993.9,-43852.7,-133950,151247,-16663,999942
1.40215,0.0298955,-5463.1,20670.4,-37749.6,-132880,153859,-14803.9,1.0011e+06
1.40405,0.0299792,-8412.74,19919.7,-32047.1,-122196,158252,-11220.3,1.00926e+06
1.40595,0.030063,-10142.2,16975.6,-27231.6,-115610,162428,-8921.8,1.01927e+06
1.40785,0.030147,-6916.97,5124.15,-26015.4,-125659,165725,-11841.5,1.03683e+06
1.40974,0.0302309,-8329.34,-2964.53,-23797.9,-130387,167538,-13875.8,1.04519e+06
1.41164,0.0303148,-9804.22,-11002.8,-21566.8,-135042,169330,-15898.4,1.05343e+06
1.41354,0.0303988,-11278.8,-19041.5,-19336,-139699,171123,-17920.7,1.06166e+06
1.41544,0.0304827,-12753.7,-27079.8,-17104.9,-144355,172915,-19943.4,1.0699e+06
1.41733,0.0305666,-14228.4,-35117.9,-14874,-149011,174707,-21965.8,1.07813e+06
1.41923,0.0306505,-15703.1,-43156.8,-12643,-153667,176500,-23988.3,1.08637e+06
1.42113,0.0307344,-17177.8,-51194.9,-10412.1,-158323,178292,-26010.7,1.0946e+06
1.42303,0.0308184,-18652.7,-59233.1,-8180.91,-162979,180084,-28033.4,1.10283e+06
1.42492,0.0309023,-20127.2,-67271.9,-5950.15,-167635,181877,-30055.7,1.11107e+06
1.42682,0.0309862,-21602.1,-75310.1,-3719,-172291,183669,-32078.3,1.1193e+06
1.42872,0.0310701,-23076.8,-83348.3,-1488.09,-176947,185461,-34100.7,1.12754e+06
1.43061,0.031154,-24551.6,-91387.1,742.908,-181603,187254,-36123.2,1.13577e+06
1.43251,0.0312383,-28235.1,-93833.2,220.462,-181635,189133,-41659.9,1.14141e+06
1.43441,0.0313236,-39702.5,-76573.6,-10004.4,-165370,191320,-59580.6,1.13792e+06
1.43631,0.0314089,-51169.1,-59315.8,-20229,-149108,193507,-77500.2,1.13443e+06
1.4382,0.0314945,-53035.1,-55536.3,-24658.2,-143352,195397,-89007,1.13664e+06
1.4401,0.0315802,-47120.2,-62681.4,-24390.7,-146111,197049,-95315.4,1.14346e+06
1.442,0.031666,-41205,-69826.5,-24123.1,-148870,198700,-101624,1.15029e+06
1.4439,0.0317518,-35289.8,-76972.1,-23855.8,-151631,200352,-107933,1.15712e+06
1.44579,0.0318375,-29374.6,-84117.3,-23588.2,-154390,202003,-114242,1.16394e+06
1.44769,0.0319233,-23459.6,-91262.3,-23320.7,-157149,203655,-120550,1.17077e+06
1.44959,0.0320091,-17544.2,-98408.1,-23053.3,-159909,205306,-126859,1.17759e+06
1.45149,0.0320948,-11629.3,-105553,-22785.8,-162669,206958,-133167,1.18442e+06
1.45338,0.0321806,-5714.03,-112698,-22518.2,-165428,208609,-139476,1.19125e+06
1.45528,0.0322663,-2152.41,-110964,-20361.2,-151567,205768,-145347,1.1731e+06
1.45718,0.0323519,-1098.25,-99767.1,-16190.6,-119995,198141,-150754,1.12835e+06
1.45907,0.0324378,5324.75,-92777.3,-12932.4,-101349,191339,-152429,1.09297e+06
1.46097,0.0325244,24929.4,-96113.3,-11913.2,-114431,186563,-144947,1.0806e+06
1.46287,0.0326111,44532.8,-99449.2,-10894.1,-127513,181787,-137465,1.06822e+06
1.46477,0.032698,57758.4,-103330,-6970.6,-133781,178956,-121178,1.11365e+06
1.46666,0.0327851,55899.5,-108834,-3841.21,-136332,171864,-106767,1.12012e+06
1.46856,0.0328723,54039.9,-114338,-711.868,-138885,164771,-92355.9,1.12658e+06
1.47046,0.0329595,52180.6,-119842,2417.37,-141436,157679,-77945.1,1.13305e+06
1.47236,0.0330467,50321.4,-125347,5546.86,-143988,150586,-63533.2,1.13951e+06
1.47425,0.0331338,48462.1,-130851,8676.1,-146540,143494,-49122.5,1.14598e+06
1.47615,0.033221,46602.5,-136356,11805.4,-149092,136401,-34711.3,1.15244e+06
1.47805,0.0333082,44743.6,-141860,14934.8,-151644,129308,-20299.9,1.15891e+06
1.47995,0.0333954,42884,-147364,18064.2,-154196,122216,-5888.71,1.16537e+06
1.48184,0.0334825,41024.8,-152868,21193.4,-156748,115123,8522,1.17183e+06
1.48374,0.0335697,39165.5,-158373,24322.9,-159300,108030,22933.9,1.1783e+06
1.48564,0.0336569,37306.2,-163877,27452.1,-161852,100938,37344.6,1.18476e+06
1.48754,0.0337443,37937.1,-168580,35174.4,-168340,95149,54025.6,1.20291e+06
1.48943,0.0338325,47503.7,-170404,59375.3,-188951,94038,78850.4,1.26297e+06
1.49133,0.0339208,45327.2,-172364,67443.8,-207135,89279.8,88284.1,1.25963e+06
1.49323,0.0340092,34470.1,-174423,63585.6,-223523,81825.8,86339.5,1.20944e+06
1.49512,0.0340976,23612.4,-176482,59727.2,-239913,74371.4,84394.8,1.15925e+06
1.49702,0.034186,12755.3,-178540,55868.9,-256301,66917.5,82450.1,1.10906e+06
1.49892,0.0342744,7627.5,-176394,56010.4,-269820,62013.3,86024.3,1.1081e+06
1.50082,0.0343629,6029.82,-171656,58615.8,-281570,58680.3,92998.6,1.13746e+06
1.50271,0.0344514,4432.16,-166919,61221.5,-293321,55347.3,99973.1,1.16683e+06
1.50461,0.0345399,2834.56,-162181,63827,-305070,52014.3,106947,1.19619e+06
1.50651,0.0346284,1236.82,-157444,66432.7,-316821,48681.2,113922,1.22556e+06
1.50841,0.0347169,-360.78,-152707,69038.2,-328571,45348.3,120896,1.25493e+06
1.5103,0.0348054,-1958.44,-147969,71643.9,-340321,42015.2,127871,1.28429e+06
1.5122,0.0348947,-22481.9,-146943,74142.2,-357581,47218.9,117328,1.27949e+06
1.5141,0.034984,-43385.6,-145991,76638.7,-374953,52594,106433,1.274e+06
1.516,0.0350734,-63406.6,-144768,79157.1,-390763,57918.2,95603.4,1.26933e+06
1.51789,0.0351635,-58861.1,-135967,82294.3,-363091,61834.2,86574,1.28744e+06
1.51979,0.0352537,-54315.9,-127168,85431.4,-335421,65750.1,77545.2,1.30555e+06
1.52169,0.0353438,-49770.4,-118367,88568.7,-307749,69666.2,68515.7,1.32366e+06
1.52359,0.0354339,-45225.3,-109567,91705.6,-280079,73582,59487,1.34177e+06
1.52548,0.0355241,-40680.1,-100767,94842.7,-252408,77497.8,50458.1,1.35988e+06
1.52738,0.0356142,-36134.6,-91967,97980,-224737,81413.9,41428.6,1.37799e+06
1.52928,0.0357043,-31589.4,-83167,101117,-197066,85329.7,32399.9,1.3961e+06
1.53117,0.0357945,-24781.5,-73971.1,104288,-167202,88628.4,22275.7,1.41709e+06
1.53307,0.0358848,-10388.7,-63756.4,107549,-130598,89707.1,8080.56,1.44819e+06
1.53497,0.0359759,-28616.8,-66380.7,108345,-138203,96689.8,-335.843,1.43745e+06
1.53687,0.036067,-36462.2,-65576.4,101906,-124219,104109,-15158.3,1.37824e+06
1.53876,0.0361581,-44308.1,-64772,95466.1,-110234,111529,-29981.9,1.31903e+06
1.54066,0.0362493,-52153.5,-63967.6,89027.3,-96250.9,118948,-44804.3,1.25982e+06
1.54256,0.0363404,-59999.4,-63163.2,82587.8,-82265.9,126367,-59627.8,1.20061e+06
1.54446,0.0364315,-67844.8,-62358.9,76148.9,-68282,133787,-74450.3,1.1414e+06
1.54635,0.0365227,-75690.7,-61554.5,69709.5,-54297.3,141206,-89273.7,1.08219e+06
1.54825,0.0366138,-83536.1,-60750.1,63270.6,-40313.5,148625,-104096,1.02299e+06
1.55015,0.0367049,-91382.1,-59945.7,56831.1,-26328.5,156045,-118920,963773
1.55205,0.0367961,-99227.5,-59141.4,50392.3,-12344.9,163464,-133742,904568
1.55394,0.0368872,-107850,-57502.8,38793.5,5467.94,172429,-152075,800983
1.55584,0.0369794,-113007,-64356.4,42195.2,-9484.75,172948,-148721,812993
1.55774,0.037072,-114860,-70610.9,41288.2,-14500.3,174450,-139087,824338
1.55964,0.0371645,-116713,-76865,40381.2,-19515,175952,-129453,835684
1.56153,0.037257,-118567,-83119.4,39473.9,-24529.2,177454,-119819,847029
1.56343,0.0373495,-120420,-89373.7,38567.2,-29545.2,178956,-110186,858374
1.56533,0.037442,-119647,-95570.4,38910.4,-45778.7,178313,-100065,869616
1.56722,0.0375343,-112192,-101620,42436.3,-90565,172210,-88706.3,880591
1.56912,0.0376266,-104736,-107670,45962.5,-135354,166107,-77346.5,891566
1.57102,0.0377189,-97280.7,-113720,49488.4,-180141,160005,-65987.5,902541
1.57292,0.0378113,-89824.4,-119770,53014.5,-224930,153902,-54627.5,913516
1.57481,0.0379036,-82369.4,-125819,56540.5,-269716,147800,-43268.7,924491
1.57671,0.0379969,-79179.8,-132671,52018.1,-289528,153321,-34732.8,942778
1.57861,0.0380905,-77289,-139766,45047.1,-301737,162379,-27056.9,963289
1.58051,0.0381841,-75398.3,-146862,38075.6,-313948,171437,-19380.5,983801
1.5824,0.0382777,-73506.9,-153957,31104.6,-326158,180495,-11704.5,1.00431e+06
1.5843,0.0383713,-71616.7,-161053,24133.2,-338369,189553,-4028.26,1.02482e+06
1.5862,0.038465,-64902.3,-164915,20482,-353130,194422,8325.56,1.02738e+06
1.5881,0.0385587,-55561,-167015,18637.9,-369281,197012,23227.2,1.02016e+06
1.58999,0.0386525,-46220.5,-169116,16794,-385432,199601,38127.9,1.01294e+06
1.59189,0.038746,-31855,-169869,10447.7,-389116,203182,48235.2,1.00587e+06
1.59379,0.0388395,-16835,-170445,3514.52,-391174,206893,57716.2,998824
1.59569,0.0389337,-11828.2,-170086,1058.67,-401138,210184,66873.6,1.01708e+06
1.59758,0.0390283,-13697.6,-169084,1677.34,-416529,213189,75807.7,1.05271e+06
1.59948,0.039123,-15561,-168106,2232.59,-431822,216036,84685.1,1.08809e+06
1.60138,0.0392175,-16675,-169970,-5059.83,-434669,199326,86447.7,1.09175e+06
1.60327,0.0393121,-17789,-171835,-12353,-437517,182615,88210.3,1.09541e+06
1.60517,0.0394066,-19808.7,-171424,-15660,-434078,171347,92210.4,1.09889e+06
1.60707,0.0395012,-22369.8,-169653,-16585.4,-426885,163331,97547.9,1.10227e+06
1.60897,0.0395958,-24930.7,-167883,-17511,-419691,155315,102885,1.10564e+06
1.61086,0.0396904,-27491.6,-166112,-18436.8,-412497,147298,108223,1.10902e+06
1.61276,0.039785,-30052.5,-164341,-19362.4,-405303,139282,113560,1.11239e+06
1.61466,0.0398796,-32658.7,-162604,-20225.3,-398098,131303,118811,1.11574e+06
1.61656,0.0399746,-40305.8,-164604,-14096.4,-389725,127491,114458,1.11669e+06
1.61845,0.0400696,-47953.7,-166603,-7966.72,-381351,123679,110105,1.11764e+06
1.62035,0.0401651,-51221.5,-164565,-6500.25,-367202,115010,99597,1.09148e+06
1.62225,0.0402607,-53389.6,-161512,-6204.87,-351601,105119,87542.6,1.05852e+06
1.62415,0.0403563,-55557.5,-158459,-5909.4,-336001,95229.3,75488.8,1.02556e+06
1.62604,0.0404519,-57725.5,-155406,-5614.02,-320400,85338.9,63434.4,992597
1.62794,0.0405475,-59893.4,-152354,-5318.55,-304800,75449.1,51380.6,959636
1.62984,0.0406435,-60861.6,-149422,1368.4,-302675,71317.9,41301,932876
1.63174,0.0407396,-61389.9,-146535,10396.2,-305489,69296.7,31946.1,908392
1.63363,0.0408358,-61918.2,-143648,19424.6,-308302,67275.3,22590.8,883907
1.63553,0.0409319,-62446.5,-140761,28452.5,-311115,65254.1,13235.9,859423
1.63743,0.041028,-62974.8,-137874,37480.9,-313929,63232.7,3880.62,834938
1.63932,0.0411242,-63503.2,-134988,46508.7,-316742,61211.5,-5474.26,810454
1.64122,0.0412203,-64031.6,-132100,55537.3,-319555,59190.2,-14830.2,785968
1.64312,0.0413164,-64560,-129213,64565.1,-322368,57169,-24185.1,761484
1.64502,0.0414126,-65088.3,-126326,73593.5,-325182,55147.7,-33540.4,736999
1.64691,0.0415087,-65616.6,-123440,82621.3,-327995,53126.5,-42895.3,712515
1.64881,0.0416049,-58612.9,-113991,89348.6,-318160,53923.8,-54749.2,722797
1.65071,0.0417012,-50361.3,-103348,94457.6,-304762,56112.7,-65956.7,742484
1.65261,0.0417981,-59914,-107000,91030.7,-304696,62086.3,-59278.2,721166
1.6545,0.0418949,-69465.8,-110651,87604.3,-304631,68059.1,-52600.1,699851
1.6564,0.0419922,-79351.4,-122905,87231.6,-331130,76789.6,-48311.8,661995
1.6583,0.0420898,-86345.3,-131525,84521.5,-358620,81273.6,-46871.7,700864
1.6602,0.0421876,-91028.4,-135935,79499,-382650,82002.1,-47274.1,802285
1.66209,0.0422854,-95711.4,-140345,74476.7,-406678,82730.8,-47676.4,903700
1.66399,0.0423833,-100395,-144756,69453.8,-430708,83459.7,-48078.7,1.00512e+06
1.66589,0.0424811,-105078,-149166,64431.4,-454736,84188.4,-48481,1.10653e+06
1.66779,0.0425789,-109761,-153576,59408.9,-478766,84916.9,-48883.4,1.20796e+06
1.66968,0.0426769,-110062,-155896,56891.3,-488163,79862.8,-48402.4,1.23389e+06
1.67158,0.0427751,-107153,-156685,56207.9,-486845,70573.5,-47274.4,1.20456e+06
1.67348,0.0428732,-104244,-157474,55524.5,-485526,61284.8,-46146.5,1.17523e+06
1.67537,0.0429714,-101335,-158263,54840.9,-484206,51995.5,-45018.4,1.14589e+06
1.67727,0.0430694,-98718.8,-160859,52366.7,-481821,40444.2,-41363.7,1.08493e+06
1.67917,0.0431674,-96473.8,-165754,47614.3,-478078,26013.5,-34494.4,983721
1.68107,0.0432653,-94229,-170648,42862.1,-474335,11584,-27625.7,882520
1.68296,0.0433633,-91984,-175542,38109.7,-470592,-2846.63,-20756.5,781313
1.68486,0.0434614,-88898.9,-176915,33840.6,-463444,-14227.6,-14210.3,706901
1.68676,0.0435602,-82888,-167425,32043.5,-443826,-7199.87,-11469.2,709545
1.68866,0.0436593,-76182.5,-156971,31745.7,-420544,13195.4,-12727.8,711776
1.69055,0.0437583,-69476.4,-146518,31447.8,-397260,33591.8,-13986.4,714007
1.69245,0.0438575,-65898.4,-139485,26410.7,-377021,47745.5,-13622.6,692887
1.69435,0.0439568,-63284.4,-133506,19912.6,-357720,59975.1,-12758.7,664568
1.69625,0.044056,-60670.2,-127527,13414.2,-338418,72205.4,-11894.6,636248
1.69814,0.0441553,-58056.3,-121548,6916.17,-319117,84435,-11030.7,607929
1.70004,0.0442546,-55442.4,-115569,417.504,-299815,96665.3,-10166.8,579606
1.70194,0.0443539,-52828.5,-109590,-6080.56,-280514,108895,-9302.83,551287
1.70384,0.0444531,-50214.3,-103611,-12579,-261212,121125,-8438.77,522967
1.70573,0.0445524,-47600.4,-97632.7,-19077,-241911,133355,-7574.83,494648
1.70763,0.044652,-46950.6,-95386.6,-24455.5,-238948,138459,-6207.88,475380
1.70953,0.0447523,-49169.6,-93546.7,-21252.2,-239786,140161,-10159.8,448497
1.71142,0.0448525,-51388.9,-91706.5,-18048.8,-240623,141863,-14112.1,421610
1.71332,0.0449527,-53607.9,-89866.5,-14845.5,-241461,143565,-18064.1,394727
1.71522,0.045053,-55197.7,-87099.4,-11832.7,-238848,145238,-21273.5,376003
1.71712,0.0451532,-52885.3,-93674.3,-11526.6,-275394,140651,-19139.4,435998
1.71901,0.0452534,-49857,-99447.7,-11462.8,-309032,135928,-16148.1,505749
1.72091,0.0453536,-46829,-105221,-11399.2,-342667,131206,-13157,575496
1.72281,0.0454538,-43800.8,-110994,-11335.8,-376305,126483,-10165.5,645250
1.72471,0.045554,-40772.8,-116768,-11272.1,-409940,121760,-7174.36,714997
1.7266,0.0456545,-47420,-122927,-11078.9,-434452,119422,-13048.5,741489
1.7285,0.0457554,-60862.9,-130348,-8411.29,-456706,116858,-20988,757120
1.7304,0.0458566,-72496,-138890,-2901.25,-485663,111560,-22264.2,804327
1.7323,0.0459577,-84128.4,-147432,2608.34,-514618,106263,-23540.3,851533
1.73419,0.0460588,-95761.9,-155975,8118.1,-543576,100964,-24816.4,898743
1.73609,0.0461599,-107394,-164517,13627.7,-572531,95666.9,-26092.5,945948
1.73799,0.046261,-116459,-170612,19367.5,-593610,91461.3,-26202.7,978980
1.73989,0.0463619,-115300,-166960,26021.9,-583319,91603.8,-21670.7,955572
1.74178,0.0464629,-114142,-163308,32676.7,-573029,91746.4,-17138.6,932164
1.74368,0.046564,-112192,-160361,39323.1,-564023,91578.8,-11766.9,910461
1.74558,0.0466658,-104080,-162912,45908,-565034,88992,156.018,902058
1.74747,0.0467676,-100420,-165903,46953.8,-571653,82733.9,-975.226,889538
1.74937,0.0468696,-102181,-169428,41255.8,-585097,72005.1,-17999.9,872002
1.75127,0.0469715,-103390,-172301,36132.7,-596005,62039.3,-32689.8,854247
1.75317,0.0470738,-100267,-170047,35523.5,-587010,58061.3,-29049.9,834774
1.75506,0.047176,-97144.5,-167793,34914.1,-578014,54083.3,-25410.4,815302
1.75696,0.0472783,-94021.4,-165538,34304.2,-569017,50104.9,-21771.1,795826
1.75886,0.0473805,-90898.7,-163284,33694.8,-560021,46126.9,-18131.7,776354
1.76076,0.0474828,-87775.9,-161030,33085.5,-551025,42148.8,-14491.8,756881
1.76265,0.047585,-84653.2,-158776,32476.1,-542029,38170.9,-10852.3,737408
1.76455,0.0476873,-81530.4,-156522,31866.9,-533033,34192.8,-7212.41,717935
1.76645,0.0477895,-78407.8,-154268,31257.4,-524038,30214.9,-3572.96,698463
1.76835,0.0478918,-75284.6,-152013,30647.6,-515040,26236.4,66.3244,678987
1.77024,0.047994,-71923.7,-149493,30000.6,-504415,22089.5,3273.31,657147
1.77214,0.048096,-66992.8,-145220,29105.8,-483057,16829.3,3631.8,619711
1.77404,0.048198,-62062.4,-140946,28210.9,-461700,11569.5,3990.33,582279
1.77594,0.0483001,-57131.5,-136673,27316.2,-440341,6309.31,4348.82,544843
1.77783,0.0484023,-55354.3,-131117,28315.7,-427428,2586.64,1875.51,520444
1.77973,0.0485051,-59412.1,-126133,29983.1,-430539,2604.16,-6389.29,525713
1.78163,0.0486085,-64341.9,-126904,24770.9,-433605,11283.9,-2188.02,617838
1.78352,0.0487119,-69272.1,-127674,19558.6,-436671,19964.2,2013.26,709968
1.78542,0.0488152,-75310.2,-127423,16926.6,-436715,29387.9,1820.5,779269
1.78732,0.0489184,-82327.7,-126271,16573.9,-434090,39469.4,-2253.82,828412
1.78922,0.0490216,-89344.8,-125118,16221.2,-431466,49550.3,-6328.08,877552
1.79111,0.0491249,-96362.5,-123966,15868.5,-428841,59632,-10403,926691
1.79301,0.0492285,-97490.8,-122240,14741.1,-421685,64590.2,-14867.1,944648
1.79491,0.0493325,-91254.8,-119796,12644.9,-408861,63142.2,-19818.9,923612
1.79681,0.0494365,-85019.2,-117353,10548.8,-396038,61694.4,-24770.5,902575
1.7987,0.0495405,-78783.1,-114909,8452.59,-383214,60246.4,-29722.3,881539
1.8006,0.0496443,-74289.3,-116124,8443.23,-373578,57901.3,-36457.5,823515
1.8025,0.049748,-70097.8,-117975,8796.22,-364495,55400.4,-43503.4,759060
1.8044,0.0498518,-65906.7,-119825,9149.49,-355412,52899.5,-50548.5,694608
1.80629,0.0499555,-61715.4,-121676,9502.92,-346330,50398.2,-57594.1,630152
1.80819,0.0500593,-57524.3,-123527,9856.18,-337247,47897.3,-64639.3,565701
1.81009,0.0501633,-59041.2,-125360,9856.44,-340920,51034.5,-64907.1,551554
1.81199,0.0502676,-59840.2,-123759,7274.35,-341246,54359.8,-60697.1,546703
1.81388,0.0503721,-59730.5,-120366,3375.13,-338630,57256.8,-54779.8,542008
1.81578,0.0504766,-59620.9,-116973,-523.591,-336014,60153.5,-48862.6,537313
1.81768,0.050581,-59511.4,-113581,-4422.46,-333398,63050.3,-42944.8,532617
1.81957,0.0506856,-64345.9,-115605,-5886.59,-352765,63900.4,-37547.6,532324
1.82147,0.0507903,-70110.4,-118648,-6892.99,-376265,64365.7,-32247.5,532858
1.82337,0.050895,-75874.6,-121692,-7899.37,-399765,64831,-26948,533392
1.82527,0.0509997,-81639.3,-124735,-8905.91,-423267,65296.4,-21648.6,533927
1.82716,0.0511043,-87403.5,-127778,-9912.28,-446767,65761.7,-16349.1,534461
1.82906,0.0512094,-90129.7,-129841,-12284,-463760,66399.5,-12859.1,534497
1.83096,0.0513148,-94488.7,-129174,-12380.3,-487254,70099.6,-17057.8,552721
1.83286,0.0514202,-98847.9,-128507,-12476.5,-510749,73799.9,-21256.7,570947
1.83475,0.0515256,-103207,-127839,-12572.8,-534243,77500,-25455.4,589171
1.83665,0.0516311,-107566,-127172,-12669.2,-557740,81200.4,-29654.8,607398
1.83855,0.0517365,-111925,-126505,-12765.4,-581234,84900.5,-33853.5,625622
1.84045,0.0518419,-108713,-121807,-12974,-571685,85345.3,-31441.5,611645
1.84234,0.0519473,-100512,-114453,-13256.5,-540361,83644.8,-24673.3,576447
1.84424,0.0520528,-92310.4,-107098,-13539.1,-509036,81944.2,-17904.8,541248
1.84614,0.0521583,-84544.4,-102107,-13161.9,-483651,80418.5,-11631.6,513342
1.84804,0.0522642,-78856.3,-108393,-9634.64,-486619,79726.7,-7721.42,520252
1.84993,0.05237,-73169.1,-114679,-6107.48,-489589,79035.2,-3811.67,527165
1.85183,0.0524759,-67481.6,-120966,-2580.03,-492560,78343.8,98.2736,534079
1.85373,0.0525818,-61794.3,-127252,947.129,-495530,77652.3,4008.03,540991
1.85562,0.0526876,-55954.5,-133245,4459.46,-497058,77073.9,7784.76,550470
1.85752,0.0527935,-50124,-139255,7972.41,-498671,76488.7,11569.3,559794
1.85942,0.0528994,-44778.1,-145735,11837,-500783,76506.1,15817.4,570191
1.86132,0.0530056,-51764.3,-152005,19380.1,-517546,78513.8,10982.8,585968
1.86321,0.0531118,-60568.4,-158572,26542.4,-538086,79608.2,3385.51,603024
1.86511,0.0532184,-58960.9,-148860,24800.7,-506221,78666.1,7171,570873
1.86701,0.0533249,-61399.6,-140977,23397.2,-481276,77463.4,6891.46,542772
1.86891,0.0534314,-63838.5,-133094,21993.5,-456329,76260.6,6612.01,514670
1.8708,0.053538,-66277.3,-125211,20589.9,-431383,75057.9,6332.48,486569
1.8727,0.0536445,-68716.2,-117327,19186.3,-406434,73855.1,6052.73,458464
1.8746,0.0537511,-71155,-109444,17782.8,-381488,72652.4,5773.2,430363
1.8765,0.0538577,-72082,-104385,17034.8,-370531,71952.9,5321.3,416426
1.87839,0.0539645,-69450.8,-105972,17830.4,-392500,72437.7,4463.47,435829
1.88029,0.0540714,-66819.4,-107558,18626,-414471,72922.6,3605.68,455234
1.88219,0.0541782,-64188.2,-109145,19421.6,-436440,73407.5,2747.85,474637
1.88409,0.0542851,-59136.1,-108379,20246.4,-447775,74157,3483.15,508132
1.88598,0.054392,-53878.8,-107097,19912.4,-446851,75257.9,3812.11,537310
1.88788,0.0544993,-49436.8,-104352,21202,-440592,76088.3,-2702.2,541411
1.88978,0.0546067,-44820.2,-101333,22700.3,-434109,76895.8,-9423.73,545847
1.89167,0.054714,-40203.3,-98313.5,24198.6,-427626,77703.4,-16145.7,550282
1.89357,0.0548216,-41537,-95973.9,19011.2,-412561,77436.4,-19428.3,523342
1.89547,0.0549292,-43496.1,-93705.4,13120.6,-396594,77056.5,-22349.6,493103
1.89737,0.0550367,-45455.1,-91437.1,7230.6,-380628,76676.7,-25270.9,462867
