"arc_length","Displacement_Magnitude","Sxx","Sxy","Sxz","Syy","Syz","Szz","Von_Mises_Stress"
0,0,1.20248e+06,-69067.1,-6491.68,2.42001e+06,486551,1.03553e+06,1.56464e+06
0.002,1.84721e-06,1.14249e+06,-63091.1,-5642.7,2.33094e+06,456348,955403,1.52718e+06
0.004,2.99979e-06,1.1099e+06,-60577,-4629.99,2.27499e+06,438935,916962,1.50196e+06
0.006,3.97016e-06,1.08624e+06,-59193.8,-3563.78,2.22986e+06,425699,892137,1.48075e+06
0.008,4.96407e-06,1.06259e+06,-57810.6,-2497.58,2.18473e+06,412464,867313,1.45955e+06
0.01,5.96976e-06,1.03893e+06,-56427.5,-1431.37,2.1396e+06,399228,842489,1.43834e+06
0.012,6.98214e-06,1.01528e+06,-55044.3,-365.169,2.09447e+06,385993,817665,1.41713e+06
0.014,7.99868e-06,991627,-53661.1,701.035,2.04933e+06,372757,792840,1.39592e+06
0.016,8.98378e-06,967964,-51863,1913.31,2.00306e+06,360486,769431,1.37492e+06
0.018,9.88414e-06,944277,-49018.8,3493.84,1.95392e+06,350646,749591,1.35447e+06
0.02,1.07853e-05,920590,-46174.7,5074.37,1.90478e+06,340807,729750,1.33401e+06
0.022,1.16872e-05,896903,-43330.5,6654.89,1.85564e+06,330968,709909,1.31356e+06
0.024,1.25896e-05,873216,-40486.3,8235.42,1.8065e+06,321128,690068,1.2931e+06
0.026,1.34923e-05,849529,-37642.1,9815.95,1.75736e+06,311289,670227,1.27265e+06
0.028,1.43954e-05,825842,-34798,11396.5,1.70821e+06,301449,650386,1.25219e+06
0.03,1.52988e-05,802155,-31953.8,12977,1.65907e+06,291610,630545,1.23173e+06
0.032,1.62024e-05,778468,-29109.6,14557.5,1.60993e+06,281770,610705,1.21128e+06
0.034,1.71062e-05,754781,-26265.4,16138.1,1.56079e+06,271931,590864,1.19082e+06
0.036,1.80102e-05,731094,-23421.3,17718.6,1.51165e+06,262092,571023,1.17037e+06
0.038,1.89143e-05,707407,-20577.1,19299.1,1.46251e+06,252252,551182,1.14991e+06
0.04,1.98185e-05,683720,-17732.9,20879.6,1.41337e+06,242413,531341,1.12946e+06
0.042,2.07228e-05,660033,-14888.7,22460.2,1.36422e+06,232573,511500,1.109e+06
0.044,2.16272e-05,636346,-12044.6,24040.7,1.31508e+06,222734,491659,1.08855e+06
0.046,2.25317e-05,612659,-9200.39,25621.2,1.26594e+06,212894,471818,1.06809e+06
0.048,2.34363e-05,588972,-6356.21,27201.8,1.2168e+06,203055,451978,1.04764e+06
0.05,2.5358e-05,561654,-4201.43,29661.2,1.18175e+06,197570,420200,1.04709e+06
0.052,2.76482e-05,533026,-2295.29,32437.5,1.15179e+06,193655,384118,1.05371e+06
0.054,2.99398e-05,504399,-389.139,35213.9,1.12182e+06,189740,348036,1.06034e+06
0.056,3.22325e-05,475771,1517.01,37990.2,1.09186e+06,185825,311954,1.06696e+06
0.058,3.45262e-05,447143,3423.15,40766.6,1.06189e+06,181910,275872,1.07359e+06
0.06,3.68206e-05,418515,5329.3,43542.9,1.03193e+06,177995,239789,1.08022e+06
0.062,3.91156e-05,389887,7235.44,46319.3,1.00196e+06,174080,203707,1.08684e+06
0.064,4.13322e-05,385880,6616.55,46358.5,995862,177501,201239,1.08885e+06
0.066,4.35758e-05,383663,5813.95,46198.6,991500,181456,201216,1.09052e+06
0.068,4.58484e-05,381447,5011.34,46038.6,987138,185411,201193,1.0922e+06
0.07,4.81458e-05,379230,4208.75,45878.7,982776,189366,201170,1.09387e+06
0.072,5.04594e-05,374289,1651.92,46040.6,974520,188272,190552,1.09369e+06
0.074,5.27832e-05,368908,-1187.93,46254.4,965635,186362,178224,1.0932e+06
0.076,5.51162e-05,363527,-4027.76,46468.2,956751,184453,165896,1.09272e+06
0.078,5.74571e-05,358146,-6867.61,46682,947867,182544,153569,1.09223e+06
0.08,5.98051e-05,352766,-9707.45,46895.8,938983,180634,141241,1.09175e+06
0.082,6.21594e-05,347385,-12547.3,47109.6,930099,178725,128913,1.09127e+06
0.084,6.45193e-05,342004,-15387.1,47323.4,921215,176816,116586,1.09078e+06
0.086,6.68841e-05,336623,-18227,47537.2,912331,174907,104258,1.0903e+06
0.088,6.92539e-05,332448,-20756.7,47506.1,904988,173727,93693.6,1.0912e+06
0.09,7.16327e-05,334772,-21614.6,46155.4,905951,176480,92633.5,1.0996e+06
0.092,7.40192e-05,337096,-22472.6,44804.6,906914,179233,91573.3,1.10799e+06
0.094,7.64128e-05,339420,-23330.6,43453.9,907877,181985,90513.2,1.11638e+06
0.096,7.88127e-05,341744,-24188.5,42103.2,908840,184738,89453.1,1.12477e+06
0.098,8.12185e-05,344068,-25046.5,40752.4,909804,187491,88392.9,1.13316e+06
0.1,8.39011e-05,350588,-26473.1,39926.7,921665,190728,88704,1.14919e+06
0.102,8.74616e-05,370633,-29732.4,40793.1,968653,195525,93434.6,1.18985e+06
0.104,9.10238e-05,390678,-32991.7,41659.6,1.01564e+06,200323,98165.2,1.23052e+06
0.106,9.45873e-05,410722,-36251,42526,1.06263e+06,205120,102896,1.27118e+06
0.108,9.81521e-05,430767,-39510.3,43392.4,1.10962e+06,209918,107626,1.31184e+06
0.11,0.000101718,450812,-42769.6,44258.8,1.15661e+06,214715,112357,1.3525e+06
0.112,0.000105285,470857,-46028.9,45125.2,1.20359e+06,219513,117088,1.39317e+06
0.114,0.000108853,490902,-49288.2,45991.6,1.25058e+06,224310,121818,1.43383e+06
0.116,0.000112575,484568,-49565.8,44847,1.23291e+06,225698,119707,1.42203e+06
0.118,0.000116462,450171,-46671.6,41563,1.14646e+06,223457,110317,1.35443e+06
0.12,0.00012035,415775,-43777.3,38279.1,1.06001e+06,221216,100927,1.28683e+06
0.122,0.000124238,381379,-40883,34995.1,973565,218976,91536.6,1.21923e+06
0.124,0.000128127,346983,-37988.8,31711.1,887116,216735,82146.6,1.15162e+06
0.126,0.000132015,312587,-35094.5,28427.1,800667,214495,72756.6,1.08402e+06
0.128,0.000135904,278191,-32200.3,25143.2,714218,212254,63366.6,1.01642e+06
0.13,0.000139794,243795,-29306,21859.2,627770,210014,53976.6,948816
0.132,0.000143953,230677,-29106.5,19611.3,593775,208570,50268.6,924615
0.134,0.000148282,230146,-30501.2,17976.3,590814,207597,49922.2,926091
0.136,0.000152622,229616,-31895.9,16341.2,587852,206624,49575.7,927568
0.138,0.000156972,229086,-33290.6,14706.2,584891,205652,49229.3,929044
0.14,0.000161331,228556,-34685.4,13071.2,581930,204679,48882.8,930520
0.142,0.000165699,228026,-36080.1,11436.2,578968,203706,48536.4,931996
0.144,0.000170076,227496,-37474.8,9801.16,576007,202733,48189.9,933472
0.146,0.000174459,226966,-38869.5,8166.14,573046,201761,47843.5,934949
0.148,0.00017885,226436,-40264.3,6531.12,570084,200788,47497,936425
0.15,0.000183247,225906,-41659,4896.09,567123,199815,47150.6,937901
0.152,0.000187649,225376,-43053.7,3261.08,564162,198843,46804.1,939377
0.154,0.000192058,224846,-44448.4,1626.06,561200,197870,46457.6,940853
0.156,0.000196471,224316,-45843.1,-8.96383,558239,196897,46111.2,942330
0.158,0.000200889,223786,-47237.9,-1643.99,555277,195924,45764.7,943806
0.16,0.000205312,223256,-48632.6,-3279,552316,194952,45418.3,945282
0.162,0.000209739,222726,-50027.3,-4914.02,549355,193979,45071.8,946758
0.164,0.00021417,222196,-51422,-6549.04,546393,193006,44725.4,948234
0.166,0.000218604,221666,-52816.7,-8184.05,543432,192033,44378.9,949710
0.168,0.000223042,221135,-54211.5,-9819.08,540471,191061,44032.5,951187
0.17,0.000227484,220605,-55606.2,-11454.1,537509,190088,43686,952663
0.172,0.000231928,220075,-57000.9,-13089.1,534548,189115,43339.6,954139
0.174,0.000236284,221751,-57943.4,-11500.8,540279,188217,42746.2,952647
0.176,0.000240592,224632,-58638.8,-8151.21,550760,187360,42017.8,949533
0.178,0.000245396,224875,-58540.7,-9564.38,552188,185856,43450.4,938362
0.18,0.000250672,223684,-57849.8,-15054.5,548242,183742,47378.3,922694
0.182,0.000256243,233087,-58527.7,-18186.4,575541,181326,57513.5,938066
0.184,0.000261815,242489,-59205.7,-21318.3,602841,178911,67648.8,953437
0.186,0.000267388,251892,-59883.7,-24450.3,630140,176495,77784.1,968809
0.188,0.000272962,261294,-60561.7,-27582.2,657440,174079,87919.4,984181
0.19,0.000278536,270697,-61239.6,-30714.1,684739,171664,98054.7,999552
0.192,0.00028411,280099,-61917.6,-33846,712039,169248,108190,1.01492e+06
0.194,0.000289686,289501,-62595.6,-36978,739339,166832,118325,1.0303e+06
0.196,0.000295262,298904,-63273.6,-40109.9,766638,164417,128461,1.04567e+06
0.198,0.000301034,302791,-62188.7,-40422.8,774369,161991,132125,1.04367e+06
0.2,0.000306879,304674,-60463.4,-39711.5,774990,159562,133438,1.03537e+06
0.202,0.000312728,306557,-58738.1,-39000.3,775611,157134,134751,1.02706e+06
0.204,0.00031858,308440,-57012.9,-38289,776232,154705,136064,1.01875e+06
0.206,0.000324435,310323,-55287.6,-37577.7,776853,152276,137377,1.01045e+06
0.208,0.000330293,312206,-53562.3,-36866.5,777474,149847,138690,1.00214e+06
0.21,0.000336153,314089,-51837,-36155.2,778095,147418,140003,993839
0.212,0.000342016,315972,-50111.7,-35443.9,778716,144989,141316,985533
0.214,0.00034788,317856,-48386.4,-34732.7,779337,142560,142629,977228
0.216,0.000353747,319739,-46661.1,-34021.4,779958,140131,143942,968922
0.218,0.000359616,321622,-44935.8,-33310.1,780579,137702,145255,960617
0.22,0.000365487,323505,-43210.5,-32598.9,781200,135273,146568,952311
0.222,0.00037136,325388,-41485.2,-31887.6,781821,132845,147881,944006
0.224,0.000377235,327271,-39759.9,-31176.3,782442,130416,149194,935700
0.226,0.000383523,316198,-37153.5,-24528,765035,127959,143818,924682
0.228,0.000389821,304821,-34526.4,-17740.2,747204,125502,138284,913599
0.23,0.00039612,293444,-31899.4,-10952.4,729373,123045,132751,902516
0.232,0.000402419,282067,-29272.3,-4164.68,711543,120588,127218,891434
0.234,0.000408718,270690,-26645.2,2623.1,693712,118131,121685,880351
0.236,0.000415017,259313,-24018.1,9410.87,675881,115674,116151,869269
0.238,0.000421316,247936,-21391.1,16198.6,658051,113217,110618,858186
0.24,0.000427843,245515,-21113.5,20917.3,652408,112400,109914,869776
0.242,0.00043442,245029,-21343.8,25188.8,649400,111938,110254,886266
0.244,0.000440999,244544,-21574.1,29460.2,646391,111475,110594,902757
0.246,0.00044758,244058,-21804.5,33731.6,643383,111013,110934,919248
0.248,0.000454162,243572,-22034.8,38003,640375,110550,111274,935739
0.25,0.000460746,243087,-22265.1,42274.5,637367,110088,111614,952230
0.252,0.000467332,242601,-22495.5,46545.9,634359,109625,111954,968721
0.254,0.000473919,242116,-22725.8,50817.3,631351,109163,112294,985212
0.256,0.000480507,241630,-22956.1,55088.8,628342,108700,112634,1.0017e+06
0.258,0.000487097,241145,-23186.4,59360.1,625334,108238,112974,1.01819e+06
0.26,0.000493688,240659,-23416.8,63631.6,622326,107775,113314,1.03468e+06
0.262,0.000500637,235657,-21620.3,65871.3,618384,111358,113189,1.04244e+06
0.264,0.000507656,229770,-19426.6,67712.8,614258,115734,112973,1.04849e+06
0.266,0.000514675,223883,-17232.9,69554.4,610133,120110,112757,1.05454e+06
0.268,0.000521694,217996,-15039.3,71396,606007,124486,112540,1.06059e+06
0.27,0.000528714,212108,-12845.6,73237.6,601882,128861,112324,1.06663e+06
0.272,0.000535734,206221,-10652,75079.2,597756,133237,112108,1.07268e+06
0.274,0.000542828,201434,-8280.28,76435.9,593645,137132,111932,1.077e+06
0.276,0.000550264,201747,-5083.16,75545.3,589597,138794,111943,1.0733e+06
0.278,0.0005577,202059,-1886.03,74654.7,585549,140457,111954,1.0696e+06
0.28,0.000565137,202371,1311.1,73764.1,581501,142120,111965,1.06591e+06
0.282,0.000572868,208390,4028.75,71121.3,589889,139719,110544,1.04921e+06
0.284,0.000580712,216615,6560.92,67800.7,603087,135746,108569,1.02749e+06
0.286,0.000588556,224840,9093.1,64480.2,616285,131773,106595,1.00577e+06
0.288,0.000596401,233065,11625.2,61159.7,629482,127800,104620,984048
0.29,0.000604246,241291,14157.4,57839.1,642680,123828,102646,962327
0.292,0.000612091,249516,16689.6,54518.6,655878,119855,100671,940605
0.294,0.000620015,253313,16460.8,50921.5,668878,119286,100177,925175
0.296,0.000627954,256389,15782.5,47279.5,681846,119271,99924.8,910768
0.298,0.000635894,259465,15104.2,43637.5,694814,119256,99672.2,896362
0.3,0.000643835,262541,14425.9,39995.5,707782,119241,99419.7,881956
0.302,0.000651777,265617,13747.6,36353.5,720750,119226,99167.1,867549
0.304,0.000659721,268693,13069.3,32711.5,733718,119211,98914.6,853143
0.306,0.000667665,271769,12391,29069.4,746685,119196,98662.1,838737
0.308,0.000675611,274845,11712.7,25427.4,759653,119180,98409.5,824330
0.31,0.000683558,277921,11034.4,21785.4,772621,119165,98157,809924
0.312,0.00069152,280933,10284.5,17938.1,785008,119160,98031.6,795797
0.314,0.000699858,282206,7559.19,8429.93,781366,119410,101414,789369
0.316,0.000708198,283479,4833.93,-1078.24,777724,119659,104796,782942
0.318,0.000716537,284752,2108.7,-10586.3,774081,119909,108178,776515
0.32,0.000724876,286025,-616.563,-20094.4,770439,120159,111560,770087
0.322,0.000733216,287298,-3341.83,-29602.6,766797,120409,114942,763660
0.324,0.000741555,288571,-6067.09,-39110.8,763154,120659,118324,757232
0.326,0.000749916,289410,-8584.31,-47555.5,758217,120732,121568,752966
0.328,0.000758455,286454,-9280.41,-46690.6,741946,119262,123613,767611
0.33,0.000766994,283498,-9976.51,-45825.8,725674,117791,125658,782256
0.332,0.000775535,280542,-10672.6,-44961,709403,116321,127703,796901
0.334,0.000784077,277586,-11368.7,-44096.2,693131,114851,129747,811546
0.336,0.000792619,274630,-12064.8,-43231.4,676860,113380,131792,826191
0.338,0.000801163,271674,-12760.9,-42366.6,660588,111910,133837,840836
0.34,0.000809707,268718,-13457,-41501.8,644317,110440,135881,855482
0.342,0.000818251,265762,-14153.1,-40637,628045,108969,137926,870127
0.344,0.000826797,262806,-14849.2,-39772.2,611774,107499,139971,884772
0.346,0.000835343,259850,-15545.3,-38907.4,595503,106029,142015,899417
0.348,0.000844048,254399,-15808.2,-36685.1,578905,105060,141342,902946
0.35,0.000853037,244455,-15291.8,-32020.1,561719,104995,135779,886471
0.352,0.000862027,234512,-14775.3,-27355,544534,104930,130215,869995
0.354,0.000871016,224569,-14258.8,-22690,527349,104865,124651,853520
0.356,0.000880006,214625,-13742.3,-18024.9,510164,104800,119088,837045
0.358,0.000888995,204682,-13225.8,-13359.9,492979,104735,113524,820569
0.36,0.000897985,194739,-12709.3,-8694.85,475793,104670,107960,804094
0.362,0.000906975,184796,-12192.8,-4029.88,458608,104605,102397,787619
0.364,0.000916126,183890,-12260,-2840.45,461286,103022,100739,780445
0.366,0.000925308,184648,-12434.5,-2290.37,467617,101160,99800.3,774982
0.368,0.00093449,185405,-12609,-1740.29,473948,99298.6,98861.5,769519
0.37,0.000943674,186163,-12783.5,-1190.21,480279,97436.9,97922.6,764055
0.372,0.000952858,186920,-12958.1,-640.138,486610,95575.1,96983.7,758592
0.374,0.000962043,187678,-13132.6,-90.0609,492941,93713.4,96044.9,753129
0.376,0.000971228,188435,-13307.1,460.008,499272,91851.7,95106,747666
0.378,0.000980415,189192,-13481.6,1010.08,505603,89990,94167.1,742203
0.38,0.000989602,189950,-13656.1,1560.16,511935,88128.3,93228.3,736740
0.382,0.000998805,191395,-13931.1,2020.81,520914,86692.6,92858.7,729049
0.384,0.00100806,195103,-14537.3,2186.92,538616,86660.1,94364.4,714022
0.386,0.00101731,198811,-15143.4,2353.02,556318,86627.6,95870,698996
0.388,0.00102656,202520,-15749.5,2519.12,574020,86595,97375.6,683969
0.39,0.00103582,206228,-16355.6,2685.23,591722,86562.5,98881.3,668942
0.392,0.00104507,209936,-16961.7,2851.33,609424,86530,100387,653915
0.394,0.00105452,211930,-17295.7,3463.23,622193,86882.7,102390,641246
0.396,0.00106438,210400,-17070.7,4991.28,624823,88026.9,105414,633420
0.398,0.00107424,208870,-16845.6,6519.33,627454,89171.1,108439,625595
0.4,0.00108409,207340,-16620.5,8047.38,630085,90315.3,111463,617770
0.402,0.00109395,205810,-16395.4,9575.43,632716,91459.6,114488,609944
0.404,0.00110381,204280,-16170.3,11103.5,635347,92603.8,117512,602119
0.406,0.00111367,202750,-15945.2,12631.5,637978,93748,120536,594294
0.408,0.00112352,201220,-15720.1,14159.6,640609,94892.2,123561,586469
0.41,0.00113347,196381,-14622.7,15289.8,635350,95639.4,123791,586831
0.412,0.00114367,188020,-13062.6,14754.4,612973,94274.3,118847,600555
0.414,0.00115386,179659,-11502.5,14219,590595,92909.2,113903,614278
0.416,0.00116406,171298,-9942.33,13683.5,568218,91544.1,108958,628002
0.418,0.00117425,162938,-8382.19,13148.1,545841,90179,104014,641725
0.42,0.00118445,154577,-6822.08,12612.7,523465,88813.9,99069.8,655448
0.422,0.00119464,146216,-5261.94,12077.3,501087,87448.8,94125.5,669172
0.424,0.00120484,137855,-3701.8,11541.9,478710,86083.7,89181.2,682895
0.426,0.00121504,129494,-2141.66,11006.5,456333,84718.6,84236.9,696619
0.428,0.00122523,121134,-581.523,10471.1,433956,83353.6,79292.6,710342
0.43,0.00123543,112773,978.615,9935.7,411579,81988.5,74348.3,724066
0.432,0.0012456,106399,651.232,8846.46,389019,80025,71412,729548
0.434,0.00125576,101750,-1313.77,7276.73,366300,77542.5,70217.8,727882
0.436,0.00126591,97101.5,-3278.8,5706.98,343580,75059.9,69023.6,726215
0.438,0.00127607,92452.6,-5243.84,4137.23,320861,72577.4,67829.4,724549
0.44,0.00128622,87803.7,-7208.87,2567.48,298142,70094.8,66635.2,722882
0.442,0.00129638,83154.7,-9173.9,997.723,275422,67612.3,65441.1,721215
0.444,0.00130675,83528.5,-15506.7,-332.757,263687,64110.7,66122,717009
0.446,0.00131731,88022.2,-25422.3,-1466.98,260963,59773.3,68341,710719
0.448,0.00132786,92515.9,-35337.8,-2601.2,258238,55436,70560,704430
0.45,0.00133842,97009.5,-45253.1,-3735.4,255513,51098.7,72779,698140
0.452,0.00134934,102851,-44645.7,-2069.58,274112,51112.9,76932.4,689789
0.454,0.00136029,108796,-43225.1,-187.37,294359,51463.5,81235.3,681278
0.456,0.00137124,114742,-41804.5,1694.84,314605,51814,85538.1,672767
0.458,0.00138219,120688,-40383.9,3577.05,334852,52164.6,89841,664256
0.46,0.00139314,126633,-38963.3,5459.26,355099,52515.1,94143.9,655745
0.462,0.00140409,132579,-37542.7,7341.47,375345,52865.6,98446.8,647234
0.464,0.00141505,138524,-36122.1,9223.65,395592,53216.2,102750,638723
0.466,0.001426,144470,-34701.5,11105.9,415839,53566.7,107052,630213
0.468,0.00143695,150415,-33280.9,12988.1,436085,53917.2,111355,621702
0.47,0.0014479,156361,-31860.3,14870.3,456332,54267.8,115658,613191
0.472,0.00145885,162306,-30439.6,16752.5,476579,54618.3,119961,604680
0.474,0.00146981,168252,-29019,18634.7,496826,54968.9,124264,596169
0.476,0.00148076,174197,-27598.4,20516.9,517072,55319.4,128567,587658
0.478,0.00149168,179304,-24095.9,22571.1,535255,55981.7,133173,577156
0.48,0.00150256,183300,-17836.4,24853.1,550704,57056.8,138180,564015
0.482,0.00151344,187296,-11576.9,27135,566153,58132,143187,550875
0.484,0.00152432,191292,-5317.47,29417,581602,59207.1,148194,537735
0.486,0.0015352,195288,942.006,31698.9,597051,60282.2,153201,524595
0.488,0.00154619,195558,7320.93,33230.9,606484,59969.7,154698,516087
0.49,0.00155741,187286,13973.7,33043.8,602128,56476.2,148148,518199
0.492,0.00156864,179015,20626.4,32856.7,597772,52982.8,141599,520310
0.494,0.00157987,170743,27279,32669.6,593416,49489.4,135049,522422
0.496,0.0015911,162472,33931.7,32482.5,589059,45995.9,128500,524534
0.498,0.00160233,154200,40584.4,32295.4,584703,42502.5,121950,526645
0.5,0.00161371,147572,43566.5,31790.4,580553,40436.4,115097,528758
0.502,0.00162522,142548,42993.9,30625.8,576900,39119.1,108153,531816
0.504,0.00163669,139284,38686.3,26815.9,575424,35071.1,102241,541109
0.506,0.00164814,136225,34636.6,23218.4,573721,31309.3,96628.9,549761
0.508,0.00165954,134872,32744.9,21398.8,570110,29943.1,93521.9,553032
0.51,0.00167094,133519,30853.4,19579.4,566500,28576.9,90415,556303
0.512,0.00168234,132166,28961.7,17759.8,562890,27210.7,87308.1,559574
0.514,0.00169373,130814,27070.1,15940.3,559280,25844.6,84201.2,562845
0.516,0.00170513,129461,25178.6,14120.9,555669,24478.4,81094.3,566116
0.518,0.00171653,128108,23286.9,12301.3,552059,23112.2,77987.4,569387
0.52,0.00172793,126755,21395.3,10481.8,548449,21746.1,74880.5,572658
0.522,0.00173933,125403,19503.7,8662.31,544838,20379.9,71773.5,575930
0.524,0.00175073,124050,17612.1,6842.82,541228,19013.7,68666.6,579201
0.526,0.00176213,122697,15720.5,5023.29,537618,17647.5,65559.7,582472
0.528,0.00177358,121493,14534.4,4008.35,534732,17234.2,63097.5,585827
0.53,0.00178529,120914,16320.2,6382.57,534899,20834.5,63351.1,589536
0.532,0.001797,120334,18106,8756.86,535065,24435,63604.8,593245
0.534,0.0018087,119755,19891.8,11131.1,535232,28035.4,63858.4,596954
0.536,0.00182041,119176,21677.6,13505.4,535399,31635.8,64112,600663
0.538,0.00183211,118596,23463.4,15879.6,535566,35236.2,64365.7,604372
0.54,0.00184382,118052,25137.6,18215.8,535221,38795.3,64632.8,607376
0.542,0.00185563,118149,24755.6,19850.5,525442,41591.6,65147.5,597368
0.544,0.00186765,117815,22666,19706.2,512544,43771.2,65406.6,587528
0.546,0.00187985,117148,19255.8,18185.7,497236,45473.7,65467.8,577818
0.548,0.00189204,116480,15845.5,16665.3,481927,47176.1,65529.1,568108
0.55,0.00190423,115813,12435.2,15144.8,466618,48878.6,65590.3,558397
0.552,0.00191642,115145,9025.01,13624.4,451309,50581,65651.5,548687
0.554,0.00192861,114478,5614.68,12103.9,436000,52283.4,65712.8,538976
0.556,0.00194094,114436,4304.76,13888.1,432497,52855.3,65368.4,555672
0.558,0.0019533,114541,3489.82,16451.2,431777,53160.7,64928.4,578591
0.56,0.00196565,114646,2674.91,19014.3,431056,53466,64488.3,601509
0.562,0.00197801,114751,1860,21577.3,430336,53771.4,64048.3,624428
0.564,0.00199037,114856,1045.06,24140.4,429615,54076.8,63608.3,647347
0.566,0.00200273,114961,230.144,26703.4,428895,54382.1,63168.3,670266
0.568,0.00201509,115066,-584.794,29266.6,428175,54687.5,62728.3,693185
0.57,0.00202745,115171,-1399.71,31829.6,427454,54992.9,62288.3,716104
0.572,0.00203981,115276,-2214.65,34392.7,426734,55298.3,61848.3,739023
0.574,0.00205228,114435,-2604.81,37323.1,416029,55231.7,58745.1,746707
0.576,0.00206485,111795,-3332.82,40324.9,410888,55199,58450,744592
0.578,0.00207743,109006,-4137.81,43306,407257,55200.7,58724.3,742475
0.58,0.00209001,106216,-4942.78,46287,403625,55202.4,58998.6,740358
0.582,0.00210259,103426,-5747.77,49268.1,399994,55204.1,59273,738241
0.584,0.00211517,100636,-6552.74,52249.1,396363,55205.8,59547.3,736124
0.586,0.00212775,97846.5,-7357.73,55230.2,392732,55207.5,59821.7,734007
0.588,0.00214033,95056.8,-8162.7,58211.2,389100,55209.2,60096,731889
0.59,0.0021529,92267.1,-8967.67,61192.2,385469,55210.9,60370.4,729772
0.592,0.00216548,89477.3,-9772.66,64173.3,381838,55212.6,60644.7,727655
0.594,0.00217806,86687.6,-10577.6,67154.4,378206,55214.3,60919,725538
0.596,0.00219081,86081.9,-11038.3,68485.6,377535,56664.5,62875.6,721651
0.598,0.00220366,86902.7,-11274.1,68739.2,378796,59060.6,65930.7,716608
0.6,0.00221651,87723.5,-11509.9,68992.9,380057,61456.8,68985.8,711565
0.602,0.00222933,88801.1,-11582.7,68291.3,379674,64055.8,71281.9,701577
0.604,0.00224213,90001,-11577.8,67135,378508,66751.5,73216.6,689236
0.606,0.00225493,91200.9,-11572.9,65978.5,377342,69447.3,75151.3,676894
0.608,0.00226773,92400.8,-11568,64822.2,376177,72143,77085.9,664553
0.61,0.00228054,93600.8,-11563.1,63665.8,375011,74838.8,79020.6,652211
0.612,0.00229334,94800.7,-11558.2,62509.4,373845,77534.5,80955.2,639870
0.614,0.00230615,96000.6,-11553.3,61353,372679,80230.3,82889.9,627528
0.616,0.00231895,97200.5,-11548.4,60196.6,371514,82926,84824.6,615187
0.618,0.00233175,98400.4,-11543.5,59040.3,370348,85621.8,86759.2,602845
0.62,0.00234459,98616.2,-11074.3,57262.6,367837,88258.5,88353.1,595027
0.622,0.00235756,95471.6,-9019.88,53363.8,360730,90693.4,88783.1,602653
0.624,0.00237053,92326.9,-6965.39,49464.9,353623,93128.3,89213.1,610279
0.626,0.00238361,89270.9,-5500.36,46228,347409,93588.2,89663.3,611800
0.628,0.00239679,86304.5,-4631,43660.1,342097,92051.8,90133.8,607150
0.63,0.00240998,83338.1,-3761.67,41092.3,336786,90515.5,90604.3,602500
0.632,0.00242317,80371.7,-2892.32,38524.3,331474,88979.1,91074.8,597849
0.634,0.00243636,77405.4,-2022.99,35956.5,326163,87442.7,91545.3,593199
0.636,0.00244961,74975.3,-1492.06,34346.2,321087,85644.7,91824.8,588802
0.638,0.00246304,73871.8,-1798.31,35105,316594,83199.3,91632,585030
0.64,0.00247647,72768.3,-2104.54,35863.8,312101,80754,91439.2,581258
0.642,0.0024899,71664.8,-2410.79,36622.6,307608,78308.6,91246.4,577486
0.644,0.00250333,70561.4,-2717.03,37381.3,303115,75863.3,91053.6,573714
0.646,0.00251685,69768.6,-2661.76,37282.1,300998,73809.1,90136.6,569990
0.648,0.00253051,69460.4,-2042.85,35845.3,302584,72364.8,88090.5,566343
0.65,0.00254417,69152.2,-1423.93,34408.4,304169,70920.6,86044.4,562696
0.652,0.00255782,68844,-804.994,32971.4,305755,69476.3,83998.3,559049
0.654,0.00257148,68535.8,-186.078,31534.5,307341,68032,81952.2,555402
0.656,0.00258514,68227.6,432.857,30097.6,308927,66587.7,79906.1,551754
0.658,0.00259879,67919.4,1051.77,28660.7,310513,65143.5,77860,548107
0.66,0.00261245,67611.2,1670.71,27223.8,312099,63699.2,75813.9,544460
0.662,0.00262611,67303,2289.63,25786.9,313685,62255,73767.8,540813
0.664,0.00263977,66994.8,2908.54,24350,315271,60810.7,71721.8,537166
0.666,0.00265342,66686.6,3527.48,22913.1,316857,59366.4,69675.6,533518
0.668,0.00266708,66378.3,4146.39,21476.2,318443,57922.2,67629.5,529871
0.67,0.00268074,66070.1,4765.33,20039.3,320029,56477.9,65583.4,526224
0.672,0.0026944,65761.9,5384.24,18602.4,321615,55033.7,63537.3,522577
0.674,0.00270806,65453.7,6003.18,17165.5,323201,53589.4,61491.2,518929
0.676,0.00272172,65145.5,6622.1,15728.6,324787,52145.1,59445.1,515282
0.678,0.00273537,64837.3,7241.01,14291.7,326372,50700.9,57399,511635
0.68,0.00274904,64501.8,7888.87,12758.2,327500,49464.4,55081.2,508023
0.682,0.00276287,63606.2,9129.88,9244.93,319234,52490.1,47192.9,505141
0.684,0.00277669,62710.6,10370.9,5731.57,310968,55515.9,39304.3,502258
0.686,0.00279051,61815.1,11611.9,2218.32,302702,58541.6,31415.9,499375
0.688,0.00280434,60919.5,12853,-1295.04,294436,61567.4,23527.3,496492
0.69,0.00281816,60024,14094,-4808.3,286170,64593.1,15638.9,493610
0.692,0.00283199,59128.4,15335,-8321.56,277905,67618.8,7750.57,490727
0.694,0.00284581,58232.8,16576,-11834.9,269639,70644.5,-138.032,487844
0.696,0.00285963,57337.3,17817,-15348.2,261373,73670.2,-8026.4,484962
0.698,0.00287354,56776.6,18313.7,-17189.8,255464,76112.8,-14067,480093
0.7,0.00288761,56914.3,17258.1,-15544.8,254471,77338.8,-16253.2,471083
0.702,0.00290168,57052,16202.5,-13899.8,253479,78564.8,-18439.5,462073
0.704,0.00291574,57189.7,15146.9,-12254.9,252487,79790.8,-20625.7,453063
0.706,0.00292981,57327.4,14091.3,-10609.9,251494,81016.9,-22811.9,444054
0.708,0.00294388,57465.2,13035.7,-8964.9,250502,82242.9,-24998.2,435043
0.71,0.00295795,57602.9,11980.1,-7319.94,249509,83468.9,-27184.4,426034
0.712,0.00297222,57235.4,12915.1,-8431.14,254893,83310.4,-29585,422922
0.714,0.00298666,56409.6,15656.3,-12043.2,266061,81895.5,-32180,425163
0.716,0.0030011,55583.7,18397.5,-15655.3,277230,80480.6,-34775,427404
0.718,0.00301554,54757.9,21138.6,-19267.3,288398,79065.8,-37370,429645
0.72,0.00302999,53932,23879.8,-22879.5,299566,77650.9,-39965,431886
0.722,0.00304443,53106.2,26621,-26491.5,310734,76236,-42559.9,434127
0.724,0.00305885,52775.7,30000.7,-28471.8,320814,75654.7,-44403.9,438520
0.726,0.00307321,53594.3,34861.6,-26667.8,328367,77006.3,-44506.4,447905
0.728,0.00308757,54412.8,39722.3,-24863.9,335921,78357.9,-44608.9,457289
0.73,0.00310193,55231.3,44583.1,-23059.9,343474,79709.5,-44711.3,466674
0.732,0.00311628,56049.8,49443.8,-21256.1,351028,81061.1,-44813.8,476059
0.734,0.00313064,56868.3,54304.7,-19452.1,358581,82412.7,-44916.2,485444
0.736,0.003145,57686.8,59165.4,-17648.2,366135,83764.3,-45018.7,494829
0.738,0.00315936,58505.3,64026.1,-15844.3,373688,85115.8,-45121.1,504214
0.74,0.00317368,56422,60656.2,-19359.1,374485,84088,-49611.3,496571
0.742,0.00318799,54248.2,57029.4,-23039.9,375072,82985.9,-54238.4,488396
0.744,0.00320231,52074.2,53402.4,-26720.8,375658,81883.7,-58865.7,480221
0.746,0.00321662,49900.4,49775.6,-30401.7,376245,80781.6,-63492.8,472046
0.748,0.00323109,52403,48627.2,-28534.9,373920,80814.5,-58537,464660
0.75,0.00324558,55237.6,47654.8,-26274.4,371388,80927.9,-52901.2,457330
0.752,0.00326006,58072.1,46682.3,-24013.9,368857,81041.4,-47265.4,449999
0.754,0.00327454,60906.7,45709.8,-21753.3,366325,81154.9,-41629.4,442669
0.756,0.00328924,60127.1,42034.8,-21291.8,363847,81392.1,-36653.1,436590
0.758,0.00330395,59112,38183.5,-20947.4,361372,81637.4,-31719.5,430592
0.76,0.00331867,58096.9,34332.4,-20603,358897,81882.7,-26786.2,424594
0.762,0.00333344,56690.9,31713.8,-19975.4,356240,81951.9,-22813.8,422519
0.764,0.00334832,54577.8,31325.7,-18835.5,353253,81702.6,-20580.9,427543
0.766,0.0033632,52464.7,30937.6,-17695.5,350266,81453.3,-18347.9,432567
0.768,0.00337809,50351.6,30549.5,-16555.6,347279,81204,-16114.9,437592
0.77,0.00339297,48238.5,30161.4,-15415.6,344293,80954.7,-13881.9,442616
0.772,0.00340785,46125.3,29773.3,-14275.6,341306,80705.4,-11648.9,447640
0.774,0.0034227,44427.4,28825.3,-13216.1,336397,80296.3,-8927.09,452544
0.776,0.0034375,43561.3,26755.8,-12317.5,327636,79567.2,-5226.1,457208
0.778,0.00345229,42695.2,24686.3,-11418.9,318875,78838.1,-1525.21,461872
0.78,0.00346708,41829,22616.8,-10520.4,310114,78109,2175.67,466536
0.782,0.00348188,40962.9,20547.3,-9621.82,301353,77379.9,5876.67,471201
0.784,0.00349667,40096.8,18477.8,-8723.27,292592,76650.8,9577.56,475865
0.786,0.00351147,39230.6,16408.3,-7824.7,283831,75921.7,13278.6,480529
0.788,0.00352626,38364.5,14338.8,-6926.15,275071,75192.6,16979.4,485193
0.79,0.00354105,37498.4,12269.3,-6027.57,266310,74463.5,20680.4,489857
0.792,0.00355587,36883.1,10285.5,-5229.76,257425,73670.7,24393.4,493331
0.794,0.00357107,40084.5,9605.73,-5964.73,246659,71907.8,28290,478699
0.796,0.00358627,43285.8,8925.95,-6699.67,235894,70145,32186.5,464067
0.798,0.00360147,46487.1,8246.17,-7434.61,225128,68382.2,36082.9,449435
0.8,0.00361667,49688.5,7566.37,-8169.58,214362,66619.3,39979.5,434803
0.802,0.00363186,52889.9,6886.59,-8904.52,203596,64856.5,43876,420171
0.804,0.00364706,56091.3,6206.79,-9639.48,192830,63093.7,47772.6,405538
0.806,0.00366226,59292.6,5527,-10374.4,182065,61330.9,51669.1,390906
0.808,0.00367746,62494,4847.2,-11109.4,171299,59568,55565.7,376274
0.81,0.00369274,65121.8,4414.2,-11232.7,168360,58973.5,58522.6,369042
0.812,0.00370807,67284.2,4181.43,-10859.6,171772,59327,60717.2,367815
0.814,0.00372341,69446.6,3948.65,-10486.5,175185,59680.5,62911.8,366588
0.816,0.00373875,71609,3715.88,-10113.5,178597,60034,65106.4,365361
0.818,0.00375409,73771.5,3483.1,-9740.41,182010,60387.5,67301.1,364133
0.82,0.00376943,75933.9,3250.33,-9367.35,185422,60741,69495.7,362906
0.822,0.00378477,78096.3,3017.56,-8994.29,188834,61094.5,71690.3,361679
0.824,0.0038001,80258.7,2784.79,-8621.23,192247,61448,73884.9,360452
0.826,0.00381544,82421.1,2552.02,-8248.17,195659,61801.5,76079.5,359225
0.828,0.00383078,84583.6,2319.24,-7875.11,199071,62155,78274.1,357997
0.83,0.00384612,86746,2086.47,-7502.05,202484,62508.5,80468.7,356770
0.832,0.00386146,88908.4,1853.7,-7128.99,205896,62862,82663.4,355543
0.834,0.0038768,91070.8,1620.93,-6755.93,209308,63215.5,84857.9,354316
0.836,0.00389214,93233.3,1388.15,-6382.86,212721,63569,87052.6,353088
0.838,0.00390747,95395.7,1155.38,-6009.81,216133,63922.5,89247.2,351861
0.84,0.00392281,97558.1,922.609,-5636.75,219545,64276,91441.7,350634
0.842,0.0039381,98872.1,1116.18,-5077.63,222646,64919.6,93461,350006
0.844,0.00395339,100115,1345.42,-4502.96,225720,65587.6,95465.4,349428
0.846,0.00396867,101358,1574.67,-3928.27,228795,66255.5,97470,348850
0.848,0.00398396,102601,1803.9,-3353.6,231869,66923.5,99474.4,348271
0.85,0.00399924,103844,2033.15,-2778.91,234944,67591.4,101479,347693
0.852,0.00401475,103630,1317.46,-1579.16,231664,67718,99694.5,347875
0.854,0.00403031,103119,408.982,-251.884,227088,67734.2,97136.9,348211
0.856,0.0040459,100865,-228.738,970.111,221759,67705.9,92816.6,348203
0.858,0.00406154,96010.3,-462.537,2034.97,215305,67611.5,85867.3,347682
0.86,0.00407718,91156,-696.342,3099.86,208851,67517,78917.8,347161
0.862,0.00409282,86301.8,-930.14,4164.72,202397,67422.6,71968.5,346640
0.864,0.00410846,81447.4,-1163.95,5229.61,195943,67328.2,65019.1,346118
0.866,0.00412423,78403.3,-1050.66,5821.09,194189,67283.8,60733,345401
0.868,0.00414008,76561.4,-706.857,6098.18,195557,67272.6,58215.6,344554
0.87,0.00415594,74719.4,-363.048,6375.29,196925,67261.5,55698.1,343707
0.872,0.0041718,72877.4,-19.249,6652.38,198293,67250.3,53180.7,342859
0.874,0.00418766,71035.4,324.56,6929.48,199661,67239.2,50663.2,342012
0.876,0.00420351,69193.5,668.359,7206.57,201028,67228,48145.8,341165
0.878,0.00421936,67834.5,1279.62,7791.23,203233,67142.2,46066,339925
0.88,0.00423522,66564.5,1940.04,8432.43,205592,67042.7,44066.7,338613
0.882,0.00425107,65294.4,2600.48,9073.64,207951,66943.2,42067.3,337302
0.884,0.00426692,64024.3,3260.9,9714.83,210309,66843.6,40068,335990
0.886,0.00428277,62754.3,3921.32,10356,212668,66744.1,38068.6,334678
0.888,0.00429862,61484.2,4581.76,10997.2,215027,66644.6,36069.3,333366
0.89,0.00431447,60214.1,5242.18,11638.4,217385,66545.1,34069.9,332054
0.892,0.00433032,58944,5902.62,12279.6,219744,66445.6,32070.6,330743
0.894,0.00434617,57674,6563.04,12920.8,222103,66346,30071.3,329431
0.896,0.00436202,56403.9,7223.48,13562,224462,66246.5,28071.9,328119
0.898,0.00437788,55133.8,7883.9,14203.2,226820,66147,26072.6,326807
0.9,0.00439373,53863.8,8544.32,14844.4,229179,66047.5,24073.2,325495
0.902,0.00440958,52593.7,9204.76,15485.6,231538,65947.9,22073.9,324184
0.904,0.0044256,49043.9,8560.14,15094.9,231788,67321.1,19501.1,327159
0.906,0.00444164,45302.8,7806.07,14617.5,231861,68817.9,16880.1,330495
0.908,0.00445768,41561.9,7052.02,14140.2,231934,70314.6,14259.2,333830
0.91,0.00447372,37820.8,6297.96,13662.9,232007,71811.3,11638.2,337165
0.912,0.00448976,34079.9,5543.91,13185.6,232081,73308,9017.3,340500
0.914,0.0045058,30338.9,4789.87,12708.3,232154,74804.7,6396.41,343835
0.916,0.00452184,26597.9,4035.8,12231,232227,76301.4,3775.43,347171
0.918,0.00453788,22856.9,3281.75,11753.7,232300,77798.1,1154.53,350506
0.92,0.00455407,20712.7,3298.05,11405.6,231991,78994.1,-422.709,353064
0.922,0.00457041,20284.7,4142.24,11196.4,231272,79867,-878.233,354787
0.924,0.00458674,19856.7,4986.45,10987.3,230552,80739.8,-1333.77,356511
0.926,0.00460308,19428.8,5830.64,10778.1,229832,81612.6,-1789.3,358234
0.928,0.00461942,19000.8,6674.83,10569,229112,82485.5,-2244.82,359957
0.93,0.00463572,19518.8,7250.47,10669.7,224658,83412.1,-2570.1,357443
0.932,0.00465202,20074.6,7815.37,10782.9,220055,84340.9,-2890.16,354759
0.934,0.00466833,20630.4,8380.28,10896.1,215451,85269.7,-3210.24,352075
0.936,0.00468463,21186.2,8945.18,11009.2,210848,86198.5,-3530.3,349391
0.938,0.00470093,21742,9510.09,11122.4,206245,87127.4,-3850.37,346707
0.94,0.00471723,22297.7,10075,11235.6,201641,88056.1,-4170.44,344023
0.942,0.00473354,22853.5,10639.9,11348.7,197038,88984.9,-4490.5,341339
0.944,0.00474984,23409.3,11204.8,11461.9,192435,89913.8,-4810.58,338655
0.946,0.00476614,23965.1,11769.7,11575.1,187831,90842.5,-5130.64,335971
0.948,0.00478244,24520.9,12334.6,11688.2,183228,91771.4,-5450.71,333287
0.95,0.00479875,25076.7,12899.5,11801.4,178624,92700.1,-5770.78,330603
0.952,0.00481505,25632.5,13464.4,11914.6,174021,93629,-6090.85,327919
0.954,0.00483135,26188.3,14029.3,12027.7,169418,94557.8,-6410.91,325235
0.956,0.00484765,26744.1,14594.2,12140.9,164814,95486.6,-6730.98,322551
0.958,0.00486401,30382.5,16648.8,12718.6,166958,97435.7,-2859.65,323320
0.96,0.00488042,37929.3,20592.1,13885.3,177657,100678,6325.85,328468
0.962,0.00489693,49919.5,27277.2,15410.3,207053,105235,21448,348541
0.964,0.00491356,67208.8,37232,17362.5,258749,111358,43650.1,386416
0.966,0.00493015,79193.7,43247.1,18492.2,293372,115243,59952.3,410551
0.968,0.00494661,74188.5,36643.8,16987.1,273314,111962,57357.4,390676
0.97,0.00496306,69183.1,30040.4,15481.9,253256,108681,54762.5,370801
0.972,0.00497952,64178,23437.1,13976.8,233199,105399,52167.6,350926
0.974,0.00499597,59172.8,16833.8,12471.7,213141,102118,49572.7,331050
0.976,0.00501248,54455.3,11778.2,11873.6,199940,98765.9,48049.2,318026
0.978,0.005029,49699.5,6996.74,11486.9,188218,95343.2,46734.9,306453
0.98,0.00504565,49179.2,6862.89,11904.8,187104,93919.5,47901.4,306450
0.982,0.0050623,48658.8,6729.05,12322.7,185991,92495.8,49067.8,306447
0.984,0.00507896,48138.5,6595.2,12740.7,184878,91072.1,50234.2,306445
0.986,0.00509561,47618.2,6461.36,13158.6,183765,89648.5,51400.7,306442
0.988,0.00511226,47097.8,6327.52,13576.5,182651,88224.8,52567.1,306440
0.99,0.00512892,46577.5,6193.68,13994.4,181538,86801.1,53733.5,306437
0.992,0.00514557,46057.2,6059.83,14412.3,180425,85377.4,54899.9,306434
0.994,0.00516222,45536.8,5925.99,14830.3,179312,83953.7,56066.4,306432
0.996,0.00517888,45016.5,5792.15,15248.2,178198,82530,57232.8,306429
0.998,0.00519553,44496.1,5658.3,15666.1,177085,81106.3,58399.2,306426
1,0.00521218,43975.8,5524.46,16084,175972,79682.7,59565.6,306424
1.002,0.00522884,43455.5,5390.62,16501.9,174859,78259,60732.1,306421
1.004,0.00524549,42935.2,5256.78,16919.9,173745,76835.3,61898.5,306418
1.006,0.00526214,42414.8,5122.93,17337.8,172632,75411.6,63065,306416
1.008,0.0052788,41894.5,4989.09,17755.7,171519,73987.9,64231.4,306413
1.01,0.00529545,41374.1,4855.25,18173.6,170406,72564.3,65397.8,306411
1.012,0.00531211,40853.8,4721.4,18591.5,169292,71140.6,66564.2,306408
1.014,0.00532876,40333.5,4587.55,19009.5,168179,69716.8,67730.7,306405
1.016,0.00534541,39813.1,4453.71,19427.4,167066,68293.2,68897.1,306403
1.018,0.00536207,39292.8,4319.87,19845.3,165953,66869.5,70063.5,306400
1.02,0.00537872,38772.5,4186.03,20263.2,164839,65445.8,71229.9,306397
1.022,0.00539537,38252.1,4052.19,20681.2,163726,64022.2,72396.3,306395
1.024,0.00541203,37655.1,3952.5,21134.3,162612,62623.1,73543.8,306501
1.026,0.00542863,38044.3,3413.3,21134.6,161509,60906.7,74936.4,305212
1.028,0.0054454,36348.9,2194.86,20966.8,159496,59463.9,71387.6,306838
1.03,0.00546228,34555.8,1120.86,21944.6,157466,58788.7,66760.6,307645
1.032,0.00547915,32762.7,46.853,22922.4,155437,58113.5,62133.6,308452
1.034,0.00549603,30969.5,-1027.22,23900.2,153407,57438.2,57506.4,309259
1.036,0.0055129,29176.4,-2101.22,24878,151378,56763,52879.4,310065
1.038,0.00552977,27383.3,-3175.23,25855.8,149349,56087.8,48252.4,310872
1.04,0.00554665,25590.2,-4249.23,26833.6,147319,55412.5,43625.4,311679
1.042,0.00556352,23797,-5323.3,27811.4,145290,54737.3,38998.1,312486
1.044,0.00558041,22719.2,-5912.68,29307.5,142382,54534.8,35727.2,312025
1.046,0.00559743,22764.9,-5478.17,29798,143954,55346,34415.5,307173
1.048,0.00561445,22806.2,-5037.9,30224.9,145725,56163.2,33089.8,302250
1.05,0.00563147,22847.5,-4597.62,30651.9,147497,56980.4,31764.2,297326
1.052,0.0056485,22888.8,-4157.32,31078.8,149268,57797.7,30438.4,292402
1.054,0.00566552,22930.1,-3717.04,31505.8,151040,58615,29112.8,287478
1.056,0.00568254,22971.4,-3276.77,31932.7,152811,59432.2,27787.1,282554
1.058,0.00569957,23012.7,-2836.49,32359.7,154582,60249.5,26461.4,277630
1.06,0.00571659,23054,-2396.22,32786.6,156354,61066.7,25135.7,272706
1.062,0.00573361,23095.3,-1955.92,33213.6,158126,61884,23810,267782
1.064,0.00575064,23136.6,-1515.64,33640.5,159897,62701.2,22484.3,262858
1.066,0.00576766,23178,-1075.36,34067.4,161668,63518.5,21158.7,257934
1.068,0.00578468,23219.3,-635.089,34494.4,163440,64335.7,19833,253010
1.07,0.00580171,23260.6,-194.787,34921.3,165211,65153,18507.2,248086
1.072,0.00581873,23301.9,245.488,35348.3,166983,65970.3,17181.6,243162
1.074,0.00583577,23358.3,1018.37,35370.5,167527,66120.1,16310,236628
1.076,0.00585287,23457.5,2734.79,34244.7,164589,64376.6,16726.5,225525
1.078,0.00586997,23556.7,4451.21,33118.9,161651,62633.1,17143,214423
1.08,0.00588709,23318.4,6018.83,32311.7,158339,60956,17067.3,205078
1.082,0.00590432,22304.5,6686.96,32478.7,155265,59911.3,15490.8,204202
1.084,0.0059216,22007,6686.57,32396.3,154922,59572.7,14304.9,207414
1.086,0.00593888,21709.4,6686.18,32314.1,154580,59234,13118.9,210626
1.088,0.00595616,21411.8,6685.79,32231.7,154238,58895.4,11932.9,213839
1.09,0.00597344,21114.2,6685.4,32149.4,153896,58556.7,10747,217051
1.092,0.00599072,20816.6,6685.01,32067.1,153554,58218.1,9561.07,220263
1.094,0.006008,20519.1,6684.61,31984.8,153212,57879.4,8375.14,223476
1.096,0.00602528,20221.5,6684.22,31902.5,152869,57540.8,7189.21,226688
1.098,0.00604256,19923.9,6683.83,31820.2,152527,57202.1,6003.2,229900
1.1,0.00605984,19626.3,6683.44,31737.9,152185,56863.5,4817.27,233112
1.102,0.00607712,19328.7,6683.05,31655.6,151843,56524.8,3631.34,236325
1.104,0.00609441,19031.2,6682.66,31573.3,151501,56186.2,2445.41,239537
1.106,0.00611169,18733.6,6682.27,31491,151159,55847.6,1259.47,242749
1.108,0.00612897,19165.9,6708.47,30659.3,149963,55373.8,765.522,244342
1.11,0.00614626,19900.4,6745.69,29517.4,148415,54844.2,558.15,245263
1.112,0.00616355,20634.9,6782.91,28375.4,146867,54314.6,350.779,246185
1.114,0.00618083,21369.4,6820.13,27233.5,145319,53784.9,143.407,247106
1.116,0.00619812,22104,6857.36,26091.5,143770,53255.3,-63.9763,248028
1.118,0.00621541,22838.5,6894.58,24949.5,142222,52725.6,-271.348,248949
1.12,0.0062327,23573,6931.8,23807.6,140674,52196,-478.719,249871
1.122,0.00625008,23972.5,7822.86,21491.4,138523,52061.5,1295.67,247161
1.124,0.00626749,24304.6,8885.52,18939.1,136252,52006.5,3468.34,243722
1.126,0.00628489,24636.8,9948.25,16386.8,133981,51951.5,5641.14,240283
1.128,0.0063023,24968.9,11010.9,13834.5,131710,51896.5,7813.81,236844
1.13,0.0063197,25301.1,12073.6,11282.3,129438,51841.5,9986.49,233405
1.132,0.00633711,25633.2,13136.2,8730.1,127167,51786.5,12159.2,229966
1.134,0.00635455,25718.5,13866.6,7141.54,124878,51956.7,14037.6,226863
1.136,0.00637205,25437.9,14104.3,6981.62,122563,52460.8,15479.8,224258
1.138,0.00638955,25157.4,14342.1,6821.71,120247,52964.9,16921.9,221653
1.14,0.00640703,25039.3,14192.6,6541.74,118665,52505,16870.6,218290
1.142,0.00642452,24950.3,13973.8,6240.27,117213,51872.4,16551.9,214791
1.144,0.00644201,24861.3,13755,5938.78,115761,51239.8,16233.2,211292
1.146,0.0064595,24772.3,13536.1,5637.31,114310,50607.2,15914.6,207793
1.148,0.00647698,24683.3,13317.3,5335.84,112858,49974.6,15595.9,204294
1.15,0.00649447,24594.3,13098.5,5034.37,111407,49342,15277.2,200795
1.152,0.00651196,24505.3,12879.7,4732.9,109955,48709.5,14958.5,197296
1.154,0.00652945,24416.3,12660.9,4431.41,108503,48076.8,14639.9,193797
1.156,0.00654693,24327.3,12442.1,4129.94,107052,47444.3,14321.2,190298
1.158,0.00656442,24238.3,12223.3,3828.47,105600,46811.7,14002.5,186799
1.16,0.00658191,24149.3,12004.5,3527,104149,46179.1,13683.8,183300
1.162,0.0065994,24060.3,11785.7,3225.53,102697,45546.5,13365.2,179801
1.164,0.00661688,23971.3,11566.8,2924.04,101246,44913.9,13046.5,176302
1.166,0.00663437,23882.3,11348,2622.57,99794,44281.3,12727.8,172803
1.168,0.00665186,23679.7,11201.2,2271.47,98913.7,43587.5,12451.4,169756
1.17,0.00666936,23199.4,11230.4,1799.17,99428.7,42744.1,12278.3,167816
1.172,0.00668686,22719.2,11259.5,1326.83,99943.7,41900.7,12105.2,165875
1.174,0.00670435,22238.9,11288.6,854.527,100459,41057.3,11932,163934
1.176,0.00672185,21758.7,11317.8,382.222,100974,40213.9,11758.9,161993
1.178,0.00673939,20635,10999,17.9587,100073,39259.6,10706.1,159839
1.18,0.00675704,18017,9872.58,-95.4078,95885.2,38047.8,7610.46,157192
1.182,0.00677469,15398.9,8746.04,-208.781,91697.1,36836,4514.63,154544
1.184,0.00679234,12780.9,7619.58,-322.148,87509.4,35624.3,1418.98,151896
1.186,0.00680998,10162.9,6493.11,-435.514,83321.6,34412.6,-1676.67,149248
1.188,0.00682763,7544.89,5366.64,-548.881,79133.8,33200.8,-4772.32,146600
1.19,0.00684532,7498.63,5234.29,-453.28,79554.7,33177.9,-4550.67,145944
1.192,0.00686301,8039.31,5328.83,-309.993,81027.4,33426.3,-3571.94,145743
1.194,0.00688071,8579.99,5423.36,-166.707,82500.1,33674.6,-2593.2,145541
1.196,0.0068984,9120.67,5517.9,-23.4211,83972.9,33923,-1614.47,145340
1.198,0.0069161,9661.35,5612.44,119.865,85445.6,34171.4,-635.73,145139
1.2,0.0069338,10202.1,5706.98,263.16,86918.4,34419.8,343.063,144937
1.202,0.00695149,10742.7,5801.52,406.446,88391.2,34668.2,1321.8,144736
1.204,0.00696919,11283.4,5896.06,549.732,89863.9,34916.5,2300.53,144534
1.206,0.00698688,11824.1,5990.59,693.018,91336.6,35164.9,3279.27,144333
1.208,0.00700458,12364.8,6085.13,836.305,92809.4,35413.3,4258,144132
1.21,0.00702228,12905.5,6179.67,979.599,94282.2,35661.7,5236.8,143930
1.212,0.00703997,13446.2,6274.21,1122.89,95754.9,35910,6215.53,143729
1.214,0.00705767,13986.9,6368.75,1266.17,97227.6,36158.4,7194.27,143527
1.216,0.00707538,14494.5,6801.41,1520.05,99397.8,36420.9,8762.68,144111
1.218,0.00709311,14962.1,7643.93,1908,102413,36700.5,11045.9,145646
1.22,0.00711084,17069.4,8457.14,2329.01,106312,37458.7,13985.6,147378
1.222,0.00712857,20350.9,9249.39,2773.71,110843,38559.7,17395.4,149253
1.224,0.0071463,23632.4,10041.6,3218.42,115374,39660.6,20805.3,151127
1.226,0.00716403,26913.9,10833.9,3663.12,119905,40761.6,24215.1,153002
1.228,0.00718176,30195.6,11626.2,4107.85,124436,41862.6,27625.1,154876
1.23,0.00719949,33477.2,12418.5,4552.55,128967,42963.6,31034.9,156751
1.232,0.00721727,36214.2,12838.5,4567.82,131111,43831.7,33441.9,156875
1.234,0.00723513,37930.2,12560.3,3777.75,128779,44263.1,33968.4,153718
1.236,0.00725299,38466.7,12256,3228.87,126068,44496.4,34135.1,151992
1.238,0.00727084,37706.4,11922.9,2945.15,122940,44511.9,33906.3,151842
1.24,0.00728869,36946.2,11589.8,2661.45,119812,44527.5,33677.6,151692
1.242,0.00730654,36186,11256.6,2377.75,116684,44543,33448.8,151543
1.244,0.00732439,35425.8,10923.5,2094.04,113556,44558.5,33220.1,151393
1.246,0.00734224,34665.5,10590.4,1810.33,110428,44574,32991.3,151243
1.248,0.00736009,33905.3,10257.2,1526.63,107300,44589.5,32762.6,151093
1.25,0.00737794,33145.1,9924.12,1242.92,104172,44605.1,32533.8,150943
1.252,0.00739579,32384.9,9591,959.222,101044,44620.6,32305.1,150793
1.254,0.00741364,31624.7,9257.88,675.521,97916.1,44636.1,32076.4,150643
1.256,0.00743149,30864.4,8924.73,391.803,94787.9,44651.6,31847.6,150493
1.258,0.00744934,30104.2,8591.61,108.102,91660,44667.1,31618.9,150343
1.26,0.00746721,29907.6,8312.87,-133.145,89728.9,44494.3,31606.1,151980
1.262,0.00748508,29896.6,8052.05,-360.41,88191.9,44259.4,31664.6,154205
1.264,0.00750296,29885.6,7791.21,-587.688,86654.8,44024.5,31723,156431
1.266,0.00752083,29874.6,7530.38,-814.953,85117.8,43789.7,31781.4,158656
1.268,0.00753871,29863.6,7269.56,-1042.22,83580.8,43554.8,31839.9,160882
1.27,0.00755658,29852.6,7008.73,-1269.48,82043.8,43319.9,31898.3,163107
1.272,0.00757445,29841.6,6747.91,-1496.75,80506.8,43085.1,31956.7,165333
1.274,0.00759233,29830.6,6487.07,-1724.03,78969.7,42850.2,32015.2,167558
1.276,0.00761029,29917.9,5848.9,-1922.41,78979.3,41688.1,32479.1,169241
1.278,0.00762827,30021.5,5148.39,-2116.01,79244.5,40372.9,33010,170835
1.28,0.00764625,30125,4447.87,-2309.62,79509.7,39057.6,33540.9,172428
1.282,0.00766422,30228.6,3747.35,-2503.22,79774.9,37742.3,34071.9,174021
1.284,0.0076822,30332.2,3046.79,-2696.84,80040.1,36427,34602.8,175615
1.286,0.00770018,30435.7,2346.28,-2890.44,80305.3,35111.7,35133.8,177208
1.288,0.00771816,30539.3,1645.76,-3084.05,80570.5,33796.5,35664.7,178801
1.29,0.00773614,30642.9,945.245,-3277.65,80835.8,32481.2,36195.6,180395
1.292,0.00775417,30820.4,865.865,-3431.9,81236.2,31881.6,36266.1,179903
1.294,0.00777221,31019.6,969.26,-3574.56,81676.3,31492.7,36201.1,178797
1.296,0.00779028,30556.9,1169.74,-3283.38,80451.1,31102.4,35170,177462
1.298,0.00780834,30038.9,1378.35,-2955.9,79086.6,30712,34058.1,176108
1.3,0.0078264,29520.8,1586.95,-2628.42,77722,30321.6,32946.2,174753
1.302,0.00784447,29002.7,1795.57,-2300.92,76357.4,29931.2,31834.2,173399
1.304,0.00786253,28484.7,2004.17,-1973.44,74992.9,29540.9,30722.3,172044
1.306,0.00788059,27966.6,2212.77,-1645.95,73628.4,29150.5,29610.3,170690
1.308,0.00789866,27448.5,2421.38,-1318.47,72263.8,28760.1,28498.4,169336
1.31,0.00791672,26930.5,2629.98,-990.992,70899.3,28369.7,27386.5,167981
1.312,0.00793478,26412.4,2838.6,-663.491,69534.7,27979.3,26274.5,166627
1.314,0.00795285,25894.3,3047.2,-336.01,68170.1,27588.9,25162.6,165272
1.316,0.00797091,25376.2,3255.81,-8.52929,66805.6,27198.6,24050.7,163918
1.318,0.00798897,24858.2,3464.41,318.952,65441,26808.2,22938.8,162564
1.32,0.00800704,24340.1,3673.03,646.452,64076.4,26417.8,21826.8,161209
1.322,0.0080251,23939.2,3913.99,949.783,63436.4,26124.5,20920.1,159290
1.324,0.00804314,23889.3,4251.92,1180.73,64968.1,26122.5,20628.8,155679
1.326,0.00806119,23839.5,4589.86,1411.67,66499.8,26120.5,20337.4,152068
1.328,0.00807924,23789.7,4927.79,1642.61,68031.4,26118.4,20046,148457
1.33,0.00809729,23739.8,5265.75,1873.57,69563.2,26116.4,19754.6,144846
1.332,0.00811534,23690,5603.68,2104.51,71094.9,26114.4,19463.3,141235
1.334,0.00813339,23640.2,5941.62,2335.46,72626.6,26112.3,19171.9,137623
1.336,0.00815144,23590.3,6279.56,2566.4,74158.3,26110.3,18880.5,134012
1.338,0.00816949,23540.5,6617.51,2797.36,75690,26108.3,18589.1,130401
1.34,0.00818754,23490.7,6955.45,3028.3,77221.7,26106.2,18297.8,126790
1.342,0.00820562,23278.3,7022.6,3320.16,76374.5,26274.2,17997.5,123383
1.344,0.00822374,22811.5,6666.05,3707.34,71804.8,26708.2,17683.5,120297
1.346,0.00824186,22344.7,6309.5,4094.52,67235,27142.2,17369.4,117210
1.348,0.00825999,21877.8,5952.93,4481.72,62665.1,27576.2,17055.3,114124
1.35,0.00827811,21411,5596.38,4868.9,58095.4,28010.2,16741.2,111037
1.352,0.00829624,20944.2,5239.83,5256.08,53525.6,28444.2,16427.1,107951
1.354,0.00831436,20477.4,4883.28,5643.26,48955.9,28878.2,16113,104864
1.356,0.00833248,20010.6,4526.73,6030.44,44386.2,29312.2,15798.9,101778
1.358,0.00835061,19543.8,4170.15,6417.64,39816.2,29746.2,15484.8,98691
1.36,0.00836877,19276,3983.12,6833.24,37542,30280.9,15939.3,98933.7
1.362,0.00838695,19130.5,3900.25,7266.32,36678.2,30877.4,16866.2,101222
1.364,0.00840514,18985,3817.38,7699.39,35814.4,31474,17793,103510
1.366,0.00842333,18803.7,3755.84,8012.12,35202.4,31955.4,18347.6,104965
1.368,0.00844154,18551.8,3736.41,8087.3,35087.4,32209.7,18167.5,104773
1.37,0.00845975,18299.8,3716.97,8162.47,34972.5,32464,17987.4,104581
1.372,0.00847797,18047.9,3697.53,8237.65,34857.5,32718.3,17807.3,104389
1.374,0.00849618,17795.9,3678.1,8312.82,34742.5,32972.6,17627.2,104197
1.376,0.00851439,17544,3658.66,8388,34627.5,33226.9,17447.1,104005
1.378,0.0085326,17292,3639.23,8463.18,34512.5,33481.2,17267,103813
1.38,0.00855081,17040.1,3619.79,8538.36,34397.6,33735.5,17086.9,103621
1.382,0.00856903,16788.1,3600.35,8613.53,34282.6,33989.8,16906.8,103429
1.384,0.00858724,16536.1,3580.92,8688.71,34167.6,34244.1,16726.7,103237
1.386,0.00860545,16284.2,3561.48,8763.89,34052.6,34498.4,16546.6,103045
1.388,0.00862366,16032.2,3542.04,8839.07,33937.7,34752.7,16366.5,102853
1.39,0.00864187,15780.3,3522.61,8914.24,33822.7,35007,16186.4,102661
1.392,0.00866009,15528.3,3503.17,8989.42,33707.7,35261.3,16006.3,102469
1.394,0.00867831,15339.2,3481.85,9018.39,33722.2,35468.4,15804,102125
1.396,0.00869658,15673.1,3444.83,8662.76,34814.5,35283,15416.9,100512
1.398,0.00871486,16007,3407.81,8307.13,35906.7,35097.6,15029.9,98899.8
1.4,0.00873313,16340.9,3370.79,7951.5,36998.9,34912.2,14642.9,97287.2
1.402,0.00875142,16643,3566.59,7094.95,39846.5,34683.3,15077.4,99056
1.404,0.00876973,16940.8,3793.78,6170.84,42930.8,34448.5,15622.5,101281
1.406,0.00878802,17238.6,4020.95,5246.78,46015,34213.7,16167.7,103505
1.408,0.00880632,17536.4,4248.13,4322.72,49099.1,33978.9,16712.8,105730
1.41,0.00882462,17834.2,4475.3,3398.66,52183.3,33744.1,17257.9,107954
1.412,0.00884292,18132,4702.47,2474.59,55267.4,33509.3,17803.1,110179
1.414,0.00886122,18429.8,4929.66,1550.48,58351.7,33274.5,18348.2,112404
1.416,0.00887955,18534.3,5052.27,996.391,59561.2,32988.5,18562.4,113206
1.418,0.0088979,18484.3,5091.19,738.408,59270.2,32661.6,18511.7,112871
1.42,0.00891625,18434.2,5130.1,480.425,58979.1,32334.6,18461.1,112535
1.422,0.0089346,18384.1,5169.02,222.426,58688.1,32007.6,18410.4,112200
1.424,0.00895295,18334,5207.94,-35.5569,58397.1,31680.6,18359.7,111864
1.426,0.00897131,18283.9,5246.85,-293.54,58106.1,31353.7,18309,111529
1.428,0.00898966,18060.7,5235.67,-553.72,57322.4,30965.7,18166.7,110811
1.43,0.00900799,17390.3,5095.09,-819.574,55266.1,30420.4,17787.8,109106
1.432,0.00902633,16719.9,4954.51,-1085.44,53209.8,29874.9,17408.9,107401
1.434,0.00904467,16049.5,4813.93,-1351.3,51153.5,29329.5,17030.1,105696
1.436,0.00906301,15379.2,4673.35,-1617.15,49097.3,28784.2,16651.2,103991
1.438,0.00908135,14708.8,4532.78,-1883.01,47041.1,28238.8,16272.3,102286
1.44,0.00909969,14038.4,4392.19,-2148.88,44984.7,27693.4,15893.4,100581
1.442,0.00911803,13368,4251.61,-2414.73,42928.5,27148,15514.5,98876.2
1.444,0.00913637,12730.1,4127.93,-2667.71,41044.4,26617,15147.2,97243.2
1.446,0.00915471,12537.1,4235.86,-2744.18,41521.9,26284.5,14938.4,96595.7
1.448,0.00917305,12344.1,4343.8,-2820.65,41999.3,25952,14729.6,95948.3
1.45,0.00919139,12151.1,4451.74,-2897.12,42476.7,25619.4,14520.8,95300.8
1.452,0.00920973,11958.2,4559.67,-2973.59,42954.1,25286.9,14312,94653.3
1.454,0.00922807,11765.2,4667.61,-3050.05,43431.5,24954.4,14103.2,94005.8
1.456,0.00924641,11572.2,4775.54,-3126.52,43908.9,24621.9,13894.4,93358.3
1.458,0.00926475,11379.2,4883.48,-3202.99,44386.3,24289.3,13685.6,92710.9
1.46,0.00928309,11186.2,4991.42,-3279.46,44863.8,23956.8,13476.7,92063.4
1.462,0.00930143,10993.3,5099.35,-3355.93,45341.2,23624.3,13267.9,91415.9
1.464,0.00931977,10800.3,5207.29,-3432.39,45818.6,23291.7,13059.1,90768.4
1.466,0.00933811,10607.3,5315.22,-3508.86,46296,22959.2,12850.3,90120.9
1.468,0.00935645,10414.3,5423.16,-3585.33,46773.4,22626.7,12641.5,89473.4
1.47,0.00937479,10221.3,5531.1,-3661.8,47250.9,22294.1,12432.7,88826
1.472,0.00939313,10028.3,5639.03,-3738.27,47728.3,21961.6,12223.9,88178.5
1.474,0.00941147,9835.36,5746.97,-3814.74,48205.7,21629.1,12015.1,87531
1.476,0.00942981,9642.38,5854.9,-3891.2,48683.1,21296.6,11806.3,86883.5
1.478,0.00944815,9449.39,5962.84,-3967.67,49160.5,20964,11597.5,86236
1.48,0.00946653,9225.73,5797.75,-3594.55,48116.1,21040.2,11034.7,85122.6
1.482,0.00948492,8980.02,5436.46,-2898.33,45978.1,21410.1,10217.5,83674.2
1.484,0.00950332,8734.3,5075.17,-2202.11,43840.1,21779.9,9400.27,82225.9
1.486,0.00952171,8488.59,4713.87,-1505.89,41702.1,22149.8,8583.08,80777.6
1.488,0.00954011,8242.86,4352.56,-809.635,39564,22519.7,7765.83,79329.1
1.49,0.0095585,7997.15,3991.26,-113.417,37426,22889.6,6948.64,77880.8
1.492,0.0095769,7751.44,3629.97,582.801,35288,23259.4,6131.45,76432.4
1.494,0.00959529,7505.72,3268.67,1279.02,33150,23629.3,5314.25,74984.1
1.496,0.00961371,7316.66,3147.45,1959.31,32703.7,23717.4,4771.56,74753
1.498,0.00963213,7163.52,3178.33,2629.44,33329.2,23627.1,4402.82,75293
1.5,0.00965056,7010.37,3209.2,3299.58,33954.6,23536.7,4034.08,75832.9
1.502,0.00966899,6857.22,3240.07,3969.71,34580.1,23446.4,3665.34,76372.9
1.504,0.00968742,6712.23,3279.86,4600.8,35205.7,23346.5,3314.39,76806.8
1.506,0.00970589,6721.18,3487.6,4495.94,35833,23067.8,3298.62,75241.2
1.508,0.00972437,6730.13,3695.33,4391.09,36460.3,22789.2,3282.85,73675.7
1.51,0.00974285,6739.07,3903.07,4286.24,37087.6,22510.5,3267.08,72110.2
1.512,0.00976132,6748.02,4110.8,4181.39,37714.9,22231.8,3251.31,70544.7
1.514,0.0097798,6756.97,4318.54,4076.53,38342.2,21953.1,3235.54,68979.1
1.516,0.00979826,6699.38,4326.05,3892.4,37504.5,21732.5,3564.25,67653.6
1.518,0.00981672,6629.11,4295.35,3693.15,36387.1,21522.8,3958.71,66374
1.52,0.00983518,6558.83,4264.64,3493.89,35269.7,21313.2,4353.16,65094.3
1.522,0.00985364,6488.55,4233.94,3294.63,34152.3,21103.6,4747.62,63814.6
1.524,0.0098721,6418.27,4203.23,3095.36,33034.9,20894,5142.1,62534.8
1.526,0.00989056,6347.99,4172.52,2896.11,31917.5,20684.4,5536.56,61255.2
1.528,0.00990902,6277.71,4141.82,2696.85,30800.1,20474.8,5931.02,59975.5
1.53,0.00992748,6207.43,4111.12,2497.59,29682.7,20265.2,6325.47,58695.8
1.532,0.00994594,6144.59,4089.14,2308.43,28650.2,20055.2,6682.64,57469.5
1.534,0.00996439,6197.73,4203.45,2276.75,28942.5,19839.2,6458.03,57076.2
1.536,0.00998284,6250.86,4317.75,2245.08,29234.8,19623.3,6233.43,56683
1.538,0.0100013,6303.99,4432.05,2213.41,29527.1,19407.3,6008.83,56289.7
1.54,0.0100197,6357.12,4546.35,2181.74,29819.4,19191.4,5784.23,55896.4
1.542,0.0100382,6410.26,4660.66,2150.06,30111.7,18975.4,5559.61,55503.1
1.544,0.0100566,6463.39,4774.96,2118.39,30404,18759.5,5335.01,55109.9
1.546,0.0100751,6516.52,4889.26,2086.72,30696.3,18543.5,5110.41,54716.6
1.548,0.0100935,6569.66,5003.56,2055.05,30988.5,18327.6,4885.81,54323.4
1.55,0.010112,6622.79,5117.86,2023.37,31280.8,18111.6,4661.21,53930.1
1.552,0.0101304,6675.93,5232.17,1991.7,31573.1,17895.7,4436.6,53536.8
1.554,0.0101489,6673.41,5249.85,2075.38,31572.2,17808,4575.87,53457.6
1.556,0.0101674,6638.22,5210.79,2226.81,31399.1,17795.7,4928.85,53562.9
1.558,0.0101859,6603.03,5171.72,2378.24,31226,17783.4,5281.82,53668.1
1.56,0.0102044,6567.83,5132.66,2529.66,31052.8,17771.1,5634.8,53773.4
1.562,0.0102229,6532.64,5093.6,2681.1,30879.7,17758.8,5987.8,53878.7
1.564,0.0102414,6497.45,5054.54,2832.53,30706.6,17746.5,6340.78,53984
1.566,0.0102599,6462.25,5015.47,2983.96,30533.5,17734.2,6693.76,54089.2
1.568,0.0102784,6427.06,4976.41,3135.39,30360.3,17721.9,7046.74,54194.5
1.57,0.0102969,6391.86,4937.35,3286.82,30187.2,17709.6,7399.74,54299.8
1.572,0.0103154,6356.67,4898.28,3438.25,30014.1,17697.3,7752.71,54405
1.574,0.0103339,6321.48,4859.22,3589.68,29840.9,17685.1,8105.69,54510.3
1.576,0.0103524,6407.54,4805.15,3920.22,29690.7,17611.5,8274.5,54439.1
1.578,0.010371,6596.46,4738.35,4402.7,29559.8,17486,8287.08,54218.3
1.58,0.0103895,6785.4,4671.54,4885.2,29428.9,17360.5,8299.66,53997.5
1.582,0.010408,6974.32,4604.74,5367.67,29298,17235.1,8312.24,53776.6
1.584,0.0104265,7163.24,4537.94,5850.14,29167.1,17109.6,8324.82,53555.8
1.586,0.010445,7352.16,4471.14,6332.62,29036.2,16984.1,8337.4,53335
1.588,0.0104636,7541.09,4404.33,6815.12,28905.3,16858.6,8349.98,53114.1
1.59,0.0104821,7730.01,4337.53,7297.59,28774.4,16733.1,8362.56,52893.3
1.592,0.0105006,7918.93,4270.73,7780.06,28643.5,16607.7,8375.14,52672.5
1.594,0.0105191,7963.15,4222.06,7775.29,28450,16570.4,8517.47,52669.7
1.596,0.0105376,7976.39,4177.26,7666.23,28243,16552,8687.58,52713.6
1.598,0.0105562,7989.64,4132.47,7557.17,28036,16533.6,8857.69,52757.5
1.6,0.0105747,8002.88,4087.67,7448.11,27829,16515.2,9027.79,52801.4
1.602,0.0105932,8016.13,4042.88,7339.05,27622.1,16496.8,9197.89,52845.2
1.604,0.0106118,8029.37,3998.09,7229.99,27415.1,16478.4,9367.99,52889.1
1.606,0.0106303,7801.33,3958.23,7034.42,26251.3,16345,9200.89,52029.3
1.608,0.0106488,7412.64,3921.65,6781.23,24450.5,16135.1,8809.3,50567.8
1.61,0.0106674,7023.98,3885.07,6528.06,22649.8,15925.2,8417.73,49106.3
1.612,0.0106859,6635.31,3848.49,6274.89,20849.1,15715.3,8026.16,47644.9
1.614,0.0107045,6246.64,3811.91,6021.72,19048.4,15505.4,7634.58,46183.4
1.616,0.010723,5857.95,3775.33,5768.53,17247.6,15295.4,7242.99,44721.9
1.618,0.0107416,5469.29,3738.75,5515.36,15446.9,15085.5,6851.42,43260.5
1.62,0.0107601,5080.62,3702.18,5262.19,13646.2,14875.6,6459.85,41799
1.622,0.0107786,4949.67,3680.19,5073.74,12742.8,14749.5,6289.05,40958.1
1.624,0.0107972,5110.31,3674.71,4958.52,12854.5,14718.2,6368.06,40819.4
1.626,0.0108157,5270.97,3669.24,4843.3,12966.3,14686.8,6447.08,40680.7
1.628,0.0108343,5431.62,3663.76,4728.08,13078,14655.5,6526.09,40541.9
1.63,0.0108529,5592.26,3658.29,4612.86,13189.8,14624.1,6605.11,40403.2
1.632,0.0108714,5752.91,3652.81,4497.64,13301.5,14592.8,6684.12,40264.5
1.634,0.01089,5913.55,3647.33,4382.42,13413.3,14561.5,6763.13,40125.7
1.636,0.0109085,6074.21,3641.86,4267.19,13525,14530.1,6842.15,39987
1.638,0.0109271,6234.86,3636.38,4151.97,13636.8,14498.8,6921.16,39848.3
1.64,0.0109456,6395.5,3630.91,4036.75,13748.5,14467.4,7000.18,39709.5
1.642,0.0109642,6556.15,3625.43,3921.53,13860.3,14436.1,7079.19,39570.8
1.644,0.0109827,6716.8,3619.95,3806.31,13972,14404.8,7158.21,39432
1.646,0.0110013,6877.45,3614.48,3691.09,14083.8,14373.4,7237.22,39293.3
1.648,0.0110198,7038.1,3609,3575.87,14195.5,14342.1,7316.23,39154.6
1.65,0.0110384,7198.74,3603.52,3460.65,14307.3,14310.7,7395.25,39015.8
1.652,0.0110569,7359.39,3598.05,3345.43,14419,14279.4,7474.26,38877.1
1.654,0.0110755,7520.04,3592.57,3230.2,14530.8,14248.1,7553.28,38738.3
1.656,0.011094,7601.6,3626.49,3083.74,14640.8,14202.4,7642.84,38476.1
1.658,0.0111126,7623.89,3475.59,2751.18,14087.7,14211.3,7715.77,37901.5
1.66,0.0111312,7493.24,3236.9,2485.68,13258.3,14212.5,7555.13,37208.1
1.662,0.0111498,7362.59,2998.2,2220.18,12428.9,14213.7,7394.49,36514.7
1.664,0.0111684,7231.94,2759.5,1954.66,11599.5,14214.8,7233.84,35821.3
1.666,0.0111869,7101.29,2520.8,1689.16,10770.1,14216,7073.2,35127.9
1.668,0.0112055,6970.64,2282.11,1423.66,9940.75,14217.2,6912.56,34434.5
1.67,0.0112241,6839.99,2043.41,1158.15,9111.37,14218.4,6751.93,33741.1
1.672,0.0112427,6709.33,1804.71,892.636,8281.95,14219.6,6591.28,33047.7
1.674,0.0112612,6578.68,1566.01,627.134,7452.58,14220.8,6430.64,32354.3
1.676,0.0112798,6160.26,1162.09,482.408,6099.48,14208.4,5835.31,31422.4
1.678,0.0112984,6257.92,1056.21,385.305,5881.38,14177.6,5784.77,31651.7
1.68,0.011317,6355.59,950.33,288.202,5663.28,14146.8,5734.22,31881.1
1.682,0.0113356,6453.26,844.445,191.094,5445.17,14116,5683.67,32110.4
1.684,0.0113541,6550.92,738.566,93.991,5227.08,14085.2,5633.13,32339.7
1.686,0.0113727,6648.59,632.688,-3.11166,5008.98,14054.4,5582.58,32569
1.688,0.0113913,6745.3,518.905,-104.173,4835.41,14002.5,5533.03,32833.5
1.69,0.0114099,6841.48,400.738,-207.432,4686.49,13938.9,5484.02,33117.4
1.692,0.0114285,6937.66,282.577,-310.686,4537.58,13875.3,5435.02,33401.3
1.694,0.011447,7033.84,164.417,-413.939,4388.67,13811.7,5386.02,33685.3
1.696,0.0114656,7130.01,46.2566,-517.193,4239.77,13748.1,5337.02,33969.2
1.698,0.0114842,7226.19,-71.9038,-620.446,4090.86,13684.5,5288.02,34253.1
1.7,0.0115028,7322.38,-190.071,-723.706,3941.94,13621,5239.01,34537
1.702,0.0115213,7418.55,-308.232,-826.96,3793.03,13557.4,5190.01,34820.9
1.704,0.0115399,7514.73,-426.392,-930.213,3644.12,13493.8,5141.01,35104.8
1.706,0.0115585,7610.91,-544.552,-1033.47,3495.21,13430.2,5092.01,35388.7
1.708,0.0115771,7688.82,-641.528,-1125.45,3349.85,13380.1,5029.63,35618
1.71,0.0115957,7676.85,-634.255,-1161.97,3221.95,13396.1,4901.37,35578.6
1.712,0.0116142,7679.94,-609.753,-1199.16,3133.2,13399.5,4802.26,35553.6
1.714,0.0116328,7760.59,-496.52,-1239.79,3246,13337.9,4853.23,35602.3
1.716,0.0116514,7841.23,-383.288,-1280.42,3358.81,13276.3,4904.19,35650.9
1.718,0.01167,7921.88,-270.049,-1321.06,3471.62,13214.8,4955.16,35699.6
1.72,0.0116886,8002.53,-156.817,-1361.69,3584.43,13153.2,5006.13,35748.3
1.722,0.0117072,8083.18,-43.5843,-1402.32,3697.23,13091.6,5057.1,35797
1.724,0.0117258,8163.83,69.648,-1442.95,3810.04,13030,5108.06,35845.7
1.726,0.0117445,8228.25,180.411,-1481.54,3934.63,12964.9,5146.84,35849.7
1.728,0.0117631,8117.4,264.502,-1498.11,4186.57,12862.3,5054.02,35371
1.73,0.0117817,8006.55,348.589,-1514.67,4438.49,12759.7,4961.2,34892.3
1.732,0.0118003,7895.71,432.675,-1531.24,4690.41,12657.1,4868.38,34413.6
1.734,0.0118189,7784.86,516.762,-1547.8,4942.34,12554.5,4775.56,33934.9
1.736,0.0118375,7674.02,600.848,-1564.36,5194.26,12451.9,4682.74,33456.2
1.738,0.0118561,7563.17,684.939,-1580.93,5446.19,12349.2,4589.92,32977.5
1.74,0.0118747,7452.32,769.026,-1597.49,5698.11,12246.6,4497.1,32498.8
1.742,0.0118933,7341.48,853.112,-1614.06,5950.04,12144,4404.28,32020.1
1.744,0.0119119,7230.63,937.199,-1630.62,6201.96,12041.4,4311.46,31541.4
1.746,0.0119305,7119.78,1021.29,-1647.19,6453.89,11938.8,4218.64,31062.7
1.748,0.0119491,7008.93,1105.38,-1663.75,6705.82,11836.2,4125.82,30584
1.75,0.0119677,6898.09,1189.46,-1680.32,6957.74,11733.6,4033,30105.3
1.752,0.0119863,6787.24,1273.55,-1696.88,7209.66,11630.9,3940.18,29626.6
1.754,0.0120049,6676.4,1357.64,-1713.45,7461.58,11528.3,3847.36,29147.9
1.756,0.0120235,6565.55,1441.73,-1730.01,7713.52,11425.7,3754.54,28669.2
1.758,0.0120421,6448.2,1521.43,-1748.13,7944.09,11322.9,3663.95,28197
1.76,0.0120607,6131.69,1466.99,-1813.66,7521.27,11213.7,3641.47,27923.2
1.762,0.0120793,5794.01,1403.96,-1850.31,7073.63,11051.1,3554.55,27596.2
1.764,0.0120979,5427.07,1329.07,-1847.07,6591.68,10814.8,3378.64,27195.7
1.766,0.0121165,5060.15,1254.18,-1843.83,6109.75,10578.4,3202.73,26795.2
1.768,0.0121351,4693.23,1179.29,-1840.59,5627.83,10342.1,3026.83,26394.7
1.77,0.0121537,4326.31,1104.4,-1837.35,5145.9,10105.8,2850.92,25994.2
1.772,0.0121723,3959.39,1029.52,-1834.11,4663.98,9869.43,2675.02,25593.8
1.774,0.0121909,3592.44,954.625,-1830.87,4182.03,9633.08,2499.1,25193.3
1.776,0.0122095,3463.95,1003.02,-1821.84,4153.65,9486.22,2518.16,24832.2
1.778,0.0122281,3385.53,1077.29,-1811.6,4220.51,9358.14,2578.16,24479.5
1.78,0.0122467,3307.11,1151.57,-1801.35,4287.36,9230.07,2638.15,24126.7
1.782,0.0122653,3228.69,1225.85,-1791.1,4354.22,9102,2698.15,23773.9
1.784,0.012284,3146.68,1296.1,-1773.01,4434.76,8971.07,2759.52,23430.3
1.786,0.0123026,3052.75,1352.89,-1728.77,4560.92,8830.63,2825.47,23117.2
1.788,0.0123212,2958.82,1409.68,-1684.53,4687.07,8690.2,2891.41,22804.2
1.79,0.0123398,2864.88,1466.47,-1640.28,4813.23,8549.76,2957.36,22491.1
1.792,0.0123584,2770.94,1523.27,-1596.04,4939.39,8409.32,3023.31,22178
1.794,0.012377,2677.01,1580.06,-1551.79,5065.54,8268.88,3089.25,21865
1.796,0.0123956,2583.08,1636.86,-1507.55,5191.7,8128.45,3155.2,21551.9
1.798,0.0124142,2489.14,1693.65,-1463.31,5317.85,7988.01,3221.15,21238.8
1.8,0.0124328,2395.21,1750.44,-1419.06,5444,7847.58,3287.09,20925.8
1.802,0.0124514,2301.27,1807.24,-1374.82,5570.16,7707.13,3353.04,20612.7
1.804,0.01247,2207.34,1864.03,-1330.57,5696.32,7566.7,3418.99,20299.6
1.806,0.0124887,2113.4,1920.83,-1286.33,5822.47,7426.26,3484.93,19986.5
1.808,0.0125073,2024.61,1931.95,-1245.78,5560.92,7312.55,3389.87,19609.4
1.81,0.0125259,1941.66,1891.07,-1209.44,4857.87,7229.27,3111.45,19159.2
1.812,0.0125445,1858.71,1850.19,-1173.09,4154.78,7145.99,2833.01,18708.9
1.814,0.0125631,1775.76,1809.32,-1136.75,3451.73,7062.72,2554.59,18258.8
1.816,0.0125817,1692.81,1768.44,-1100.4,2748.68,6979.44,2276.17,17808.6
1.818,0.0126004,1609.87,1727.56,-1064.06,2045.62,6896.17,1997.75,17358.4
1.82,0.012619,1526.92,1686.68,-1027.71,1342.53,6812.88,1719.32,16908.2
1.822,0.0126376,1443.97,1645.8,-991.367,639.48,6729.61,1440.9,16458
1.824,0.0126562,1371.39,1615.88,-967.472,57.9395,6651.48,1200.1,16059.4
1.826,0.0126749,1353.37,1643.68,-1009.13,116.206,6600.48,1157.42,15932.6
1.828,0.0126935,1335.35,1671.48,-1050.79,174.473,6549.48,1114.75,15805.8
1.83,0.0127121,1317.34,1699.28,-1092.45,232.744,6498.48,1072.06,15679
1.832,0.0127307,1299.32,1727.07,-1134.11,291.011,6447.48,1029.38,15552.3
1.834,0.0127493,1281.3,1754.87,-1175.76,349.278,6396.47,986.705,15425.5
1.836,0.012768,1263.29,1782.67,-1217.42,407.544,6345.47,944.026,15298.7
1.838,0.0127866,1245.27,1810.47,-1259.08,465.815,6294.47,901.344,15171.9
1.84,0.0128052,1227.25,1838.26,-1300.74,524.082,6243.47,858.664,15045.1
1.842,0.0128238,1226.55,1866.99,-1333.77,665.998,6198.93,835.26,14983.8
1.844,0.0128424,1315.23,1900.49,-1322.29,1239.61,6187.76,911.333,15260.2
1.846,0.0128611,1403.91,1933.99,-1310.8,1813.22,6176.59,987.405,15536.6
1.848,0.0128797,1492.6,1967.5,-1299.31,2386.87,6165.42,1063.48,15813
1.85,0.0128983,1581.28,2001,-1287.83,2960.48,6154.24,1139.55,16089.4
1.852,0.0129169,1690.71,1897.8,-1330.35,2954.37,6136.26,1175.03,15911
1.854,0.0129355,1812.46,1713.37,-1404.95,2603.82,6114.24,1186.39,15462.5
1.856,0.0129542,1934.21,1528.95,-1479.56,2253.28,6092.21,1197.76,15013.9
1.858,0.0129728,2055.98,1344.51,-1554.17,1902.71,6070.18,1209.12,14565.3
1.86,0.0129914,2281.4,1268.03,-1569.66,2172.78,5982.97,1504.62,14419.6
1.862,0.01301,2515.73,1200.82,-1580.08,2496.17,5890.15,1824.54,14299.9
1.864,0.0130286,2750.06,1133.62,-1590.49,2819.55,5797.33,2144.45,14180.2
1.866,0.0130473,2984.41,1066.41,-1600.91,3142.96,5704.51,2464.39,14060.6
1.868,0.0130659,3045.11,1020.61,-1534.81,3106.69,5587.41,2538.73,13828.3
1.87,0.0130845,3050.34,981.66,-1444.25,2955.5,5462.55,2534.61,13560.1
1.872,0.0131031,3055.57,942.708,-1353.69,2804.32,5337.69,2530.49,13291.8
1.874,0.0131218,3060.79,903.755,-1263.14,2653.14,5212.83,2526.37,13023.6
1.876,0.0131404,3066.02,864.801,-1172.58,2501.94,5087.96,2522.24,12755.4
1.878,0.013159,3127.99,828.707,-1127.13,2508.37,5023.49,2527.35,12648
1.88,0.0131776,3194.89,792.86,-1085.59,2528.46,4964.25,2533.26,12554.6
1.882,0.0131963,3261.78,757.014,-1044.05,2548.55,4905.02,2539.17,12461.3
1.884,0.0132149,3328.68,721.168,-1002.51,2568.65,4845.78,2545.08,12367.9
1.886,0.0132335,3395.57,685.32,-960.964,2588.74,4786.54,2550.99,12274.5
1.888,0.0132522,3462.47,649.474,-919.423,2608.83,4727.3,2556.9,12181.1
1.89,0.0132708,3529.36,613.628,-877.883,2628.93,4668.06,2562.81,12087.7
1.892,0.0132894,3596.26,577.782,-836.343,2649.02,4608.83,2568.72,11994.3
1.894,0.013308,3663.15,541.933,-794.8,2669.11,4549.59,2574.63,11900.9
1.896,0.0133267,3730.05,506.087,-753.26,2689.2,4490.35,2580.54,11807.6
1.898,0.0133453,3796.94,470.241,-711.72,2709.3,4431.11,2586.44,11714.2
1.9,0.0133639,3863.84,434.395,-670.179,2729.39,4371.88,2592.35,11620.8
1.902,0.0133825,3930.73,398.549,-628.639,2749.48,4312.64,2598.26,11527.4
1.904,0.0134012,3997.63,362.701,-587.096,2769.58,4253.4,2604.17,11434
1.906,0.0134198,4064.52,326.854,-545.556,2789.67,4194.16,2610.08,11340.6
1.908,0.0134384,4131.42,291.008,-504.016,2809.76,4134.93,2615.99,11247.3
1.91,0.0134571,4198.49,253.906,-462.043,2828.53,4076.37,2621.39,11153.7
1.912,0.0134757,4260.66,250.743,-431.744,2883.14,3999.35,2640.54,11065.1
1.914,0.0134943,4322.83,247.58,-401.443,2937.75,3922.32,2659.7,10976.5
1.916,0.0135129,4385,244.417,-371.144,2992.36,3845.29,2678.85,10887.9
1.918,0.0135316,4447.17,241.254,-340.845,3046.97,3768.26,2698.01,10799.3
1.92,0.0135502,4509.34,238.091,-310.545,3101.58,3691.24,2717.16,10710.7
1.922,0.0135688,4571.51,234.928,-280.244,3156.19,3614.21,2736.31,10622
1.924,0.0135874,4633.67,231.765,-249.945,3210.8,3537.18,2755.47,10533.4
1.926,0.0136061,4695.84,228.602,-219.646,3265.41,3460.15,2774.62,10444.8
1.928,0.0136247,4758.01,225.439,-189.347,3320.02,3383.13,2793.78,10356.2
1.93,0.0136433,4820.18,222.276,-159.047,3374.63,3306.1,2812.93,10267.6
1.932,0.013662,4882.35,219.113,-128.746,3429.24,3229.07,2832.08,10179
1.934,0.0136806,4915.73,229.822,-94.6532,3479.81,3167.5,2843.99,10092.5
1.936,0.0136992,4931.62,248.963,-58.2539,3527.93,3115.31,2851.49,10007.2
1.938,0.0137178,4947.5,268.104,-21.8546,3576.04,3063.13,2859,9921.95
1.94,0.0137365,4963.39,287.246,14.547,3624.16,3010.94,2866.5,9836.69
1.942,0.0137551,4986.62,348.72,61.5393,3564.68,2940.47,2859.53,9730.59
1.944,0.0137737,5013.46,431.048,113.75,3452.19,2860.99,2845.43,9614.22
1.946,0.0137923,5040.31,513.375,165.96,3339.7,2781.51,2831.34,9497.84
1.948,0.013811,5067.16,595.703,218.17,3227.22,2702.03,2817.24,9381.47
1.95,0.0138296,5094,678.035,270.383,3114.73,2622.55,2803.14,9265.1
1.952,0.0138482,5120.85,760.363,322.594,3002.24,2543.07,2789.04,9148.73
1.954,0.0138669,5147.7,842.69,374.804,2889.75,2463.59,2774.94,9032.36
1.956,0.0138855,5174.54,925.018,427.014,2777.27,2384.11,2760.85,8915.99
1.958,0.0139041,5201.39,1007.35,479.224,2664.78,2304.63,2746.75,8799.62
1.96,0.0139227,5228.24,1089.68,531.438,2552.29,2225.15,2732.65,8683.24
1.962,0.0139414,5247.95,1171.33,585.204,2464.13,2146.83,2720.53,8565.18
1.964,0.01396,5230.17,1249.47,647.147,2503.81,2074.64,2718.82,8438.25
1.966,0.0139786,5212.39,1327.6,709.09,2543.48,2002.44,2717.1,8311.32
1.968,0.0139973,5194.61,1405.74,771.036,2583.16,1930.24,2715.39,8184.38
1.97,0.0140159,5176.83,1483.87,832.979,2622.84,1858.04,2713.67,8057.46
1.972,0.0140345,5159.05,1562.01,894.922,2662.52,1785.84,2711.96,7930.53
1.974,0.0140531,5141.27,1640.14,956.865,2702.2,1713.65,2710.24,7803.6
1.976,0.0140718,5131.48,1657.28,957.074,2626.46,1687.03,2689.18,7697.17
1.978,0.0140904,5124.6,1652.22,934.808,2508.7,1677,2661.08,7598.19
1.98,0.014109,5117.72,1647.16,912.542,2390.94,1666.97,2632.98,7499.23
1.982,0.0141277,5110.84,1642.09,890.277,2273.18,1656.95,2604.89,7400.26
1.984,0.0141463,5103.96,1637.03,868.011,2155.42,1646.92,2576.79,7301.29
1.986,0.0141649,5097.07,1631.97,845.746,2037.66,1636.89,2548.69,7202.33
1.988,0.0141836,5140.19,1591.72,846.157,1961.83,1620.85,2537.45,7107.28
1.99,0.0142022,5309.48,1462.67,903.809,1991.85,1589.63,2568.77,7022.16
1.992,0.0142208,5478.77,1333.62,961.46,2021.87,1558.42,2600.1,6937.04
1.994,0.0142394,5648.06,1204.58,1019.11,2051.88,1527.2,2631.42,6851.91
1.996,0.0142581,5817.35,1075.52,1076.77,2081.9,1495.98,2662.75,6766.79
1.998,0.0142767,5986.65,946.47,1134.42,2111.92,1464.76,2694.07,6681.66
2,0.0142953,6155.93,817.421,1192.07,2141.93,1433.55,2725.4,6596.54
