"arc_length","Displacement_Magnitude","Sxx","Sxy","Sxz","Syy","Syz","Szz","Von_Mises_Stress"
0,0,1.24038e+06,-73270.4,-7621.25,2.485e+06,437788,1.07913e+06,1.54239e+06
0.002,1.85217e-06,1.17973e+06,-67146.2,-6735.18,2.3951e+06,408524,998323,1.50642e+06
0.004,2.98447e-06,1.14643e+06,-64529.1,-5693.93,2.33804e+06,392220,958881,1.48274e+06
0.006,3.9262e-06,1.12206e+06,-63057.6,-4602,2.2917e+06,380151,932953,1.46307e+06
0.008,4.8918e-06,1.09768e+06,-61586.1,-3510.07,2.24536e+06,368082,907025,1.44341e+06
0.01,5.8695e-06,1.07331e+06,-60114.6,-2418.14,2.19902e+06,356013,881097,1.42374e+06
0.012,6.85413e-06,1.04894e+06,-58643.1,-1326.21,2.15268e+06,343944,855168,1.40407e+06
0.014,7.84307e-06,1.02457e+06,-57171.6,-234.283,2.10634e+06,331875,829240,1.3844e+06
0.016,8.79934e-06,1.00018e+06,-55255.6,1063.37,2.05887e+06,320842,804790,1.36492e+06
0.018,9.66744e-06,975772,-52218.7,2879.68,2.00853e+06,312424,784067,1.3459e+06
0.02,1.05363e-05,951362,-49181.8,4695.99,1.9582e+06,304005,763344,1.32689e+06
0.022,1.14059e-05,926952,-46145,6512.3,1.90787e+06,295587,742620,1.30787e+06
0.024,1.22759e-05,902542,-43108.1,8328.61,1.85754e+06,287168,721897,1.28886e+06
0.026,1.31463e-05,878132,-40071.2,10144.9,1.8072e+06,278750,701173,1.26984e+06
0.028,1.4017e-05,853722,-37034.3,11961.2,1.75687e+06,270331,680450,1.25083e+06
0.03,1.4888e-05,829312,-33997.4,13777.5,1.70654e+06,261913,659727,1.23181e+06
0.032,1.57592e-05,804902,-30960.6,15593.8,1.65621e+06,253494,639003,1.21279e+06
0.034,1.66305e-05,780492,-27923.7,17410.2,1.60587e+06,245076,618280,1.19378e+06
0.036,1.75021e-05,756082,-24886.8,19226.5,1.55554e+06,236658,597557,1.17476e+06
0.038,1.83737e-05,731672,-21849.9,21042.8,1.50521e+06,228239,576833,1.15575e+06
0.04,1.92455e-05,707262,-18813.1,22859.1,1.45488e+06,219821,556110,1.13673e+06
0.042,2.01174e-05,682852,-15776.2,24675.4,1.40454e+06,211402,535387,1.11771e+06
0.044,2.09894e-05,658442,-12739.3,26491.7,1.35421e+06,202984,514663,1.0987e+06
0.046,2.18615e-05,634032,-9702.42,28308,1.30388e+06,194565,493940,1.07968e+06
0.048,2.27336e-05,609622,-6665.54,30124.3,1.25355e+06,186147,473216,1.06067e+06
0.05,2.47155e-05,580955,-4326.29,32855.2,1.21807e+06,182621,439397,1.06266e+06
0.052,2.70987e-05,550752,-2238.64,35915.9,1.18795e+06,180859,400854,1.07224e+06
0.054,2.94828e-05,520549,-150.995,38976.6,1.15782e+06,179097,362312,1.08181e+06
0.056,3.18675e-05,490346,1936.65,42037.3,1.1277e+06,177335,323769,1.09139e+06
0.058,3.42527e-05,460143,4024.3,45097.9,1.09758e+06,175574,285226,1.10096e+06
0.06,3.66384e-05,429940,6111.95,48158.6,1.06746e+06,173812,246684,1.11054e+06
0.062,3.90244e-05,399737,8199.6,51219.3,1.03734e+06,172050,208141,1.12011e+06
0.064,4.12948e-05,395449,7559.16,51347.4,1.03099e+06,176083,205426,1.12272e+06
0.066,4.35938e-05,393046,6720.26,51262.1,1.02638e+06,180538,205318,1.12482e+06
0.068,4.59254e-05,390644,5881.34,51176.8,1.02177e+06,184993,205210,1.12693e+06
0.07,4.82849e-05,388241,5042.44,51091.5,1.01716e+06,189448,205102,1.12903e+06
0.072,5.06651e-05,382897,2245.43,51200.5,1.00829e+06,188462,193852,1.12907e+06
0.074,5.30572e-05,377078,-867.482,51340.8,998743,186599,180806,1.12878e+06
0.076,5.54595e-05,371259,-3980.38,51481.1,989193,184736,167759,1.12849e+06
0.078,5.78708e-05,365440,-7093.3,51621.4,979643,182873,154712,1.1282e+06
0.08,6.02899e-05,359621,-10206.2,51761.7,970094,181009,141665,1.1279e+06
0.082,6.27161e-05,353802,-13319.1,51902,960544,179146,128618,1.12761e+06
0.084,6.51484e-05,347984,-16432,52042.3,950994,177283,115571,1.12732e+06
0.086,6.75863e-05,342165,-19544.9,52182.6,941444,175420,102524,1.12703e+06
0.088,7.00286e-05,337633,-22311.1,52070.7,933521,174327,91357.6,1.12819e+06
0.09,7.24757e-05,340037,-23208.6,50599.6,934365,177384,90325.1,1.13718e+06
0.092,7.49311e-05,342441,-24106.1,49128.5,935209,180441,89292.6,1.14616e+06
0.094,7.73942e-05,344845,-25003.5,47657.4,936053,183497,88260.1,1.15515e+06
0.096,7.98641e-05,347249,-25901,46186.3,936898,186554,87227.6,1.16413e+06
0.098,8.23404e-05,349653,-26798.5,44715.2,937742,189611,86195,1.17312e+06
0.1,8.51043e-05,356491,-28291.9,43783.4,950139,193026,86714,1.19004e+06
0.102,8.87798e-05,377623,-31706.3,44589.9,999771,197594,92233.2,1.23253e+06
0.104,9.2457e-05,398754,-35120.6,45396.3,1.0494e+06,202162,97752.5,1.27503e+06
0.106,9.61356e-05,419885,-38535,46202.8,1.09904e+06,206730,103272,1.31752e+06
0.108,9.98155e-05,441017,-41949.3,47009.3,1.14867e+06,211298,108791,1.36002e+06
0.11,0.000103496,462148,-45363.7,47815.8,1.1983e+06,215866,114310,1.40251e+06
0.112,0.000107179,483279,-48778,48622.2,1.24793e+06,220434,119830,1.44501e+06
0.114,0.000110862,504411,-52192.3,49428.7,1.29757e+06,225002,125349,1.4875e+06
0.116,0.000114708,497984,-52452.8,48149.5,1.27974e+06,226223,123496,1.47544e+06
0.118,0.000118728,462242,-49358.3,44651.8,1.19015e+06,223883,113802,1.40535e+06
0.12,0.000122749,426500,-46263.8,41154,1.10057e+06,221544,104107,1.33525e+06
0.122,0.000126771,390758,-43169.2,37656.2,1.01098e+06,219204,94412.8,1.26516e+06
0.124,0.000130792,355017,-40074.7,34158.4,921396,216864,84718.3,1.19506e+06
0.126,0.000134814,319275,-36980.2,30660.6,831810,214525,75023.8,1.12497e+06
0.128,0.000138836,283533,-33885.6,27162.8,742224,212185,65329.3,1.05487e+06
0.13,0.000142859,247791,-30791.1,23665,652639,209845,55634.8,984778
0.132,0.00014716,234198,-30569,21262.2,617363,208307,51807.5,959745
0.134,0.000151636,233707,-32046.2,19507.3,614218,207242,51451.3,961373
0.136,0.000156124,233217,-33523.5,17752.3,611073,206177,51095.1,963000
0.138,0.000160622,232727,-35000.7,15997.3,607928,205112,50739,964628
0.14,0.000165131,232237,-36477.9,14242.3,604782,204047,50382.8,966255
0.142,0.00016965,231747,-37955.2,12487.4,601637,202983,50026.6,967883
0.144,0.000174177,231257,-39432.4,10732.4,598492,201918,49670.4,969510
0.146,0.000178712,230767,-40909.6,8977.42,595347,200853,49314.2,971137
0.148,0.000183254,230277,-42386.8,7222.44,592202,199788,48958,972765
0.15,0.000187803,229786,-43864.1,5467.46,589057,198723,48601.8,974392
0.152,0.000192359,229296,-45341.3,3712.5,585912,197658,48245.6,976020
0.154,0.00019692,228806,-46818.5,1957.52,582767,196594,47889.4,977647
0.156,0.000201487,228316,-48295.8,202.543,579622,195529,47533.2,979274
0.158,0.000206059,227826,-49773,-1552.43,576477,194464,47177,980902
0.16,0.000210636,227336,-51250.2,-3307.4,573331,193399,46820.9,982529
0.162,0.000215217,226846,-52727.4,-5062.38,570186,192334,46464.7,984157
0.164,0.000219803,226356,-54204.7,-6817.35,567041,191269,46108.5,985784
0.166,0.000224392,225865,-55681.9,-8572.32,563896,190205,45752.3,987411
0.168,0.000228985,225375,-57159.1,-10327.3,560751,189140,45396.1,989039
0.17,0.000233582,224885,-58636.3,-12082.3,557606,188075,45039.9,990666
0.172,0.000238182,224395,-60113.6,-13837.3,554461,187010,44683.7,992294
0.174,0.000242685,226128,-61122.5,-12198.6,560436,185994,44086.7,990675
0.176,0.000247136,229076,-61875.5,-8705.54,571394,185006,43358.1,987282
0.178,0.000252111,229324,-61773.3,-10262.1,572927,183415,44882,975370
0.18,0.000257585,228105,-61039.1,-16142,568934,181253,49002.7,958774
0.182,0.000263372,237732,-61854.3,-19533.1,598233,178749,59543.2,975793
0.184,0.000269159,247358,-62669.6,-22924.2,627532,176245,70083.7,992811
0.186,0.000274947,256985,-63484.8,-26315.3,656831,173741,80624.3,1.00983e+06
0.188,0.000280736,266612,-64300,-29706.4,686130,171237,91164.8,1.02685e+06
0.19,0.000286526,276239,-65115.3,-33097.5,715429,168733,101705,1.04387e+06
0.192,0.000292317,285866,-65930.5,-36488.7,744728,166229,112246,1.06089e+06
0.194,0.000298108,295492,-66745.7,-39879.8,774028,163725,122786,1.0779e+06
0.196,0.0003039,305119,-67561,-43270.9,803327,161221,133327,1.09492e+06
0.198,0.000309897,309080,-66480.8,-43645.4,811602,158671,137155,1.09305e+06
0.2,0.000315973,310983,-64712,-42924,812239,156103,138544,1.0843e+06
0.202,0.000322052,312885,-62943.3,-42202.6,812877,153536,139933,1.07556e+06
0.204,0.000328134,314787,-61174.5,-41481.1,813514,150969,141322,1.06682e+06
0.206,0.000334219,316690,-59405.7,-40759.7,814151,148402,142711,1.05808e+06
0.208,0.000340307,318592,-57636.9,-40038.3,814788,145835,144099,1.04934e+06
0.21,0.000346398,320495,-55868.2,-39316.9,815426,143268,145488,1.04059e+06
0.212,0.000352491,322397,-54099.4,-38595.5,816063,140701,146877,1.03185e+06
0.214,0.000358587,324300,-52330.6,-37874,816700,138134,148266,1.02311e+06
0.216,0.000364685,326202,-50561.8,-37152.6,817337,135567,149655,1.01437e+06
0.218,0.000370785,328105,-48793.1,-36431.2,817975,133000,151044,1.00563e+06
0.22,0.000376887,330007,-47024.3,-35709.8,818612,130433,152433,996884
0.222,0.000382992,331909,-45255.5,-34988.4,819249,127865,153822,988143
0.224,0.000389098,333812,-43486.7,-34266.9,819887,125298,155211,979401
0.226,0.000395647,322408,-40735.4,-27072,802552,122615,149722,968595
0.228,0.000402207,310691,-37961,-19725.1,784795,119928,144071,957740
0.23,0.000408767,298974,-35186.6,-12378.2,767038,117242,138420,946885
0.232,0.000415327,287257,-32412.2,-5031.39,749281,114555,132770,936031
0.234,0.000421888,275541,-29637.8,2315.51,731524,111869,127119,925176
0.236,0.000428449,263824,-26863.3,9662.4,713767,109182,121469,914322
0.238,0.00043501,252107,-24088.9,17009.3,696011,106496,115818,903467
0.24,0.00044181,249660,-23776.2,22061.7,690198,105566,115046,916364
0.242,0.000448663,249217,-23995.7,26618.1,686967,105015,115329,934395
0.244,0.000455519,248773,-24215.2,31174.5,683736,104465,115613,952427
0.246,0.000462376,248330,-24434.7,35730.9,680505,103914,115896,970458
0.248,0.000469235,247887,-24654.2,40287.2,677274,103364,116179,988489
0.25,0.000476096,247444,-24873.7,44843.6,674044,102813,116462,1.00652e+06
0.252,0.000482958,247000,-25093.2,49400,670813,102263,116745,1.02455e+06
0.254,0.000489822,246557,-25312.7,53956.4,667582,101712,117028,1.04258e+06
0.256,0.000496687,246114,-25532.2,58512.8,664351,101162,117312,1.06061e+06
0.258,0.000503554,245670,-25751.6,63069.1,661120,100611,117595,1.07865e+06
0.26,0.000510422,245227,-25971.1,67625.5,657890,100061,117878,1.09668e+06
0.262,0.000517673,240189,-23865.8,70006.5,653971,103801,117662,1.10541e+06
0.264,0.000524998,234250,-21305,71961.4,649917,108383,117348,1.11233e+06
0.266,0.000532324,228311,-18744.1,73916.2,645864,112965,117034,1.11924e+06
0.268,0.000539649,222372,-16183.3,75871,641810,117546,116721,1.12616e+06
0.27,0.000546975,216434,-13622.5,77825.8,637757,122128,116407,1.13307e+06
0.272,0.000554302,210495,-11061.6,79780.6,633704,126710,116093,1.13999e+06
0.274,0.000561707,205661,-8336.53,81209.3,629741,130778,115843,1.14509e+06
0.276,0.000569477,205951,-4849.83,80198.7,626197,132466,115892,1.14179e+06
0.278,0.000577248,206240,-1363.14,79188.2,622653,134155,115941,1.13849e+06
0.28,0.00058502,206529,2123.56,78177.7,619109,135844,115989,1.13519e+06
0.282,0.000593106,212580,4937.98,75295.1,628512,133231,114592,1.1172e+06
0.284,0.000601315,220859,7492.36,71688.3,642923,128953,112636,1.09354e+06
0.286,0.000609523,229138,10046.7,68081.4,657334,124676,110679,1.06987e+06
0.288,0.000617732,237418,12601.1,64474.7,671745,120399,108723,1.0462e+06
0.29,0.000625941,245697,15155.4,60867.9,686156,116121,106766,1.02253e+06
0.292,0.00063415,253976,17709.8,57261,700567,111844,104810,998859
0.294,0.000642441,257793,17409.7,53405.1,714452,111284,104365,981863
0.296,0.000650746,260883,16645,49508.5,728253,111329,104165,965954
0.298,0.000659054,263973,15880.3,45612,742053,111374,103966,950045
0.3,0.000667362,267063,15115.5,41715.5,755853,111419,103767,934136
0.302,0.000675672,270153,14350.8,37819,769653,111464,103568,918227
0.304,0.000683983,273243,13586.1,33922.5,783454,111509,103369,902318
0.306,0.000692296,276333,12821.3,30026,797254,111554,103170,886409
0.308,0.000700609,279423,12056.6,26129.4,811054,111599,102971,870500
0.31,0.000708924,282513,11291.9,22232.9,824854,111644,102772,854591
0.312,0.000717255,285563,10453,18110.4,838073,111703,102716,839024
0.314,0.000726003,287505,7568.84,7754.41,835244,112157,106617,832888
0.316,0.000734751,289447,4684.69,-2601.55,832415,112611,110517,826752
0.318,0.000743499,291388,1800.58,-12957.3,829586,113065,114418,820616
0.32,0.000752248,293330,-1083.56,-23313.3,826757,113518,118318,814480
0.322,0.000760996,295272,-3967.71,-33669.3,823928,113972,122219,808344
0.324,0.000769745,297214,-6851.86,-44025.2,821099,114426,126119,802209
0.326,0.000778516,298655,-9515.82,-53218.6,816753,114680,129842,798429
0.328,0.000787479,295703,-10252.4,-52235.8,799126,113183,132001,815276
0.33,0.000796443,292752,-10988.9,-51252.9,781500,111687,134160,832122
0.332,0.000805407,289801,-11725.5,-50270.1,763873,110190,136319,848968
0.334,0.000814373,286850,-12462.1,-49287.2,746247,108693,138478,865815
0.336,0.000823339,283899,-13198.6,-48304.4,728620,107197,140637,882662
0.338,0.000832307,280948,-13935.2,-47321.5,710993,105700,142796,899508
0.34,0.000841275,277996,-14671.7,-46338.7,693367,104204,144956,916355
0.342,0.000850244,275045,-15408.3,-45355.8,675740,102707,147115,933201
0.344,0.000859214,272094,-16144.9,-44373,658113,101210,149274,950048
0.346,0.000868184,269143,-16881.4,-43390.1,640487,99713.7,151433,966894
0.348,0.000877328,263447,-17128.6,-40907.3,622795,98707.9,150710,971519
0.35,0.000886782,252810,-16495.2,-35725.2,604986,98585.6,144799,954149
0.352,0.000896237,242173,-15861.8,-30543.1,587177,98463.2,138888,936780
0.354,0.000905692,231536,-15228.4,-25361,569367,98340.9,132977,919410
0.356,0.000915146,220899,-14595,-20178.9,551558,98218.6,127067,902040
0.358,0.000924601,210262,-13961.6,-14996.8,533749,98096.2,121156,884671
0.36,0.000934056,199625,-13328.2,-9814.72,515939,97973.9,115245,867301
0.362,0.000943511,188989,-12694.8,-4632.7,498130,97851.5,109334,849932
0.364,0.000953138,187913,-12767.1,-3328.86,501224,96120.1,107566,842199
0.366,0.000962797,188597,-12969.2,-2738.45,508164,94092.6,106560,836239
0.368,0.000972457,189280,-13171.4,-2148.04,515103,92065.1,105555,830280
0.37,0.000982119,189964,-13373.5,-1557.63,522042,90037.7,104549,824320
0.372,0.000991781,190647,-13575.6,-967.224,528981,88010.2,103543,818360
0.374,0.00100144,191330,-13777.8,-376.814,535921,85982.8,102537,812400
0.376,0.00101111,192014,-13979.9,213.588,542860,83955.3,101531,806440
0.378,0.00102077,192697,-14182,803.998,549799,81927.9,100525,800481
0.38,0.00103044,193381,-14384.2,1394.41,556738,79900.4,99518.8,794521
0.382,0.00104012,194762,-14697.7,1872.81,566503,78352.1,99136.4,786046
0.384,0.00104985,198441,-15378.1,1982.28,585576,78381.6,100808,769289
0.386,0.00105958,202120,-16058.4,2091.76,604649,78411.2,102479,752532
0.388,0.00106932,205799,-16738.8,2201.23,623721,78440.7,104151,735775
0.39,0.00107905,209478,-17419.2,2310.7,642794,78470.3,105822,719018
0.392,0.00108879,213157,-18099.5,2420.18,661866,78499.8,107493,702261
0.394,0.00109874,215205,-18431,3011.14,675936,78944.2,109776,688317
0.396,0.00110915,213900,-18045.4,4591.62,679724,80241.3,113313,680153
0.398,0.00111955,212596,-17659.7,6172.1,683511,81538.4,116851,671990
0.4,0.00112996,211292,-17274.1,7752.58,687299,82835.5,120389,663826
0.402,0.00114036,209988,-16888.5,9333.05,691087,84132.5,123926,655663
0.404,0.00115077,208683,-16502.9,10913.5,694875,85429.6,127464,647499
0.406,0.00116117,207379,-16117.3,12494,698663,86726.6,131001,639336
0.408,0.00117158,206075,-15731.7,14074.5,702450,88023.7,134539,631172
0.41,0.00118208,200716,-14506.7,15214.4,697109,88873.6,134835,632236
0.412,0.00119285,191195,-12943,14567.7,672096,87380.2,129211,648312
0.414,0.00120362,181675,-11379.4,13921,647082,85886.8,123586,664388
0.416,0.0012144,172155,-9815.67,13274.3,622069,84393.4,117962,680464
0.418,0.00122517,162635,-8251.99,12627.6,597056,82899.9,112338,696540
0.42,0.00123594,153115,-6688.34,11980.9,572043,81406.5,106714,712616
0.422,0.00124671,143595,-5124.65,11334.2,547029,79913.1,101090,728692
0.424,0.00125748,134074,-3560.97,10687.5,522016,78419.7,95466.4,744768
0.426,0.00126826,124554,-1997.29,10040.8,497002,76926.3,89842.3,760844
0.428,0.00127903,115034,-433.611,9394.14,471989,75432.8,84218.3,776920
0.43,0.00128981,105514,1130.07,8747.44,446976,73939.4,78594.2,792996
0.432,0.00130056,98768,725.603,7519.33,422203,71848.2,75395.2,799903
0.434,0.00131128,94429.1,-1386.44,5786.8,397639,69238.3,74300.3,798854
0.436,0.00132201,90090.1,-3498.51,4054.24,373075,66628.4,73205.3,797804
0.438,0.00133274,85751.1,-5610.58,2321.68,348510,64018.6,72110.3,796755
0.44,0.00134346,81412.1,-7722.65,589.121,323946,61408.7,71015.4,795706
0.442,0.00135419,77073.1,-9834.71,-1143.44,299382,58798.8,69920.4,794657
0.444,0.00136516,78255.1,-16775.8,-2620.29,287299,55086.1,71003.5,790792
0.446,0.00137634,83965.6,-27677.8,-3887.39,285455,50468.8,73873.2,784617
0.448,0.00138751,89676.1,-38579.8,-5154.5,283611,45851.5,76742.8,778442
0.45,0.00139869,95386.4,-49481.7,-6421.58,281766,41234.3,79612.4,772267
0.452,0.00141027,101646,-48806.2,-4565.02,302451,41311.3,84271.9,762862
0.454,0.00142189,107947,-47236,-2467.06,324877,41751.1,89069.7,753206
0.456,0.0014335,114249,-45665.9,-369.097,347303,42190.9,93867.5,743551
0.458,0.00144511,120550,-44095.7,1728.87,369729,42630.7,98665.4,733896
0.46,0.00145673,126852,-42525.5,3826.83,392156,43070.5,103463,724241
0.462,0.00146834,133154,-40955.3,5924.79,414582,43510.3,108261,714585
0.464,0.00147996,139455,-39385.2,8022.72,437007,43950.1,113059,704930
0.466,0.00149157,145757,-37815,10120.7,459433,44389.9,117857,695275
0.468,0.00150319,152058,-36244.8,12218.6,481859,44829.7,122654,685620
0.47,0.00151481,158360,-34674.7,14316.6,504286,45269.5,127452,675965
0.472,0.00152642,164661,-33104.5,16414.6,526712,45709.3,132250,666309
0.474,0.00153804,170963,-31534.3,18512.5,549138,46149.1,137048,656654
0.476,0.00154965,177265,-29964.1,20610.5,571564,46588.9,141846,646999
0.478,0.00156124,182798,-26044.9,22920.4,591750,47375.9,147008,635099
0.48,0.00157277,187314,-19014.9,25511,608971,48622.7,152654,620227
0.482,0.0015843,191829,-11984.8,28101.7,626192,49869.4,158300,605354
0.484,0.00159584,196345,-4954.84,30692.3,643413,51116.2,163946,590482
0.486,0.00160737,200861,2075.17,33283,660634,52363,169592,575609
0.488,0.00161903,201328,9246.74,35049.9,671441,52044.3,171301,566252
0.49,0.00163096,192512,16742.8,34928.6,667548,48137.5,163985,569536
0.492,0.00164289,183697,24238.9,34807.3,663654,44230.8,156669,572821
0.494,0.00165482,174881,31734.8,34686.1,659761,40324,149353,576105
0.496,0.00166675,166066,39230.9,34564.8,655867,36417.2,142038,579390
0.498,0.00167868,157250,46727,34443.5,651973,32510.4,134722,582675
0.5,0.00169078,150068,50110,33953.4,648183,30229,127081,585850
0.502,0.00170302,144481,49499.3,32695.2,644733,28796.3,119339,589944
0.504,0.00171521,140647,44633.3,28348.1,642974,24229.4,112670,600691
0.506,0.0017274,137076,40062.9,24247.7,640981,19984.6,106345,610709
0.508,0.00173951,135692,37967.5,22212.7,637030,18436,102901,614630
0.51,0.00175162,134308,35872.1,20177.8,633079,16887.5,99457.1,618550
0.512,0.00176373,132924,33776.7,18142.8,629128,15338.9,96013,622471
0.514,0.00177584,131540,31681.3,16107.9,625177,13790.4,92569,626392
0.516,0.00178795,130156,29586,14073,621226,12241.9,89125.1,630313
0.518,0.00180006,128772,27490.5,12038,617275,10693.3,85681,634234
0.52,0.00181218,127388,25395.2,10003.1,613324,9144.77,82237,638155
0.522,0.00182429,126004,23299.8,7968.08,609372,7596.2,78792.9,642075
0.524,0.0018364,124620,21204.4,5933.16,605421,6047.68,75348.9,645996
0.526,0.00184851,123236,19109,3898.18,601470,4499.11,71904.8,649917
0.528,0.00186069,121970,17805.5,2780.99,598396,4031.57,69164.5,653967
0.53,0.00187316,121205,19837.7,5529.76,599019,8117.72,69388.9,658560
0.532,0.00188562,120440,21870,8278.62,599642,12204,69613.3,663153
0.534,0.00189808,119674,23902.3,11027.4,600264,16290.1,69837.7,667746
0.536,0.00191054,118909,25934.6,13776.3,600887,20376.4,70062.1,672339
0.538,0.001923,118144,27966.9,16525,601510,24462.6,70286.5,676932
0.54,0.00193547,117449,29876.7,19229.3,601580,28501,70539.1,680733
0.542,0.00194805,118056,29529.8,21111.1,591466,31657.6,71311.4,669932
0.544,0.00196088,118260,27238.8,20935.2,577587,34141.3,71812.7,658998
0.546,0.00197389,118152,23444.5,19167.8,560795,36104.5,72104.4,647963
0.548,0.00198691,118044,19650.1,17400.3,544002,38067.8,72396,636928
0.55,0.00199992,117936,15855.6,15632.8,527210,40031,72687.7,625893
0.552,0.00201293,117828,12061.3,13865.3,510417,41994.3,72979.3,614858
0.554,0.00202595,117720,8266.81,12097.8,493625,43957.6,73271,603823
0.556,0.00203911,117703,6759.66,14162.9,489654,44662.4,72917.4,623461
0.558,0.00205232,117707,5791.54,17131.3,488705,45070.7,72411.7,650329
0.56,0.00206552,117712,4823.45,20099.7,487756,45479,71906,677196
0.562,0.00207872,117716,3855.35,23068.1,486807,45887.2,71400.3,704064
0.564,0.00209193,117721,2887.23,26036.6,485858,46295.5,70894.6,730932
0.566,0.00210513,117725,1919.14,29005,484909,46703.8,70389,757799
0.568,0.00211833,117730,951.018,31973.5,483960,47112.1,69883.3,784667
0.57,0.00213154,117734,-17.0746,34941.9,483011,47520.3,69377.6,811535
0.572,0.00214474,117739,-985.196,37910.3,482062,47928.6,68871.9,838403
0.574,0.00215808,116712,-1455.49,41311.1,470023,47904.5,65274.4,848073
0.576,0.00217153,113767,-2242.4,44822.1,464822,47892.7,64923.9,846420
0.578,0.00218499,110663,-3109.54,48312.2,461380,47917.5,65233,844730
0.58,0.00219845,107559,-3976.65,51802.1,457939,47942.3,65542.1,843041
0.582,0.00221191,104456,-4843.79,55292.2,454497,47967.1,65851.2,841351
0.584,0.00222537,101352,-5710.9,58782.2,451055,47991.8,66160.3,839662
0.586,0.00223882,98248.3,-6578.03,62272.2,447613,48016.6,66469.3,837973
0.588,0.00225228,95144.6,-7445.14,65762.2,444171,48041.4,66778.4,836283
0.59,0.00226574,92040.9,-8312.25,69252.1,440730,48066.2,67087.5,834594
0.592,0.0022792,88937.2,-9179.39,72742.2,437288,48090.9,67396.6,832904
0.594,0.00229266,85833.5,-10046.5,76232.2,433846,48115.7,67705.7,831215
0.596,0.0023063,85269,-10522.6,77819.7,433314,49873.1,69987.5,826953
0.598,0.00232007,86362.8,-10743.4,78164.5,434682,52761.9,73557.7,821011
0.6,0.00233384,87456.7,-10964.1,78509.3,436051,55650.8,77127.9,815069
0.602,0.00234757,88823.4,-11013.1,77752.8,435443,58775.1,79821.2,803271
0.604,0.00236129,90320,-10980.2,76471.7,433895,62011.6,82096.9,788684
0.606,0.002375,91816.7,-10947.3,75190.6,432346,65248.1,84372.8,774097
0.608,0.00238871,93313.4,-10914.4,73909.6,430797,68484.6,86648.5,759511
0.61,0.00240242,94810.1,-10881.5,72628.5,429248,71721.1,88924.3,744924
0.612,0.00241613,96306.7,-10848.6,71347.5,427700,74957.6,91200,730337
0.614,0.00242985,97803.4,-10815.7,70066.4,426151,78194.1,93475.8,715750
0.616,0.00244356,99300.1,-10782.8,68785.4,424602,81430.6,95751.6,701164
0.618,0.00245727,100797,-10749.9,67504.3,423054,84667,98027.3,686577
0.62,0.00247103,101203,-10146.5,65499.3,420087,87843.9,99889.6,677425
0.622,0.00248494,97884.4,-7595.07,61022.4,412279,90816.7,100340,686827
0.624,0.00249884,94566,-5043.6,56545.3,404471,93789.6,100790,696230
0.626,0.00251288,91326.4,-3237.34,52823.7,397923,94406.8,101353,698686
0.628,0.00252704,88166.2,-2184.16,49865.4,392648,92643,102029,694119
0.63,0.00254121,85006,-1131.01,46907.3,387373,90879.3,102705,689553
0.632,0.00255538,81845.8,-77.8223,43949,382098,89115.5,103381,684987
0.634,0.00256954,78685.6,975.33,40990.8,376824,87351.8,104057,680421
0.636,0.00258379,76084.1,1600.89,39137.1,371651,85281,104494,676085
0.638,0.00259823,74864.4,1168.6,40015.8,366731,82450.4,104336,672317
0.64,0.00261268,73644.8,736.334,40894.5,361811,79619.9,104178,668548
0.642,0.00262712,72425.1,304.05,41773.2,356890,76789.3,104020,664780
0.644,0.00264157,71205.5,-128.221,42651.8,351970,73958.8,103862,661012
0.646,0.00265612,70267.5,-122.596,42528.4,349635,71588.8,102837,657098
0.648,0.00267082,69768.7,565.788,40842.6,351329,69937,100459,652956
0.65,0.00268553,69269.9,1254.17,39156.8,353023,68285.2,98080.7,648814
0.652,0.00270024,68771.1,1942.58,37470.9,354717,66633.3,95702.5,644673
0.654,0.00271494,68272.3,2630.96,35785.1,356411,64981.5,93324.3,640531
0.656,0.00272965,67773.5,3319.37,34099.2,358106,63329.7,90946.1,636389
0.658,0.00274436,67274.8,4007.75,32413.4,359800,61677.9,88568,632248
0.66,0.00275907,66776,4696.16,30727.5,361494,60026,86189.8,628106
0.662,0.00277378,66277.2,5384.54,29041.7,363188,58374.2,83811.7,623964
0.664,0.00278848,65778.4,6072.92,27355.8,364882,56722.4,81433.6,619822
0.666,0.00280319,65279.6,6761.33,25670,366576,55070.5,79055.4,615681
0.668,0.0028179,64780.8,7449.71,23984.1,368271,53418.7,76677.2,611539
0.67,0.00283261,64282,8138.12,22298.3,369965,51766.9,74299,607397
0.672,0.00284732,63783.3,8826.5,20612.4,371659,50115.1,71920.9,603256
0.674,0.00286203,63284.5,9514.91,18926.6,373353,48463.2,69542.7,599114
0.676,0.00287674,62785.7,10203.3,17240.7,375047,46811.4,67164.6,594972
0.678,0.00289145,62286.9,10891.7,15554.9,376742,45159.6,64786.5,590831
0.68,0.00290617,61764.3,11620.2,13753.5,377932,43752.1,62093.7,586735
0.682,0.00292107,60753.6,13171.1,9582.22,368787,47354.9,52951.3,583578
0.684,0.00293597,59742.8,14722,5410.86,359643,50957.8,43808.7,580422
0.686,0.00295088,58732.1,16272.8,1239.63,350498,54560.6,34666.3,577266
0.688,0.00296578,57721.3,17823.7,-2931.73,341354,58163.5,25523.6,574110
0.69,0.00298068,56710.5,19374.6,-7102.96,332209,61766.3,16381.2,570954
0.692,0.00299558,55699.8,20925.5,-11274.2,323065,65369.1,7238.85,567798
0.694,0.00301049,54689,22476.4,-15445.6,313920,68972,-1903.81,564641
0.696,0.00302539,53678.3,24027.3,-19616.8,304776,72574.8,-11046.2,561485
0.698,0.00304039,53124.6,24677.5,-21794.3,298268,75501.5,-18021.6,555867
0.7,0.00305558,53524.1,23449.3,-19813.3,297259,77018,-20476.8,545116
0.702,0.00307077,53923.7,22221.1,-17832.4,296250,78534.6,-22932.1,534364
0.704,0.00308597,54323.3,20992.9,-15851.4,295241,80051.1,-25387.4,523612
0.706,0.00310116,54722.8,19764.7,-13870.5,294232,81567.6,-27842.6,512860
0.708,0.00311635,55122.4,18536.5,-11889.5,293223,83084.2,-30297.9,502108
0.71,0.00313155,55522,17308.3,-9908.55,292214,84600.7,-32753.1,491357
0.712,0.00314698,54924.3,18434.6,-11246.5,298507,84469.4,-35641.1,487759
0.714,0.00316261,53421.7,21697.2,-15595.9,311426,82842.7,-38921.6,490654
0.716,0.00317825,51919.1,24960,-19945.5,324345,81216,-42202.2,493548
0.718,0.00319389,50416.5,28222.6,-24294.9,337263,79589.4,-45482.7,496443
0.72,0.00320953,48913.9,31485.3,-28644.5,350182,77962.7,-48763.3,499337
0.722,0.00322517,47411.4,34748,-32993.9,363101,76336.1,-52043.8,502232
0.724,0.00324078,46652.2,38768.4,-35371.7,375098,75724.9,-54333.4,507857
0.726,0.00325632,47616.9,44546.4,-33177.1,384958,77468.6,-54325.1,519815
0.728,0.00327186,48581.6,50324.1,-30982.5,394817,79212.3,-54316.8,531772
0.73,0.0032874,49546.3,56102.1,-28788,404678,80956,-54308.5,543730
0.732,0.00330294,50511,61879.8,-26593.4,414537,82699.7,-54300.2,555687
0.734,0.00331848,51475.8,67657.8,-24398.8,424397,84443.4,-54291.9,567645
0.736,0.00333402,52440.5,73435.6,-22204.3,434257,86187.1,-54283.6,579603
0.738,0.00334955,53405.2,79213.3,-20009.8,444117,87930.7,-54275.3,591560
0.74,0.00336504,50871.7,75144.1,-24243.5,444752,86746.1,-59840.1,582431
0.742,0.00338053,48229.1,70767.4,-28677.8,445100,85470.1,-65578.8,572644
0.744,0.00339601,45586.3,66390.6,-33112.3,445447,84194,-71317.6,562857
0.746,0.0034115,42943.7,62013.9,-37546.7,445794,82918,-77056.3,553070
0.748,0.00342718,46283.9,60668.8,-35323.4,443862,82974.9,-71003.6,544882
0.75,0.00344286,50048.7,59538.9,-32627.6,441767,83126.4,-64114.2,536809
0.752,0.00345855,53813.5,58409,-29931.8,439673,83277.9,-57224.8,528736
0.754,0.00347424,57578.4,57279.1,-27235.9,437579,83429.4,-50335.2,520662
0.756,0.0034902,57107.3,52987.6,-26690.2,435656,83704.1,-44332.2,514279
0.758,0.00350617,56360.3,48490.1,-26284.5,433745,83986.9,-38386.7,508006
0.76,0.00352214,55613.3,43992.8,-25878.8,431834,84269.7,-32441.3,501733
0.762,0.00353819,54300.8,40951.8,-25138,429438,84343.1,-27668,500028
0.764,0.00355436,51965.3,40546.3,-23790.9,426163,84037.8,-25015.8,506589
0.766,0.00357052,49629.7,40140.8,-22443.9,422888,83732.4,-22363.7,513149
0.768,0.00358669,47294.1,39735.3,-21096.7,419613,83427,-19711.4,519710
0.77,0.00360286,44958.6,39329.8,-19749.7,416339,83121.6,-17059.2,526270
0.772,0.00361903,42622.9,38924.3,-18402.6,413064,82816.3,-14406.9,532831
0.774,0.00363516,40776.8,37815.9,-17139.9,407397,82317.2,-11178.9,539184
0.776,0.00365122,39911.2,35299.3,-16046.4,396938,81430,-6797.15,545124
0.778,0.00366728,39045.5,32782.8,-14952.9,386479,80542.9,-2415.55,551063
0.78,0.00368333,38179.9,30266.2,-13859.4,376020,79655.8,1966.04,557002
0.782,0.00369939,37314.2,27749.6,-12765.9,365561,78768.6,6347.76,562941
0.784,0.00371545,36448.6,25233.1,-11672.4,355102,77881.5,10729.4,568881
0.786,0.0037315,35582.9,22716.5,-10578.9,344643,76994.3,15111.1,574820
0.788,0.00374756,34717.2,20199.9,-9485.39,334184,76107.2,19492.7,580759
0.79,0.00376362,33851.6,17683.3,-8391.87,323725,75220,23874.4,586699
0.792,0.0037797,33307.7,15275.7,-7423.78,313156,74255.1,28286.2,591211
0.794,0.00379626,37660.1,14524.4,-8363.7,300912,72106.7,33158,574019
0.796,0.00381282,42012.3,13773.2,-9303.59,288668,69958.4,38029.5,556826
0.798,0.00382937,46364.5,13022,-10243.5,276425,67810,42901.1,539634
0.8,0.00384593,50716.9,12270.8,-11183.4,264181,65661.6,47772.9,522441
0.802,0.00386248,55069.1,11519.6,-12123.3,251938,63513.3,52644.5,505249
0.804,0.00387904,59421.5,10768.4,-13063.2,239694,61364.9,57516.2,488056
0.806,0.00389559,63773.7,10017.2,-14003.1,227450,59216.6,62387.8,470864
0.808,0.00391215,68126.1,9265.92,-14943,215206,57068.2,67259.5,453672
0.81,0.00392879,71549.3,8757.56,-15109.2,211953,56368.5,70941,445146
0.812,0.00394552,74218.8,8446.24,-14647.6,215993,56844.4,73656.8,443654
0.814,0.00396225,76888.4,8134.91,-14186.1,220034,57320.2,76372.8,442161
0.816,0.00397897,79557.9,7823.58,-13724.5,224075,57796,79088.6,440668
0.818,0.0039957,82227.5,7512.25,-13262.9,228115,58271.9,81804.5,439176
0.82,0.00401242,84897,7200.93,-12801.3,232156,58747.7,84520.3,437683
0.822,0.00402915,87566.5,6889.6,-12339.7,236196,59223.5,87236.2,436190
0.824,0.00404588,90236,6578.28,-11878.2,240237,59699.3,89952,434697
0.826,0.0040626,92905.5,6266.96,-11416.6,244278,60175.2,92667.9,433205
0.828,0.00407933,95575.1,5955.63,-10955,248318,60651,95383.8,431712
0.83,0.00409605,98244.6,5644.31,-10493.5,252359,61126.8,98099.6,430219
0.832,0.00411278,100914,5332.98,-10031.9,256400,61602.7,100815,428727
0.834,0.00412951,103584,5021.66,-9570.3,260440,62078.5,103531,427234
0.836,0.00414623,106253,4710.33,-9108.71,264481,62554.3,106247,425741
0.838,0.00416296,108923,4399.01,-8647.14,268521,63030.2,108963,424248
0.84,0.00417969,111592,4087.69,-8185.57,272562,63506,111679,422756
0.842,0.00419635,113155,4320.72,-7472.22,276212,64349.8,114147,421928
0.844,0.00421301,114625,4599.29,-6737.83,279829,65224.3,116594,421155
0.846,0.00422966,116095,4877.86,-6003.42,283446,66098.9,119041,420383
0.848,0.00424632,117565,5156.43,-5269.02,287062,66973.4,121488,419611
0.85,0.00426298,119035,5435.01,-4534.61,290679,67847.9,123935,418838
0.852,0.00427992,118806,4484.86,-3047.49,287006,68035.8,121685,419510
0.854,0.00429691,118231,3284.01,-1406.78,281845,68083.6,118475,420475
0.856,0.00431395,115508,2495.91,133.658,275759,68090,113050,421012
0.858,0.00433105,109583,2323.53,1524.44,268292,68034.8,104320,420909
0.86,0.00434815,103658,2151.15,2915.26,260825,67979.5,95589.5,420806
0.862,0.00436525,97733.2,1978.77,4306.04,253358,67924.3,86859.3,420703
0.864,0.00438235,91808,1806.38,5696.85,245891,67869,78128.8,420600
0.866,0.00439962,88071.7,2023.33,6488.37,243955,67880.2,72741.1,419948
0.868,0.00441699,85788.9,2498.83,6881.9,245692,67935.5,69573.4,418931
0.87,0.00443437,83506.1,2974.35,7275.44,247428,67990.8,66405.5,417915
0.872,0.00445174,81223.4,3449.86,7668.96,249165,68046.1,63237.7,416898
0.874,0.00446911,78940.6,3925.38,8062.5,250902,68101.4,60069.9,415882
0.876,0.00448649,76657.9,4400.89,8456.03,252638,68156.7,56902.1,414866
0.878,0.00450385,74912.9,5173.44,9212.59,255360,68133.4,54283.1,413320
0.88,0.00452121,73266.8,6000.58,10035.9,258262,68095.7,51765,411678
0.882,0.00453858,71620.7,6827.75,10859.2,261164,68057.9,49246.9,410035
0.884,0.00455594,69974.6,7654.89,11682.5,264066,68020.2,46728.8,408393
0.886,0.0045733,68328.5,8482.03,12505.7,266969,67982.5,44210.7,406751
0.888,0.00459066,66682.4,9309.2,13329,269871,67944.8,41692.6,405108
0.89,0.00460803,65036.3,10136.3,14152.3,272773,67907,39174.5,403466
0.892,0.00462539,63390.2,10963.5,14975.6,275676,67869.3,36656.4,401823
0.894,0.00464275,61744.1,11790.6,15798.9,278578,67831.6,34138.3,400181
0.896,0.00466012,60098,12617.8,16622.2,281480,67793.9,31620.2,398538
0.898,0.00467748,58451.9,13445,17445.5,284383,67756.1,29102.1,396896
0.9,0.00469484,56805.8,14272.1,18268.8,287285,67718.4,26584.1,395254
0.902,0.00471221,55159.7,15099.3,19092.1,290187,67680.7,24065.9,393611
0.904,0.00472979,50654.7,14322.7,18584,291167,69628.1,20918.5,397988
0.906,0.0047474,45909.8,13411.7,17964.2,291987,71742,17718.3,402870
0.908,0.00476501,41165.1,12500.8,17344.4,292806,73855.8,14518.1,407752
0.91,0.00478261,36420.3,11589.7,16724.6,293625,75969.8,11317.9,412634
0.912,0.00480022,31675.6,10678.8,16104.9,294444,78083.6,8117.69,417516
0.914,0.00481783,26930.9,9767.78,15485.1,295264,80197.5,4917.53,422398
0.916,0.00483543,22186,8856.77,14865.3,296083,82311.4,1717.27,427280
0.918,0.00485304,17441.3,7945.79,14245.5,296902,84425.2,-1482.89,432162
0.92,0.00487083,14704.8,7995.15,13803.6,296801,86124.2,-3416.11,435895
0.922,0.00488882,14126.7,9076.59,13553,295711,87377.1,-3987.6,438395
0.924,0.00490681,13548.5,10158.1,13302.3,294621,88630,-4559.12,440894
0.926,0.0049248,12970.4,11239.5,13051.6,293530,89882.9,-5130.61,443394
0.928,0.00494279,12392.3,12320.9,12800.9,292440,91135.8,-5702.11,445893
0.93,0.00496074,13181.3,13038.5,12938.5,286894,92428.4,-6039.46,442956
0.932,0.00497868,14025,13741.5,13091.6,281169,93722.5,-6367.45,439802
0.934,0.00499663,14868.8,14444.5,13244.7,275444,95016.7,-6695.44,436648
0.936,0.00501457,15712.5,15147.5,13397.8,269720,96310.8,-7023.43,433494
0.938,0.00503251,16556.2,15850.6,13550.9,263995,97605,-7351.43,430340
0.94,0.00505046,17399.9,16553.6,13704,258271,98899.2,-7679.41,427186
0.942,0.0050684,18243.6,17256.6,13857.1,252546,100193,-8007.4,424033
0.944,0.00508634,19087.3,17959.6,14010.2,246821,101487,-8335.4,420879
0.946,0.00510429,19931,18662.6,14163.3,241097,102782,-8663.38,417725
0.948,0.00512223,20774.7,19365.6,14316.4,235372,104076,-8991.38,414571
0.95,0.00514018,21618.4,20068.6,14469.5,229648,105370,-9319.36,411417
0.952,0.00515812,22462.1,20771.6,14622.6,223923,106664,-9647.36,408263
0.954,0.00517607,23305.8,21474.6,14775.7,218198,107958,-9975.34,405109
0.956,0.00519401,24149.5,22177.6,14928.8,212474,109252,-10303.3,401955
0.958,0.00521202,29128.6,24911.4,15708.5,215873,111899,-5151.04,403516
0.96,0.00523012,39350.9,30220,17282.7,230841,116259,6949.59,411054
0.962,0.00524834,55392.5,39321.2,19387.2,270296,122417,26760,438473
0.964,0.00526671,78373.9,52945.8,22124,338955,130718,55765,489602
0.966,0.00528503,94338.8,61197.4,23713.3,385171,136008,77090.5,522435
0.968,0.00530318,87830,52240.4,21627.1,359498,131660,73818.3,496664
0.97,0.00532132,81321.1,43283,19540.8,333825,127311,70546.1,470892
0.972,0.00533947,74812.4,34326,17454.5,308153,122962,67274,445121
0.974,0.00535761,68303.6,25368.9,15368.3,282480,118614,64001.8,419351
0.976,0.00537583,62217,18627.7,14516.6,265965,114199,62137.6,402905
0.978,0.00539406,56094.6,12291.1,13951.7,251454,109697,60551.3,388457
0.98,0.00541247,55414.1,12150.3,14523.1,249968,107875,62115.6,388958
0.982,0.00543087,54733.5,12009.5,15094.6,248482,106054,63679.9,389460
0.984,0.00544928,54053,11868.7,15666,246996,104232,65244.2,389961
0.986,0.00546769,53372.4,11727.9,16237.5,245510,102410,66808.5,390462
0.988,0.00548609,52691.9,11587.1,16808.9,244024,100589,68372.7,390964
0.99,0.0055045,52011.4,11446.3,17380.4,242538,98767.2,69937,391465
0.992,0.00552291,51330.8,11305.5,17951.8,241051,96945.7,71501.3,391966
0.994,0.00554131,50650.3,11164.7,18523.3,239565,95124.1,73065.6,392468
0.996,0.00555972,49969.8,11023.9,19094.8,238079,93302.5,74629.8,392969
0.998,0.00557813,49289.2,10883.1,19666.2,236593,91480.9,76194.1,393470
1,0.00559653,48608.7,10742.3,20237.7,235107,89659.4,77758.4,393972
1.002,0.00561494,47928.2,10601.5,20809.1,233621,87837.9,79322.6,394473
1.004,0.00563335,47247.6,10460.7,21380.6,232135,86016.3,80886.9,394974
1.006,0.00565176,46567.1,10319.9,21952.1,230648,84194.6,82451.3,395475
1.008,0.00567016,45886.5,10179.1,22523.5,229162,82373.1,84015.5,395977
1.01,0.00568857,45206,10038.3,23095,227676,80551.6,85579.8,396478
1.012,0.00570698,44525.5,9897.48,23666.4,226190,78730,87144,396979
1.014,0.00572539,43844.9,9756.68,24237.9,224704,76908.4,88708.4,397481
1.016,0.00574379,43164.4,9615.88,24809.3,223218,75086.8,90272.6,397982
1.018,0.0057622,42483.9,9475.08,25380.8,221731,73265.3,91836.9,398483
1.02,0.00578061,41803.3,9334.28,25952.2,220245,71443.7,93401.1,398985
1.022,0.00579902,41122.8,9193.48,26523.7,218759,69622.2,94965.4,399486
1.024,0.00581743,40342,9101.4,27142.2,217277,67834.1,96505.6,400137
1.026,0.00583576,40851,8382.43,27155.2,215741,65613.6,98356.1,398863
1.028,0.00585432,38700.9,6838.83,26976.6,213641,63791.9,93691.3,401851
1.03,0.00587303,36402.3,5440.78,28402.5,211939,63032.5,87521.4,403917
1.032,0.00589173,34103.7,4042.73,29828.3,210238,62273.2,81351.6,405983
1.034,0.00591044,31805,2644.6,31254.3,208537,61513.8,75181.4,408050
1.036,0.00592914,29506.5,1246.55,32680.2,206836,60754.4,69011.6,410116
1.038,0.00594785,27207.9,-151.501,34106.1,205134,59995,62841.7,412183
1.04,0.00596655,24909.3,-1549.55,35532,203433,59235.7,56671.9,414249
1.042,0.00598526,22610.6,-2947.68,36958,201732,58476.3,50501.7,416315
1.044,0.00600397,21245.8,-3758.39,39082.4,198631,58338.3,46105.1,416546
1.046,0.00602287,21275.1,-3200.13,39836.8,200757,59514.1,44228.5,409956
1.048,0.00604178,21296.3,-2630.62,40504.9,203138,60697.3,42332.3,403245
1.05,0.00606069,21317.4,-2061.12,41173,205520,61880.5,40436.1,396535
1.052,0.0060796,21338.6,-1491.58,41841.2,207901,63063.8,38539.8,389824
1.054,0.0060985,21359.8,-922.08,42509.3,210282,64247,36643.6,383113
1.056,0.00611741,21381,-352.577,43177.5,212663,65430.2,34747.4,376403
1.058,0.00613632,21402.1,216.926,43845.6,215044,66613.4,32851.2,369692
1.06,0.00615523,21423.3,786.429,44513.7,217426,67796.6,30955,362982
1.062,0.00617414,21444.5,1355.97,45181.9,219807,68979.9,29058.7,356271
1.064,0.00619304,21465.7,1925.47,45850,222188,70163.1,27162.5,349561
1.066,0.00621195,21486.8,2494.97,46518.1,224569,71346.3,25266.3,342850
1.068,0.00623086,21508,3064.47,47186.3,226950,72529.5,23370.1,336140
1.07,0.00624977,21529.2,3634.01,47854.4,229332,73712.8,21473.8,329429
1.072,0.00626867,21550.4,4203.51,48522.6,231713,74896,19577.6,322719
1.074,0.00628761,21663,5275.54,48606,232585,75156.5,18349.2,313917
1.076,0.00630662,22034.9,7773.14,47030.7,229178,72799.4,19015.2,299186
1.078,0.00632563,22406.9,10270.7,45455.3,225770,70442.3,19681.1,284454
1.08,0.00634467,22266.8,12543.6,44339.5,221897,68189,19664.1,272234
1.082,0.00636386,20869.9,13476.5,44635.4,218256,66862.3,17554.7,271774
1.084,0.00638313,20418.1,13432.5,44584.7,217902,66530.6,15971,276561
1.086,0.00640239,19966.3,13388.6,44533.9,217548,66198.9,14387.2,281349
1.088,0.00642166,19514.5,13344.6,44483.1,217194,65867.1,12803.4,286137
1.09,0.00644093,19062.7,13300.6,44432.4,216840,65535.4,11219.7,290925
1.092,0.00646019,18610.9,13256.6,44381.6,216487,65203.7,9635.93,295713
1.094,0.00647946,18159.1,13212.7,44330.8,216133,64872,8052.19,300500
1.096,0.00649873,17707.3,13168.7,44280,215779,64540.3,6468.45,305288
1.098,0.00651799,17255.5,13124.7,44229.3,215425,64208.6,4884.62,310076
1.1,0.00653726,16803.7,13080.7,44178.5,215071,63876.9,3300.88,314864
1.102,0.00655652,16351.9,13036.8,44127.7,214718,63545.1,1717.14,319652
1.104,0.00657579,15900.1,12992.8,44077,214364,63213.4,133.407,324439
1.106,0.00659506,15448.3,12948.8,44026.2,214010,62881.7,-1450.33,329227
1.108,0.00661433,16127.2,12940.1,42903.8,212477,62346.6,-2028.49,331695
1.11,0.00663361,17274.3,12946.1,41337.7,210457,61727.2,-2190.2,333202
1.112,0.00665288,18421.4,12952,39771.6,208436,61107.8,-2351.91,334710
1.114,0.00667216,19568.5,12958,38205.4,206415,60488.4,-2513.63,336217
1.116,0.00669144,20715.6,12963.9,36639.3,204394,59869,-2675.35,337724
1.118,0.00671071,21862.7,12969.9,35073.1,202373,59249.7,-2837.06,339231
1.12,0.00672999,23009.8,12975.8,33507,200353,58630.3,-2998.77,340739
1.122,0.00674941,23858.7,14329.2,30201.9,198284,58548.1,-303.877,337760
1.124,0.00676886,24647.7,15953.4,26547.3,196206,58573.9,2965.13,333881
1.126,0.00678831,25436.8,17577.7,22892.4,194127,58599.7,6234.33,330001
1.128,0.00680776,26225.8,19201.9,19237.8,192049,58625.5,9503.33,326121
1.13,0.0068272,27014.8,20826.1,15583.1,189970,58651.3,12772.3,322241
1.132,0.00684665,27803.8,22450.3,11928.5,187892,58677.1,16041.3,318361
1.134,0.00686616,28160.6,23597.4,9659.46,185634,59011,18796.5,314843
1.136,0.00688574,27876.8,24037.2,9444.65,183109,59801.6,20790.1,311861
1.138,0.00690533,27593,24476.9,9229.86,180584,60592.2,22783.5,308879
1.14,0.0069249,27496,24274.7,8854.41,178539,59950.3,22680,304230
1.142,0.00694446,27432.5,23957.6,8450.21,176580,59051.9,22201.1,299283
1.144,0.00696403,27369,23640.5,8045.98,174620,58153.4,21722.2,294335
1.146,0.0069836,27305.4,23323.3,7641.78,172661,57255,21243.3,289387
1.148,0.00700317,27241.9,23006.2,7237.57,170701,56356.6,20764.4,284440
1.15,0.00702273,27178.4,22689.1,6833.37,168742,55458.1,20285.5,279493
1.152,0.0070423,27114.9,22371.9,6429.16,166782,54559.7,19806.6,274545
1.154,0.00706187,27051.4,22054.8,6024.93,164823,53661.3,19327.7,269598
1.156,0.00708143,26987.8,21737.7,5620.73,162863,52762.8,18848.8,264650
1.158,0.007101,26924.3,21420.5,5216.52,160904,51864.4,18369.9,259703
1.16,0.00712057,26860.8,21103.4,4812.32,158945,50966,17891,254755
1.162,0.00714013,26797.3,20786.3,4408.11,156985,50067.6,17412.2,249808
1.164,0.0071597,26733.8,20469.1,4003.89,155026,49169.1,16933.2,244860
1.166,0.00717927,26670.2,20152,3599.68,153066,48270.7,16454.3,239913
1.168,0.00719884,26427.5,19943.6,3118.87,151888,47293.2,16035,235600
1.17,0.00721842,25746.9,20000.7,2450.95,152619,46122.5,15761,232837
1.172,0.007238,25066.2,20057.8,1782.99,153349,44951.7,15487,230074
1.174,0.00725758,24385.6,20114.9,1115.06,154080,43781,15213,227311
1.176,0.00727717,23705.1,20172,447.143,154810,42610.2,14939,224549
1.178,0.00729681,22147.6,19775.5,-94.5429,153600,41275.2,13335.3,221608
1.18,0.00731662,18553.9,18325.6,-343.085,147884,39558.5,8643.57,218255
1.182,0.00733643,14960.1,16875.7,-591.642,142168,37841.7,3951.6,214901
1.184,0.00735623,11366.4,15425.8,-840.184,136452,36125,-740.1,211548
1.186,0.00737604,7772.74,13975.9,-1088.73,130736,34408.3,-5431.79,208195
1.188,0.00739585,4179.08,12526,-1337.27,125020,32691.7,-10123.5,204842
1.19,0.00741572,4155.22,12368.8,-1225.18,125768,32780.8,-9799.39,204094
1.192,0.0074356,4946.09,12506.7,-1030.79,127991,33282,-8330.58,203942
1.194,0.00745548,5736.97,12644.5,-836.401,130214,33783.2,-6861.76,203790
1.196,0.00747536,6527.84,12782.4,-642.013,132437,34284.4,-5392.95,203637
1.198,0.00749524,7318.71,12920.2,-447.624,134660,34785.6,-3924.13,203485
1.2,0.00751512,8109.63,13058.1,-253.225,136883,35286.8,-2455.23,203333
1.202,0.007535,8900.51,13195.9,-58.8363,139106,35788,-986.41,203181
1.204,0.00755488,9691.38,13333.8,135.552,141329,36289.3,482.406,203028
1.206,0.00757476,10482.3,13471.6,329.94,143551,36790.5,1951.22,202876
1.208,0.00759464,11273.1,13609.5,524.328,145774,37291.7,3420.04,202724
1.21,0.00761452,12064,13747.3,718.728,147997,37792.9,4888.94,202571
1.212,0.0076344,12854.9,13885.2,913.117,150220,38294.1,6357.76,202419
1.214,0.00765428,13645.8,14023,1107.5,152443,38795.3,7826.57,202267
1.216,0.00767419,14373.1,14678.8,1468.63,155928,39316.8,10229.7,203506
1.218,0.00769412,15023.4,15962.3,2031.87,160942,39863,13765.4,206433
1.22,0.00771406,18426.9,17318,2631.15,167680,41143.5,18430.4,209726
1.222,0.00773399,23801.9,18725.5,3256.24,175652,42950.1,23904.4,213281
1.224,0.00775393,29176.9,20133,3881.34,183624,44756.6,29378.4,216837
1.226,0.00777387,34551.9,21540.5,4506.44,191597,46563.2,34852.4,220393
1.228,0.0077938,39927.2,22948.1,5131.57,199569,48369.8,40326.8,223948
1.23,0.00781374,45302.2,24355.6,5756.67,207541,50176.3,45800.8,227504
1.232,0.00783375,49848.1,25148.3,5724.96,211791,51624,49720.9,228298
1.234,0.0078539,52839.2,24788.2,4461.48,209059,52398.4,50727.1,223914
1.236,0.00787404,53837.8,24317.2,3582.04,205365,52852.2,51097.7,221739
1.238,0.00789416,52645.5,23724.1,3124.81,200613,52953.5,50769.4,221992
1.24,0.00791429,51453.4,23131.2,2667.62,195862,53054.7,50441.2,222246
1.242,0.00793441,50261.2,22538.2,2210.42,191111,53155.9,50112.9,222499
1.244,0.00795454,49069,21945.2,1753.23,186360,53257.1,49784.7,222752
1.246,0.00797466,47876.8,21352.2,1296,181609,53358.3,49456.4,223006
1.248,0.00799479,46684.6,20759.2,838.809,176858,53459.5,49128.1,223259
1.25,0.00801491,45492.4,20166.3,381.614,172106,53560.7,48799.9,223512
1.252,0.00803504,44300.2,19573.3,-75.5818,167355,53661.9,48471.6,223766
1.254,0.00805516,43108.1,18980.3,-532.777,162604,53763.1,48143.4,224019
1.256,0.00807529,41915.8,18387.3,-990,157853,53864.3,47815.1,224272
1.258,0.00809541,40723.6,17794.3,-1447.2,153102,53965.5,47486.9,224526
1.26,0.00811556,40406.5,17313.6,-1836.2,150003,53737.9,47483.9,227735
1.262,0.00813573,40377.4,16869.8,-2202.75,147448,53402.2,47587.9,231917
1.264,0.00815589,40348.4,16426,-2569.32,144893,53066.3,47692,236100
1.266,0.00817605,40319.4,15982.2,-2935.87,142338,52730.6,47796.1,240282
1.268,0.00819621,40290.4,15538.4,-3302.42,139783,52394.8,47900.2,244465
1.27,0.00821638,40261.3,15094.6,-3668.97,137228,52059,48004.2,248647
1.272,0.00823654,40232.3,14650.8,-4035.52,134674,51723.2,48108.3,252829
1.274,0.0082567,40203.3,14207,-4402.09,132119,51387.4,48212.4,257012
1.276,0.00827701,40570.7,13377.4,-4659.37,132371,49536.9,49051.9,260726
1.278,0.00829734,41003.6,12484,-4898.59,133087,47436.2,50012.9,264364
1.28,0.00831767,41436.6,11590.7,-5137.81,133803,45335.4,50973.9,268001
1.282,0.008338,41869.5,10697.3,-5377.04,134519,43234.7,51934.9,271638
1.284,0.00835834,42302.4,9803.88,-5616.28,135234,41133.8,52896,275275
1.286,0.00837867,42735.3,8910.51,-5855.5,135950,39033.1,53857,278913
1.288,0.008399,43168.3,8017.14,-6094.73,136666,36932.3,54818,282550
1.29,0.00841933,43601.2,7123.77,-6333.95,137382,34831.6,55779,286187
1.292,0.00843975,43964.9,7058.01,-6547.44,137956,33900.9,55984.9,285807
1.294,0.00846019,44308.1,7235.78,-6753.34,138488,33314.6,55968.6,284244
1.296,0.00848066,43849,7638.48,-6235.2,137239,32721.4,54465.8,282756
1.298,0.00850114,43322.8,8059.99,-5656.48,135840,32127.7,52838.5,281274
1.3,0.00852161,42796.6,8481.51,-5077.76,134442,31533.9,51211.3,279792
1.302,0.00854209,42270.3,8903.05,-4499,133043,30940.1,49583.9,278310
1.304,0.00856257,41744.1,9324.57,-3920.28,131644,30346.3,47956.6,276828
1.306,0.00858304,41217.8,9746.09,-3341.55,130246,29752.6,46329.4,275346
1.308,0.00860352,40691.6,10167.6,-2762.83,128847,29158.8,44702.1,273864
1.31,0.00862399,40165.4,10589.1,-2184.11,127449,28565,43074.9,272382
1.312,0.00864447,39639.1,11010.7,-1605.35,126050,27971.2,41447.5,270900
1.314,0.00866495,39112.9,11432.2,-1026.63,124651,27377.4,39820.3,269418
1.316,0.00868542,38586.6,11853.7,-447.907,123253,26783.7,38193,267936
1.318,0.0087059,38060.4,12275.2,130.816,121854,26189.9,36565.7,266454
1.32,0.00872637,37534.1,12696.8,709.573,120456,25596.1,34938.4,264972
1.322,0.00874684,37115.5,13144.4,1233.96,119951,25164.3,33614.7,262246
1.324,0.00876729,37019.6,13670.5,1595.47,122125,25218.2,33200.9,255791
1.326,0.00878774,36923.7,14196.6,1956.99,124300,25272,32787.1,249336
1.328,0.00880819,36827.7,14722.7,2318.5,126474,25325.8,32373.3,242880
1.33,0.00882864,36731.8,15248.9,2680.03,128649,25379.6,31959.5,236425
1.332,0.00884909,36635.9,15775,3041.55,130823,25433.4,31545.7,229970
1.334,0.00886954,36539.9,16301.1,3403.06,132997,25487.2,31131.9,223515
1.336,0.00888999,36444,16827.2,3764.58,135172,25541,30718.2,217060
1.338,0.00891044,36348.1,17353.3,4126.11,137346,25594.9,30304.3,210604
1.34,0.00893089,36252.1,17879.4,4487.62,139521,25648.7,29890.6,204149
1.342,0.00895139,35918,17983,4980.29,137985,26008.1,29461.1,198253
1.344,0.00897197,35211.1,17425.6,5678.17,130642,26845.6,29007.1,193230
1.346,0.00899255,34504.2,16868.2,6376.05,123300,27683.1,28553.1,188206
1.348,0.00901313,33797.3,16310.7,7073.97,115957,28520.7,28099.1,183183
1.35,0.00903371,33090.4,15753.3,7771.85,108615,29358.2,27645.2,178160
1.352,0.00905429,32383.5,15195.9,8469.72,101272,30195.8,27191.2,173137
1.354,0.00907488,31676.6,14638.5,9167.6,93929.6,31033.3,26737.2,168114
1.356,0.00909546,30969.8,14081,9865.48,86587.2,31870.8,26283.2,163091
1.358,0.00911604,30262.8,13523.6,10563.4,79244.3,32708.4,25829.2,158067
1.36,0.00913669,29806.6,13191.2,11315.4,75358.1,33718.5,26670.6,159120
1.362,0.00915738,29504.3,12997.1,12100.7,73595.7,34834.8,28308.1,163907
1.364,0.00917807,29202,12803,12886,71833.2,35951,29945.5,168693
1.366,0.00919877,28876.4,12660.9,13441.8,70567.2,36891.3,30918,171733
1.368,0.00921951,28504.8,12621.5,13544.4,70281.1,37484.1,30578.3,171324
1.37,0.00924025,28133.3,12582,13647.1,69994.9,38077,30238.6,170916
1.372,0.00926099,27761.7,12542.6,13749.8,69708.8,38669.9,29898.9,170507
1.374,0.00928173,27390.2,12503.2,13852.4,69422.7,39262.8,29559.2,170098
1.376,0.00930247,27018.6,12463.7,13955.1,69136.5,39855.7,29219.4,169689
1.378,0.00932321,26647,12424.3,14057.8,68850.4,40448.6,28879.7,169281
1.38,0.00934395,26275.5,12384.9,14160.4,68564.3,41041.4,28540,168872
1.382,0.00936468,25903.9,12345.5,14263.1,68278.2,41634.3,28200.3,168463
1.384,0.00938542,25532.3,12306,14365.7,67992,42227.2,27860.6,168054
1.386,0.00940616,25160.8,12266.6,14468.4,67705.9,42820.1,27520.8,167646
1.388,0.0094269,24789.2,12227.2,14571.1,67419.8,43413,27181.1,167237
1.39,0.00944764,24417.7,12187.7,14673.7,67133.7,44005.9,26841.4,166828
1.392,0.00946838,24046.1,12148.3,14776.4,66847.5,44598.8,26501.7,166419
1.394,0.00948913,23780.3,12101,14793.9,66800.9,45104.6,26122.7,165707
1.396,0.00950999,24395.3,11988.2,14102.2,68747.4,44885.7,25417.5,162471
1.398,0.00953085,25010.3,11875.3,13410.5,70693.9,44666.9,24712.3,159234
1.4,0.00955171,25625.3,11762.5,12718.9,72640.4,44448,24007.1,155997
1.402,0.00957261,26538.2,12245.5,11051.2,78793.6,44159.8,24930.2,160202
1.404,0.00959352,27491.2,12808.9,9251.8,85514.3,43862.3,26072.8,165409
1.406,0.00961443,28444.2,13372.3,7452.55,92234.5,43564.8,27215.3,170617
1.408,0.00963533,29397.2,13935.7,5653.3,98954.7,43267.2,28357.9,175824
1.41,0.00965624,30350.2,14499,3854.05,105675,42969.7,29500.4,181031
1.412,0.00967715,31303.2,15062.4,2054.79,112395,42672.2,30643,186239
1.414,0.00969806,32256.3,15625.8,255.435,119116,42374.7,31785.6,191446
1.416,0.00971902,32582.6,15863.7,-788.903,121705,41940.4,32305.8,193660
1.418,0.00974004,32407.4,15841.1,-1229.05,120988,41396.6,32327.9,193477
1.42,0.00976105,32232.2,15818.6,-1669.19,120271,40852.9,32350.1,193294
1.422,0.00978207,32057,15796,-2109.36,119554,40309.1,32372.2,193112
1.424,0.00980308,31881.8,15773.5,-2549.5,118837,39765.3,32394.4,192929
1.426,0.00982409,31706.6,15750.9,-2989.65,118121,39221.6,32416.5,192746
1.428,0.0098451,31430.7,15734.2,-3422.13,116895,38552.2,32339.9,192007
1.43,0.00986609,30895,15732.5,-3834.84,114356,37558.6,32008.1,189829
1.432,0.00988708,30359.2,15730.8,-4247.58,111817,36564.9,31676.2,187651
1.434,0.00990807,29823.4,15729,-4660.28,109278,35571.3,31344.4,185474
1.436,0.00992907,29287.6,15727.3,-5072.99,106739,34577.6,31012.6,183296
1.438,0.00995006,28751.9,15725.6,-5485.7,104200,33584,30680.8,181118
1.44,0.00997105,28216.1,15723.9,-5898.44,101661,32590.3,30349,178941
1.442,0.00999204,27680.3,15722.1,-6311.15,99122.4,31596.6,30017.2,176763
1.444,0.010013,27159.5,15731.5,-6702.42,96811.4,30636,29681.7,174672
1.446,0.010034,26843.2,15892.8,-6799.88,97624.6,30128.3,29295.7,173766
1.448,0.010055,26527,16054.2,-6897.33,98437.8,29620.6,28909.6,172860
1.45,0.010076,26210.8,16215.6,-6994.78,99251,29112.9,28523.6,171953
1.452,0.010097,25894.6,16376.9,-7092.23,100064,28605.1,28137.6,171047
1.454,0.010118,25578.3,16538.3,-7189.68,100877,28097.4,27751.5,170141
1.456,0.010139,25262.1,16699.6,-7287.14,101691,27589.7,27365.5,169235
1.458,0.0101599,24945.9,16861,-7384.59,102504,27082,26979.5,168328
1.46,0.0101809,24629.6,17022.4,-7482.04,103317,26574.2,26593.4,167422
1.462,0.0102019,24313.4,17183.7,-7579.49,104130,26066.5,26207.4,166516
1.464,0.0102229,23997.2,17345.1,-7676.94,104943,25558.8,25821.4,165610
1.466,0.0102439,23681,17506.4,-7774.4,105757,25051.1,25435.3,164704
1.468,0.0102649,23364.7,17667.8,-7871.85,106570,24543.3,25049.3,163797
1.47,0.0102859,23048.5,17829.2,-7969.3,107383,24035.6,24663.3,162891
1.472,0.0103069,22732.3,17990.5,-8066.75,108196,23527.9,24277.2,161985
1.474,0.0103278,22416.1,18151.9,-8164.2,109009,23020.2,23891.2,161079
1.476,0.0103488,22099.8,18313.2,-8261.65,109823,22512.4,23505.2,160173
1.478,0.0103698,21783.6,18474.6,-8359.11,110636,22004.7,23119.1,159266
1.48,0.0103909,21321.6,18182.2,-7595.67,108828,22384.3,21935.6,157528
1.482,0.010412,20754.7,17563.8,-6213.58,105136,23401.6,20179,155192
1.484,0.0104331,20187.9,16945.4,-4831.48,101444,24418.8,18422.3,152856
1.486,0.0104542,19621.1,16327,-3449.38,97751.7,25436.1,16665.7,150520
1.488,0.0104753,19054.3,15708.5,-2067.2,94059.5,26453.4,14908.9,148184
1.49,0.0104965,18487.5,15090.1,-685.097,90367.5,27470.7,13152.3,145848
1.492,0.0105176,17920.7,14471.6,697.003,86675.5,28487.9,11395.6,143512
1.494,0.0105387,17353.8,13853.2,2079.1,82983.5,29505.2,9638.99,141176
1.496,0.0105598,17049.6,13687.6,3466.77,82300.1,29943.6,8311.9,141396
1.498,0.010581,16911.7,13808.9,4857.82,83522.6,30015.2,7257.06,143235
1.5,0.0106022,16773.9,13930.2,6248.88,84745.1,30086.8,6202.22,145074
1.502,0.0106234,16636,14051.5,7639.93,85967.6,30158.5,5147.38,146913
1.504,0.0106446,16511.8,14188.8,8951.43,87204.5,30202.4,4141.88,148479
1.506,0.0106659,16645.7,14628.1,8763.36,88712.7,29722.9,4066.29,144908
1.508,0.0106872,16779.6,15067.3,8575.3,90220.8,29243.4,3990.71,141337
1.51,0.0107085,16913.5,15506.5,8387.24,91728.9,28763.9,3915.13,137766
1.512,0.0107298,17047.4,15945.7,8199.19,93237,28284.4,3839.55,134195
1.514,0.010751,17181.3,16384.9,8011.12,94745.2,27804.9,3763.97,130624
1.516,0.0107723,17613.6,16529.8,7681.72,93863.8,27421.5,4614.96,128340
1.518,0.0107936,18102.8,16618.5,7325.35,92526.3,27056.5,5642.78,126302
1.52,0.0108148,18591.9,16707.2,6968.98,91188.9,26691.5,6670.6,124264
1.522,0.0108361,19081.1,16796,6612.61,89851.5,26326.5,7698.43,122226
1.524,0.0108573,19570.4,16884.7,6256.22,88514,25961.5,8726.31,120188
1.526,0.0108786,20059.6,16973.4,5899.85,87176.5,25596.4,9754.13,118150
1.528,0.0108999,20548.8,17062.1,5543.48,85839.1,25231.4,10782,116112
1.53,0.0109211,21038,17150.8,5187.11,84501.7,24866.4,11809.8,114074
1.532,0.0109424,21510.3,17249.3,4846.5,83286,24499.3,12742.5,112132
1.534,0.0109636,21719.3,17500.2,4751.75,83968.9,24099.9,12190.5,111675
1.536,0.0109848,21928.3,17751.2,4657.01,84651.8,23700.5,11638.5,111219
1.538,0.0110061,22137.3,18002.1,4562.26,85334.7,23301,11086.6,110763
1.54,0.0110273,22346.3,18253.1,4467.52,86017.7,22901.6,10534.6,110307
1.542,0.0110486,22555.4,18504.1,4372.77,86700.6,22502.2,9982.67,109851
1.544,0.0110698,22764.4,18755,4278.03,87383.5,22102.8,9430.73,109395
1.546,0.011091,22973.4,19006,4183.28,88066.4,21703.3,8878.79,108939
1.548,0.0111123,23182.4,19256.9,4088.54,88749.4,21303.9,8326.84,108482
1.55,0.0111335,23391.4,19507.9,3993.79,89432.3,20904.5,7774.9,108026
1.552,0.0111547,23600.4,19758.8,3899.04,90115.2,20505.1,7222.93,107570
1.554,0.011176,23595.7,19794.7,4129,90068.3,20463.7,7541.06,107707
1.556,0.0111974,23465.5,19704.2,4549.66,89592.7,20632.5,8370.21,108192
1.558,0.0112187,23335.3,19613.7,4970.32,89117,20801.4,9199.36,108677
1.56,0.0112401,23205,19523.3,5390.98,88641.4,20970.3,10028.5,109162
1.562,0.0112614,23074.8,19432.8,5811.66,88165.8,21139.2,10857.7,109647
1.564,0.0112828,22944.6,19342.3,6232.32,87690.1,21308.1,11686.9,110132
1.566,0.0113041,22814.4,19251.9,6652.98,87214.5,21477,12516,110617
1.568,0.0113255,22684.1,19161.4,7073.63,86738.9,21645.8,13345.2,111102
1.57,0.0113468,22553.9,19070.9,7494.32,86263.2,21814.7,14174.4,111587
1.572,0.0113682,22423.7,18980.5,7914.98,85787.6,21983.6,15003.5,112072
1.574,0.0113895,22293.4,18890,8335.63,85312,22152.5,15832.7,112557
1.576,0.0114109,22847.4,18959.3,9213.96,85569,22218.9,16337.6,113127
1.578,0.0114323,23981.6,19164.2,10480.5,86447.3,22198.3,16567.7,113768
1.58,0.0114537,25115.9,19369,11747.1,87325.8,22177.7,16797.7,114409
1.582,0.0114752,26250.2,19573.9,13013.7,88204.1,22157.2,17027.7,115050
1.584,0.0114966,27384.4,19778.7,14280.2,89082.5,22136.6,17257.8,115691
1.586,0.011518,28518.6,19983.5,15546.7,89960.9,22116,17487.8,116332
1.588,0.0115394,29652.9,20188.4,16813.3,90839.3,22095.5,17717.8,116974
1.59,0.0115608,30787.2,20393.2,18079.9,91717.7,22074.9,17947.9,117615
1.592,0.0115822,31921.4,20598.1,19346.4,92596.1,22054.3,18177.9,118256
1.594,0.0116037,32148.4,20527.5,19321.5,92241.9,22108.1,18549.1,118600
1.596,0.0116251,32181.2,20397.9,19020.1,91624,22177.8,18950.6,118881
1.598,0.0116465,32214,20268.4,18718.8,91006,22247.5,19352.1,119162
1.6,0.011668,32246.7,20138.9,18417.4,90388.1,22317.2,19753.6,119443
1.602,0.0116894,32279.5,20009.3,18116.1,89770.1,22386.9,20155,119724
1.604,0.0117108,32312.3,19879.8,17814.7,89152.2,22456.6,20556.5,120005
1.606,0.0117323,32127,19903,17312.7,86710.7,22203.1,20368.4,118320
1.608,0.0117538,31796.5,20028,16676.9,83055.1,21734.3,19787.9,115327
1.61,0.0117753,31466,20152.9,16041.2,79399.7,21265.5,19207.4,112335
1.612,0.0117968,31135.5,20277.8,15405.5,75744.2,20796.8,18626.9,109342
1.614,0.0118183,30805,20402.8,14769.8,72088.8,20328,18046.4,106349
1.616,0.0118397,30474.5,20527.7,14134.1,68433.2,19859.3,17465.8,103356
1.618,0.0118612,30144,20652.7,13498.4,64777.8,19390.5,16885.3,100363
1.62,0.0118827,29813.5,20777.6,12862.6,61122.3,18921.7,16304.8,97370.5
1.622,0.0119042,29797.4,20814.3,12357.8,59240.6,18680.7,16086.3,95634.6
1.624,0.0119257,30137,20751.2,12001.1,59365.6,18697.4,16277.3,95321.1
1.626,0.0119472,30476.6,20688.1,11644.4,59490.7,18714,16468.3,95007.5
1.628,0.0119687,30816.2,20625.1,11287.7,59615.8,18730.7,16659.4,94694
1.63,0.0119902,31155.8,20562,10931,59740.9,18747.3,16850.4,94380.4
1.632,0.0120117,31495.4,20498.9,10574.3,59866,18764,17041.4,94066.8
1.634,0.0120332,31834.9,20435.8,10217.6,59991,18780.6,17232.5,93753.3
1.636,0.0120547,32174.6,20372.7,9860.85,60116.1,18797.3,17423.5,93439.7
1.638,0.0120762,32514.1,20309.6,9504.15,60241.2,18813.9,17614.6,93126.2
1.64,0.0120977,32853.7,20246.5,9147.44,60366.3,18830.6,17805.6,92812.6
1.642,0.0121192,33193.3,20183.5,8790.74,60491.4,18847.2,17996.6,92499.1
1.644,0.0121407,33532.9,20120.4,8434.01,60616.4,18863.9,18187.7,92185.5
1.646,0.0121622,33872.5,20057.3,8077.31,60741.5,18880.5,18378.7,91871.9
1.648,0.0121837,34212.1,19994.2,7720.6,60866.6,18897.2,18569.8,91558.4
1.65,0.0122052,34551.7,19931.1,7363.89,60991.7,18913.8,18760.8,91244.8
1.652,0.0122267,34891.3,19868,7007.19,61116.8,18930.5,18951.8,90931.3
1.654,0.0122482,35230.9,19804.9,6650.46,61241.8,18947.1,19142.9,90617.7
1.656,0.0122697,35835.3,19926.6,6218.5,61909.5,18993.6,19509.3,90388.4
1.658,0.0122913,36733.5,19734.6,5223.65,61388.1,19242.4,19825,89469.2
1.66,0.0123129,36680.2,19122.8,4370.69,59451.4,19418.2,19204.9,87858.1
1.662,0.0123345,36626.9,18511,3517.73,57514.8,19594,18584.8,86247.1
1.664,0.0123561,36573.6,17899.2,2664.72,55578,19769.8,17964.7,84635.9
1.666,0.0123777,36520.3,17287.5,1811.76,53641.3,19945.6,17344.7,83024.9
1.668,0.0123993,36467,16675.7,958.801,51704.7,20121.4,16724.6,81413.9
1.67,0.0124209,36413.8,16063.9,105.841,49768,20297.2,16104.6,79802.8
1.672,0.0124425,36360.5,15452.1,-747.171,47831.2,20473,15484.5,78191.7
1.674,0.0124641,36307.2,14840.4,-1600.13,45894.6,20648.8,14864.4,76580.6
1.676,0.0124857,34558.3,13480.6,-2200.24,41435.8,20694.4,12576.9,73736.8
1.678,0.0125073,34421.9,13095.3,-2415.56,40317,20825.9,12421.9,75016.6
1.68,0.0125289,34351.4,12744.4,-2627.91,39315.4,20961.6,12342.9,76404.7
1.682,0.0125505,34280.9,12393.4,-2840.27,38313.8,21097.4,12263.8,77792.9
1.684,0.0125721,34210.4,12042.5,-3052.62,37312.2,21233.2,12184.8,79181.1
1.686,0.0125937,34139.9,11691.6,-3264.97,36310.6,21369,12105.7,80569.2
1.688,0.0126153,34009.1,11306.9,-3493.81,35345.5,21459.5,12030,82083.2
1.69,0.0126369,33845,10903.5,-3731.78,34400.5,21525,11956.2,83667.1
1.692,0.0126585,33680.8,10500.1,-3969.75,33455.5,21590.4,11882.3,85250.9
1.694,0.0126801,33516.7,10096.7,-4207.71,32510.6,21655.9,11808.5,86834.7
1.696,0.0127017,33352.6,9693.3,-4445.68,31565.6,21721.3,11734.6,88418.5
1.698,0.0127233,33188.4,9289.91,-4683.65,30620.7,21786.8,11660.8,90002.2
1.7,0.0127448,33024.3,8886.49,-4921.62,29675.7,21852.3,11586.9,91586.1
1.702,0.0127664,32860.2,8483.09,-5159.59,28730.7,21917.7,11513.1,93169.9
1.704,0.012788,32696,8079.7,-5397.55,27785.8,21983.2,11439.3,94753.7
1.706,0.0128096,32531.9,7676.3,-5635.52,26840.8,22048.7,11365.4,96337.5
1.708,0.0128312,32534.7,7370.88,-5848.75,26156.9,22144,11263.1,97785.4
1.71,0.0128528,33359.2,7547.58,-5940.27,26757.4,22386.4,11020.8,98564.9
1.712,0.0128745,34298.7,7816.5,-6013.25,27476.4,22598.6,10879.9,99446.9
1.714,0.0128962,35831.2,8560.36,-5990.8,28805.1,22655.9,11261.4,100856
1.716,0.0129179,37363.7,9304.22,-5968.34,30133.9,22713.1,11642.9,102266
1.718,0.0129395,38896.3,10048.1,-5945.88,31462.7,22770.4,12024.5,103676
1.72,0.0129612,40428.8,10792,-5923.43,32791.5,22827.6,12406,105085
1.722,0.0129829,41961.3,11535.8,-5900.97,34120.2,22884.9,12787.5,106495
1.724,0.0130046,43493.8,12279.7,-5878.51,35449,22942.1,13169,107904
1.726,0.0130263,44855.8,12968.4,-5865.48,36714.1,22985.5,13480.5,109080
1.728,0.013048,44375.9,13061.5,-5954.18,37291.4,22878.6,13036.1,107729
1.73,0.0130697,43896.1,13154.5,-6042.88,37868.6,22771.8,12591.8,106378
1.732,0.0130914,43416.3,13247.5,-6131.57,38445.9,22664.9,12147.4,105027
1.734,0.013113,42936.4,13340.6,-6220.27,39023.1,22558.1,11703.1,103676
1.736,0.0131347,42456.6,13433.6,-6308.97,39600.4,22451.2,11258.8,102325
1.738,0.0131564,41976.7,13526.7,-6397.67,40177.6,22344.3,10814.4,100974
1.74,0.0131781,41496.9,13619.7,-6486.37,40754.9,22237.5,10370,99622.5
1.742,0.0131998,41017,13712.8,-6575.07,41332.1,22130.6,9925.68,98271.5
1.744,0.0132214,40537.2,13805.8,-6663.76,41909.4,22023.8,9481.33,96920.4
1.746,0.0132431,40057.3,13898.8,-6752.47,42486.7,21916.9,9036.96,95569.3
1.748,0.0132648,39577.4,13991.9,-6841.16,43063.9,21810,8592.61,94218.3
1.75,0.0132865,39097.6,14084.9,-6929.86,43641.2,21703.2,8148.26,92867.2
1.752,0.0133082,38617.8,14178,-7018.56,44218.4,21596.3,7703.91,91516.2
1.754,0.0133298,38137.9,14271,-7107.26,44795.7,21489.4,7259.56,90165.2
1.756,0.0133515,37658,14364.1,-7195.96,45373,21382.6,6815.19,88814
1.758,0.0133732,37191.5,14450.1,-7279.46,45906.1,21271.2,6397.15,87472.2
1.76,0.0133949,37131.1,14322.4,-7203.98,45089,21022.6,6784.39,86413.6
1.762,0.0134166,36990.7,14267.5,-7058.05,44265.7,20653.4,7074.21,85473
1.764,0.0134383,36740,14313.2,-6814.82,43434,20117.8,7229.5,84695.2
1.766,0.01346,36489.3,14358.9,-6571.61,42602.2,19582.2,7384.78,83917.4
1.768,0.0134817,36238.6,14404.6,-6328.4,41770.5,19046.6,7540.06,83139.6
1.77,0.0135035,35987.9,14450.3,-6085.19,40938.8,18511.1,7695.33,82361.8
1.772,0.0135252,35737.2,14496,-5841.98,40107.1,17975.5,7850.61,81584
1.774,0.0135469,35486.4,14541.7,-5598.76,39275.3,17439.9,8005.9,80806.2
1.776,0.0135687,35857,14991.3,-5422.79,39710,17118.5,8350.64,80228.5
1.778,0.0135904,36358,15525.6,-5260.95,40410.5,16842,8735.16,79692.7
1.78,0.0136121,36859.1,16060,-5099.11,41111.1,16565.6,9119.68,79157
1.782,0.0136338,37360.1,16594.3,-4937.27,41811.7,16289.1,9504.2,78621.3
1.784,0.0136556,37811.8,17065.2,-4758.9,42488.2,15998.5,9869.56,78032.7
1.786,0.0136773,38098.6,17324.5,-4525.48,43084.4,15660.9,10170.9,77268
1.788,0.013699,38385.5,17583.8,-4292.06,43680.5,15323.3,10472.3,76503.2
1.79,0.0137208,38672.4,17843.1,-4058.64,44276.6,14985.7,10773.7,75738.5
1.792,0.0137425,38959.3,18102.4,-3825.21,44872.7,14648,11075,74973.7
1.794,0.0137642,39246.2,18361.7,-3591.79,45468.9,14310.4,11376.4,74209
1.796,0.013786,39533.1,18621,-3358.37,46065,13972.8,11677.8,73444.2
1.798,0.0138077,39819.9,18880.3,-3124.95,46661.1,13635.2,11979.1,72679.5
1.8,0.0138294,40106.8,19139.6,-2891.53,47257.2,13297.5,12280.5,71914.7
1.802,0.0138512,40393.7,19399,-2658.09,47853.4,12959.9,12581.9,71149.9
1.804,0.0138729,40680.6,19658.3,-2424.67,48449.5,12622.3,12883.2,70385.2
1.806,0.0138946,40967.5,19917.6,-2191.25,49045.6,12284.7,13184.6,69620.5
1.808,0.0139164,41479.8,19956.8,-2023.53,48289.5,11918.2,13101.5,68902.1
1.81,0.0139382,42249,19745.3,-1930.62,45993.5,11519.1,12580.5,68236.7
1.812,0.01396,43018.1,19533.9,-1837.71,43697.4,11119.8,12059.5,67571.2
1.814,0.0139817,43787.2,19322.4,-1744.8,41401.4,10720.7,11538.5,66905.8
1.816,0.0140035,44556.3,19111,-1651.9,39105.4,10321.5,11017.5,66240.3
1.818,0.0140253,45325.4,18899.5,-1558.99,36809.4,9922.29,10496.5,65574.9
1.82,0.0140471,46094.6,18688.1,-1466.08,34513.3,9523.08,9975.53,64909.4
1.822,0.0140689,46863.7,18476.6,-1373.17,32217.3,9123.89,9454.54,64243.9
1.824,0.0140906,47483.4,18282.7,-1288.65,30308.7,8812.02,9059.8,63705.3
1.826,0.0141124,47316.1,18181.3,-1248.27,30440.3,8959.94,9329.77,63834.3
1.828,0.0141342,47148.8,18079.9,-1207.9,30571.8,9107.86,9599.74,63963.3
1.83,0.014156,46981.5,17978.5,-1167.52,30703.3,9255.79,9869.73,64092.4
1.832,0.0141777,46814.2,17877,-1127.15,30834.8,9403.71,10139.7,64221.4
1.834,0.0141995,46646.9,17775.6,-1086.77,30966.3,9551.63,10409.7,64350.4
1.836,0.0142213,46479.6,17674.2,-1046.4,31097.8,9699.55,10679.6,64479.4
1.838,0.0142431,46312.3,17572.7,-1006.02,31229.3,9847.48,10949.6,64608.4
1.84,0.0142648,46145,17471.3,-965.644,31360.8,9995.39,11219.6,64737.5
1.842,0.0142866,45856.7,17290.5,-901.165,31687.1,10227,11518.5,64949.8
1.844,0.0143084,44943.9,16699.9,-712.285,33018.4,10890.5,11967,65591.8
1.846,0.0143302,44031,16109.3,-523.406,34349.8,11554,12415.4,66233.9
1.848,0.0143519,43118,15518.6,-334.515,35681.3,12217.6,12863.9,66876
1.85,0.0143737,42205.2,14928,-145.636,37012.6,12881.1,13312.3,67518
1.852,0.0143955,42146.4,14539.1,-212.014,36890.6,13129.3,13521,67315.1
1.854,0.0144172,42595.1,14270.1,-430.051,35905,13130.8,13587.1,66610
1.856,0.014439,43043.8,14001,-648.088,34919.3,13132.2,13653.3,65905
1.858,0.0144608,43492.5,13732,-866.138,33933.7,13133.7,13719.5,65199.9
1.86,0.0144826,44826.5,13923.3,-1271.41,35133.5,13297.6,14506.2,65821.1
1.862,0.0145044,46236.5,14154.2,-1692.76,36521,13475.5,15354.9,66556.2
1.864,0.0145262,47646.5,14385,-2114.11,37908.6,13653.4,16203.6,67291.3
1.866,0.014548,49056.6,14615.9,-2535.48,39296.2,13831.2,17052.3,68026.4
1.868,0.0145698,50510.7,14652.8,-2622.47,38950.1,13790.3,17464.6,68440.8
1.87,0.0145916,51978.8,14627.6,-2602.62,38050.2,13679.3,17737.4,68752.7
1.872,0.0146134,53446.9,14602.5,-2582.78,37150.2,13568.4,18010.2,69064.5
1.874,0.0146353,54915,14577.3,-2562.93,36250.2,13457.5,18283,69376.4
1.876,0.0146571,56383.1,14552.2,-2543.08,35350.2,13346.6,18555.8,69688.3
1.878,0.0146789,56395.4,14399.4,-2565.43,35030.8,13262.3,18548.6,69383.8
1.88,0.0147008,56281.4,14235.6,-2591.43,34761.8,13180.4,18517,69025.8
1.882,0.0147226,56167.4,14071.8,-2617.44,34492.8,13098.5,18485.4,68667.9
1.884,0.0147445,56053.4,13908,-2643.45,34223.8,13016.5,18453.9,68309.9
1.886,0.0147663,55939.4,13744.2,-2669.45,33954.8,12934.6,18422.3,67951.9
1.888,0.0147881,55825.4,13580.4,-2695.46,33685.8,12852.7,18390.7,67594
1.89,0.01481,55711.4,13416.6,-2721.47,33416.8,12770.7,18359.2,67236
1.892,0.0148318,55597.5,13252.8,-2747.47,33147.8,12688.8,18327.6,66878.1
1.894,0.0148537,55483.5,13089,-2773.48,32878.8,12606.9,18296.1,66520.1
1.896,0.0148755,55369.5,12925.2,-2799.49,32609.8,12524.9,18264.5,66162.1
1.898,0.0148974,55255.5,12761.4,-2825.5,32340.8,12443,18232.9,65804.1
1.9,0.0149192,55141.5,12597.6,-2851.5,32071.8,12361.1,18201.4,65446.2
1.902,0.0149411,55027.5,12433.8,-2877.51,31802.8,12279.1,18169.8,65088.2
1.904,0.0149629,54913.5,12270,-2903.52,31533.7,12197.2,18138.3,64730.3
1.906,0.0149848,54799.5,12106.2,-2929.52,31264.7,12115.3,18106.7,64372.3
1.908,0.0150066,54685.5,11942.4,-2955.53,30995.7,12033.3,18075.1,64014.3
1.91,0.0150285,54566.7,11770.3,-2979.27,30712.7,11954.9,18044.2,63651
1.912,0.0150503,54579.2,11821.6,-3064.31,30808.1,11781.1,17996.8,63432.6
1.914,0.0150722,54591.7,11873,-3149.37,30903.5,11607.2,17949.4,63214.1
1.916,0.015094,54604.2,11924.4,-3234.41,30998.9,11433.3,17901.9,62995.6
1.918,0.0151159,54616.7,11975.7,-3319.46,31094.2,11259.4,17854.5,62777.2
1.92,0.0151377,54629.2,12027.1,-3404.51,31189.6,11085.5,17807.1,62558.7
1.922,0.0151596,54641.8,12078.5,-3489.56,31285,10911.6,17759.7,62340.2
1.924,0.0151814,54654.3,12129.8,-3574.61,31380.4,10737.8,17712.3,62121.8
1.926,0.0152033,54666.8,12181.2,-3659.66,31475.7,10563.9,17664.9,61903.3
1.928,0.0152251,54679.3,12232.5,-3744.7,31571.1,10390,17617.5,61684.9
1.93,0.015247,54691.8,12283.9,-3829.75,31666.5,10216.1,17570.1,61466.4
1.932,0.0152688,54704.3,12335.3,-3914.8,31761.9,10042.2,17522.6,61248
1.934,0.0152907,54944.2,12421.5,-3782.77,31908.5,10053.3,17499.4,61340.9
1.936,0.0153125,55322.2,12528.9,-3518.78,32086.2,10176.7,17490.8,61623.1
1.938,0.0153343,55700.3,12636.3,-3254.79,32263.9,10300.2,17482.2,61905.4
1.94,0.0153561,56078.4,12743.7,-2990.78,32441.6,10423.7,17473.6,62187.7
1.942,0.0153779,57425,13024.4,-2644.47,32173.7,10525.8,17388,63292.2
1.944,0.0153997,59248.8,13390.4,-2257.62,31686.3,10617.4,17264.4,64801.9
1.946,0.0154216,61072.6,13756.4,-1870.77,31198.9,10709,17140.8,66311.6
1.948,0.0154434,62896.4,14122.4,-1483.92,30711.5,10800.6,17017.2,67821.2
1.95,0.0154653,64720.3,14488.4,-1097.04,30224,10892.3,16893.6,69331
1.952,0.0154871,66544,14854.4,-710.186,29736.6,10983.9,16770.1,70840.6
1.954,0.0155089,68367.8,15220.4,-323.333,29249.2,11075.5,16646.5,72350.3
1.956,0.0155308,70191.6,15586.4,63.5202,28761.8,11167.1,16522.9,73859.9
1.958,0.0155526,72015.4,15952.4,450.373,28274.4,11258.7,16399.3,75369.6
1.96,0.0155744,73839.3,16318.4,837.25,27786.9,11350.3,16275.7,76879.3
1.962,0.0155963,75541.4,16670.1,1283.05,27419.7,11493.2,16150,78267.6
1.964,0.0156182,76604.1,16946.9,2038.62,27684.1,11905.5,16013.3,79017.7
1.966,0.0156401,77666.8,17223.7,2794.2,27948.4,12317.7,15876.6,79767.9
1.968,0.0156619,78729.6,17500.5,3549.82,28212.8,12730,15739.9,80518.1
1.97,0.0156838,79792.3,17777.2,4305.4,28477.2,13142.3,15603.2,81268.3
1.972,0.0157057,80855,18054,5060.98,28741.6,13554.6,15466.5,82018.5
1.974,0.0157276,81917.7,18330.8,5816.56,29005.9,13966.9,15329.8,82768.6
1.976,0.0157495,83706.1,18586.9,6480.15,29968,14089.5,15578.9,83872.4
1.978,0.0157713,85758.9,18835.6,7110.3,31184.1,14106.6,15968.4,85105.1
1.98,0.0157932,87811.6,19084.2,7740.41,32400.2,14123.7,16357.9,86337.6
1.982,0.0158151,89864.3,19332.8,8370.52,33616.2,14140.9,16747.4,87570.2
1.984,0.0158369,91917,19581.4,9000.63,34832.3,14158,17136.9,88802.8
1.986,0.0158588,93969.7,19830.1,9630.73,36048.4,14175.1,17526.5,90035.4
1.988,0.0158806,94587.5,19631.3,10157.1,36523.8,14665.3,17465,90733.8
1.99,0.0159025,91583.3,18303.2,10421.3,35129.5,16349.4,16265.4,90083.8
1.992,0.0159243,88579.1,16975.2,10685.5,33735.2,18033.5,15065.8,89433.8
1.994,0.0159462,85575,15647.1,10949.7,32340.9,19717.6,13866.2,88783.9
1.996,0.015968,82570.6,14319,11214,30946.5,21401.8,12666.5,88133.9
1.998,0.0159899,79566.5,12990.9,11478.2,29552.2,23085.9,11466.9,87483.9
2,0.0160117,76562.3,11662.9,11742.4,28157.9,24770,10267.3,86833.9
