"arc_length","Displacement_Magnitude","Sxx","Sxy","Sxz","Syy","Syz","Szz","Von_Mises_Stress"
0,0,1.20855e+06,-69345,-6550.96,2.43243e+06,488934,1.04088e+06,1.57257e+06
0.002,1.8566e-06,1.14825e+06,-63338.1,-5702.1,2.34292e+06,458576,960345,1.53492e+06
0.004,3.01494e-06,1.11548e+06,-60810.7,-4686.08,2.28668e+06,441072,921710,1.50958e+06
0.006,3.9901e-06,1.09171e+06,-59420,-3615.46,2.24132e+06,427767,896762,1.48827e+06
0.008,4.98891e-06,1.06793e+06,-58029.3,-2544.84,2.19596e+06,414463,871815,1.46695e+06
0.01,5.99956e-06,1.04415e+06,-56638.6,-1474.22,2.15059e+06,401158,846867,1.44563e+06
0.012,7.01694e-06,1.02037e+06,-55247.9,-403.6,2.10523e+06,387854,821920,1.42431e+06
0.014,8.0385e-06,996596,-53857.2,667.02,2.05987e+06,374549,796973,1.40299e+06
0.016,9.02849e-06,972809,-52049.3,1883.72,2.01336e+06,362214,773448,1.38189e+06
0.018,9.93339e-06,948995,-49189.7,3468.71,1.96396e+06,352321,753511,1.36133e+06
0.02,1.08392e-05,925181,-46330.1,5053.69,1.91456e+06,342429,733574,1.34077e+06
0.022,1.17456e-05,901367,-43470.5,6638.67,1.86517e+06,332537,713637,1.32021e+06
0.024,1.26525e-05,877554,-40610.9,8223.66,1.81577e+06,322645,693700,1.29965e+06
0.026,1.35598e-05,853740,-37751.4,9808.64,1.76637e+06,312753,673763,1.2791e+06
0.028,1.44675e-05,829926,-34891.8,11393.6,1.71698e+06,302860,653826,1.25854e+06
0.03,1.53754e-05,806112,-32032.2,12978.6,1.66758e+06,292968,633889,1.23798e+06
0.032,1.62836e-05,782299,-29172.6,14563.6,1.61818e+06,283076,613952,1.21742e+06
0.034,1.7192e-05,758485,-26313,16148.6,1.56878e+06,273184,594015,1.19686e+06
0.036,1.81005e-05,734671,-23453.4,17733.6,1.51939e+06,263292,574078,1.1763e+06
0.038,1.90092e-05,710857,-20593.8,19318.5,1.46999e+06,253399,554141,1.15575e+06
0.04,1.9918e-05,687044,-17734.2,20903.5,1.42059e+06,243507,534204,1.13519e+06
0.042,2.08269e-05,663230,-14874.6,22488.5,1.3712e+06,233615,514267,1.11463e+06
0.044,2.17359e-05,639416,-12015,24073.5,1.3218e+06,223723,494330,1.09407e+06
0.046,2.2645e-05,615602,-9155.43,25658.5,1.2724e+06,213831,474393,1.07351e+06
0.048,2.35541e-05,591789,-6295.84,27243.5,1.22301e+06,203938,454456,1.05295e+06
0.05,2.54855e-05,564326,-4122.03,29713.2,1.18779e+06,198421,422518,1.05241e+06
0.052,2.77872e-05,535546,-2195.56,32502,1.15768e+06,194482,386251,1.0591e+06
0.054,3.00903e-05,506767,-269.091,35290.8,1.12757e+06,190543,349984,1.06578e+06
0.056,3.23946e-05,477988,1657.38,38079.6,1.09746e+06,186604,313717,1.07246e+06
0.058,3.46998e-05,449209,3583.85,40868.4,1.06735e+06,182665,277450,1.07914e+06
0.06,3.70058e-05,420430,5510.32,43657.2,1.03725e+06,178726,241182,1.08582e+06
0.062,3.93123e-05,391651,7436.79,46446,1.00714e+06,174787,204915,1.0925e+06
0.064,4.154e-05,387615,6820.19,46491.1,1.00101e+06,178225,202428,1.09452e+06
0.066,4.37947e-05,385380,6018.58,46336.6,996625,182201,202399,1.0962e+06
0.068,4.60786e-05,383145,5216.97,46182.1,992241,186176,202369,1.09788e+06
0.07,4.83874e-05,380910,4415.35,46027.6,987857,190152,202340,1.09955e+06
0.072,5.07128e-05,375938,1850.28,46196.8,979567,189054,191654,1.09936e+06
0.074,5.30486e-05,370523,-999.302,46418.1,970647,187138,179248,1.09887e+06
0.076,5.53935e-05,365108,-3848.87,46639.5,961727,185222,166843,1.09838e+06
0.078,5.77465e-05,359694,-6698.46,46860.8,952807,183306,154437,1.09789e+06
0.08,6.01065e-05,354279,-9548.03,47082.2,943887,181390,142032,1.0974e+06
0.082,6.24729e-05,348864,-12397.6,47303.5,934967,179474,129627,1.09691e+06
0.084,6.48449e-05,343450,-15247.2,47524.9,926047,177558,117221,1.09642e+06
0.086,6.72219e-05,338035,-18096.8,47746.2,917127,175642,104816,1.09593e+06
0.088,6.96038e-05,333832,-20634.6,47720.9,909755,174459,94184,1.09684e+06
0.09,7.1995e-05,336162,-21492.1,46365.5,910724,177230,93111.7,1.10527e+06
0.092,7.43939e-05,338492,-22349.6,45010.2,911694,180000,92039.3,1.1137e+06
0.094,7.67998e-05,340822,-23207.2,43654.9,912664,182771,90967,1.12213e+06
0.096,7.92123e-05,343152,-24064.7,42299.6,913634,185542,89894.6,1.13057e+06
0.098,8.16305e-05,345482,-24922.2,40944.3,914603,188312,88822.3,1.139e+06
0.1,8.43271e-05,352031,-26350.2,40117,926530,191570,89131,1.15512e+06
0.102,8.79064e-05,372177,-29616.5,40991.4,973771,196398,93890.8,1.196e+06
0.104,9.14872e-05,392323,-32882.8,41865.8,1.02101e+06,201225,98650.6,1.23688e+06
0.106,9.50694e-05,412469,-36149.2,42740.3,1.06825e+06,206053,103410,1.27776e+06
0.108,9.86529e-05,432615,-39415.5,43614.7,1.11549e+06,210881,108170,1.31864e+06
0.11,0.000102237,452760,-42681.8,44489.2,1.16273e+06,215708,112930,1.35952e+06
0.112,0.000105823,472907,-45948.1,45363.6,1.20997e+06,220536,117690,1.4004e+06
0.114,0.000109409,493052,-49214.5,46238.1,1.25721e+06,225364,122450,1.44129e+06
0.116,0.000113152,486688,-49492.7,45087.9,1.23946e+06,226762,120335,1.42943e+06
0.118,0.00011706,452123,-46592.4,41784,1.15256e+06,224514,110906,1.36147e+06
0.12,0.000120968,417557,-43692,38480.2,1.06567e+06,222265,101478,1.29351e+06
0.122,0.000124876,382992,-40791.6,35176.3,978769,220016,92050.2,1.22555e+06
0.124,0.000128785,348427,-37891.3,31872.4,891873,217767,82622.1,1.15759e+06
0.126,0.000132695,313861,-34990.9,28568.5,804976,215518,73193.9,1.08964e+06
0.128,0.000136604,279296,-32090.6,25264.7,718079,213270,63765.8,1.02168e+06
0.13,0.000140514,244731,-29190.2,21960.8,631183,211021,54337.7,953719
0.132,0.000144695,231549,-28994.2,19699.2,597016,209573,50619.7,929394
0.134,0.000149047,231018,-30398.3,18054.3,594044,208599,50279.8,930884
0.136,0.000153409,230488,-31802.3,16409.3,591072,207625,49940,932374
0.138,0.000157782,229957,-33206.2,14764.4,588100,206651,49600.1,933865
0.14,0.000162165,229427,-34610.3,13119.5,585128,205677,49260.3,935355
0.142,0.000166556,228896,-36014.3,11474.5,582156,204703,48920.5,936845
0.144,0.000170955,228366,-37418.2,9829.62,579184,203729,48580.6,938335
0.146,0.000175362,227835,-38822.3,8184.69,576212,202755,48240.8,939825
0.148,0.000179776,227304,-40226.3,6539.75,573240,201781,47900.9,941315
0.15,0.000184196,226774,-41630.3,4894.81,570268,200807,47561.1,942805
0.152,0.000188622,226243,-43034.3,3249.89,567296,199833,47221.3,944295
0.154,0.000193053,225713,-44438.3,1604.95,564324,198859,46881.4,945785
0.156,0.00019749,225182,-45842.3,-39.9869,561352,197884,46541.6,947275
0.158,0.000201932,224652,-47246.3,-1684.92,558380,196910,46201.7,948766
0.16,0.000206378,224121,-48650.3,-3329.85,555409,195936,45861.9,950256
0.162,0.000210828,223590,-50054.3,-4974.79,552437,194962,45522.1,951746
0.164,0.000215282,223060,-51458.3,-6619.72,549465,193988,45182.2,953236
0.166,0.00021974,222529,-52862.3,-8264.65,546493,193014,44842.4,954726
0.168,0.000224202,221999,-54266.3,-9909.58,543521,192040,44502.5,956216
0.17,0.000228667,221468,-55670.3,-11554.5,540549,191066,44162.7,957706
0.172,0.000233134,220938,-57074.3,-13199.5,537577,190092,43822.8,959196
0.174,0.000237513,222627,-58021.1,-11602.3,543342,189190,43228.5,957697
0.176,0.000241844,225529,-58718,-8233.68,553881,188328,42495.2,954563
0.178,0.000246674,225780,-58618.2,-9654.3,555318,186812,43932.5,943331
0.18,0.000251978,224592,-57923.1,-15174.7,551351,184681,47877.5,927577
0.182,0.000257579,234055,-58601.2,-18325.5,578803,182246,58069.2,943033
0.184,0.00026318,243518,-59279.4,-21476.4,606255,179812,68261,958488
0.186,0.000268783,252981,-59957.5,-24627.3,633707,177377,78452.9,973944
0.188,0.000274386,262444,-60635.6,-27778.1,661159,174942,88644.6,989399
0.19,0.000279989,271908,-61313.8,-30929,688611,172507,98836.4,1.00485e+06
0.192,0.000285594,281371,-61991.9,-34079.8,716063,170073,109028,1.02031e+06
0.194,0.000291199,290834,-62670,-37230.7,743515,167638,119220,1.03577e+06
0.196,0.000296804,300297,-63348.1,-40381.5,770967,165203,129412,1.05122e+06
0.198,0.000302606,304216,-62256.1,-40696.5,778739,162759,133095,1.04921e+06
0.2,0.000308483,306121,-60520.9,-39981.1,779362,160311,134413,1.04086e+06
0.202,0.000314363,308026,-58785.7,-39265.6,779985,157862,135731,1.03251e+06
0.204,0.000320246,309931,-57050.5,-38550.2,780607,155414,137050,1.02416e+06
0.206,0.000326131,311835,-55315.3,-37834.8,781230,152966,138368,1.01581e+06
0.208,0.00033202,313740,-53580.1,-37119.4,781852,150518,139686,1.00746e+06
0.21,0.000337911,315645,-51845,-36404,782475,148070,141004,999104
0.212,0.000343804,317550,-50109.8,-35688.6,783098,145622,142323,990752
0.214,0.0003497,319454,-48374.6,-34973.1,783720,143174,143641,982400
0.216,0.000355598,321359,-46639.4,-34257.7,784343,140726,144959,974048
0.218,0.000361498,323264,-44904.2,-33542.3,784965,138278,146278,965697
0.22,0.0003674,325169,-43169,-32826.9,785588,135830,147596,957345
0.222,0.000373303,327073,-41433.8,-32111.5,786210,133382,148914,948993
0.224,0.000379209,328978,-39698.6,-31396.1,786833,130934,150232,940641
0.226,0.000385531,317862,-37075.4,-24712.8,769338,128466,144819,929572
0.228,0.000391862,306439,-34431.4,-17889.3,751418,125997,139247,918438
0.23,0.000398194,295017,-31787.3,-11065.9,733498,123528,133675,907305
0.232,0.000404526,283595,-29143.3,-4242.56,715578,121059,128104,896171
0.234,0.000410859,272173,-26499.2,2580.85,697658,118590,122532,885038
0.236,0.000417191,260750,-23855.1,9404.27,679738,116121,116960,873905
0.238,0.000423524,249328,-21211.1,16227.7,661818,113652,111388,862771
0.24,0.000430085,246902,-20929,20967.4,656141,112829,110668,874423
0.242,0.000436698,246421,-21157.5,25256.7,653111,112362,110996,891000
0.244,0.000443311,245939,-21386,29545.9,650081,111895,111324,907578
0.246,0.000449927,245458,-21614.5,33835.2,647051,111429,111652,924155
0.248,0.000456544,244977,-21843.1,38124.5,644021,110962,111980,940732
0.25,0.000463163,244496,-22071.6,42413.7,640990,110495,112309,957310
0.252,0.000469784,244014,-22300.1,46703,637960,110028,112637,973887
0.254,0.000476406,243533,-22528.6,50992.3,634930,109561,112965,990465
0.256,0.000483029,243052,-22757.1,55281.6,631900,109094,113293,1.00704e+06
0.258,0.000489654,242570,-22985.7,59570.8,628870,108627,113621,1.02362e+06
0.26,0.00049628,242089,-23214.2,63860.1,625840,108160,113949,1.0402e+06
0.262,0.000503265,237065,-21405.7,66110.3,621875,111762,113802,1.048e+06
0.264,0.000510321,231151,-19198.2,67961,617728,116160,113560,1.05409e+06
0.266,0.000517378,225237,-16990.6,69811.6,613580,120559,113319,1.06017e+06
0.268,0.000524435,219322,-14783,71662.3,609432,124957,113078,1.06626e+06
0.27,0.000531492,213408,-12575.4,73513,605284,129355,112837,1.07234e+06
0.272,0.000538549,207494,-10367.9,75363.6,601136,133754,112596,1.07843e+06
0.274,0.00054568,202688,-7980.5,76726.9,597006,137669,112399,1.08278e+06
0.276,0.000553156,203021,-4759.55,75831.1,592957,139343,112409,1.07908e+06
0.278,0.000560632,203353,-1538.59,74935.3,588908,141017,112419,1.07538e+06
0.28,0.000568109,203686,1682.36,74039.4,584859,142691,112430,1.07168e+06
0.282,0.000575881,209755,4423.66,71382.2,593312,140282,111008,1.05491e+06
0.284,0.000583768,218042,6979.41,68043.6,606602,136294,109032,1.03308e+06
0.286,0.000591654,226330,9535.16,64705,619892,132307,107057,1.01125e+06
0.288,0.00059954,234618,12090.9,61366.5,633181,128319,105081,989427
0.29,0.000607427,242905,14646.6,58027.9,646471,124331,103105,967600
0.292,0.000615314,251193,17202.4,54689.3,659761,120343,101130,945773
0.294,0.000623281,255018,16976.9,51075.3,672837,119777,100637,930261
0.296,0.000631262,258117,16298.6,47416.3,685878,119767,100387,915778
0.298,0.000639245,261215,15620.3,43757.4,698919,119757,100136,901294
0.3,0.000647229,264314,14942,40098.4,711960,119747,99885.6,886811
0.302,0.000655214,267412,14263.8,36439.5,725001,119737,99635,872327
0.304,0.0006632,270511,13585.5,32780.6,738043,119728,99384.4,857844
0.306,0.000671188,273609,12907.2,29121.7,751084,119718,99133.8,843360
0.308,0.000679176,276708,12228.9,25462.7,764125,119708,98883.1,828877
0.31,0.000687166,279806,11550.7,21803.8,777166,119698,98632.5,814393
0.312,0.00069517,282842,10800.3,17938.4,789623,119698,98509.7,800190
0.314,0.000703554,284131,8062.88,8379.38,785968,119949,101913,793728
0.316,0.000711938,285420,5325.42,-1179.63,782313,120201,105316,787266
0.318,0.000720322,286710,2588.01,-10738.5,778658,120452,108719,780804
0.32,0.000728706,287999,-149.446,-20297.5,775003,120704,112122,774342
0.322,0.000737091,289288,-2886.9,-29856.5,771348,120955,115525,767880
0.324,0.000745475,290578,-5624.35,-39415.5,767693,121207,118929,761418
0.326,0.000753881,291431,-8153.33,-47905.6,762735,121281,122195,757131
0.328,0.000762465,288468,-8857.42,-47038.8,746368,119802,124268,771877
0.33,0.000771051,285505,-9561.5,-46172.1,730001,118324,126341,786624
0.332,0.000779638,282542,-10265.6,-45305.3,713634,116845,128413,801370
0.334,0.000788225,279579,-10969.7,-44438.5,697267,115367,130486,816117
0.336,0.000796814,276616,-11673.7,-43571.7,680899,113888,132559,830864
0.338,0.000805403,273654,-12377.8,-42704.9,664532,112410,134631,845610
0.34,0.000813992,270691,-13081.9,-41838.2,648165,110931,136704,860357
0.342,0.000822583,267728,-13786,-40971.4,631798,109452,138777,875103
0.344,0.000831174,264765,-14490.1,-40104.6,615431,107974,140849,889850
0.346,0.000839766,261802,-15194.1,-39237.8,599064,106495,142922,904596
0.348,0.000848518,256328,-15461.3,-37003,582373,105523,142255,908158
0.35,0.000857556,246335,-14942.4,-32306.2,565101,105462,136659,891590
0.352,0.000866594,236342,-14423.4,-27609.5,547828,105401,131063,875022
0.354,0.000875632,226349,-13904.4,-22912.8,530556,105339,125466,858454
0.356,0.000884671,216356,-13385.4,-18216,513283,105278,119870,841887
0.358,0.000893709,206363,-12866.4,-13519.3,496011,105217,114274,825319
0.36,0.000902747,196370,-12347.4,-8822.54,478738,105156,108677,808751
0.362,0.000911785,186378,-11828.4,-4125.87,461466,105094,103081,792184
0.364,0.000920986,185472,-11896.8,-2926.77,464160,103508,101421,784968
0.366,0.000930218,186238,-12073.2,-2371.07,470526,101640,100486,779474
0.368,0.000939451,187004,-12249.7,-1815.38,476893,99772.9,99550.1,773979
0.37,0.000948684,187770,-12426.1,-1259.69,483260,97905.4,98614.6,768484
0.372,0.000957919,188536,-12602.5,-703.993,489626,96038,97679,762990
0.374,0.000967154,189302,-12779,-148.299,495993,94170.6,96743.4,757495
0.376,0.00097639,190068,-12955.4,407.387,502359,92303.2,95807.9,752000
0.378,0.000985626,190834,-13131.9,963.081,508726,90435.8,94872.3,746505
0.38,0.000994863,191601,-13308.3,1518.77,515093,88568.4,93936.7,741011
0.382,0.00100412,193057,-13585.1,1985.69,524121,87128.4,93569.2,733272
0.384,0.00101342,196786,-14192.6,2160.19,541916,87096.6,95072.8,718144
0.386,0.00102272,200515,-14800.1,2334.69,559711,87064.8,96576.3,703015
0.388,0.00103202,204244,-15407.6,2509.19,577506,87033,98079.8,687886
0.39,0.00104133,207973,-16015.1,2683.69,595301,87001.1,99583.3,672758
0.392,0.00105063,211703,-16622.5,2858.19,613096,86969.3,101087,657629
0.394,0.00106014,213708,-16956.9,3480.04,625935,87326.3,103094,644876
0.396,0.00107005,212172,-16730.1,5021.24,628588,88482.2,106134,637007
0.398,0.00107996,210636,-16503.2,6562.43,631242,89638,109175,629138
0.4,0.00108987,209099,-16276.4,8103.62,633895,90793.9,112216,621269
0.402,0.00109978,207563,-16049.5,9644.82,636548,91949.8,115257,613400
0.404,0.00110969,206027,-15822.6,11186,639202,93105.7,118298,605531
0.406,0.0011196,204491,-15595.8,12727.2,641855,94261.6,121338,597662
0.408,0.00112951,202954,-15368.9,14268.4,644509,95417.5,124379,589793
0.41,0.00113952,198092,-14267.5,15407.9,639227,96169.6,124613,590165
0.412,0.00114977,189682,-12706,14869.9,616719,94787.5,119639,603988
0.414,0.00116002,181272,-11144.6,14331.9,594210,93405.4,114666,617811
0.416,0.00117027,172861,-9583.07,13793.9,571702,92023.3,109693,631633
0.418,0.00118052,164451,-8021.59,13256,549194,90641.1,104720,645456
0.42,0.00119077,156041,-6460.13,12718,526686,89259,99746.9,659279
0.422,0.00120102,147630,-4898.65,12180,504177,87876.9,94773.7,673101
0.424,0.00121127,139220,-3337.17,11642,481669,86494.8,89800.6,686924
0.426,0.00122153,130810,-1775.69,11104.1,459161,85112.7,84827.4,700747
0.428,0.00123178,122399,-214.205,10566.1,436653,83730.5,79854.2,714569
0.43,0.00124203,113989,1347.28,10028.1,414144,82348.4,74881.1,728392
0.432,0.00125226,107570,1007.8,8932.78,391447,80364,71923.3,733921
0.434,0.00126247,102879,-980.963,7353.91,368587,77857.1,70714.1,732254
0.436,0.00127268,98187.3,-2969.75,5775.02,345726,75350.2,69504.9,730587
0.438,0.00128289,93496.1,-4958.54,4196.13,322866,72843.3,68295.7,728921
0.44,0.0012931,88804.8,-6947.33,2617.24,300005,70336.3,67086.4,727254
0.442,0.00130331,84113.5,-8936.12,1038.35,277144,67829.4,65877.2,725587
0.444,0.00131375,84470.6,-15315.8,-302.2,265344,64301,66557.4,721365
0.446,0.00132436,88968.6,-25297.2,-1447.26,262616,59934.8,68787.2,715047
0.448,0.00133497,93466.7,-35278.5,-2592.32,259888,55568.6,71017.1,708729
0.45,0.00134559,97964.6,-45259.7,-3737.36,257161,51202.4,73246.9,702411
0.452,0.00135657,103846,-44647.3,-2062.08,275888,51222.9,77437.3,694009
0.454,0.00136758,109835,-43216.2,-168.847,296274,51582.4,81779.2,685445
0.456,0.00137859,115823,-41785.1,1724.39,316660,51941.9,86121.1,676882
0.458,0.0013896,121812,-40354,3617.63,337046,52301.4,90462.9,668319
0.46,0.00140062,127800,-38922.9,5510.86,357432,52660.8,94804.8,659755
0.462,0.00141163,133789,-37491.8,7404.1,377818,53020.3,99146.7,651192
0.464,0.00142264,139777,-36060.8,9297.31,398203,53379.8,103489,642629
0.466,0.00143365,145766,-34629.7,11190.5,418589,53739.3,107830,634066
0.468,0.00144466,151754,-33198.6,13083.8,438975,54098.8,112172,625502
0.47,0.00145568,157742,-31767.5,14977,459361,54458.3,116514,616939
0.472,0.00146669,163731,-30336.4,16870.3,479746,54817.8,120856,608376
0.474,0.0014777,169719,-28905.3,18763.5,500132,55177.3,125198,599813
0.476,0.00148872,175708,-27474.2,20656.7,520518,55536.8,129540,591249
0.478,0.0014997,180856,-23949.9,22723.2,538825,56210,134187,580682
0.48,0.00151064,184892,-17653.5,25019.2,554381,57298.8,139238,567461
0.482,0.00152158,188927,-11357.2,27315.2,569937,58387.6,144290,554240
0.484,0.00153252,192963,-5060.82,29611.2,585492,59476.4,149341,541018
0.486,0.00154346,196998,1235.53,31907.2,601048,60565.2,154393,527797
0.488,0.00155451,197286,7649.44,33448.8,610557,60254.9,155912,519245
0.49,0.0015658,188983,14332.8,33261.6,606204,56737.4,149333,521394
0.492,0.00157709,180679,21016.2,33074.3,601851,53219.8,142755,523543
0.494,0.00158838,172376,27699.5,32887,597499,49702.4,136177,525693
0.496,0.00159967,164073,34382.8,32699.7,593146,46184.8,129598,527842
0.498,0.00161096,155769,41066.2,32512.4,588793,42667.3,123020,529991
0.5,0.00162241,149114,44059.6,32006,584652,40587.7,116135,532143
0.502,0.00163398,144067,43477.8,30836.2,581007,39262.3,109154,535243
0.504,0.00164551,140777,39129.1,27001.2,579508,35185.8,103191,544598
0.506,0.00165703,137694,35040.2,23380,577781,31397.4,97529.3,553306
0.508,0.00166849,136336,33126,21548.2,574144,30021.1,94395.6,556602
0.51,0.00167995,134978,31211.8,19716.5,570507,28644.9,91261.9,559899
0.512,0.00169141,133620,29297.6,17884.7,566870,27268.7,88128.1,563196
0.514,0.00170288,132262,27383.5,16053,563233,25892.5,84994.5,566492
0.516,0.00171434,130904,25469.3,14221.2,559596,24516.3,81860.8,569789
0.518,0.0017258,129546,23555.1,12389.4,555959,23140,78727,573086
0.52,0.00173726,128188,21641,10557.7,552322,21763.8,75593.4,576382
0.522,0.00174872,126830,19726.8,8725.91,548684,20387.6,72459.6,579679
0.524,0.00176019,125472,17812.6,6894.17,545047,19011.4,69325.9,582976
0.526,0.00177165,124114,15898.4,5062.38,541410,17635.1,66192.2,586272
0.528,0.00178317,122905,14694.7,4041.46,538504,17218.9,63705.8,589656
0.53,0.00179494,122322,16483.6,6436.16,538680,20846.8,63946.3,593406
0.532,0.00180671,121739,18272.6,8830.94,538856,24474.8,64186.9,597156
0.534,0.00181848,121157,20061.5,11225.6,539031,28102.6,64427.4,600906
0.536,0.00183026,120574,21850.5,13620.4,539207,31730.6,64667.9,604656
0.538,0.00184203,119991,23639.4,16015.1,539382,35358.4,64908.4,608406
0.54,0.0018538,119444,25316.2,18371.3,539043,38944.7,65162.9,611446
0.542,0.00186568,119544,24925,20016,529214,41761.6,65675.1,601389
0.544,0.00187777,119210,22815.8,19867.5,516238,43956.4,65930.3,591498
0.546,0.00189003,118538,19377.9,18332,500828,45669.9,65986.9,581735
0.548,0.00190229,117866,15940,16796.5,485418,47383.3,66043.4,571973
0.55,0.00191455,117195,12502,15261,470007,49096.8,66099.9,562210
0.552,0.00192681,116523,9064.07,13725.5,454597,50810.2,66156.5,552448
0.554,0.00193907,115852,5626.06,12189.9,439186,52523.7,66213,542685
0.556,0.00195147,115801,4299.97,13976.5,435659,53103.5,65863.1,559503
0.558,0.0019639,115898,3471.58,16546.1,434933,53416.2,65417.3,582586
0.56,0.00197632,115994,2643.2,19115.5,434207,53728.8,64971.6,605668
0.562,0.00198875,116090,1814.83,21685,433481,54041.4,64525.9,628750
0.564,0.00200118,116186,986.438,24254.6,432755,54354.1,64080.2,651833
0.566,0.00201361,116282,158.067,26824.1,432028,54666.7,63634.5,674916
0.568,0.00202604,116378,-670.328,29393.7,431302,54979.3,63188.7,697999
0.57,0.00203847,116474,-1498.7,31963.2,430576,55291.9,62743,721081
0.572,0.0020509,116571,-2327.09,34532.7,429850,55604.6,62297.3,744164
0.574,0.00206344,115715,-2728.06,37476.6,419075,55546.7,59172.8,751905
0.576,0.00207609,113045,-3460.29,40497.3,413911,55519.5,58877.2,749791
0.578,0.00208874,110222,-4268.89,43497.5,410267,55526,59155.1,747674
0.58,0.00210139,107400,-5077.46,46497.7,406623,55532.6,59432.9,745558
0.582,0.00211404,104577,-5886.05,49497.9,402979,55539.2,59710.7,743442
0.584,0.00212669,101755,-6694.63,52498,399335,55545.7,59988.5,741326
0.586,0.00213934,98932.4,-7503.22,55498.2,395691,55552.3,60266.3,739209
0.588,0.00215199,96109.9,-8311.79,58498.4,392048,55558.9,60544.1,737093
0.59,0.00216464,93287.5,-9120.36,61498.5,388404,55565.4,60821.9,734977
0.592,0.00217729,90465,-9928.96,64498.7,384760,55572,61099.8,732861
0.594,0.00218994,87642.6,-10737.5,67498.9,381116,55578.6,61377.6,730745
0.596,0.00220276,87028.5,-11202.3,68837.8,380444,57048.3,63351.9,726847
0.598,0.00221568,87856.7,-11442.5,69091.8,381713,59473.7,66434.1,721787
0.6,0.00222861,88684.9,-11682.7,69345.8,382983,61899.1,69516.5,716727
0.602,0.0022415,89775,-11759.6,68639.4,382596,64529.4,71836.5,706685
0.604,0.00225438,90989.7,-11758.9,67475.6,381421,67257.4,73793.6,694271
0.606,0.00226725,92204.5,-11758.1,66311.8,380246,69985.5,75750.7,681856
0.608,0.00228013,93419.2,-11757.3,65148.1,379072,72713.5,77707.8,669442
0.61,0.00229301,94634,-11756.5,63984.3,377897,75441.6,79664.9,657028
0.612,0.00230588,95848.7,-11755.7,62820.5,376722,78169.5,81622,644614
0.614,0.00231876,97063.5,-11754.9,61656.7,375547,80897.6,83579.1,632199
0.616,0.00233164,98278.2,-11754.1,60493,374372,83625.6,85536.1,619785
0.618,0.00234452,99493,-11753.3,59329.2,373197,86353.6,87493.2,607371
0.62,0.00235743,99715.6,-11283.7,57537.3,370668,89019.8,89106.4,599515
0.622,0.00237048,96550.4,-9213.33,53600.8,363512,91474.6,89545.2,607225
0.624,0.00238352,93385.2,-7142.91,49664.1,356356,93929.4,89984,614936
0.626,0.00239667,90299.4,-5669.34,46395.9,350096,94396.9,90438.5,616485
0.628,0.00240993,87293.8,-4798.92,43803.2,344741,92855.7,90908.8,611806
0.63,0.0024232,84288.3,-3928.53,41210.6,339386,91314.5,91379.1,607127
0.632,0.00243646,81282.7,-3058.11,38618,334030,89773.3,91849.4,602448
0.634,0.00244973,78277.2,-2187.72,36025.4,328675,88232.2,92319.7,597769
0.636,0.00246306,75813.2,-1658.89,34399.1,323558,86427.3,92598.3,593341
0.638,0.00247657,74688.7,-1975.08,35163.3,319030,83969.9,92402.4,589533
0.64,0.00249008,73564.2,-2291.26,35927.6,314502,81512.5,92206.5,585725
0.642,0.00250359,72439.7,-2607.45,36691.9,309974,79055.1,92010.6,581916
0.644,0.00251709,71315.3,-2923.64,37456.1,305446,76597.8,91814.7,578108
0.646,0.00253069,70506.1,-2871.91,37355.5,303312,74530.7,90889.7,574351
0.648,0.00254443,70188.6,-2246.54,35906.5,304911,73072.3,88828.1,570672
0.65,0.00255817,69871.1,-1621.17,34457.5,306510,71614,86766.4,566993
0.652,0.0025719,69553.6,-995.79,33008.5,308109,70155.5,84704.7,563314
0.654,0.00258564,69236.1,-370.424,31559.5,309708,68697.1,82643,559635
0.656,0.00259938,68918.6,254.96,30110.4,311307,67238.7,80581.3,555956
0.658,0.00261311,68601.1,880.326,28661.4,312906,65780.3,78519.6,552278
0.66,0.00262685,68283.6,1505.71,27212.4,314505,64321.9,76457.9,548599
0.662,0.00264059,67966.2,2131.08,25763.4,316105,62863.5,74396.3,544920
0.664,0.00265433,67648.7,2756.44,24314.4,317704,61405.1,72334.6,541241
0.666,0.00266807,67331.2,3381.83,22865.3,319303,59946.7,70272.9,537562
0.668,0.0026818,67013.7,4007.19,21416.3,320902,58488.3,68211.2,533883
0.67,0.00269554,66696.2,4632.58,19967.3,322501,57029.9,66149.5,530204
0.672,0.00270928,66378.7,5257.94,18518.3,324100,55571.5,64087.9,526525
0.674,0.00272302,66061.2,5883.33,17069.2,325699,54113.1,62026.1,522846
0.676,0.00273676,65743.7,6508.69,15620.2,327298,52654.7,59964.5,519168
0.678,0.0027505,65426.2,7134.06,14171.2,328897,51196.3,57902.8,515489
0.68,0.00276424,65080.9,7788.9,12624.9,330035,49947.2,55567.7,511846
0.682,0.00277815,64165.4,9047.7,9083.33,321706,52990.3,47626.1,508947
0.684,0.00279205,63249.9,10306.5,5541.7,313376,56033.5,39684.2,506048
0.686,0.00280596,62334.5,11565.3,2000.17,305047,59076.5,31742.6,503149
0.688,0.00281987,61418.9,12824.2,-1541.46,296718,62119.7,23800.8,500250
0.69,0.00283377,60503.5,14083,-5082.99,288388,65162.8,15859.2,497351
0.692,0.00284768,59588,15341.8,-8624.52,280059,68205.8,7917.6,494452
0.694,0.00286158,58672.5,16600.6,-12166.2,271730,71249,-24.2338,491553
0.696,0.00287549,57757,17859.4,-15707.7,263401,74292.1,-7965.83,488654
0.698,0.00288947,57179.4,18367.1,-17565.4,257438,76749.2,-14053.4,483748
0.7,0.00290362,57306.7,17308.3,-15911.2,256411,77984,-16273.4,474658
0.702,0.00291777,57434,16249.4,-14256.9,255385,79218.8,-18493.5,465568
0.704,0.00293193,57561.3,15190.6,-12602.6,254358,80453.6,-20713.6,456479
0.706,0.00294608,57688.5,14131.8,-10948.4,253332,81688.4,-22933.6,447389
0.708,0.00296023,57815.8,13073,-9294.05,252305,82923.3,-25153.8,438299
0.71,0.00297438,57943.1,12014.2,-7639.8,251279,84158.1,-27373.8,429209
0.712,0.00298873,57564.6,12960.1,-8761.93,256701,83996.3,-29804.9,426081
0.714,0.00300326,56727.3,15725.2,-12403.2,267975,82567.3,-32427.4,428364
0.716,0.00301779,55889.9,18490.3,-16044.6,279249,81138.3,-35050,430646
0.718,0.00303232,55052.6,21255.3,-19686,290523,79709.4,-37672.5,432929
0.72,0.00304685,54215.2,24020.5,-23327.4,301797,78280.3,-40295.1,435211
0.722,0.00306137,53377.9,26785.5,-26968.7,313071,76851.4,-42917.6,437494
0.724,0.00307588,53041,30196.6,-28963.5,323244,76264.1,-44781.6,441943
0.726,0.00309032,53864.6,35105.9,-27139.9,330862,77628.6,-44886.5,451416
0.728,0.00310477,54688.3,40015.2,-25316.4,338480,78993.1,-44991.4,460890
0.73,0.00311921,55511.9,44924.5,-23492.8,346098,80357.7,-45096.3,470363
0.732,0.00313365,56335.5,49833.8,-21669.3,353716,81722.2,-45201.3,479836
0.734,0.0031481,57159.2,54743.1,-19845.8,361334,83086.8,-45306.2,489310
0.736,0.00316254,57982.8,59652.3,-18022.2,368952,84451.3,-45411.1,498783
0.738,0.00317698,58806.4,64561.6,-16198.7,376570,85815.8,-45516,508256
0.74,0.00319139,56701,61161.4,-19739.4,377382,84775.3,-50056.8,500562
0.742,0.00320579,54504.2,57501.9,-23447.5,377982,83659.7,-54735.9,492332
0.744,0.00322019,52307.3,53842.2,-27155.8,378582,82544,-59415.2,484102
0.746,0.00323459,50110.5,50182.6,-30863.9,379182,81428.4,-64094.4,475873
0.748,0.00324914,52631,49026.8,-28979.5,376833,81470.4,-59107.1,468428
0.75,0.00326371,55486.4,48048.8,-26698.1,374274,81594.5,-53433.8,461039
0.752,0.00327828,58341.7,47070.8,-24416.8,371716,81718.5,-47760.6,453651
0.754,0.00329285,61197.1,46092.7,-22135.4,369158,81842.6,-42087.2,446262
0.756,0.00330764,60399.5,42394,-21661.8,366646,82079.4,-37093.6,440136
0.758,0.00332244,59364,38518,-21306,364137,82323.4,-32144.1,434092
0.76,0.00333724,58328.5,34642.1,-20950.2,361629,82567.5,-27194.8,428048
0.762,0.0033521,56900.7,32008.2,-20308.3,358939,82635.8,-23212.2,425955
0.764,0.00336707,54763.2,31621.7,-19148.7,355923,82386,-20979.1,431011
0.766,0.00338204,52625.7,31235.2,-17989.1,352907,82136.2,-18746,436066
0.768,0.00339701,50488.2,30848.7,-16829.5,349891,81886.4,-16512.8,441123
0.77,0.00341199,48350.7,30462.2,-15669.9,346875,81636.6,-14279.7,446179
0.772,0.00342696,46213.1,30075.7,-14510.3,343859,81386.8,-12046.6,451235
0.774,0.0034419,44496.1,29122.6,-13431.3,338908,80977.4,-9318.12,456166
0.776,0.00345678,43621.2,27034.3,-12513.5,330083,80248.4,-5597.36,460846
0.778,0.00347166,42746.3,24946,-11595.8,321259,79519.5,-1876.72,465526
0.78,0.00348654,41871.4,22857.8,-10678,312434,78790.5,1843.93,470206
0.782,0.00350142,40996.5,20769.5,-9760.28,303609,78061.6,5564.69,474886
0.784,0.00351631,40121.7,18681.3,-8842.54,294785,77332.6,9285.34,479566
0.786,0.00353119,39246.8,16593,-7924.78,285960,76603.6,13006.1,484246
0.788,0.00354607,38371.9,14504.7,-7007.04,277135,75874.7,16726.7,488926
0.79,0.00356095,37497,12416.4,-6089.28,268310,75145.7,20447.5,493606
0.792,0.00357586,36875.8,10414.8,-5273.63,259360,74352.1,24180.7,497088
0.794,0.00359115,40114.4,9731.14,-6011.29,248501,72573.9,28105.2,482329
0.796,0.00360644,43352.9,9047.49,-6748.94,237642,70795.7,32029.6,467571
0.798,0.00362173,46591.4,8363.83,-7486.58,226784,69017.5,35953.9,452813
0.8,0.00363702,49830,7680.15,-8224.25,215925,67239.3,39878.4,438055
0.802,0.00365231,53068.5,6996.49,-8961.89,205066,65461.1,43802.8,423297
0.804,0.0036676,56307,6312.81,-9699.56,194207,63682.9,47727.2,408538
0.806,0.00368288,59545.5,5629.15,-10437.2,183348,61904.8,51651.6,393780
0.808,0.00369817,62784.1,4945.47,-11174.9,172489,60126.6,55576.1,379022
0.81,0.00371354,65437.4,4512.5,-11297.4,169520,59526.5,58555,371732
0.812,0.00372897,67615.8,4282.94,-10920.9,172952,59882.3,60766.9,370501
0.814,0.0037444,69794.3,4053.37,-10544.3,176384,60238.1,62978.8,369271
0.816,0.00375983,71972.7,3823.81,-10167.8,179816,60593.9,65190.7,368040
0.818,0.00377526,74151.2,3594.24,-9791.23,183248,60949.8,67402.6,366809
0.82,0.00379069,76329.7,3364.68,-9414.69,186680,61305.6,69614.4,365579
0.822,0.00380612,78508.2,3135.11,-9038.13,190112,61661.4,71826.4,364348
0.824,0.00382155,80686.6,2905.54,-8661.59,193544,62017.2,74038.2,363117
0.826,0.00383698,82865,2675.98,-8285.05,196976,62373,76250,361887
0.828,0.00385241,85043.5,2446.41,-7908.5,200408,62728.8,78462,360656
0.83,0.00386784,87221.9,2216.85,-7531.95,203840,63084.7,80673.8,359425
0.832,0.00388328,89400.4,1987.28,-7155.4,207272,63440.5,82885.7,358195
0.834,0.00389871,91578.9,1757.72,-6778.86,210704,63796.3,85097.6,356964
0.836,0.00391414,93757.3,1528.15,-6402.3,214136,64152.1,87309.5,355733
0.838,0.00392957,95935.8,1298.58,-6025.76,217568,64507.9,89521.4,354503
0.84,0.003945,98114.2,1069.02,-5649.22,221000,64863.8,91733.2,353272
0.842,0.00396038,99437.9,1270.22,-5081,224123,65512.4,93776.9,352646
0.844,0.00397576,100690,1507.45,-4496.77,227220,66185.6,95806.5,352070
0.846,0.00399113,101942,1744.69,-3912.52,230317,66858.8,97836.2,351495
0.848,0.00400651,103194,1981.93,-3328.28,233414,67531.9,99865.8,350919
0.85,0.00402189,104447,2219.17,-2744.03,236511,68205.1,101895,350344
0.852,0.00403749,104222,1498.39,-1543.68,233209,68338.8,100108,350525
0.854,0.00405314,103695,582.148,-217.616,228601,68362.3,97541.1,350861
0.856,0.00406882,101409,-57.1701,1006.57,223229,68342.6,93195.7,350853
0.858,0.00408456,96497.9,-283.37,2078.71,216719,68258.5,86197.2,350331
0.86,0.00410029,91586.9,-509.576,3150.88,210208,68174.4,79198.5,349810
0.862,0.00411602,86676.1,-735.776,4223.01,203698,68090.3,72200,349289
0.864,0.00413176,81765.1,-961.983,5295.18,197187,68006.2,65201.3,348768
0.866,0.00414762,78688.5,-841.221,5894.07,195417,67965.7,60888.1,348050
0.868,0.00416358,76830,-490.032,6178.65,196795,67954,58358.1,347201
0.87,0.00417953,74971.4,-138.833,6463.24,198173,67942.4,55828.1,346352
0.872,0.00419548,73112.9,212.355,6747.83,199552,67930.8,53298.2,345503
0.874,0.00421144,71254.4,563.554,7032.42,200930,67919.1,50768.2,344655
0.876,0.00422739,69395.8,914.743,7317,202308,67907.5,48238.2,343806
0.878,0.00424334,68027.1,1534.02,7911.47,204534,67819.6,46157.4,342561
0.88,0.00425929,66748.4,2202.57,8562.89,206917,67717.6,44159.3,341244
0.882,0.00427523,65469.8,2871.15,9214.33,209299,67615.7,42161.2,339927
0.884,0.00429118,64191.1,3539.7,9865.75,211681,67513.7,40163.1,338610
0.886,0.00430713,62912.4,4208.25,10517.2,214063,67411.8,38165,337292
0.888,0.00432307,61633.8,4876.82,11168.6,216445,67309.8,36166.8,335975
0.89,0.00433902,60355.1,5545.37,11820,218828,67207.9,34168.7,334658
0.892,0.00435497,59076.4,6213.95,12471.5,221210,67105.9,32170.5,333340
0.894,0.00437091,57797.8,6882.5,13122.9,223592,67004,30172.4,332023
0.896,0.00438686,56519.1,7551.07,13774.3,225974,66902,28174.3,330706
0.898,0.00440281,55240.4,8219.62,14425.8,228357,66800.1,26176.2,329389
0.9,0.00441875,53961.8,8888.17,15077.2,230739,66698.1,24178,328071
0.902,0.0044347,52683.1,9556.75,15728.6,233121,66596.2,22179.9,326754
0.904,0.00445082,49106.4,8910.67,15332.9,233384,67972.4,19602.4,329752
0.906,0.00446696,45336.8,8154.35,14849.3,233470,69472.7,16976.2,333111
0.908,0.0044831,41567.4,7398.05,14365.8,233555,70972.9,14350.1,336470
0.91,0.00449924,37797.9,6641.73,13882.2,233640,72473.2,11723.9,339829
0.912,0.00451537,34028.5,5885.43,13398.7,233726,73973.4,9097.78,343188
0.914,0.00453151,30259.1,5129.14,12915.2,233811,75473.6,6471.67,346548
0.916,0.00454765,26489.6,4372.82,12431.6,233897,76973.9,3845.48,349907
0.918,0.00456378,22720.1,3616.52,11948.1,233982,78474.1,1219.38,353266
0.92,0.00458007,20555.3,3634.97,11595.1,233675,79673.3,-365.128,355838
0.922,0.0045965,20114.9,4486.06,11382.4,232946,80549,-830.123,357564
0.924,0.00461294,19674.6,5337.18,11169.8,232217,81424.6,-1295.13,359290
0.926,0.00462937,19234.2,6188.27,10957.1,231488,82300.3,-1760.13,361016
0.928,0.00464581,18793.9,7039.36,10744.5,230759,83176,-2225.12,362742
0.93,0.00466221,19305.2,7615,10844.3,226264,84104.3,-2557.67,360197
0.932,0.00467861,19854.5,8179.62,10956.5,221620,85034.8,-2884.91,357482
0.934,0.00469501,20403.9,8744.26,11068.8,216975,85965.3,-3212.16,354766
0.936,0.00471141,20953.2,9308.88,11181,212330,86895.8,-3539.4,352050
0.938,0.00472781,21502.5,9873.52,11293.2,207685,87826.3,-3866.65,349335
0.94,0.00474422,22051.9,10438.1,11405.5,203041,88756.8,-4193.89,346619
0.942,0.00476062,22601.2,11002.8,11517.7,198396,89687.3,-4521.13,343904
0.944,0.00477702,23150.6,11567.4,11630,193751,90617.8,-4848.38,341188
0.946,0.00479342,23699.9,12132,11742.2,189107,91548.3,-5175.62,338473
0.948,0.00480982,24249.2,12696.6,11854.5,184462,92478.8,-5502.87,335757
0.95,0.00482622,24798.6,13261.3,11966.7,179817,93409.2,-5830.11,333042
0.952,0.00484262,25347.9,13825.9,12079,175172,94339.7,-6157.36,330326
0.954,0.00485902,25897.2,14390.5,12191.2,170528,95270.2,-6484.6,327610
0.956,0.00487542,26446.6,14955.1,12303.4,165883,96200.7,-6811.84,324895
0.958,0.00489187,30103.7,17023,12889.1,168028,98159.9,-2919.13,325664
0.96,0.00490839,37701,20996.7,14075.1,178782,101423,6323.99,330850
0.962,0.004925,49776.5,27750.1,15626.5,208353,106011,21545.4,351084
0.964,0.00494173,67192.7,37818.5,17613.7,260366,112178,43896.5,389263
0.966,0.00495842,79264.9,43903.4,18767.4,295203,116092,60309,413592
0.968,0.00497497,74220.6,37229.6,17251.9,275030,112790,57700.3,393562
0.97,0.00499153,69176.1,30555.5,15736.4,254855,109488,55091.5,373532
0.972,0.00500809,64131.8,23881.7,14220.9,234682,106186,52482.8,353502
0.974,0.00502464,59087.4,17207.9,12705.4,214508,102884,49874.1,333472
0.976,0.00504125,54328.8,12105.9,12106.5,201226,99512.8,48339.1,320353
0.978,0.00505787,49530.5,7283.25,11721.4,189429,96070.3,47013.4,308700
0.98,0.00507462,49001.1,7148.7,12148.5,188307,94639.7,48186.7,308700
0.982,0.00509137,48471.6,7014.16,12575.5,187186,93209,49360,308701
0.984,0.00510813,47942.2,6879.61,13002.5,186064,91778.4,50533.4,308702
0.986,0.00512488,47412.8,6745.07,13429.5,184942,90347.7,51706.7,308702
0.988,0.00514164,46883.4,6610.53,13856.6,183820,88917.1,52880,308703
0.99,0.00515839,46353.9,6475.98,14283.6,182698,87486.5,54053.3,308703
0.992,0.00517515,45824.5,6341.44,14710.6,181577,86055.8,55226.6,308704
0.994,0.0051919,45295.1,6206.9,15137.6,180455,84625.2,56399.9,308705
0.996,0.00520865,44765.7,6072.35,15564.7,179333,83194.5,57573.3,308705
0.998,0.00522541,44236.2,5937.81,15991.7,178211,81763.9,58746.6,308706
1,0.00524216,43706.8,5803.27,16418.7,177090,80333.2,59919.9,308706
1.002,0.00525892,43177.4,5668.72,16845.7,175968,78902.6,61093.2,308707
1.004,0.00527567,42648,5534.18,17272.8,174846,77472,62266.5,308708
1.006,0.00529243,42118.5,5399.63,17699.8,173724,76041.3,63439.9,308708
1.008,0.00530918,41589.1,5265.09,18126.8,172602,74610.6,64613.2,308709
1.01,0.00532594,41059.7,5130.55,18553.9,171481,73180,65786.5,308709
1.012,0.00534269,40530.3,4996.01,18980.9,170359,71749.4,66959.8,308710
1.014,0.00535945,40000.8,4861.46,19407.9,169237,70318.7,68133.1,308711
1.016,0.0053762,39471.4,4726.91,19834.9,168115,68888.1,69306.4,308711
1.018,0.00539296,38942,4592.37,20262,166993,67457.4,70479.7,308712
1.02,0.00540971,38412.5,4457.83,20689,165872,66026.8,71653,308712
1.022,0.00542647,37883.1,4323.29,21116,164750,64596.2,72826.3,308713
1.024,0.00544323,37276.2,4223.42,21578.5,163627,63190.6,73980.4,308823
1.026,0.00545992,37665.8,3677.28,21585.2,162518,61461.6,75383.1,307523
1.028,0.0054768,35964.2,2442.63,21416.5,160510,60007.4,71811.5,309165
1.03,0.00549377,34157.6,1354.11,22400.4,158482,59323.8,67150.1,309984
1.032,0.00551075,32351.1,265.595,23384.3,156454,58640.1,62488.7,310803
1.034,0.00552773,30544.4,-822.986,24368.2,154425,57956.5,57827,311621
1.036,0.0055447,28737.9,-1911.5,25352.1,152397,57272.9,53165.5,312440
1.038,0.00556168,26931.3,-3000.02,26336,150369,56589.3,48504.1,313259
1.04,0.00557866,25124.8,-4088.54,27319.9,148340,55905.7,43842.7,314078
1.042,0.00559563,23318.1,-5177.12,28303.8,146312,55222.1,39181,314897
1.044,0.00561262,22228.1,-5777.77,29811.8,143390,55016.2,35878.5,314440
1.046,0.00562974,22279.8,-5344.23,30312.5,144974,55828.2,34563.6,309566
1.048,0.00564687,22327.6,-4904.78,30749.2,146761,56646.1,33235.4,304621
1.05,0.00566399,22375.4,-4465.32,31185.9,148547,57464,31907.3,299675
1.052,0.00568112,22423.2,-4025.84,31622.7,150333,58282,30579,294729
1.054,0.00569825,22471,-3586.39,32059.4,152120,59099.9,29250.9,289783
1.056,0.00571537,22518.8,-3146.93,32496.1,153906,59917.9,27922.7,284837
1.058,0.0057325,22566.6,-2707.48,32932.8,155692,60735.8,26594.6,279891
1.06,0.00574963,22614.4,-2268.02,33369.5,157479,61553.7,25266.5,274946
1.062,0.00576676,22662.3,-1828.54,33806.2,159265,62371.7,23938.2,270000
1.064,0.00578388,22710.1,-1389.09,34242.9,161051,63189.6,22610.1,265054
1.066,0.00580101,22757.9,-949.631,34679.6,162838,64007.5,21281.9,260108
1.068,0.00581814,22805.7,-510.176,35116.3,164624,64825.4,19953.8,255162
1.07,0.00583526,22853.5,-70.6944,35553.1,166410,65643.4,18625.6,250216
1.072,0.00585239,22901.3,368.761,35989.8,168197,66461.3,17297.4,245270
1.074,0.00586954,22973.2,1141.91,36014,168754,66608.5,16432.3,238704
1.076,0.00588674,23113.6,2861.68,34868.1,165823,64852.7,16880.9,227539
1.078,0.00590394,23254,4581.45,33722.2,162892,63097,17329.5,216375
1.08,0.00592116,23050.6,6152.63,32898.8,159584,61408.5,17277.8,206980
1.082,0.0059385,22044.2,6824.06,33061.8,156505,60359.5,15691.5,206105
1.084,0.00595588,21744.3,6825.17,32974,156164,60024.4,14486.3,209340
1.086,0.00597327,21444.3,6826.28,32886.2,155823,59689.2,13281.1,212575
1.088,0.00599065,21144.3,6827.39,32798.4,155482,59354.1,12075.8,215811
1.09,0.00600804,20844.3,6828.51,32710.6,155141,59018.9,10870.5,219046
1.092,0.00602543,20544.4,6829.62,32622.8,154800,58683.8,9665.29,222281
1.094,0.00604281,20244.4,6830.73,32535,154459,58348.6,8460.06,225516
1.096,0.0060602,19944.4,6831.84,32447.2,154118,58013.5,7254.83,228751
1.098,0.00607758,19644.4,6832.95,32359.4,153777,57678.3,6049.53,231986
1.1,0.00609497,19344.5,6834.06,32271.5,153436,57343.2,4844.3,235221
1.102,0.00611236,19044.5,6835.17,32183.7,153095,57008,3639.07,238456
1.104,0.00612974,18744.5,6836.28,32095.9,152754,56672.9,2433.84,241691
1.106,0.00614713,18444.5,6837.39,32008.1,152413,56337.8,1228.6,244926
1.108,0.00616452,18880,6863.71,31165.7,151210,55866.6,720.957,246526
1.11,0.00618191,19620,6900.46,30010.9,149650,55339.3,502.214,247448
1.112,0.0061993,20359.9,6937.21,28856,148091,54811.9,283.471,248370
1.114,0.0062167,21099.9,6973.97,27701.2,146532,54284.5,64.7278,249293
1.116,0.00623409,21839.9,7010.72,26546.3,144972,53757.1,-154.028,250215
1.118,0.00625148,22579.8,7047.48,25391.4,143413,53229.8,-372.772,251137
1.12,0.00626887,23319.8,7084.23,24236.6,141853,52702.4,-591.515,252059
1.122,0.00628637,23721,7980.98,21906.5,139681,52570.9,1179.9,249335
1.124,0.00630388,24054,9050.57,19340.2,137387,52519,3351.29,245877
1.126,0.00632139,24387.1,10120.2,16773.7,135092,52467.1,5522.81,242419
1.128,0.0063389,24720.2,11189.8,14207.4,132797,52415.2,7694.21,238962
1.13,0.00635641,25053.3,12259.4,11641.1,130502,52363.3,9865.6,235504
1.132,0.00637392,25386.3,13329,9074.83,128207,52311.4,12037,232046
1.134,0.00639147,25470.2,14064.7,7477.12,125890,52485.9,13910.5,228926
1.136,0.00640908,25184.6,14305.3,7315.38,123541,52995.9,15342.4,226304
1.138,0.00642669,24899,14545.9,7153.64,121191,53506,16774.2,223683
1.14,0.00644428,24773.1,14399.3,6871.39,119588,53041.7,16721,220285
1.142,0.00646187,24675.8,14183.3,6567.57,118118,52403,16402,216747
1.144,0.00647947,24578.5,13967.3,6263.73,116648,51764.3,16082.9,213210
1.146,0.00649706,24481.2,13751.3,5959.91,115179,51125.7,15763.8,209672
1.148,0.00651466,24383.8,13535.3,5656.08,113709,50487,15444.8,206135
1.15,0.00653225,24286.5,13319.3,5352.26,112239,49848.3,15125.7,202597
1.152,0.00654985,24189.2,13103.3,5048.44,110770,49209.6,14806.6,199060
1.154,0.00656744,24091.9,12887.3,4744.6,109300,48570.9,14487.6,195522
1.156,0.00658504,23994.6,12671.3,4440.78,107830,47932.2,14168.5,191985
1.158,0.00660263,23897.3,12455.4,4136.96,106361,47293.6,13849.5,188447
1.16,0.00662022,23799.9,12239.4,3833.13,104891,46654.9,13530.4,184910
1.162,0.00663782,23702.6,12023.4,3529.31,103421,46016.2,13211.3,181372
1.164,0.00665541,23605.3,11807.4,3225.47,101951,45377.5,12892.3,177835
1.166,0.00667301,23508,11591.4,2921.65,100482,44738.8,12573.2,174297
1.168,0.0066906,23297.4,11448,2567.94,99589.9,44038.3,12296.8,171217
1.17,0.00670821,22810.1,11482,2092.4,100109,43186.6,12124.5,169255
1.172,0.00672581,22322.9,11516,1616.83,100629,42334.9,11952.2,167293
1.174,0.00674342,21835.6,11550,1141.29,101148,41483.2,11779.9,165330
1.176,0.00676102,21348.3,11584,665.745,101668,40631.5,11607.6,163368
1.178,0.00677867,20220.8,11265.3,299.412,100766,39667.1,10551.3,161192
1.18,0.00679643,17606.5,10127.4,186.684,96562.2,38440.6,7442.06,158521
1.182,0.00681418,14991.9,8989.42,73.9486,92358.5,37214.1,4332.63,155849
1.184,0.00683194,12377.6,7851.53,-38.7796,88155,35987.7,1223.39,153178
1.186,0.00684969,9763.21,6713.64,-151.508,83951.6,34761.3,-1885.86,150506
1.188,0.00686745,7148.85,5575.75,-264.236,79748.1,33534.8,-4995.1,147835
1.19,0.00688524,7106.15,5450.13,-169.966,80176.9,33511,-4767.41,147178
1.192,0.00690305,7650.37,5555.54,-28.4595,81662.8,33761.6,-3778.15,146981
1.194,0.00692085,8194.6,5660.96,113.047,83148.8,34012.3,-2788.88,146785
1.196,0.00693866,8738.82,5766.38,254.553,84634.8,34262.9,-1799.62,146588
1.198,0.00695646,9283.05,5871.79,396.059,86120.7,34513.5,-810.361,146391
1.2,0.00697427,9827.31,5977.21,537.574,87606.8,34764.2,178.96,146194
1.202,0.00699207,10371.5,6082.63,679.081,89092.7,35014.8,1168.22,145997
1.204,0.00700987,10915.8,6188.05,820.587,90578.7,35265.4,2157.48,145801
1.206,0.00702768,11460,6293.46,962.093,92064.6,35516.1,3146.74,145604
1.208,0.00704548,12004.2,6398.88,1103.6,93550.6,35766.7,4136.01,145407
1.21,0.00706329,12548.5,6504.3,1245.11,95036.6,36017.3,5125.33,145210
1.212,0.00708109,13092.7,6609.72,1386.62,96522.6,36268,6114.59,145013
1.214,0.0070989,13636.9,6715.13,1528.13,98008.5,36518.6,7103.85,144816
1.216,0.00711672,14145.3,7161.78,1779.71,100196,36783.8,8689.31,145411
1.218,0.00713456,14610.4,8022.08,2164.74,103234,37066.6,10997.5,146963
1.22,0.0071524,16740.5,8849.31,2583.61,107160,37829.8,13972.2,148706
1.222,0.00717023,20063,9652.89,3026.72,111723,38937,17424.2,150583
1.224,0.00718807,23385.4,10456.5,3469.83,116285,40044.3,20876.2,152461
1.226,0.00720591,26707.9,11260.1,3912.94,120848,41151.5,24328.2,154339
1.228,0.00722375,30030.5,12063.7,4356.08,125411,42258.8,27780.4,156217
1.23,0.00724159,33353,12867.3,4799.19,129973,43366.1,31232.3,158095
1.232,0.00725947,36119.3,13292.1,4811.14,132126,44238,33667.3,158206
1.234,0.00727745,37842.8,13006.7,4014.51,129757,44668.8,34195,155006
1.236,0.00729541,38373.2,12696.2,3459.56,127006,44899.7,34361.9,153257
1.238,0.00731337,37591.9,12358.2,3170.29,123834,44910.9,34132.1,153102
1.24,0.00733133,36810.5,12020.1,2881.05,120662,44922.1,33902.4,152948
1.242,0.00734929,36029.2,11682.1,2591.8,117490,44933.4,33672.6,152794
1.244,0.00736725,35247.9,11344,2302.56,114318,44944.6,33442.9,152640
1.246,0.00738521,34466.5,11005.9,2013.3,111145,44955.8,33213.1,152486
1.248,0.00740317,33685.1,10667.9,1724.05,107973,44967,32983.4,152332
1.25,0.00742113,32903.8,10329.8,1434.81,104801,44978.2,32753.7,152178
1.252,0.00743909,32122.5,9991.79,1145.56,101629,44989.4,32523.9,152023
1.254,0.00745705,31341.2,9653.74,856.32,98457.2,45000.7,32294.2,151869
1.256,0.00747501,30559.8,9315.67,567.058,95285,45011.9,32064.4,151715
1.258,0.00749297,29778.4,8977.63,277.813,92112.9,45023.1,31834.7,151561
1.26,0.00751095,29573.6,8696.85,33.6772,90150.8,44843.4,31824.5,153204
1.262,0.00752893,29558.5,8434.95,-195.603,88587.1,44600.8,31886.7,155438
1.264,0.00754692,29543.5,8173.02,-424.897,87023.3,44358.2,31948.9,157672
1.266,0.0075649,29528.5,7911.12,-654.178,85459.6,44115.6,32011.1,159907
1.268,0.00758288,29513.4,7649.21,-883.458,83895.9,43873.1,32073.3,162141
1.27,0.00760087,29498.4,7387.3,-1112.74,82332.3,43630.5,32135.5,164375
1.272,0.00761885,29483.3,7125.39,-1342.02,80768.6,43387.9,32197.7,166610
1.274,0.00763683,29468.3,6863.47,-1571.31,79204.8,43145.3,32259.9,168844
1.276,0.00765491,29570.8,6226.72,-1764.92,79194.9,41964.1,32727.8,170500
1.278,0.00767299,29692.7,5528.03,-1952.63,79441.7,40627.9,33262.8,172060
1.28,0.00769108,29814.5,4829.34,-2140.35,79688.5,39291.6,33797.7,173619
1.282,0.00770917,29936.4,4130.65,-2328.06,79935.3,37955.4,34332.7,175179
1.284,0.00772726,30058.3,3431.92,-2515.79,80182.1,36619,34867.6,176739
1.286,0.00774535,30180.2,2733.23,-2703.5,80428.9,35282.8,35402.6,178299
1.288,0.00776343,30302.1,2034.54,-2891.22,80675.7,33946.5,35937.5,179858
1.29,0.00778152,30424,1335.86,-3078.93,80922.5,32610.3,36472.5,181418
1.292,0.00779966,30609.9,1259.35,-3230.17,81317.2,31997.7,36542.7,180908
1.294,0.00781782,30814.7,1365.93,-3370.67,81755.5,31598.2,36476.3,179789
1.296,0.00783599,30359.4,1569.33,-3072.38,80520.1,31198.4,35436.8,178442
1.298,0.00785416,29848.9,1780.83,-2737.38,79144.8,30798.6,34315.8,177076
1.3,0.00787234,29338.4,1992.33,-2402.37,77769.4,30398.8,33194.9,175711
1.302,0.00789051,28827.8,2203.84,-2067.35,76393.9,29999,32073.9,174345
1.304,0.00790868,28317.3,2415.34,-1732.34,75018.6,29599.2,30952.9,172979
1.306,0.00792686,27806.8,2626.85,-1397.33,73643.2,29199.4,29832,171613
1.308,0.00794503,27296.3,2838.35,-1062.33,72267.8,28799.6,28711.1,170248
1.31,0.0079632,26785.7,3049.85,-727.321,70892.4,28399.8,27590.1,168882
1.312,0.00798138,26275.2,3261.36,-392.295,69517,28000,26469.1,167516
1.314,0.00799955,25764.7,3472.86,-57.2885,68141.6,27600.2,25348.2,166150
1.316,0.00801772,25254.2,3684.36,277.718,66766.2,27200.4,24227.3,164784
1.318,0.0080359,24743.6,3895.86,612.724,65390.8,26800.6,23106.3,163419
1.32,0.00805407,24233.1,4107.37,947.75,64015.4,26400.8,21985.3,162053
1.322,0.00807224,23839.5,4352.12,1257.79,63367.6,26098.7,21070.6,160118
1.324,0.0080904,23796.3,4696.52,1492.98,64900.8,26089.6,20774.2,156476
1.326,0.00810856,23753.2,5040.92,1728.18,66433.9,26080.5,20477.7,152834
1.328,0.00812672,23710.1,5385.32,1963.38,67967.1,26071.3,20181.2,149192
1.33,0.00814488,23666.9,5729.75,2198.59,69500.3,26062.2,19884.7,145550
1.332,0.00816304,23623.8,6074.15,2433.79,71033.5,26053.1,19588.2,141908
1.334,0.0081812,23580.7,6418.55,2668.98,72566.7,26044,19291.7,138266
1.336,0.00819936,23537.5,6762.95,2904.18,74099.8,26034.9,18995.2,134624
1.338,0.00821752,23494.4,7107.37,3139.39,75633.1,26025.8,18698.7,130981
1.34,0.00823568,23451.3,7451.77,3374.59,77166.2,26016.6,18402.2,127339
1.342,0.00825386,23244.6,7519.73,3668.97,76315.1,26180.9,18100.2,123911
1.344,0.0082721,22781.9,7155.13,4055.95,71733.3,26616.3,17789.5,120817
1.346,0.00829033,22319.3,6790.53,4442.93,67151.4,27051.8,17478.8,117723
1.348,0.00830857,21856.7,6425.91,4829.93,62569.3,27487.3,17168,114629
1.35,0.0083268,21394.1,6061.32,5216.92,57987.5,27922.7,16857.3,111535
1.352,0.00834504,20931.4,5696.72,5603.9,53405.6,28358.2,16546.6,108441
1.354,0.00836327,20468.8,5332.12,5990.88,48823.8,28793.6,16235.9,105347
1.356,0.0083815,20006.2,4967.52,6377.86,44242,29229.1,15925.2,102253
1.358,0.00839974,19543.6,4602.9,6764.86,39659.8,29664.6,15614.5,99159.2
1.36,0.00841801,19277.8,4411.3,7181.68,37378.1,30201.9,16074.7,99419
1.362,0.00843631,19133.1,4325.99,7616.83,36509.6,30801.9,17008.7,101740
1.364,0.0084546,18988.3,4240.68,8051.97,35641.2,31401.8,17942.6,104060
1.366,0.00847291,18807.4,4177.74,8365.32,35025.2,31885.8,18498.7,105533
1.368,0.00849123,18555,4158.95,8438.27,34907.5,32140.9,18309.2,105333
1.37,0.00850955,18302.6,4140.17,8511.21,34789.8,32396,18119.7,105133
1.372,0.00852788,18050.2,4121.38,8584.15,34672,32651,17930.1,104932
1.374,0.0085462,17797.8,4102.59,8657.09,34554.3,32906.1,17740.6,104732
1.376,0.00856452,17545.4,4083.8,8730.04,34436.6,33161.2,17551.1,104532
1.378,0.00858284,17293,4065.01,8802.98,34318.9,33416.3,17361.5,104332
1.38,0.00860117,17040.6,4046.23,8875.92,34201.1,33671.3,17172,104132
1.382,0.00861949,16788.2,4027.44,8948.86,34083.4,33926.4,16982.5,103931
1.384,0.00863781,16535.8,4008.65,9021.8,33965.7,34181.5,16792.9,103731
1.386,0.00865614,16283.4,3989.86,9094.75,33848,34436.6,16603.4,103531
1.388,0.00867446,16031,3971.08,9167.69,33730.2,34691.6,16413.9,103331
1.39,0.00869278,15778.6,3952.29,9240.63,33612.5,34946.7,16224.3,103131
1.392,0.0087111,15526.3,3933.5,9313.58,33494.8,35201.8,16034.8,102930
1.394,0.00872943,15337.7,3912.92,9340.57,33508,35409.2,15825.8,102576
1.396,0.00874782,15681.1,3877.38,8985.07,34610.9,35219.4,15454.4,100935
1.398,0.00876621,16024.4,3841.85,8629.57,35713.8,35029.5,15083,99294.8
1.4,0.00878459,16367.8,3806.32,8274.07,36816.7,34839.7,14711.5,97654.4
1.402,0.008803,16681.8,4003.91,7410.13,39695,34600.5,15151.6,99430.2
1.404,0.00882141,16991.9,4232.94,6477.61,42812.6,34354.6,15701.1,101667
1.406,0.00883982,17301.9,4461.95,5545.14,45930.1,34108.7,16250.6,103903
1.408,0.00885823,17612,4690.97,4612.67,49047.6,33862.7,16800.1,106139
1.41,0.00887664,17922,4919.98,3680.2,52165.1,33616.8,17349.5,108375
1.412,0.00889505,18232,5149,2747.73,55282.6,33370.9,17899,110611
1.414,0.00891346,18542.1,5378.02,1815.2,58400.3,33125,18448.5,112848
1.416,0.00893191,18649.2,5500.41,1258.38,59618.8,32831.8,18662.3,113655
1.418,0.00895037,18593.8,5537.44,1002.19,59317.4,32500.7,18607.4,113319
1.42,0.00896883,18538.5,5574.48,746.002,59016,32169.6,18552.5,112983
1.422,0.0089873,18483.1,5611.52,489.799,58714.6,31838.4,18497.6,112647
1.424,0.00900576,18427.7,5648.56,233.613,58413.3,31507.3,18442.7,112311
1.426,0.00902422,18372.4,5685.6,-22.5744,58111.9,31176.2,18387.8,111975
1.428,0.00904268,18150.7,5672.6,-280.948,57325,30783.7,18244.2,111257
1.43,0.00906114,17499.6,5530.4,-544.97,55284.4,30232.4,17871.5,109552
1.432,0.00907959,16848.5,5388.19,-809.007,53243.7,29681.2,17498.8,107848
1.434,0.00909804,16197.4,5245.98,-1073.03,51203.1,29130,17126.2,106144
1.436,0.00911649,15546.3,5103.78,-1337.05,49162.5,28578.7,16753.5,104439
1.438,0.00913494,14895.2,4961.58,-1601.07,47121.9,28027.5,16380.9,102735
1.44,0.00915339,14244.1,4819.36,-1865.11,45081.2,27476.2,16008.2,101031
1.442,0.00917184,13593,4677.16,-2129.13,43040.6,26925,15635.5,99326.3
1.444,0.00919029,12973.2,4552.04,-2380.25,41171.4,26388.5,15273.8,97693.6
1.446,0.00920874,12782.6,4661.17,-2454.43,41650.9,26053.2,15061.9,97041.3
1.448,0.0092272,12592,4770.3,-2528.61,42130.5,25718,14850,96389.1
1.45,0.00924565,12401.3,4879.43,-2602.79,42610.1,25382.7,14638.1,95736.8
1.452,0.0092641,12210.7,4988.56,-2676.97,43089.6,25047.4,14426.2,95084.6
1.454,0.00928255,12020.1,5097.69,-2751.15,43569.2,24712.2,14214.4,94432.4
1.456,0.009301,11829.5,5206.81,-2825.33,44048.8,24376.9,14002.5,93780.1
1.458,0.00931946,11638.8,5315.94,-2899.51,44528.3,24041.7,13790.6,93127.9
1.46,0.00933791,11448.2,5425.08,-2973.7,45007.9,23706.4,13578.7,92475.7
1.462,0.00935636,11257.6,5534.21,-3047.88,45487.5,23371.2,13366.8,91823.4
1.464,0.00937481,11066.9,5643.33,-3122.06,45967.1,23035.9,13154.9,91171.2
1.466,0.00939326,10876.3,5752.46,-3196.24,46446.6,22700.7,12943.1,90519
1.468,0.00941171,10685.7,5861.6,-3270.42,46926.2,22365.4,12731.2,89866.7
1.47,0.00943017,10495,5970.73,-3344.6,47405.8,22030.2,12519.3,89214.5
1.472,0.00944862,10304.4,6079.85,-3418.78,47885.3,21694.9,12307.4,88562.3
1.474,0.00946707,10113.8,6188.98,-3492.96,48364.9,21359.7,12095.5,87910
1.476,0.00948552,9923.14,6298.11,-3567.14,48844.5,21024.4,11883.7,87257.8
1.478,0.00950397,9732.5,6407.24,-3641.32,49324.1,20689.2,11671.8,86605.5
1.48,0.00952246,9509.8,6237.11,-3263.35,48278.9,20774.8,11105.4,85492.9
1.482,0.00954097,9264.05,5866.28,-2560.44,46137.9,21162.8,10284.3,84049.5
1.484,0.00955947,9018.3,5495.45,-1857.54,43997,21550.9,9463.24,82606.1
1.486,0.00957798,8772.55,5124.62,-1154.63,41856,21939,8642.15,81162.7
1.488,0.00959649,8526.79,4753.77,-451.679,39715,22327,7821.01,79719.2
1.49,0.009615,8281.04,4382.95,251.228,37574,22715.1,6999.93,78275.8
1.492,0.00963351,8035.29,4012.12,954.135,35433.1,23103.2,6178.84,76832.4
1.494,0.00965201,7789.54,3641.29,1657.04,33292.1,23491.2,5357.75,75389
1.496,0.00967054,7609.12,3517.06,2341.15,32852.5,23587.8,4812.17,75177
1.498,0.00968908,7470.1,3549.05,3013.28,33490.7,23499.6,4441.16,75745.1
1.5,0.00970762,7331.07,3581.03,3685.42,34128.8,23411.4,4070.15,76313.1
1.502,0.00972616,7192.05,3613.02,4357.55,34767,23323.2,3699.14,76881.2
1.504,0.0097447,7060.56,3653.99,4990.18,35405.1,23225.7,3345.63,77340.7
1.506,0.0097633,7071.18,3864.18,4878.29,36041,22952.5,3321.85,75753
1.508,0.00978189,7081.79,4074.35,4766.41,36676.9,22679.3,3298.07,74165.4
1.51,0.00980048,7092.4,4284.53,4654.52,37312.8,22406.1,3274.3,72577.9
1.512,0.00981907,7103.02,4494.71,4542.63,37948.7,22132.9,3250.52,70990.3
1.514,0.00983766,7113.63,4704.89,4430.74,38584.7,21859.7,3226.74,69402.7
1.516,0.00985623,7072.96,4710.9,4238.3,37754.6,21645.6,3560.56,68068.9
1.518,0.00987481,7022.51,4677.95,4030.48,36644.7,21442.8,3962.62,66783.5
1.52,0.00989338,6972.06,4645,3822.67,35534.8,21240,4364.69,65498.1
1.522,0.00991195,6921.6,4612.05,3614.85,34424.9,21037.2,4766.75,64212.8
1.524,0.00993053,6871.15,4579.09,3407.02,33314.9,20834.4,5168.84,62927.3
1.526,0.0099491,6820.7,4546.14,3199.2,32205.1,20631.6,5570.9,61641.9
1.528,0.00996767,6770.24,4513.19,2991.38,31095.2,20428.8,5972.97,60356.6
1.53,0.00998625,6719.79,4480.23,2783.57,29985.3,20226,6375.03,59071.2
1.532,0.0100048,6676.06,4456.15,2586.06,28960.4,20023.2,6739.15,57841
1.534,0.0100234,6737.27,4570.39,2549.48,29261.1,19820.2,6511.21,57471.4
1.536,0.0100419,6798.48,4684.63,2512.9,29561.9,19617.3,6283.29,57101.8
1.538,0.0100605,6859.68,4798.88,2476.32,29862.6,19414.3,6055.37,56732.2
1.54,0.0100791,6920.89,4913.12,2439.73,30163.3,19211.4,5827.45,56362.6
1.542,0.0100976,6982.09,5027.37,2403.15,30464.1,19008.4,5599.52,55992.9
1.544,0.0101162,7043.3,5141.61,2366.57,30764.8,18805.5,5371.6,55623.3
1.546,0.0101348,7104.5,5255.85,2329.99,31065.6,18602.6,5143.68,55253.7
1.548,0.0101533,7165.71,5370.09,2293.4,31366.3,18399.6,4915.76,54884.1
1.55,0.0101719,7226.91,5484.33,2256.82,31667.1,18196.7,4687.84,54514.5
1.552,0.0101905,7288.12,5598.58,2220.24,31967.8,17993.7,4459.91,54144.9
1.554,0.0102091,7290.88,5615.43,2303.36,31964.5,17911.2,4609.17,54081
1.556,0.0102277,7259.32,5575.07,2456.78,31782.5,17899.4,4979.96,54196.7
1.558,0.0102463,7227.75,5534.72,2610.19,31600.6,17887.5,5350.75,54312.5
1.56,0.0102649,7196.19,5494.37,2763.61,31418.7,17875.7,5721.54,54428.2
1.562,0.0102835,7164.62,5454.01,2917.04,31236.7,17863.9,6092.35,54543.9
1.564,0.0103021,7133.06,5413.66,3070.46,31054.8,17852.1,6463.14,54659.6
1.566,0.0103207,7101.49,5373.3,3223.88,30872.9,17840.2,6833.93,54775.3
1.568,0.0103394,7069.93,5332.95,3377.3,30690.9,17828.4,7204.72,54891.1
1.57,0.010358,7038.36,5292.6,3530.73,30509,17816.6,7575.53,55006.8
1.572,0.0103766,7006.8,5252.24,3684.15,30327,17804.8,7946.32,55122.5
1.574,0.0103952,6975.24,5211.89,3837.57,30145.1,17792.9,8317.11,55238.2
1.576,0.0104138,7071.79,5157.23,4167.9,29992.2,17717.8,8498.28,55167.6
1.578,0.0104325,7277.02,5090.45,4648.31,29864,17588.9,8518.6,54938.8
1.58,0.0104511,7482.27,5023.66,5128.74,29735.7,17460,8538.93,54710
1.582,0.0104697,7687.5,4956.88,5609.14,29607.5,17331.1,8559.26,54481.2
1.584,0.0104884,7892.73,4890.09,6089.55,29479.3,17202.2,8579.59,54252.4
1.586,0.010507,8097.96,4823.31,6569.95,29351,17073.3,8599.92,54023.6
1.588,0.0105256,8303.21,4756.52,7050.38,29222.8,16944.4,8620.25,53794.8
1.59,0.0105443,8508.44,4689.74,7530.79,29094.6,16815.5,8640.57,53566
1.592,0.0105629,8713.67,4622.95,8011.19,28966.3,16686.6,8660.9,53337.2
1.594,0.0105815,8758.09,4573.12,8002.05,28765.7,16649.4,8804.93,53337.6
1.596,0.0106002,8768.09,4526.91,7888.14,28549.5,16631.8,8975.44,53387
1.598,0.0106188,8778.1,4480.71,7774.22,28333.3,16614.3,9145.96,53436.5
1.6,0.0106375,8788.1,4434.5,7660.3,28117.1,16596.7,9316.46,53486
1.602,0.0106561,8798.1,4388.3,7546.39,27900.9,16579.2,9486.97,53535.4
1.604,0.0106748,8808.1,4342.1,7432.48,27684.7,16561.6,9657.48,53584.9
1.606,0.0106934,8576.8,4301.35,7236.69,26503.7,16429.1,9485.88,52722.5
1.608,0.0107121,8184.83,4264.23,6986.37,24680.3,16219.9,9086.5,51253
1.61,0.0107307,7792.89,4227.11,6736.08,22857,16010.8,8687.15,49783.7
1.612,0.0107494,7400.94,4189.99,6485.78,21033.7,15801.7,8287.8,48314.3
1.614,0.010768,7009,4152.87,6235.48,19210.3,15592.6,7888.45,46844.9
1.616,0.0107867,6617.03,4115.75,5985.17,17386.9,15383.5,7489.08,45375.4
1.618,0.0108054,6225.09,4078.64,5734.87,15563.6,15174.3,7089.73,43906.1
1.62,0.010824,5833.14,4041.52,5484.58,13740.3,14965.2,6690.38,42436.7
1.622,0.0108427,5698.67,4019.18,5295.45,12828.1,14838.4,6515.16,41585.8
1.624,0.0108614,5855.53,4013.57,5175.54,12946.9,14804.6,6593.53,41434.7
1.626,0.01088,6012.4,4007.95,5055.63,13065.7,14770.9,6671.91,41283.6
1.628,0.0108987,6169.26,4002.34,4935.72,13184.5,14737.2,6750.29,41132.6
1.63,0.0109174,6326.12,3996.72,4815.81,13303.3,14703.4,6828.67,40981.5
1.632,0.010936,6482.98,3991.11,4695.91,13422.1,14669.7,6907.04,40830.4
1.634,0.0109547,6639.84,3985.49,4576,13540.9,14635.9,6985.42,40679.4
1.636,0.0109734,6796.71,3979.87,4456.08,13659.6,14602.2,7063.8,40528.3
1.638,0.010992,6953.57,3974.26,4336.17,13778.4,14568.5,7142.17,40377.2
1.64,0.0110107,7110.43,3968.64,4216.27,13897.2,14534.7,7220.55,40226.2
1.642,0.0110294,7267.29,3963.03,4096.36,14016,14501,7298.93,40075.1
1.644,0.011048,7424.16,3957.41,3976.44,14134.8,14467.2,7377.31,39924
1.646,0.0110667,7581.02,3951.8,3856.54,14253.6,14433.5,7455.68,39773
1.648,0.0110854,7737.88,3946.18,3736.63,14372.4,14399.7,7534.06,39621.9
1.65,0.011104,7894.74,3940.57,3616.72,14491.2,14366,7612.43,39470.8
1.652,0.0111227,8051.6,3934.95,3496.81,14609.9,14332.3,7690.81,39319.8
1.654,0.0111414,8208.47,3929.34,3376.9,14728.7,14298.5,7769.19,39168.7
1.656,0.01116,8293.85,3967.19,3228.41,14854.7,14257.5,7863.76,38909.5
1.658,0.0111787,8319.62,3820.25,2892.79,14308.6,14273.6,7939.24,38344.3
1.66,0.0111974,8185.58,3581.18,2625.56,13474.2,14281.4,7774.45,37651.8
1.662,0.0112161,8051.55,3342.12,2358.34,12639.8,14289.2,7609.67,36959.4
1.664,0.0112348,7917.51,3103.04,2091.09,11805.3,14296.9,7444.88,36266.9
1.666,0.0112535,7783.48,2863.98,1823.87,10970.9,14304.7,7280.1,35574.4
1.668,0.0112722,7649.45,2624.91,1556.64,10136.4,14312.5,7115.32,34882
1.67,0.0112909,7515.42,2385.85,1289.42,9302.03,14320.3,6950.54,34189.6
1.672,0.0113096,7381.38,2146.77,1022.17,8467.56,14328,6785.75,33497.1
1.674,0.0113283,7247.34,1907.7,754.949,7633.13,14335.8,6620.97,32804.6
1.676,0.011347,6828.54,1504.47,609.612,6284.96,14328.8,6028.05,31885.4
1.678,0.0113657,6903.02,1390.34,516.457,6031.72,14307.1,5963.27,32097.2
1.68,0.0113844,6993.11,1285.31,422.009,5810.84,14285.3,5917.59,32336.6
1.682,0.0114031,7083.2,1180.28,327.555,5589.94,14263.6,5871.92,32576
1.684,0.0114218,7173.29,1075.25,233.106,5369.06,14241.8,5826.24,32815.4
1.686,0.0114405,7263.37,970.219,138.657,5148.18,14220.1,5780.57,33054.8
1.688,0.0114592,7352.81,857.746,40.1605,4973.01,14177.3,5737.08,33329.3
1.69,0.0114779,7441.89,741.142,-60.5848,4823.16,14123,5694.8,33623.4
1.692,0.0114966,7530.96,624.545,-161.324,4673.31,14068.7,5652.52,33917.4
1.694,0.0115152,7620.04,507.949,-262.063,4523.46,14014.4,5610.24,34211.4
1.696,0.0115339,7709.11,391.352,-362.803,4373.61,13960.1,5567.97,34505.4
1.698,0.0115526,7798.19,274.755,-463.542,4223.77,13905.8,5525.69,34799.4
1.7,0.0115713,7887.27,158.152,-564.287,4073.91,13851.5,5483.41,35093.4
1.702,0.01159,7976.34,41.5548,-665.026,3924.06,13797.2,5441.13,35387.4
1.704,0.0116087,8065.42,-75.0419,-765.766,3774.21,13742.8,5398.85,35681.5
1.706,0.0116274,8154.49,-191.639,-866.505,3624.37,13688.5,5356.58,35975.5
1.708,0.0116461,8227.47,-286.968,-956.03,3478.12,13646.9,5299.45,36214.3
1.71,0.0116648,8221.28,-277.644,-990.373,3349.58,13667.5,5169.22,36181.3
1.712,0.0116835,8229.84,-250.189,-1025.58,3259.97,13674.5,5067.88,36162.7
1.714,0.0117022,8314.38,-129.358,-1065.23,3370.8,13611.3,5115.32,36217.3
1.716,0.0117209,8398.93,-8.52762,-1104.88,3481.63,13548.2,5162.75,36272
1.718,0.0117397,8483.48,112.31,-1144.54,3592.46,13485,5210.19,36326.6
1.72,0.0117584,8568.02,233.141,-1184.19,3703.29,13421.8,5257.62,36381.3
1.722,0.0117771,8652.57,353.971,-1223.84,3814.12,13358.7,5305.06,36435.9
1.724,0.0117958,8737.11,474.801,-1263.5,3924.94,13295.5,5352.49,36490.6
1.726,0.0118145,8804.62,592.571,-1301.26,4048.69,13228.6,5388.26,36498.5
1.728,0.0118333,8688.07,677.288,-1318.63,4312.05,13121.5,5297.98,36002.1
1.73,0.011852,8571.53,762,-1336,4575.39,13014.4,5207.72,35505.6
1.732,0.0118707,8455,846.712,-1353.37,4838.74,12907.3,5117.45,35009.1
1.734,0.0118894,8338.46,931.424,-1370.74,5102.08,12800.1,5027.18,34512.7
1.736,0.0119081,8221.92,1016.14,-1388.11,5365.42,12693,4936.91,34016.2
1.738,0.0119269,8105.38,1100.85,-1405.48,5628.78,12585.9,4846.64,33519.8
1.74,0.0119456,7988.84,1185.56,-1422.85,5892.12,12478.7,4756.37,33023.3
1.742,0.0119643,7872.3,1270.28,-1440.22,6155.46,12371.6,4666.1,32526.9
1.744,0.011983,7755.77,1354.99,-1457.59,6418.8,12264.5,4575.83,32030.4
1.746,0.0120017,7639.22,1439.7,-1474.96,6682.16,12157.3,4485.55,31533.9
1.748,0.0120204,7522.69,1524.42,-1492.33,6945.5,12050.2,4395.29,31037.5
1.75,0.0120392,7406.15,1609.13,-1509.7,7208.85,11943.1,4305.02,30541
1.752,0.0120579,7289.61,1693.84,-1527.07,7472.19,11836,4214.75,30044.6
1.754,0.0120766,7173.08,1778.55,-1544.44,7735.53,11728.8,4124.48,29548.1
1.756,0.0120953,7056.53,1863.27,-1561.81,7998.89,11621.7,4034.21,29051.6
1.758,0.012114,6933.75,1943.52,-1580.5,8240.35,11514.4,3946.16,28561.5
1.76,0.0121327,6619.69,1887.08,-1639.77,7812.04,11402.5,3926.23,28265.9
1.762,0.0121515,6283.93,1823.78,-1671.17,7361.89,11236.9,3847.49,27921.4
1.764,0.0121702,5918.21,1751,-1664.05,6881.53,10997.3,3687.55,27509.3
1.766,0.0121889,5552.5,1678.23,-1656.94,6401.2,10757.7,3527.61,27097.2
1.768,0.0122076,5186.79,1605.46,-1649.83,5920.87,10518.1,3367.68,26685.1
1.77,0.0122264,4821.09,1532.68,-1642.72,5440.54,10278.5,3207.74,26273
1.772,0.0122451,4455.38,1459.91,-1635.61,4960.21,10038.9,3047.81,25860.9
1.774,0.0122638,4089.65,1387.14,-1628.5,4479.85,9799.27,2887.86,25448.7
1.776,0.0122825,3962.38,1438.78,-1616.22,4455.69,9651.19,2906.07,25089.8
1.778,0.0123013,3885.16,1516.54,-1602.86,4527.32,9522.34,2961.69,24742.1
1.78,0.01232,3807.95,1594.31,-1589.5,4598.95,9393.48,3017.31,24394.3
1.782,0.0123387,3730.74,1672.07,-1576.14,4670.58,9264.62,3072.93,24046.6
1.784,0.0123574,3650.53,1745.42,-1555.04,4756.63,9132.61,3129.71,23705.9
1.786,0.0123762,3560.33,1804.04,-1508.15,4890.74,8990.14,3190.39,23389.1
1.788,0.0123949,3470.13,1862.65,-1461.26,5024.86,8847.67,3251.07,23072.3
1.79,0.0124136,3379.93,1921.27,-1414.37,5158.97,8705.2,3311.74,22755.5
1.792,0.0124324,3289.72,1979.88,-1367.48,5293.09,8562.72,3372.42,22438.6
1.794,0.0124511,3199.52,2038.5,-1320.59,5427.2,8420.25,3433.1,22121.8
1.796,0.0124698,3109.32,2097.11,-1273.7,5561.32,8277.78,3493.78,21805
1.798,0.0124885,3019.12,2155.73,-1226.81,5695.43,8135.31,3554.46,21488.2
1.8,0.0125073,2928.92,2214.34,-1179.92,5829.54,7992.83,3615.13,21171.3
1.802,0.012526,2838.71,2272.96,-1133.02,5963.66,7850.35,3675.81,20854.5
1.804,0.0125447,2748.51,2331.57,-1086.13,6097.78,7707.88,3736.49,20537.7
1.806,0.0125634,2658.31,2390.19,-1039.24,6231.89,7565.41,3797.17,20220.9
1.808,0.0125822,2571.8,2398.45,-997.879,5970.84,7447.6,3696.77,19840.3
1.81,0.0126009,2489.49,2349.39,-962.807,5259.81,7357.87,3412.94,19387.1
1.812,0.0126196,2407.17,2300.31,-927.733,4548.73,7268.14,3129.09,18933.9
1.814,0.0126384,2324.86,2251.25,-892.66,3837.69,7178.41,2845.26,18480.7
1.816,0.0126571,2242.55,2202.18,-857.588,3126.65,7088.68,2561.43,18027.5
1.818,0.0126759,2160.24,2153.11,-822.516,2415.61,6998.95,2277.6,17574.3
1.82,0.0126946,2077.93,2104.04,-787.442,1704.53,6909.22,1993.76,17121.1
1.822,0.0127133,1995.61,2054.97,-752.37,993.497,6819.49,1709.93,16667.9
1.824,0.0127321,1922.36,2016.56,-729.734,406.294,6735.47,1463.34,16265.6
1.826,0.0127508,1896.77,2034.28,-772.58,471.138,6681.56,1412.83,16131.4
1.828,0.0127695,1871.18,2052,-815.427,535.982,6627.64,1362.33,15997.2
1.83,0.0127883,1845.59,2069.72,-858.275,600.83,6573.72,1311.83,15863
1.832,0.012807,1820,2087.44,-901.122,665.673,6519.8,1261.33,15728.8
1.834,0.0128258,1794.42,2105.16,-943.968,730.517,6465.88,1210.82,15594.6
1.836,0.0128445,1768.83,2122.87,-986.814,795.361,6411.97,1160.32,15460.4
1.838,0.0128632,1743.24,2140.59,-1029.66,860.209,6358.04,1109.82,15326.2
1.84,0.012882,1717.65,2158.31,-1072.51,925.053,6304.13,1059.32,15192
1.842,0.0129007,1708.31,2176.12,-1107.09,1074.57,6257.2,1027.84,15120.9
1.844,0.0129195,1782.79,2194.38,-1099.05,1661.07,6246.33,1094.58,15375.7
1.846,0.0129382,1857.28,2212.64,-1091.01,2247.57,6235.46,1161.32,15630.5
1.848,0.0129569,1931.77,2230.9,-1082.97,2834.11,6224.6,1228.06,15885.3
1.85,0.0129757,2006.26,2249.16,-1074.92,3420.61,6213.73,1294.79,16140.1
1.852,0.0129944,2100.94,2137.08,-1120.54,3415.06,6191.93,1320.29,15948
1.854,0.0130131,2207.61,1947.57,-1198.04,3057.77,6163.64,1321.28,15490.4
1.856,0.0130319,2314.28,1758.06,-1275.54,2700.48,6135.35,1322.27,15032.8
1.858,0.0130506,2420.96,1568.53,-1353.04,2343.16,6107.05,1323.26,14575.2
1.86,0.0130694,2638.64,1482.86,-1372.52,2613.89,6022.52,1607.19,14417.4
1.862,0.0130881,2865.87,1406.1,-1387.01,2938.56,5933.17,1915.44,14285.5
1.864,0.0131068,3093.09,1329.35,-1401.51,3263.24,5843.81,2223.68,14153.5
1.866,0.0131256,3320.33,1252.59,-1416,3587.93,5754.45,2531.94,14021.5
1.868,0.0131443,3387.58,1202.11,-1352.3,3546.37,5636.7,2606.75,13778.8
1.87,0.0131631,3403.71,1160.02,-1263.62,3387.79,5509.88,2606.98,13500.7
1.872,0.0131818,3419.85,1117.94,-1174.93,3229.2,5383.06,2607.2,13222.5
1.874,0.0132005,3435.98,1075.85,-1086.25,3070.62,5256.25,2607.42,12944.4
1.876,0.0132193,3452.11,1033.76,-997.562,2912.03,5129.42,2607.64,12666.3
1.878,0.013238,3516.15,995.32,-952.395,2916.42,5067.31,2616.2,12558
1.88,0.0132568,3584.35,957.195,-911.001,2934.95,5010.81,2625.49,12464.4
1.882,0.0132755,3652.55,919.07,-869.607,2953.48,4954.31,2634.77,12370.8
1.884,0.0132943,3720.74,880.945,-828.214,2972,4897.82,2644.06,12277.3
1.886,0.013313,3788.95,842.817,-786.817,2990.53,4841.31,2653.35,12183.7
1.888,0.0133318,3857.14,804.692,-745.424,3009.06,4784.81,2662.63,12090.1
1.89,0.0133505,3925.34,766.567,-704.03,3027.59,4728.32,2671.92,11996.6
1.892,0.0133692,3993.54,728.442,-662.636,3046.11,4671.82,2681.2,11903
1.894,0.013388,4061.74,690.314,-621.24,3064.64,4615.32,2690.49,11809.5
1.896,0.0134067,4129.93,652.189,-579.847,3083.17,4558.82,2699.77,11715.9
1.898,0.0134255,4198.13,614.064,-538.453,3101.69,4502.32,2709.06,11622.3
1.9,0.0134442,4266.33,575.938,-497.059,3120.22,4445.82,2718.34,11528.8
1.902,0.013463,4334.52,537.813,-455.666,3138.75,4389.32,2727.63,11435.2
1.904,0.0134817,4402.73,499.686,-414.27,3157.28,4332.82,2736.92,11341.6
1.906,0.0135005,4470.92,461.56,-372.876,3175.8,4276.32,2746.2,11248.1
1.908,0.0135192,4539.12,423.435,-331.482,3194.33,4219.82,2755.49,11154.5
1.91,0.0135379,4607.32,385.31,-290.089,3212.86,4163.32,2764.77,11060.9
1.912,0.0135567,4673.04,378.306,-259.917,3267.26,4090.14,2786.29,10975.5
1.914,0.0135754,4738.67,372.546,-230.192,3323.11,4016.28,2808.29,10890.4
1.916,0.0135942,4804.29,366.786,-200.469,3378.95,3942.43,2830.3,10805.3
1.918,0.0136129,4869.92,361.026,-170.746,3434.79,3868.57,2852.3,10720.2
1.92,0.0136317,4935.55,355.266,-141.023,3490.63,3794.72,2874.31,10635.1
1.922,0.0136504,5001.18,349.506,-111.298,3546.47,3720.86,2896.31,10550
1.924,0.0136692,5066.8,343.746,-81.5745,3602.31,3647.01,2918.32,10464.9
1.926,0.0136879,5132.43,337.986,-51.8514,3658.15,3573.16,2940.32,10379.8
1.928,0.0137067,5198.05,332.226,-22.1282,3713.99,3499.3,2962.33,10294.7
1.93,0.0137254,5263.68,326.466,7.59493,3769.83,3425.45,2984.33,10209.6
1.932,0.0137441,5329.31,320.706,37.3198,3825.68,3351.59,3006.34,10124.5
1.934,0.0137629,5366.63,329.713,73.4363,3876.21,3292.03,3017.83,10044.6
1.936,0.0137816,5386.76,347.695,113.439,3923.51,3241.15,3022.94,9967.94
1.938,0.0138004,5406.88,365.677,153.442,3970.81,3190.27,3028.04,9891.26
1.94,0.0138191,5427.01,383.661,193.447,4018.11,3139.39,3033.15,9814.57
1.942,0.0138379,5457.37,441.482,243.949,3944.82,3070.98,3020.39,9721.24
1.944,0.0138566,5492.78,518.928,299.622,3812.14,2993.94,2998.85,9619.73
1.946,0.0138753,5528.18,596.373,355.296,3679.45,2916.89,2977.3,9518.21
1.948,0.0138941,5563.59,673.818,410.969,3546.76,2839.84,2955.76,9416.7
1.95,0.0139128,5599,751.268,466.646,3414.07,2762.79,2934.21,9315.18
1.952,0.0139316,5634.4,828.714,522.32,3281.38,2685.74,2912.67,9213.67
1.954,0.0139503,5669.81,906.159,577.993,3148.7,2608.69,2891.12,9112.15
1.956,0.0139691,5705.21,983.604,633.667,3016.01,2531.64,2869.58,9010.64
1.958,0.0139878,5740.62,1061.05,689.341,2883.32,2454.59,2848.03,8909.12
1.96,0.0140066,5776.03,1138.5,745.017,2750.63,2377.54,2826.48,8807.6
1.962,0.0140253,5806.12,1216.16,801.997,2645.06,2300.41,2806.81,8704.39
1.964,0.0140441,5808.32,1294.95,865.839,2682.01,2222.87,2796.96,8592.27
1.966,0.0140628,5810.52,1373.73,929.682,2718.95,2145.32,2787.12,8480.15
1.968,0.0140816,5812.72,1452.52,993.528,2755.9,2067.76,2777.27,8368.03
1.97,0.0141003,5814.92,1531.31,1057.37,2792.85,1990.21,2767.43,8255.91
1.972,0.0141191,5817.11,1610.1,1121.21,2829.79,1912.67,2757.59,8143.79
1.974,0.0141378,5819.31,1688.88,1185.05,2866.74,1835.12,2747.74,8031.67
1.976,0.0141565,5822.48,1707.8,1191,2794.73,1807.99,2726.37,7945.85
1.978,0.0141753,5826,1704.92,1175.86,2683.06,1799.21,2700.81,7869.6
1.98,0.014194,5829.52,1702.04,1160.72,2571.39,1790.44,2675.24,7793.36
1.982,0.0142128,5833.04,1699.15,1145.58,2459.72,1781.67,2649.68,7717.12
1.984,0.0142315,5836.56,1696.27,1130.44,2348.05,1772.89,2624.12,7640.88
1.986,0.0142503,5840.07,1693.39,1115.31,2236.38,1764.12,2598.55,7564.63
1.988,0.014269,5882.69,1652.9,1120.5,2160.78,1747.78,2586.05,7489.99
1.99,0.0142878,6024,1517.49,1177.02,2176.25,1712.36,2606.5,7419.39
1.992,0.0143065,6165.31,1382.09,1233.54,2191.73,1676.93,2626.95,7348.79
1.994,0.0143253,6306.62,1246.68,1290.05,2207.2,1641.51,2647.4,7278.2
1.996,0.014344,6447.93,1111.26,1346.57,2222.68,1606.08,2667.86,7207.6
1.998,0.0143628,6589.24,975.854,1403.09,2238.15,1570.65,2688.31,7137
2,0.0143815,6730.55,840.446,1459.61,2253.62,1535.23,2708.76,7066.4
