"arc_length","Displacement_Magnitude","Sxx","Sxy","Sxz","Syy","Syz","Szz","Von_Mises_Stress"
0,0,1.13384e+06,-57379.2,-2447.19,2.18985e+06,496536,1.04919e+06,1.50386e+06
0.002,8.19857e-07,1.14356e+06,-57276.8,-932.016,2.22696e+06,488348,1.04257e+06,1.52064e+06
0.004,1.63971e-06,1.15327e+06,-57174.4,583.159,2.26407e+06,480161,1.03595e+06,1.53743e+06
0.006,2.45957e-06,1.16299e+06,-57072,2098.33,2.30118e+06,471973,1.02933e+06,1.55421e+06
0.008,3.27943e-06,1.17242e+06,-56921.5,3605.96,2.3383e+06,463668,1.02203e+06,1.57117e+06
0.01,4.09928e-06,1.18115e+06,-56653.8,5095.24,2.37544e+06,455079,1.01307e+06,1.58856e+06
0.012,4.91914e-06,1.18988e+06,-56386,6584.51,2.41258e+06,446490,1.00411e+06,1.60594e+06
0.014,5.739e-06,1.19861e+06,-56118.3,8073.78,2.44972e+06,437900,995142,1.62333e+06
0.016,6.55886e-06,1.20734e+06,-55850.6,9563.06,2.48686e+06,429311,986180,1.64072e+06
0.018,7.38922e-06,1.21416e+06,-55636,11163.5,2.52131e+06,420059,973887,1.65881e+06
0.02,8.28877e-06,1.20857e+06,-55766.1,13484.5,2.5383e+06,406514,940011,1.68152e+06
0.022,9.18981e-06,1.20298e+06,-55896.3,15805.4,2.5553e+06,392970,906135,1.70422e+06
0.024,1.01844e-05,1.1794e+06,-54744.3,18210.3,2.54159e+06,376133,851593,1.7195e+06
0.026,1.11978e-05,1.15302e+06,-53391.5,20628.3,2.52308e+06,358781,793812,1.73363e+06
0.028,1.22147e-05,1.12663e+06,-52038.6,23046.3,2.50456e+06,341429,736031,1.74775e+06
0.03,1.32343e-05,1.10024e+06,-50685.7,25464.4,2.48605e+06,324076,678250,1.76187e+06
0.032,1.42559e-05,1.07385e+06,-49332.8,27882.4,2.46753e+06,306724,620469,1.77599e+06
0.034,1.52792e-05,1.04746e+06,-47980,30300.4,2.44901e+06,289371,562688,1.79011e+06
0.036,1.63039e-05,1.02107e+06,-46627.1,32718.4,2.4305e+06,272019,504907,1.80424e+06
0.038,1.73656e-05,994707,-45324.6,35093.8,2.41331e+06,254532,446037,1.82056e+06
0.04,2.00311e-05,969317,-46258.1,35573.9,2.45532e+06,231057,338845,1.93481e+06
0.042,2.2649e-05,941142,-46318.7,35928.8,2.4744e+06,211200,251815,2.01498e+06
0.044,2.50558e-05,902753,-43178.9,35824.8,2.4094e+06,204602,238700,1.97019e+06
0.046,2.74487e-05,866435,-40128.2,36221.6,2.34825e+06,198802,225538,1.92883e+06
0.048,2.96446e-05,851414,-37994.4,41770.1,2.32676e+06,201219,211886,1.92257e+06
0.05,3.18627e-05,836394,-35860.7,47318.7,2.30526e+06,203636,198235,1.91632e+06
0.052,3.40985e-05,821374,-33726.9,52867.2,2.28377e+06,206053,184583,1.91006e+06
0.054,3.63488e-05,806353,-31593.1,58415.8,2.26228e+06,208470,170932,1.9038e+06
0.056,3.86111e-05,791333,-29459.4,63964.3,2.24078e+06,210886,157280,1.89755e+06
0.058,4.08833e-05,776313,-27325.6,69512.9,2.21929e+06,213303,143629,1.89129e+06
0.06,4.3164e-05,761292,-25191.9,75061.4,2.19779e+06,215720,129977,1.88504e+06
0.062,4.54518e-05,746272,-23058.1,80610,2.1763e+06,218137,116326,1.87878e+06
0.064,4.77456e-05,731251,-20924.3,86158.6,2.1548e+06,220554,102674,1.87253e+06
0.066,5.00448e-05,716231,-18790.6,91707.1,2.13331e+06,222971,89022.5,1.86627e+06
0.068,5.23485e-05,701211,-16656.8,97255.7,2.11182e+06,225387,75371,1.86001e+06
0.07,5.46562e-05,686190,-14523,102804,2.09032e+06,227804,61719.4,1.85376e+06
0.072,5.6988e-05,668794,-12058.6,107218,2.05984e+06,230423,50440.1,1.84817e+06
0.074,5.93387e-05,649504,-9330.45,110727,2.02219e+06,233202,41052,1.84312e+06
0.076,6.1727e-05,626330,-7747.56,115986,1.97306e+06,233751,29235.4,1.86992e+06
0.078,6.41555e-05,599270,-7311.14,122998,1.91244e+06,232069,14987.6,1.92861e+06
0.08,6.65424e-05,574477,-7129.23,129109,1.85495e+06,231831,2170.88,1.96547e+06
0.082,6.92107e-05,583743,-8746.6,126226,1.87553e+06,236529,8490.24,1.89641e+06
0.084,7.30859e-05,582107,-7292.02,126018,1.87107e+06,234384,4563.36,1.9026e+06
0.086,7.7034e-05,580227,-5915.66,125553,1.86545e+06,232428,419.239,1.90458e+06
0.088,8.09828e-05,579980,-5672.18,123209,1.86052e+06,232923,-2292.93,1.86969e+06
0.09,8.49388e-05,579734,-5428.7,120865,1.8556e+06,233418,-5005.1,1.83481e+06
0.092,8.89009e-05,579488,-5185.22,118521,1.85067e+06,233912,-7717.27,1.79993e+06
0.094,9.28684e-05,579241,-4941.74,116177,1.84574e+06,234407,-10429.4,1.76504e+06
0.096,9.68406e-05,578995,-4698.26,113833,1.84082e+06,234902,-13141.6,1.73016e+06
0.098,0.000100833,578725,-4572.52,111658,1.83622e+06,235434,-15455.3,1.70264e+06
0.1,0.000104886,578376,-4847.88,110063,1.83276e+06,236097,-16411.7,1.7002e+06
0.102,0.000108942,578026,-5123.24,108468,1.82929e+06,236760,-17368,1.69777e+06
0.104,0.000113001,577677,-5398.6,106872,1.82582e+06,237422,-18324.3,1.69533e+06
0.106,0.000117062,577327,-5673.96,105277,1.82236e+06,238085,-19280.6,1.6929e+06
0.108,0.000121126,576977,-5949.32,103682,1.81889e+06,238747,-20236.9,1.69046e+06
0.11,0.000125192,576628,-6224.68,102086,1.81543e+06,239410,-21193.2,1.68802e+06
0.112,0.00012926,576278,-6500.04,100491,1.81196e+06,240073,-22149.5,1.68559e+06
0.114,0.00013333,575929,-6775.4,98895.5,1.8085e+06,240735,-23105.8,1.68315e+06
0.116,0.000137401,575579,-7050.76,97300.1,1.80503e+06,241398,-24062.1,1.68072e+06
0.118,0.000141474,575230,-7326.12,95704.8,1.80157e+06,242061,-25018.4,1.67828e+06
0.12,0.000145548,574880,-7601.48,94109.4,1.7981e+06,242723,-25974.7,1.67585e+06
0.122,0.000149623,574531,-7876.84,92514.1,1.79463e+06,243386,-26931,1.67341e+06
0.124,0.000153757,574100,-8560.66,91508.2,1.79232e+06,244181,-26505,1.69652e+06
0.126,0.000158186,576030,-9849.89,91113.7,1.80266e+06,247353,-23386.2,1.73558e+06
0.128,0.000163234,574804,-7744.78,87104.1,1.80788e+06,248662,-25855.4,1.7202e+06
0.13,0.000168427,572027,-5309.08,82991.6,1.80999e+06,249047,-28265.9,1.72715e+06
0.132,0.000173623,569249,-2873.37,78879.1,1.8121e+06,249432,-30676.5,1.7341e+06
0.134,0.00017882,566472,-437.651,74766.5,1.81421e+06,249817,-33087.1,1.74105e+06
0.136,0.00018402,563695,1998.06,70654,1.81632e+06,250201,-35497.6,1.748e+06
0.138,0.000189221,560918,4433.76,66541.5,1.81843e+06,250586,-37908.2,1.75495e+06
0.14,0.000194423,558141,6869.48,62429,1.82054e+06,250971,-40318.8,1.7619e+06
0.142,0.000199627,555364,9305.19,58316.5,1.82265e+06,251356,-42729.4,1.76886e+06
0.144,0.000204833,552587,11740.9,54204,1.82476e+06,251740,-45139.9,1.77581e+06
0.146,0.000210039,549810,14176.6,50091.5,1.82687e+06,252125,-47550.5,1.78276e+06
0.148,0.000215247,547033,16612.3,45978.9,1.82898e+06,252510,-49961.1,1.78971e+06
0.15,0.000220456,544256,19048,41866.4,1.83109e+06,252895,-52371.6,1.79666e+06
0.152,0.000225852,540874,20473.7,39189,1.82754e+06,252590,-56028.1,1.793e+06
0.154,0.000231541,536549,20327.5,38745,1.81519e+06,251213,-61623.4,1.77282e+06
0.156,0.000237231,532224,20181.3,38301,1.80284e+06,249836,-67218.7,1.75265e+06
0.158,0.000242923,527899,20035.1,37857,1.79049e+06,248459,-72814,1.73248e+06
0.16,0.000248617,523574,19888.9,37413,1.77814e+06,247081,-78409.3,1.71231e+06
0.162,0.000254338,518611,19615,36581.5,1.76223e+06,245438,-82460.8,1.69116e+06
0.164,0.000260302,509963,19356.4,35653.5,1.73056e+06,243471,-82394.4,1.66408e+06
0.166,0.000266815,503883,15259.3,36736.3,1.70676e+06,239831,-77401.1,1.63867e+06
0.168,0.000273344,499147,12425,37337.1,1.68755e+06,236349,-72294.6,1.61703e+06
0.17,0.000279874,494410,9590.83,37937.9,1.66834e+06,232867,-67188.2,1.59539e+06
0.172,0.000286406,489673,6756.62,38538.7,1.64914e+06,229385,-62081.8,1.57375e+06
0.174,0.00029294,484936,3922.43,39139.5,1.62993e+06,225902,-56975.4,1.55211e+06
0.176,0.000299475,480200,1088.22,39740.3,1.61072e+06,222420,-51868.9,1.53046e+06
0.178,0.000306012,475463,-1745.99,40341.1,1.59152e+06,218938,-46762.5,1.50882e+06
0.18,0.00031255,470726,-4580.2,40941.9,1.57231e+06,215456,-41656.1,1.48718e+06
0.182,0.00031909,465989,-7414.39,41542.7,1.5531e+06,211974,-36549.6,1.46554e+06
0.184,0.00032563,461253,-10248.6,42143.5,1.5339e+06,208492,-31443.2,1.4439e+06
0.186,0.000332172,456516,-13082.8,42744.3,1.51469e+06,205009,-26336.8,1.42225e+06
0.188,0.000338715,451779,-15917,43345.1,1.49548e+06,201527,-21230.4,1.40061e+06
0.19,0.000345258,447042,-18751.2,43945.9,1.47628e+06,198045,-16123.9,1.37897e+06
0.192,0.000351803,442305,-21585.4,44546.8,1.45707e+06,194563,-11017.5,1.35733e+06
0.194,0.000358348,437569,-24419.6,45147.6,1.43786e+06,191081,-5911.05,1.33569e+06
0.196,0.000364895,432832,-27253.8,45748.4,1.41866e+06,187598,-804.649,1.31404e+06
0.198,0.000371442,428095,-30088,46349.2,1.39945e+06,184116,4301.79,1.2924e+06
0.2,0.00037799,423358,-32922.3,46950,1.38024e+06,180634,9408.23,1.27076e+06
0.202,0.000384538,418622,-35756.5,47550.8,1.36104e+06,177152,14514.7,1.24912e+06
0.204,0.000391159,427942,-38396.5,44780.7,1.39779e+06,169809,17069.7,1.27598e+06
0.206,0.000397795,440270,-40995,41289.8,1.44651e+06,161640,19079.1,1.31322e+06
0.208,0.000404432,452597,-43593.5,37798.8,1.49522e+06,153471,21088.5,1.35047e+06
0.21,0.000411131,458652,-46740.6,35222,1.51288e+06,145792,26148.7,1.37836e+06
0.212,0.000418568,459170,-46769.5,35256.7,1.52389e+06,146279,23561.9,1.39087e+06
0.214,0.000426296,457711,-45541.5,36295.4,1.53336e+06,149991,17832.4,1.39759e+06
0.216,0.000434025,456253,-44313.5,37334.2,1.54283e+06,153703,12103,1.40432e+06
0.218,0.000441755,454795,-43085.5,38373,1.55231e+06,157414,6373.63,1.41104e+06
0.22,0.000449492,450696,-41617.2,39320.4,1.54909e+06,161231,2836.6,1.41234e+06
0.222,0.000457229,446633,-40152.3,40269,1.54604e+06,165047,-730.197,1.41371e+06
0.224,0.000465081,444539,-38067.1,41666.3,1.54861e+06,169335,-5849.24,1.42521e+06
0.226,0.000473036,444752,-36272.4,40512.2,1.55271e+06,171341,-7013.84,1.44259e+06
0.228,0.000480993,444964,-34477.8,39358.2,1.55682e+06,173346,-8178.46,1.45996e+06
0.23,0.00048895,445177,-32683.1,38204.1,1.56092e+06,175352,-9343.07,1.47734e+06
0.232,0.000496907,445390,-30888.4,37050,1.56502e+06,177357,-10507.7,1.49471e+06
0.234,0.000504866,445603,-29093.8,35896,1.56913e+06,179363,-11672.3,1.51209e+06
0.236,0.000512825,445816,-27299.1,34741.9,1.57323e+06,181368,-12836.9,1.52946e+06
0.238,0.000520785,446029,-25504.5,33587.8,1.57734e+06,183374,-14001.5,1.54684e+06
0.24,0.00052897,444438,-26264.6,31066.5,1.57348e+06,185346,-16167.7,1.55177e+06
0.242,0.000537405,440847,-29859,27028.2,1.5608e+06,187281,-19445,1.54291e+06
0.244,0.000545937,436298,-31002.6,24967.2,1.54131e+06,187477,-25663.1,1.52092e+06
0.246,0.000554493,431527,-31580.3,23362.9,1.52026e+06,187271,-32560.1,1.4959e+06
0.248,0.00056305,426757,-32157.9,21758.5,1.49921e+06,187066,-39457.1,1.47088e+06
0.25,0.000571608,421986,-32735.6,20154.1,1.47815e+06,186860,-46354.2,1.44585e+06
0.252,0.000580166,417216,-33313.2,18549.8,1.4571e+06,186654,-53251.3,1.42083e+06
0.254,0.000588725,412446,-33890.9,16945.4,1.43604e+06,186448,-60148.3,1.39581e+06
0.256,0.000597284,407675,-34468.5,15341,1.41499e+06,186242,-67045.4,1.37079e+06
0.258,0.000605844,402905,-35046.2,13736.6,1.39393e+06,186037,-73942.3,1.34576e+06
0.26,0.000614528,397760,-35725.8,11260.3,1.37035e+06,185225,-76945.3,1.32271e+06
0.262,0.000623292,393259,-34361.4,10374,1.35628e+06,183447,-76252.4,1.30962e+06
0.264,0.000632056,388757,-32997.1,9487.75,1.34221e+06,181670,-75559.5,1.29653e+06
0.266,0.00064082,384255,-31632.7,8601.5,1.32814e+06,179893,-74866.6,1.28344e+06
0.268,0.000649589,378507,-30339.9,7635.09,1.30645e+06,178383,-73279.1,1.26703e+06
0.27,0.00065836,372473,-29063.4,6650.24,1.283e+06,176934,-71486,1.24986e+06
0.272,0.000667131,366438,-27787,5665.4,1.25956e+06,175486,-69692.8,1.23269e+06
0.274,0.000676327,364061,-27137.5,5708.27,1.25543e+06,174116,-67841.4,1.22099e+06
0.276,0.000685969,361661,-26203.5,7151.29,1.25342e+06,173439,-63734.1,1.20923e+06
0.278,0.000695648,356856,-24659.6,8908.43,1.24027e+06,173198,-58076.9,1.19388e+06
0.28,0.000705327,352052,-23115.7,10665.6,1.22713e+06,172956,-52419.8,1.17852e+06
0.282,0.000715007,347247,-21571.8,12422.7,1.21399e+06,172715,-46762.6,1.16317e+06
0.284,0.000724688,342442,-20028,14179.9,1.20084e+06,172473,-41105.5,1.14781e+06
0.286,0.000734346,338145,-18336.2,15653.4,1.19084e+06,171951,-35315.2,1.13844e+06
0.288,0.000743947,335086,-16283.9,16435.4,1.18851e+06,170745,-29200.3,1.14365e+06
0.29,0.00075355,332027,-14231.5,17217.4,1.18617e+06,169538,-23085.3,1.14886e+06
0.292,0.000763153,328968,-12179.1,17999.4,1.18384e+06,168332,-16970.3,1.15407e+06
0.294,0.000772757,325909,-10126.7,18781.4,1.1815e+06,167126,-10855.3,1.15928e+06
0.296,0.000782362,322850,-8074.37,19563.4,1.17917e+06,165919,-4740.34,1.16449e+06
0.298,0.000791967,319791,-6021.99,20345.4,1.17683e+06,164713,1374.64,1.1697e+06
0.3,0.000801573,316732,-3969.62,21127.4,1.1745e+06,163507,7489.63,1.17492e+06
0.302,0.000811354,316226,-3669.02,21281,1.17675e+06,164231,15593.8,1.17856e+06
0.304,0.000821394,319528,-5982.06,20497.1,1.18585e+06,167834,26666.1,1.17985e+06
0.306,0.000831435,322830,-8295.1,19713.2,1.19496e+06,171438,37738.4,1.18115e+06
0.308,0.000841491,326446,-10569.5,19163.8,1.20607e+06,174710,47846.6,1.18308e+06
0.31,0.000851718,333445,-12427.6,21142.5,1.23893e+06,174401,47560.2,1.1919e+06
0.312,0.000861944,340443,-14285.7,23121.2,1.27178e+06,174092,47273.8,1.20073e+06
0.314,0.000872172,347441,-16143.8,25100,1.30464e+06,173783,46987.3,1.20955e+06
0.316,0.000882399,354440,-18001.9,27078.7,1.33749e+06,173474,46700.9,1.21837e+06
0.318,0.000892691,353523,-19316.4,27927.4,1.35428e+06,171492,44294.7,1.22748e+06
0.32,0.000903028,347127,-20254.7,27993.8,1.35994e+06,168351,40421,1.23678e+06
0.322,0.000913407,343460,-19376,26844.8,1.35807e+06,168137,34178.3,1.23983e+06
0.324,0.000923793,340176,-18243,25525.7,1.35513e+06,168333,27604,1.242e+06
0.326,0.000934179,336891,-17110,24206.5,1.3522e+06,168528,21029.7,1.24417e+06
0.328,0.000944565,333607,-15977,22887.4,1.34927e+06,168724,14455.4,1.24635e+06
0.33,0.000954952,330322,-14843.9,21568.2,1.34634e+06,168919,7881.07,1.24852e+06
0.332,0.00096534,327038,-13710.9,20249.1,1.34341e+06,169115,1306.87,1.25069e+06
0.334,0.000975727,323753,-12577.9,18929.9,1.34048e+06,169310,-5267.43,1.25286e+06
0.336,0.000986139,319576,-11681.4,17589.9,1.3317e+06,169201,-10102.3,1.26381e+06
0.338,0.000996915,312340,-9969.22,18640.3,1.3009e+06,168655,-11178.2,1.25613e+06
0.34,0.00100804,298978,-8375.96,21890.9,1.23631e+06,166126,-8366.76,1.25049e+06
0.342,0.00101916,285616,-6782.69,25141.5,1.17173e+06,163597,-5555.28,1.24485e+06
0.344,0.00103028,272254,-5189.43,28392,1.10714e+06,161068,-2743.8,1.23921e+06
0.346,0.00104141,258893,-3596.19,31642.6,1.04255e+06,158539,67.6377,1.23357e+06
0.348,0.00105253,245531,-2002.93,34893.1,977968,156009,2879.12,1.22793e+06
0.35,0.00106365,232169,-409.666,38143.7,913381,153480,5690.6,1.22229e+06
0.352,0.00107487,219122,758.299,40071.9,848252,151246,8162.17,1.21384e+06
0.354,0.00108642,207192,414.783,37300.4,781199,150062,9425.72,1.19539e+06
0.356,0.00109797,195262,71.2661,34529,714146,148877,10689.3,1.17693e+06
0.358,0.00110953,183331,-272.25,31757.5,647094,147692,11952.8,1.15848e+06
0.36,0.00112108,172343,-604.011,29131.3,585535,146332,12696.4,1.14078e+06
0.362,0.00113276,175307,-761.682,28656.2,605335,142370,5739.6,1.13431e+06
0.364,0.00114443,178270,-919.356,28181.1,625136,138408,-1217.27,1.12783e+06
0.366,0.00115611,181247,-1076.51,27699.4,645055,134446,-8195.29,1.12137e+06
0.368,0.00116774,186299,-1155.19,26197.2,682984,130391,-18400.1,1.11761e+06
0.37,0.00117938,191351,-1233.86,24695,720913,126336,-28604.9,1.11385e+06
0.372,0.00119101,196402,-1312.53,23192.9,758843,122280,-38809.7,1.11009e+06
0.374,0.00120264,201454,-1391.21,21690.7,796772,118225,-49014.5,1.10634e+06
0.376,0.00121428,206506,-1469.88,20188.6,834701,114170,-59219.1,1.10258e+06
0.378,0.00122591,211557,-1548.55,18686.4,872630,110115,-69423.9,1.09882e+06
0.38,0.00123755,216609,-1627.23,17184.2,910560,106059,-79628.7,1.09506e+06
0.382,0.00124918,221661,-1705.9,15682.1,948489,102004,-89833.5,1.0913e+06
0.384,0.00126082,226712,-1784.57,14179.9,986419,97948.7,-100038,1.08754e+06
0.386,0.00127245,231764,-1863.25,12677.7,1.02435e+06,93893.4,-110243,1.08379e+06
0.388,0.00128409,236816,-1941.92,11175.6,1.06228e+06,89838.2,-120448,1.08003e+06
0.39,0.00129594,245589,2749.91,11347,1.0979e+06,85919.8,-121724,1.09769e+06
0.392,0.00130788,254811,8850.24,12433,1.12609e+06,82133.1,-118747,1.12011e+06
0.394,0.00131987,247014,3502.6,14741.3,1.07579e+06,79156,-117057,1.07164e+06
0.396,0.00133195,243445,1236.86,16874.1,1.0422e+06,75487.7,-113708,1.03775e+06
0.398,0.00134446,239734,668.015,17159.1,1.03718e+06,76827.5,-111998,1.03325e+06
0.4,0.00135703,235208,-142.629,17114.6,1.03464e+06,79278,-110919,1.03179e+06
0.402,0.0013696,230682,-953.274,17070.1,1.0321e+06,81728.5,-109840,1.03033e+06
0.404,0.00138217,226155,-1763.92,17025.5,1.02956e+06,84179,-108762,1.02887e+06
0.406,0.00139474,221629,-2574.55,16981,1.02702e+06,86629.5,-107683,1.0274e+06
0.408,0.00140731,217103,-3385.2,16936.5,1.02448e+06,89080,-106604,1.02594e+06
0.41,0.00141989,212576,-4195.84,16892,1.02194e+06,91530.5,-105525,1.02448e+06
0.412,0.00143246,208050,-5006.48,16847.4,1.0194e+06,93981,-104446,1.02302e+06
0.414,0.00144503,203524,-5817.13,16802.9,1.01685e+06,96431.5,-103368,1.02156e+06
0.416,0.0014576,198997,-6627.77,16758.4,1.01431e+06,98882,-102289,1.0201e+06
0.418,0.00147017,194471,-7438.42,16713.8,1.01177e+06,101333,-101210,1.01864e+06
0.42,0.00148275,189945,-8249.05,16669.3,1.00923e+06,103783,-100131,1.01717e+06
0.422,0.00149532,185419,-9059.7,16624.8,1.00669e+06,106234,-99052.3,1.01571e+06
0.424,0.00150789,180892,-9870.34,16580.2,1.00415e+06,108684,-97973.5,1.01425e+06
0.426,0.00152046,176366,-10681,16535.7,1.00161e+06,111135,-96894.7,1.01279e+06
0.428,0.00153304,171840,-11491.6,16491.2,999072,113585,-95815.9,1.01133e+06
0.43,0.00154561,167313,-12302.3,16446.6,996531,116036,-94737.1,1.00987e+06
0.432,0.00155818,162787,-13112.9,16402.1,993991,118486,-93658.3,1.0084e+06
0.434,0.00157076,158261,-13923.5,16357.6,991450,120937,-92579.5,1.00694e+06
0.436,0.00158386,157627,-13823.1,15951.1,1.00258e+06,124374,-92121.1,1.01772e+06
0.438,0.00159752,160984,-13586.8,14269.6,996038,126529,-80509.3,1.01009e+06
0.44,0.00161112,165614,-12215.5,13326.8,993437,129454,-69780.5,1.00557e+06
0.442,0.00162472,170245,-10844.1,12384,990836,132379,-59051.6,1.00106e+06
0.444,0.00163832,174875,-9472.77,11441.3,988235,135304,-48322.8,996540
0.446,0.00165192,179506,-8101.43,10498.5,985635,138230,-37594,992024
0.448,0.00166552,184136,-6730.09,9555.7,983034,141155,-26865.1,987509
0.45,0.00167912,188766,-5358.77,8612.93,980433,144080,-16136.5,982993
0.452,0.00169272,193397,-3987.43,7670.14,977832,147005,-5407.63,978478
0.454,0.00170632,198027,-2616.09,6727.36,975231,149930,5321.2,973962
0.456,0.00171993,202657,-1244.75,5784.57,972630,152856,16050,969446
0.458,0.00173353,207288,126.596,4841.79,970029,155781,26778.9,964931
0.46,0.00174713,211918,1497.94,3899.01,967428,158706,37507.7,960415
0.462,0.00176073,216549,2869.28,2956.22,964827,161631,48236.5,955900
0.464,0.00177447,218640,1149.7,3447.17,957538,160609,50107.8,948619
0.466,0.00178827,219170,-2472.11,4820.46,947362,157156,46528.1,939636
0.468,0.00180208,219700,-6093.91,6193.75,937187,153704,42948.5,930654
0.47,0.00181582,222221,-8147.34,9447.88,933961,150855,35337.1,927412
0.472,0.00182961,226434,-7283.04,14152.4,938526,149700,24992.4,929914
0.474,0.00184382,226138,-6386.43,14272,931640,149848,25323.4,921391
0.476,0.00185803,225842,-5489.81,14391.7,924755,149995,25654.4,912869
0.478,0.00187224,225546,-4593.22,14511.3,917869,150142,25985.4,904346
0.48,0.0018864,226952,-2241.3,15421,933201,148857,25958,914947
0.482,0.00190055,228703,404.785,16490.5,953023,147282,25858.2,929414
0.484,0.00191471,230453,3050.87,17560,972846,145708,25758.4,943881
0.486,0.00192886,232204,5696.96,18629.4,992669,144133,25658.6,958348
0.488,0.00194302,233954,8343.05,19698.9,1.01249e+06,142559,25558.7,972815
0.49,0.00195717,235705,10989.1,20768.3,1.03231e+06,140984,25458.9,987282
0.492,0.00197133,237455,13635.2,21837.8,1.05214e+06,139409,25359.1,1.00175e+06
0.494,0.00198549,239206,16281.3,22907.2,1.07196e+06,137835,25259.3,1.01622e+06
0.496,0.00199964,240956,18927.4,23976.7,1.09178e+06,136260,25159.4,1.03068e+06
0.498,0.0020138,242706,21573.4,25046.1,1.1116e+06,134685,25059.6,1.04515e+06
0.5,0.00202795,244457,24219.5,26115.6,1.13143e+06,133111,24959.8,1.05962e+06
0.502,0.00204211,246207,26865.6,27185,1.15125e+06,131536,24860,1.07408e+06
0.504,0.00205627,247958,29511.7,28254.5,1.17107e+06,129962,24760.2,1.08855e+06
0.506,0.00207042,249708,32157.8,29323.9,1.1909e+06,128387,24660.3,1.10302e+06
0.508,0.00208505,247969,32797.4,30205.7,1.18566e+06,126348,26807.4,1.10308e+06
0.51,0.00210009,243569,30929.7,31351.8,1.15417e+06,124298,31628.5,1.0882e+06
0.512,0.00211513,239169,29061.9,32497.9,1.12268e+06,122247,36449.7,1.07332e+06
0.514,0.00213017,234769,27194.2,33644,1.09119e+06,120196,41270.8,1.05844e+06
0.516,0.00214521,230368,25326.4,34790,1.0597e+06,118146,46091.9,1.04355e+06
0.518,0.00216025,225968,23458.6,35936.2,1.02821e+06,116095,50913.1,1.02867e+06
0.52,0.00217529,221568,21590.9,37082.2,996722,114045,55734.2,1.01379e+06
0.522,0.00219033,217168,19723.1,38228.4,965232,111994,60555.4,998903
0.524,0.00220537,211042,17558,38685.4,930109,110033,64079.2,979824
0.526,0.00222043,201748,14847.1,37878.1,888317,108235,65223.1,953048
0.528,0.00223549,192456,12136.3,37070.9,846527,106438,66367,926272
0.53,0.00225055,183163,9425.49,36263.6,804736,104640,67510.9,899496
0.532,0.00226561,173870,6714.6,35456.4,762944,102843,68654.8,872720
0.534,0.00228067,164577,4003.79,34649.1,721153,101045,69798.7,845944
0.536,0.00229571,155399,1306.78,33748.1,678803,99289.9,71003.5,818022
0.538,0.00231063,147380,-1250.46,31902.7,630840,97956.1,72821.3,778568
0.54,0.00232618,146356,-976.354,29942,638268,97627.9,66730.7,779894
0.542,0.00234177,145802,-512.053,27973.7,649417,97367.3,60109,783958
0.544,0.00235731,145324,1058.05,25112.3,659460,97321.4,54458.3,784654
0.546,0.00237284,144882,3151.47,21828.3,668979,97377.2,49267.4,783756
0.548,0.00238837,144440,5244.89,18544.3,678498,97432.9,44076.5,782857
0.55,0.0024039,143999,7338.37,15260.2,688018,97488.7,38885.5,781959
0.552,0.00241943,143557,9431.8,11976.2,697537,97544.5,33694.6,781060
0.554,0.00243495,143115,11525.3,8692.13,707057,97600.3,28503.5,780161
0.556,0.00245048,142673,13618.7,5408.13,716576,97656.1,23312.6,779263
0.558,0.00246601,142231,15712.2,2124.03,726095,97711.9,18121.6,778364
0.56,0.00248154,141790,17805.6,-1159.97,735615,97767.6,12930.7,777466
0.562,0.00249707,141348,19899,-4443.97,745134,97823.4,7739.78,776567
0.564,0.0025126,140906,21992.5,-7728.07,754653,97879.2,2548.74,775669
0.566,0.00252816,140599,22699.7,-9712.48,767101,96712.9,-3396.48,777163
0.568,0.00254375,140364,22672.8,-11008.8,781099,94899.5,-9741.29,779924
0.57,0.00255933,140129,22646,-12305.1,795096,93086.1,-16085.9,782686
0.572,0.00257491,139893,22619.1,-13601.4,809095,91272.6,-22430.7,785447
0.574,0.00259069,141848,14592.3,-14216.5,816401,88744.2,-28417.2,793351
0.576,0.00260659,143057,12488.9,-14572.4,822009,88045.2,-30553.8,798949
0.578,0.00262262,143295,17811.4,-14634.5,825759,89586.9,-28031.6,801594
0.58,0.00263864,142403,18850.1,-15418.7,837499,88941.2,-25921.3,811500
0.582,0.00265466,141201,18711.5,-16401.4,851436,87694.3,-23924.3,823403
0.584,0.00267069,139999,18572.8,-17384.1,865372,86447.4,-21927.2,835305
0.586,0.00268671,138797,18434.2,-18366.8,879309,85200.5,-19930.2,847207
0.588,0.00270289,138688,17500.1,-19335.1,877537,84874.3,-15796.8,850704
0.59,0.00271908,138691,16484.3,-20301.9,874154,84642.7,-11444.3,853338
0.592,0.00273527,138693,15468.5,-21268.7,870770,84411,-7091.72,855972
0.594,0.00275157,139010,15030.7,-22087.3,867802,83534.8,-3815.5,857803
0.596,0.00276804,139910,15665.5,-22630.5,865605,81462,-2537.06,858145
0.598,0.00278452,140810,16300.4,-23173.8,863408,79389.2,-1258.66,858486
0.6,0.002801,141710,16935.3,-23717.1,861211,77316.4,19.7792,858828
0.602,0.00281747,142610,17570.1,-24260.3,859014,75243.6,1298.18,859169
0.604,0.00283395,143510,18205,-24803.6,856817,73170.9,2576.58,859511
0.606,0.00285043,144409,18839.9,-25346.9,854621,71098.1,3855.02,859852
0.608,0.00286691,145309,19474.7,-25890.1,852424,69025.3,5133.42,860194
0.61,0.00288338,146209,20109.6,-26433.4,850227,66952.5,6411.86,860535
0.612,0.00289986,147109,20744.5,-26976.7,848030,64879.7,7690.26,860877
0.614,0.00291634,148009,21379.4,-27519.9,845833,62806.9,8968.7,861218
0.616,0.00293282,148909,22014.2,-28063.2,843636,60734.1,10247.1,861559
0.618,0.00294929,149809,22649.1,-28606.5,841439,58661.4,11525.5,861901
0.62,0.00296588,148729,22963.5,-29315.5,832849,57136.3,10757.5,854701
0.622,0.00298256,145590,22944.4,-30197.1,817605,56181.6,7859.22,839651
0.624,0.00299925,142450,22925.2,-31078.7,802360,55226.8,4960.86,824601
0.626,0.00301593,139311,22906,-31960.3,787116,54272.1,2062.58,809552
0.628,0.00303266,136259,22893.4,-32664.5,774750,53840.3,378.717,813476
0.63,0.00304944,133341,22890.7,-33097.1,766791,54209.1,553.668,846441
0.632,0.00306623,130423,22888,-33529.6,758831,54577.8,728.624,879406
0.634,0.00308301,127506,22885.3,-33962.2,750872,54946.5,903.574,912371
0.636,0.00310003,120910,22252.5,-31832.3,740540,57640.1,-5614.8,889009
0.638,0.00311708,113892,21547.4,-29408.8,729935,60600.1,-12900.1,859194
0.64,0.00313412,106875,20842.4,-26985.4,719330,63560,-20185.1,829381
0.642,0.00315117,99857.7,20137.3,-24561.9,708726,66520,-27470.4,799566
0.644,0.00316821,92840.4,19432.3,-22138.5,698121,69480,-34755.4,769752
0.646,0.00318526,85822.9,18727.2,-19715,687516,72440,-42040.7,739938
0.648,0.00320231,78805.7,18022.2,-17291.5,676912,75399.9,-49325.7,710124
0.65,0.00321966,79999.8,16205.5,-16872.8,658678,76560.9,-47468.1,696413
0.652,0.0032371,81361.8,13487.8,-16662,628679,77627.2,-42820.5,695188
0.654,0.00325454,82723.8,10770.3,-16451.3,598681,78693.5,-38172.9,693963
0.656,0.00327197,84085.8,8052.7,-16240.6,568683,79759.9,-33525.3,692738
0.658,0.00328941,85447.8,5335.17,-16029.9,538685,80826.2,-28877.7,691513
0.66,0.00330685,86809.7,2617.56,-15819.2,508686,81892.5,-24230,690288
0.662,0.00332429,88171.7,-99.9729,-15608.5,478688,82958.8,-19582.5,689063
0.664,0.00334172,89533.7,-2817.5,-15397.8,448690,84025.1,-14935,687838
0.666,0.00335925,90807.6,-3108.5,-15578.5,439964,84297.1,-12264.6,688824
0.668,0.00337685,92014.7,-1557.06,-16056.4,447389,83965.9,-11095.6,691490
0.67,0.00339445,93221.9,-5.57811,-16534.3,454814,83634.8,-9926.61,694155
0.672,0.00341204,99301.4,2934.41,-15517.9,458198,86813.5,-7108.96,693922
0.674,0.00342962,106889,6304.33,-14038.9,460332,91078.8,-3780.85,692791
0.676,0.0034472,114477,9674.15,-12559.9,462465,95344.1,-452.837,691660
0.678,0.00346479,122065,13044,-11080.9,464599,99609.3,2875.18,690529
0.68,0.00348237,125554,15461,-9811.94,476659,101340,2788.67,690057
0.682,0.00349995,121095,16030.3,-8950.34,507963,98157.8,-3918.43,690861
0.684,0.00351752,116636,16599.7,-8088.71,539268,94975,-10625.7,691665
0.686,0.0035351,112177,17169,-7227.12,570572,91792.4,-17332.8,692468
0.688,0.00355267,107718,17738.3,-6365.49,601877,88609.7,-24040.1,693272
0.69,0.00357025,103259,18307.7,-5503.9,633181,85427,-30747.2,694076
0.692,0.00358782,98799.8,18877,-4642.3,664485,82244.4,-37454.3,694880
0.694,0.00360551,96327.5,19754.9,-3790.15,684225,79825,-40412.1,706806
0.696,0.00362363,96151.3,21456.7,-30.9408,683704,80228.8,-40659.2,687950
0.698,0.00364175,96392.2,24182.4,3385.61,685091,80000.3,-39192.1,689087
0.7,0.00365987,96633.1,26908.1,6802.05,686477,79771.7,-37725.1,690224
0.702,0.00367799,96874,29633.8,10218.6,687864,79543.1,-36258,691361
0.704,0.00369612,97114.9,32359.5,13635,689250,79314.5,-34791,692498
0.706,0.00371424,97355.7,35085.2,17051.5,690637,79086,-33324,693635
0.708,0.00373236,97596.6,37810.9,20468,692023,78857.4,-31856.9,694772
0.71,0.00375048,97837.5,40536.6,23884.5,693410,78628.8,-30389.9,695909
0.712,0.00376861,98078.4,43262.3,27301,694796,78400.2,-28922.8,697045
0.714,0.00378673,98319.3,45988,30717.5,696183,78171.6,-27455.8,698182
0.716,0.00380485,98560.2,48713.7,34134,697569,77943.1,-25988.8,699319
0.718,0.00382298,98801.1,51439.4,37550.5,698956,77714.5,-24521.7,700456
0.72,0.0038411,99042,54165.1,40967,700342,77485.9,-23054.7,701593
0.722,0.00385922,99282.9,56890.8,44383.5,701729,77257.3,-21587.6,702730
0.724,0.00387735,99523.8,59616.4,47799.9,703115,77028.8,-20120.6,703867
0.726,0.00389547,99764.6,62342.2,51216.5,704502,76800.2,-18653.6,705004
0.728,0.00391359,100006,65067.9,54632.9,705888,76571.6,-17186.5,706141
0.73,0.00393172,100598,68587.8,57759.2,708910,75841.3,-14359.8,722795
0.732,0.00395014,100418,69927.1,58777,703755,75419,-12201.2,737063
0.734,0.00396877,98603.5,66786.6,56200.9,679871,76495.2,-8958.57,721450
0.736,0.00398744,97003.1,63203.8,53066.2,652132,77332.5,-4640.47,720310
0.738,0.00400608,96020.5,59988.4,49358.7,632543,77485.1,-1176.8,719957
0.74,0.00402472,95037.9,56773,45651.2,612953,77637.7,2286.98,719605
0.742,0.00404336,94055.3,53557.6,41943.8,593364,77790.3,5750.65,719252
0.744,0.004062,93072.7,50342.1,38236.2,573774,77942.9,9214.43,718899
0.746,0.00408064,92090.1,47126.7,34528.8,554184,78095.5,12678.1,718546
0.748,0.00409928,91107.4,43911.3,30821.3,534594,78248.1,16141.9,718193
0.75,0.00411792,90124.8,40695.9,27113.8,515005,78400.8,19605.6,717841
0.752,0.00413656,89142.2,37480.5,23406.4,495415,78553.4,23069.2,717488
0.754,0.0041552,88159.6,34265,19698.9,475825,78706,26533,717135
0.756,0.00417384,87177,31049.7,15991.4,456236,78858.6,29996.7,716782
0.758,0.00419248,86194.3,27834.2,12283.9,436646,79011.2,33460.5,716430
0.76,0.00421112,85211.7,24618.8,8576.48,417057,79163.8,36924.1,716077
0.762,0.00422991,87565.2,25106.8,4550.58,445979,77933.8,33495.2,720292
0.764,0.00424879,92110.9,28028.2,315.607,506778,75795.3,25537.1,727508
0.766,0.00426767,96656.5,30949.6,-3919.37,567577,73656.8,17579.1,734724
0.768,0.00428655,101202,33871.1,-8154.46,628378,71518.2,9620.76,741941
0.77,0.00430543,105785,36809.5,-12427.9,689566,69353.5,1636.4,749274
0.772,0.00432445,104564,37077.2,-10643.3,689479,71318,-2202.34,738236
0.774,0.00434346,103344,37344.9,-8858.71,689391,73282.4,-6040.97,727199
0.776,0.00436248,102124,37612.7,-7074.1,689303,75246.9,-9879.72,716161
0.778,0.00438149,100903,37880.4,-5289.54,689215,77211.2,-13718.4,705123
0.78,0.00440051,99683.2,38148.2,-3504.97,689127,79175.6,-17557,694086
0.782,0.00441952,98462.9,38415.9,-1720.36,689039,81140.1,-21395.7,683048
0.784,0.00443857,96932.5,37518.6,552.906,678473,83617.5,-23750.5,671434
0.786,0.00445763,95283.6,36176.6,3012.79,663906,86290.7,-25539,659598
0.788,0.00447686,91504.8,36926.5,6002.6,636390,86437,-28114.1,636593
0.79,0.00449636,87701.8,35003.8,6511.86,612670,84556.6,-30720.3,621033
0.792,0.00451586,83898.9,33081.1,7021.11,588950,82676.2,-33326.4,605475
0.794,0.00453536,80095.9,31158.4,7530.37,565231,80795.7,-35932.6,589916
0.796,0.00455486,76293.1,29235.7,8039.62,541511,78915.3,-38538.8,574357
0.798,0.00457436,72490.2,27313.1,8548.87,517792,77034.8,-41144.9,558798
0.8,0.00459386,68687.3,25390.3,9058.13,494072,75154.4,-43751.1,543239
0.802,0.00461335,64884.4,23467.7,9567.38,470353,73274,-46357.2,527681
0.804,0.00463285,61081.4,21545,10076.6,446633,71393.5,-48963.4,512121
0.806,0.00465235,57278.6,19622.3,10585.9,422914,69513.1,-51569.6,496563
0.808,0.00467185,53475.6,17699.6,11095.1,399194,67632.6,-54175.8,481004
0.81,0.00469135,49668.6,15782.1,11568.4,375712,65758.7,-56779.9,465635
0.812,0.00471083,45682.2,14091.6,10476.1,362538,64170.2,-59296.9,458527
0.814,0.0047303,41695.7,12401.1,9383.78,349364,62581.6,-61814.1,451419
0.816,0.0047498,40098.5,11407.4,8800.94,346834,61212.7,-62072.1,450322
0.818,0.00476934,43856.5,11975.5,9360.04,368162,60336,-57266.6,462699
0.82,0.00478888,47614.5,12543.6,9919.14,389490,59459.4,-52461.3,475076
0.822,0.00480842,51372.5,13111.8,10478.2,410818,58582.7,-47655.8,487453
0.824,0.00482797,55130.4,13679.9,11037.3,432145,57706.1,-42850.5,499830
0.826,0.00484751,58888.4,14248,11596.4,453472,56829.4,-38045.1,512207
0.828,0.00486705,62646.4,14816.1,12155.5,474800,55952.8,-33239.6,524584
0.83,0.0048866,67098.4,15723.8,13443.5,495691,55141.3,-28009.1,534898
0.832,0.00490616,72492,17092.2,15720.3,515992,54418.2,-22201.6,542413
0.834,0.00492572,77885.5,18460.5,17997,536292,53695.1,-16394.3,549929
0.836,0.00494528,83279.1,19828.9,20273.8,556592,52972,-10586.7,557444
0.838,0.00496484,88672.6,21197.3,22550.5,576892,52249,-4779.39,564959
0.84,0.0049844,94066,22565.6,24827.3,597192,51525.9,1027.95,572475
0.842,0.00500407,98904.2,23439.8,26410.5,607780,50839.3,7161.54,588099
0.844,0.00502408,97731.1,23024.8,27257.9,601288,52001.8,8615.61,572989
0.846,0.00504413,94991.3,22578.2,28383.5,589415,52870.8,9343.86,562985
0.848,0.00506418,92251.6,22131.6,29509.1,577544,53739.7,10072.1,552981
0.85,0.00508423,89511.7,21684.9,30634.7,565671,54608.6,10800.3,542977
0.852,0.00510428,86772,21238.3,31760.3,553799,55477.5,11528.6,532973
0.854,0.00512433,84032.2,20791.7,32885.9,541927,56346.4,12256.8,522969
0.856,0.00514438,81292.4,20345.1,34011.5,530055,57215.3,12985.1,512964
0.858,0.00516443,78552.7,19898.4,35137.1,518183,58084.2,13713.3,502960
0.86,0.00518448,75812.9,19451.8,36262.7,506311,58953.2,14441.6,492956
0.862,0.00520453,73073.1,19005.2,37388.3,494439,59822.1,15169.8,482952
0.864,0.00522458,70333.3,18558.6,38514,482567,60691,15898,472948
0.866,0.00524463,67593.5,18111.9,39639.5,470695,61559.9,16626.3,462944
0.868,0.00526468,64853.8,17665.3,40765.1,458823,62428.8,17354.5,452940
0.87,0.00528473,62114,17218.7,41890.7,446951,63297.8,18082.8,442936
0.872,0.00530478,59374.2,16772.1,43016.3,435079,64166.7,18811,432932
0.874,0.00532483,56634.4,16325.4,44141.9,423206,65035.6,19539.2,422928
0.876,0.00534488,53894.6,15878.8,45267.5,411335,65904.5,20267.5,412924
0.878,0.00536493,50950.8,15428.1,46429.4,398762,66735.2,20901.2,403584
0.88,0.00538501,46996.5,14971.5,47775.5,382689,67393.3,21000.1,398605
0.882,0.00540531,47315,15425.1,46695.6,382360,66959.3,22287.8,399577
0.884,0.00542577,48083.2,15632,43967,372721,65814.2,25061.1,399942
0.886,0.00544623,49216.4,15874.3,41129.1,363773,65141.5,28200.7,406955
0.888,0.00546666,50487.6,16566.4,38371.7,359268,64966.8,31050.3,414146
0.89,0.00548709,51758.7,17258.5,35614.4,354763,64792.2,33899.8,421336
0.892,0.00550753,53029.9,17950.6,32857,350257,64617.5,36749.3,428527
0.894,0.00552796,54301,18642.7,30099.7,345752,64442.9,39598.8,435718
0.896,0.0055484,55572.2,19334.9,27342.3,341247,64268.3,42448.4,442909
0.898,0.00556883,56843.3,20027,24585,336742,64093.6,45297.9,450099
0.9,0.00558926,58114.4,20719.1,21827.7,332237,63919,48147.4,457290
0.902,0.0056097,59385.6,21411.2,19070.4,327731,63744.4,50997,464481
0.904,0.00563013,60656.7,22103.3,16313.1,323226,63569.7,53846.5,471672
0.906,0.00565056,61927.9,22795.4,13555.7,318721,63395.1,56696.1,478862
0.908,0.005671,63199,23487.5,10798.4,314215,63220.5,59545.6,486053
0.91,0.00569143,64470.1,24179.7,8040.98,309710,63045.8,62395.1,493244
0.912,0.00571188,65691.1,25116.4,5513.06,309445,63124.5,64714.8,500120
0.914,0.00573246,66380.5,28646.2,5416.62,354124,65887.8,61418.5,503656
0.916,0.00575304,67070,32176.2,5320.17,398804,68651.3,58122.1,507192
0.918,0.00577363,67759.4,35706,5223.72,443482,71414.7,54825.8,510727
0.92,0.00579426,67101,37265.1,5234.37,469892,72624.8,51270.8,509476
0.922,0.00581497,64298.5,35689,5415.36,467239,71364,47304.8,500607
0.924,0.00583567,61496,34112.9,5596.36,464586,70103.1,43338.7,491739
0.926,0.00585638,58693.6,32536.8,5777.35,461933,68842.3,39372.7,482871
0.928,0.00587709,55891.1,30960.8,5958.35,459280,67581.5,35406.7,474003
0.93,0.0058978,53088.6,29384.7,6139.35,456627,66320.6,31440.6,465134
0.932,0.00591851,50286.1,27808.6,6320.34,453973,65059.8,27474.5,456266
0.934,0.00593922,47483.6,26232.5,6501.34,451320,63798.9,23508.4,447398
0.936,0.00595993,44681.2,24656.4,6682.33,448667,62538.1,19542.4,438530
0.938,0.0059808,43659,24170.8,6677,449365,61620.6,18122.3,440449
0.94,0.00600177,43696.7,24353.5,6531.52,451975,60811.9,18207,448971
0.942,0.00602273,43734.4,24536.2,6386.04,454586,60003.3,18291.7,457492
0.944,0.0060437,43772.1,24718.8,6240.56,457197,59194.6,18376.4,466014
0.946,0.00606467,43809.7,24901.5,6095.08,459807,58385.9,18461.1,474536
0.948,0.00608563,43847.4,25084.2,5949.59,462418,57577.2,18545.7,483058
0.95,0.0061066,43885.1,25266.8,5804.11,465029,56768.5,18630.4,491580
0.952,0.00612757,43922.8,25449.5,5658.63,467640,55959.9,18715.1,500101
0.954,0.00614853,43960.4,25632.2,5513.15,470250,55151.2,18799.8,508623
0.956,0.0061695,43998.1,25814.8,5367.67,472861,54342.5,18884.4,517145
0.958,0.00619045,44136.3,25283.2,5597.03,472092,54158.2,17980.5,520284
0.96,0.00621137,44381,23994.6,6223.56,467741,54635.4,16029,517721
0.962,0.00623229,44625.7,22706,6850.12,463390,55112.6,14077.4,515157
0.964,0.00625321,44870.4,21417.5,7476.65,459039,55589.8,12125.9,512594
0.966,0.00627413,45115.1,20128.9,8103.21,454688,56067.1,10174.3,510030
0.968,0.00629506,45359.8,18840.3,8729.74,450337,56544.3,8222.79,507466
0.97,0.00631621,44207.4,18720.1,9051.2,445096,57143.9,4936.64,499822
0.972,0.0063375,42284.7,19244.1,9204.42,439365,57810.9,914.723,489376
0.974,0.00635878,40362,19768.1,9357.64,433634,58478,-3107.19,478930
0.976,0.00638007,38439.2,20292.2,9510.87,427903,59145,-7129.23,468483
0.978,0.00640135,36516.5,20816.2,9664.09,422173,59812.1,-11151.1,458037
0.98,0.00642264,34593.8,21340.2,9817.32,416442,60479.1,-15173.2,447591
0.982,0.00644392,32671.1,21864.2,9970.54,410711,61146.1,-19195.1,437145
0.984,0.0064652,30748.3,22388.3,10123.8,404980,61813.2,-23217.1,426698
0.986,0.0064865,29055.6,21751,10298.4,392485,62846,-25447.5,415362
0.988,0.00650779,27418.7,20831.5,10478.3,378347,63967.8,-27242.5,403809
0.99,0.00652909,25781.7,19912,10658.2,364208,65089.5,-29037.6,392256
0.992,0.00655039,24144.8,18992.5,10838,350069,66211.3,-30832.6,380704
0.994,0.00657168,22507.9,18073,11017.9,335930,67333,-32627.6,369151
0.996,0.00659298,20871,17153.5,11197.8,321792,68454.8,-34422.6,357598
0.998,0.00661425,19893.2,17540.5,11219.2,315134,69087.4,-35638.5,352665
1,0.00663551,19146.3,18385.3,11185,311099,69548.6,-36651.3,350052
1.002,0.00665677,18399.5,19230.1,11150.9,307063,70009.8,-37664.2,347438
1.004,0.00667807,18052.4,20074.2,11020.5,304708,70245.8,-38278.1,345916
1.006,0.0066996,20316.6,20913.3,10261.7,313336,69011.3,-36285.8,351523
1.008,0.00672114,22580.7,21752.3,9502.91,321964,67776.8,-34293.7,357130
1.01,0.00674267,24844.8,22591.4,8744.13,330591,66542.3,-32301.6,362737
1.012,0.0067642,27108.9,23430.4,7985.34,339219,65307.9,-30309.5,368343
1.014,0.00678573,29373.1,24269.5,7226.52,347847,64073.3,-28317.2,373951
1.016,0.00680726,31637.2,25108.6,6467.73,356475,62838.8,-26325.1,379557
1.018,0.0068288,33901.3,25947.7,5708.95,365102,61604.4,-24333,385164
1.02,0.00685033,36165.4,26786.7,4950.17,373730,60369.9,-22340.8,390771
1.022,0.00687186,38429.5,27625.8,4191.38,382357,59135.4,-20348.7,396378
1.024,0.00689339,40693.8,28464.9,3432.55,390985,57900.9,-18356.5,401985
1.026,0.00691492,42979.5,29145.2,2665.05,398709,56530,-16146.1,407284
1.028,0.00693646,45323.8,29396.1,1873.95,403989,54790.2,-13345.5,411751
1.03,0.00695799,48725.4,29471.8,826.78,411356,54044.5,-10168.1,427693
1.032,0.00697949,51841,29175.7,-468.304,417399,52967.3,-6866.77,440784
1.034,0.00700099,54956.8,28879.7,-1763.47,423442,51890.1,-3565.24,453876
1.036,0.00702253,57730.6,28729.3,-2824.05,428420,51069.9,-669.772,458799
1.038,0.00704424,59361.8,29065.7,-3100.73,429839,51109.2,868.937,436418
1.04,0.00706599,60285,29196.5,-2944.11,427008,50195.2,3088.33,429220
1.042,0.00708779,59651.2,28799.1,-2509.17,420772,49437.9,3823.86,423048
1.044,0.0071096,57943,28032.1,-1927.61,412586,48940.5,3334.69,415407
1.046,0.00713141,56234.9,27265.1,-1346.05,404401,48443.1,2845.52,407767
1.048,0.00715322,54526.7,26498.1,-764.495,396216,47945.7,2356.36,400126
1.05,0.00717503,52818.5,25731.1,-182.935,388031,47448.3,1867.19,392486
1.052,0.00719684,51110.3,24964,398.66,379845,46950.9,1377.99,384845
1.054,0.00721865,49402.1,24197.1,980.22,371660,46453.5,888.825,377204
1.056,0.00724046,47694,23430.1,1561.78,363475,45956.1,399.658,369564
1.058,0.00726227,45985.8,22663.1,2143.34,355290,45458.7,-89.5095,361923
1.06,0.00728408,44277.6,21896.1,2724.9,347105,44961.2,-578.677,354282
1.062,0.0073059,42569.4,21129,3306.49,338919,44463.8,-1067.87,346641
1.064,0.00732771,40861.2,20362.1,3888.05,330734,43966.4,-1557.04,339001
1.066,0.00734952,39153,19595.1,4469.61,322549,43469,-2046.21,331360
1.068,0.00737133,37444.9,18828.1,5051.17,314364,42971.6,-2535.38,323720
1.07,0.00739315,35614.2,18096.2,5664.71,306336,42579.8,-3092.69,316125
1.072,0.00741511,31960.9,17887,6753.68,300656,43761.1,-4663.88,309217
1.074,0.00743708,28307.6,17677.9,7842.66,294977,44942.3,-6235.07,302310
1.076,0.00745909,27207.4,17769,7782.01,291528,45967.1,-5901.99,299194
1.078,0.00748112,26695.6,17929.3,7456.47,288594,46955.9,-5130.13,296952
1.08,0.00750315,26183.8,18089.6,7130.9,285660,47944.8,-4358.23,294710
1.082,0.00752517,25672,18249.8,6805.36,282726,48933.6,-3586.37,292468
1.084,0.0075472,25160.2,18410.1,6479.81,279792,49922.4,-2814.51,290225
1.086,0.00756923,24648.4,18570.4,6154.27,276858,50911.2,-2042.65,287983
1.088,0.00759125,24136.5,18730.7,5828.71,273924,51900.1,-1270.74,285741
1.09,0.00761328,23624.7,18890.9,5503.16,270990,52888.9,-498.884,283499
1.092,0.00763531,23112.9,19051.2,5177.62,268056,53877.7,272.976,281257
1.094,0.00765738,24631.4,19133.5,3718.73,268433,54022.3,2658.42,293882
1.096,0.00767946,26892.4,19187.2,1845.41,270021,53858.3,5633.89,311942
1.098,0.00770155,29153.5,19240.9,-28.0273,271610,53694.3,8609.55,330004
1.1,0.00772363,31414.5,19294.7,-1901.35,273198,53530.3,11585,348065
1.102,0.00774584,31173.6,19573.2,-1583.85,271440,53116.1,12912.2,338404
1.104,0.00776807,30730.7,19869.9,-1089.48,269411,52681.7,14106.4,326504
1.106,0.0077903,30287.8,20166.5,-595.103,267383,52247.3,15300.5,314604
1.108,0.00781252,29845,20463.2,-100.699,265354,51812.9,16494.7,302704
1.11,0.00783475,29402.1,20759.9,393.676,263326,51378.5,17688.9,290804
1.112,0.00785698,28959.2,21056.5,888.051,261297,50944.2,18883,278905
1.114,0.0078792,28516.3,21353.2,1382.43,259269,50509.8,20077.2,267005
1.116,0.00790143,28073.4,21649.9,1876.83,257240,50075.4,21271.4,255105
1.118,0.00792365,28271,21680.4,1839.82,256964,49044.3,21533.9,253705
1.12,0.00794587,28480.4,21706,1793,256719,48002.2,21779.3,252499
1.122,0.00796809,28689.7,21731.7,1746.18,256475,46960.1,22024.6,251294
1.124,0.00799031,28899.1,21757.3,1699.36,256231,45918,22270,250088
1.126,0.00801254,29108.5,21782.9,1652.54,255987,44875.9,22515.4,248882
1.128,0.00803476,29317.8,21808.5,1605.72,255742,43833.8,22760.7,247677
1.13,0.00805697,30276.9,21925.3,1093.51,257734,42789,22973.7,250012
1.132,0.00807916,31793.5,22109.9,235.118,261388,41742.4,23162.7,254980
1.134,0.00810152,31164,21942.3,540.275,262058,41539.2,22783.7,254286
1.136,0.00812391,30063.1,21697.4,1101,262072,41521.4,22279.9,252348
1.138,0.00814629,29084.6,21341.8,1662.52,260266,41379.9,22700.5,249591
1.14,0.00816867,28213.9,20888.5,2224.76,256855,41129.4,23936.7,246110
1.142,0.00819105,27343.2,20435.2,2787.01,253443,40878.9,25172.9,242630
1.144,0.00821343,26472.5,19981.9,3349.29,250031,40628.4,26409.3,239150
1.146,0.00823583,23444.3,19599,5247.14,244523,41531,26327.3,235535
1.148,0.00825823,23432.7,18443.2,5693.4,241681,41626.3,23949.5,233700
1.15,0.00828064,24514.5,17105.4,5181.66,239385,41006.1,21737.2,234373
1.152,0.00830305,23992.6,16076.9,5208.99,235264,40693.3,20436.6,236005
1.154,0.00832546,23470.7,15048.3,5236.31,231143,40380.5,19135.9,237637
1.156,0.00834787,22948.9,14019.7,5263.64,227023,40067.7,17835.4,239268
1.158,0.00837029,22427,12991.1,5290.97,222902,39754.9,16534.8,240900
1.16,0.0083927,21905.1,11962.6,5318.29,218782,39442.1,15234.2,242532
1.162,0.00841515,21118.5,11604.4,5658.84,214067,40352.5,13905.1,242065
1.164,0.00843766,19973.9,12152.6,6422.84,208547,42916.6,12537.5,238759
1.166,0.00846017,18829.3,12700.8,7186.79,203028,45480.5,11170,235454
1.168,0.00848274,18422.9,13235.6,7314.34,202870,46052.2,10228.4,232967
1.17,0.00850534,18382,13763.8,7126.69,205367,45637.3,9497.96,230885
1.172,0.00852794,18341.1,14292.1,6939.03,207864,45222.4,8767.42,228802
1.174,0.00855053,18300.2,14820.3,6751.38,210361,44807.4,8036.93,226720
1.176,0.00857313,18259.3,15348.5,6563.73,212858,44392.5,7306.43,224638
1.178,0.00859573,18218.4,15876.6,6376.09,215355,43977.6,6575.94,222556
1.18,0.00861833,17134.3,16420.3,6383.6,217684,42986,6671.46,222125
1.182,0.00864093,15548.6,16432,5905.77,218347,42267.7,7449.17,222871
1.184,0.00866352,16244.2,16034.2,4368.52,217326,43007.4,6591.98,221798
1.186,0.00868612,16933.6,16574,3499.38,217660,42510.6,5204.22,222324
1.188,0.00870872,17623,17113.8,2630.25,217993,42013.9,3816.47,222850
1.19,0.00873132,18312.4,17653.6,1761.06,218326,41517.2,2428.64,223377
1.192,0.00875391,18884.2,17798.6,931.112,216385,41209.9,1566.65,224120
1.194,0.00877651,19346.5,17576.2,137.645,212328,41078.8,1193.94,225065
1.196,0.00879913,19600.2,17533.1,-332.992,209593,40806.6,863.535,224514
1.198,0.00882187,19194.6,18056.7,217.376,211039,40087.7,666.93,219227
1.2,0.00884461,19041.3,18362.9,299.543,211651,39442,686.04,216657
1.202,0.00886736,19092.4,18493,2.66218,211588,38855.8,879.783,216289
1.204,0.0088901,19143.4,18623.1,-294.218,211524,38269.6,1073.53,215920
1.206,0.00891285,19194.5,18753.3,-591.099,211461,37683.4,1267.27,215551
1.208,0.0089356,19245.6,18883.4,-887.979,211397,37097.2,1461.01,215182
1.21,0.00895835,19296.7,19013.6,-1184.88,211334,36511,1654.77,214813
1.212,0.00898109,19347.8,19143.7,-1481.76,211271,35924.8,1848.51,214444
1.214,0.00900384,19398.9,19273.8,-1778.64,211207,35338.6,2042.25,214075
1.216,0.00902658,19505.7,19443.6,-2436.49,211581,34829.4,2015.09,218993
1.218,0.00904933,19628.9,19625.1,-3200.5,212085,34342.8,1922.98,225465
1.22,0.00907207,19752.1,19806.5,-3964.46,212588,33856.3,1830.88,231936
1.222,0.00909482,19875.3,19988,-4728.42,213091,33369.8,1738.78,238407
1.224,0.00911757,19998.6,20169.4,-5492.38,213594,32883.3,1646.68,244878
1.226,0.00914031,20121.8,20350.9,-6256.34,214097,32396.8,1554.58,251350
1.228,0.00916313,19071.2,19984.5,-4945.29,210592,32425.9,1423.48,239552
1.23,0.00918596,17757.9,19495.6,-3169.96,206190,32570.4,1283.65,223668
1.232,0.00920879,16444.7,19006.6,-1394.62,201788,32714.9,1143.82,207783
1.234,0.00923163,15348.5,18255.9,137.517,193853,32805.6,1306.75,198730
1.236,0.00925449,14289.8,17460.1,1627.74,185310,32886.9,1521.85,190855
1.238,0.00927734,13231.1,16664.3,3118.06,176766,32968.3,1736.97,182979
1.24,0.00930019,12172.3,15868.5,4608.28,168223,33049.7,1952.08,175104
1.242,0.00932305,11451.3,15065.8,5842.9,160147,33133.8,2272.76,168661
1.244,0.00934597,12689.4,14223.7,5594.31,154781,33234.1,3206.12,170526
1.246,0.0093689,13927.7,13381.6,5345.71,149415,33334.4,4139.53,172391
1.248,0.00939183,15165.8,12539.5,5097.12,144049,33434.7,5072.88,174257
1.25,0.00941475,16404,11697.4,4848.53,138684,33534.9,6006.24,176122
1.252,0.00943768,17642.1,10855.3,4599.94,133318,33635.2,6939.59,177987
1.254,0.0094606,18880.3,10013.2,4351.35,127952,33735.5,7872.94,179852
1.256,0.00948353,20118.5,9171,4102.75,122586,33835.8,8806.35,181718
1.258,0.00950645,21356.7,8328.89,3854.16,117220,33936.1,9739.71,183583
1.26,0.00952938,22594.8,7486.78,3605.57,111854,34036.4,10673.1,185448
1.262,0.00955234,23184.4,7127.71,3600.32,110340,34199.7,11244,188344
1.264,0.00957536,22910.9,7411.44,3918.9,113951,34446.9,11332.7,192612
1.266,0.00959836,22821.3,7853.51,4167.05,116595,35144.9,11292.5,195936
1.268,0.00962136,23045.9,8566.31,4294.84,117586,36613.7,11032.1,197648
1.27,0.00964435,23270.5,9279.11,4422.62,118577,38082.5,10771.6,199360
1.272,0.00966734,23495.1,9991.91,4550.41,119567,39551.3,10511.2,201072
1.274,0.00969034,23719.7,10704.8,4678.2,120558,41020.2,10250.8,202785
1.276,0.00971337,23345.4,11448.5,4958.17,123709,41164.3,9290.96,201037
1.278,0.00973641,22848.9,12198.7,5269.21,127301,41038.1,8188.41,198584
1.28,0.00975945,22352.3,12948.8,5580.24,130893,40911.8,7085.85,196131
1.282,0.00978249,21855.8,13698.9,5891.28,134484,40785.6,5983.3,193677
1.284,0.00980553,21359.2,14449,6202.33,138076,40659.4,4880.68,191224
1.286,0.00982858,20862.7,15199.2,6513.37,141668,40533.1,3778.12,188770
1.288,0.00985162,20366.1,15949.3,6824.41,145260,40406.9,2675.57,186317
1.29,0.00987466,19869.6,16699.4,7135.44,148851,40280.7,1573.01,183864
1.292,0.0098977,19373,17449.5,7446.5,152443,40154.4,470.39,181410
1.294,0.00992074,18876.5,18199.7,7757.53,156035,40028.2,-632.166,178957
1.296,0.00994378,18379.9,18949.8,8068.57,159627,39902,-1734.72,176504
1.298,0.00996686,18258,19326.9,8067.16,159939,39716.7,-2332.3,173626
1.3,0.00999001,18926.5,18666.8,7709.99,153031,39411.8,-1584.5,170100
1.302,0.0100132,19282.9,18628,6790.84,148229,39208.6,-1973.1,165488
1.304,0.0100364,19976.9,19325.4,6976.01,153650,38863,-2658.48,165494
1.306,0.0100596,20079.6,19354.5,6729.19,154656,38516.3,-2957.01,165882
1.308,0.0100828,20129.9,19324.3,6444.07,155270,38169.5,-3221.23,166303
1.31,0.010106,20180.2,19294.2,6158.96,155884,37822.7,-3485.45,166725
1.312,0.0101292,20230.5,19264,5873.82,156498,37475.9,-3749.69,167147
1.314,0.0101524,20280.8,19233.8,5588.7,157112,37129.1,-4013.91,167569
1.316,0.0101756,20282.8,19149.1,5268.33,157366,36782.2,-4246.55,168022
1.318,0.0101988,20298.2,19079.6,4957.74,157720,36435.4,-4487.97,168466
1.32,0.010222,20313.6,19010,4647.15,158074,36088.5,-4729.41,168911
1.322,0.0102452,20329.1,18940.5,4336.56,158428,35741.6,-4970.82,169355
1.324,0.0102684,20344.5,18870.9,4025.98,158781,35394.8,-5212.24,169800
1.326,0.0102916,20359.9,18801.3,3715.4,159135,35047.9,-5453.66,170244
1.328,0.0103148,20375.4,18731.8,3404.82,159489,34701,-5695.08,170688
1.33,0.010338,20390.8,18662.2,3094.22,159843,34354.1,-5936.51,171133
1.332,0.0103612,20406.2,18592.7,2783.64,160197,34007.3,-6177.93,171577
1.334,0.0103844,20421.7,18523.1,2473.06,160551,33660.4,-6419.35,172022
1.336,0.0104076,20437.1,18453.6,2162.48,160905,33313.5,-6660.77,172466
1.338,0.0104308,20452.5,18384,1851.88,161259,32966.7,-6902.2,172910
1.34,0.010454,20288.4,18364.5,1668.76,161224,32508.1,-7214.47,172446
1.342,0.0104773,19111.2,17993.1,1406.79,156606,31924.8,-7628.11,170000
1.344,0.0105006,17003.2,17170.9,911.516,147296,31328.7,-8074.75,166368
1.346,0.0105239,14895.1,16348.6,416.244,137986,30732.6,-8521.39,162736
1.348,0.0105472,12786.9,15526.4,-79.0583,128675,30136.4,-8968.06,159103
1.35,0.0105705,10678.9,14704.1,-574.331,119365,29540.3,-9414.7,155471
1.352,0.0105939,8570.86,13881.9,-1069.6,110055,28944.2,-9861.35,151839
1.354,0.0106172,6916.48,13000.5,-1368.39,101474,28205.3,-10220.2,147899
1.356,0.0106405,6360.45,11975.9,-1191.48,94657.6,27120.6,-10366.4,143214
1.358,0.0106638,5804.38,10951.3,-1014.56,87840.6,26035.9,-10512.6,138529
1.36,0.0106871,5248.35,9926.72,-837.656,81024.1,24951.3,-10658.8,133844
1.362,0.0107104,4692.32,8902.16,-660.748,74207.5,23866.7,-10804.9,129159
1.364,0.0107338,5694.32,8329.97,-264.113,72728.4,23516.4,-10665.2,125099
1.366,0.0107571,6823.29,8382.14,140.802,73623.5,23403.7,-10241.4,122664
1.368,0.0107805,7941.2,9240.75,530.86,77153.7,23530.7,-9460.47,122395
1.37,0.0108038,9059.11,10099.4,920.918,80683.9,23657.7,-8679.54,122125
1.372,0.0108271,10177,10958,1310.98,84214.1,23784.7,-7898.6,121856
1.374,0.0108505,11294.9,11816.6,1701.03,87744.2,23911.7,-7117.67,121586
1.376,0.0108738,12412.9,12675.2,2091.12,91274.6,24038.7,-6336.69,121317
1.378,0.0108971,13530.8,13533.8,2481.17,94804.8,24165.7,-5555.76,121048
1.38,0.0109205,14648.7,14392.4,2871.23,98335,24292.7,-4774.83,120778
1.382,0.0109438,15766.7,15251,3261.29,101865,24419.7,-3993.9,120509
1.384,0.0109672,16884.6,16109.6,3651.35,105395,24546.7,-3212.97,120239
1.386,0.0109905,18002.6,16968.3,4041.43,108926,24673.7,-2431.99,119970
1.388,0.0110138,19120.5,17826.9,4431.49,112456,24800.7,-1651.06,119700
1.39,0.0110372,19701.2,18017.9,4802.81,112956,24486.1,-943.96,119029
1.392,0.0110607,19684.7,17093.9,5131.59,109007,23831,-381.793,120459
1.394,0.0110841,19525.9,16273.3,5322.76,105652,23460.8,131.251,120736
1.396,0.0111076,19086.4,15656.9,5242.6,103466,23652.2,547.364,118742
1.398,0.0111311,18646.9,15040.4,5162.45,101280,23843.7,963.477,116748
1.4,0.0111546,18207.4,14423.9,5082.3,99094.5,24035.2,1379.59,114754
1.402,0.011178,17767.9,13807.4,5002.15,96908.8,24226.6,1795.7,112760
1.404,0.0112015,17328.4,13190.9,4921.99,94722.9,24418.1,2211.84,110765
1.406,0.011225,16888.9,12574.4,4841.84,92537.1,24609.5,2627.95,108771
1.408,0.0112484,16449.4,11958,4761.69,90351.4,24801,3044.07,106777
1.41,0.0112719,16009.9,11341.5,4681.54,88165.6,24992.5,3460.18,104783
1.412,0.0112954,15570.4,10725,4601.38,85979.9,25183.9,3876.29,102789
1.414,0.0113188,15130.8,10108.5,4521.23,83794,25375.4,4292.43,100794
1.416,0.0113423,14691.3,9492.02,4441.07,81608.2,25566.9,4708.55,98800.3
1.418,0.0113658,14251.8,8875.54,4360.92,79422.5,25758.3,5124.66,96806.1
1.42,0.0113892,13812.3,8259.06,4280.77,77236.7,25949.8,5540.77,94811.9
1.422,0.0114127,13372.8,7642.55,4200.61,75050.8,26141.3,5956.91,92817.6
1.424,0.0114362,12933.3,7026.07,4120.46,72865.1,26332.7,6373.02,90823.4
1.426,0.0114597,12493.8,6409.59,4040.31,70679.3,26524.2,6789.14,88829.3
1.428,0.0114831,12054.3,5793.12,3960.16,68493.5,26715.7,7205.25,86835.1
1.43,0.0115066,11589.4,5751.49,3815.88,67755.5,27064.6,7466.52,85168
1.432,0.0115301,11086.7,6297.67,3425.42,66943.1,27734.2,7763.33,84973
1.434,0.0115537,10584,6843.82,3034.98,66130.7,28403.7,8060.12,84778
1.436,0.0115772,10199.5,7418.57,2754.1,66368.4,28806.6,8119.96,85226
1.438,0.0116008,10142.7,8072.66,2777.22,69520.3,28469.6,7522.31,87458.1
1.44,0.0116244,10085.9,8726.79,2800.34,72672.4,28132.6,6924.62,89690.3
1.442,0.0116479,10029.2,9380.88,2823.47,75824.2,27795.7,6326.96,91922.4
1.444,0.0116715,9972.39,10035,2846.59,78976.1,27458.7,5729.3,94154.5
1.446,0.011695,9915.63,10689.1,2869.71,82128,27121.7,5131.65,96386.6
1.448,0.0117186,9858.86,11343.2,2892.84,85279.8,26784.7,4533.99,98618.7
1.45,0.0117422,9802.08,11997.3,2915.96,88431.9,26447.7,3936.3,100851
1.452,0.0117657,9745.31,12651.4,2939.09,91583.8,26110.8,3338.64,103083
1.454,0.0117893,9688.54,13305.5,2962.21,94735.6,25773.8,2740.99,105315
1.456,0.0118129,9800.14,13705.8,2948.65,96781.6,25481.2,2421.41,107163
1.458,0.0118364,10100.5,13821.6,2893.96,97587.7,25238.4,2413.58,108579
1.46,0.01186,10400.2,13938.5,2838.94,98396.3,24995,2404.73,110016
1.462,0.0118836,10535.8,14336.6,2705.01,99795,24583.3,2143.98,116388
1.464,0.0119072,10026.1,14177.6,2797.81,98205.3,24694.4,1987.25,111424
1.466,0.0119308,9340.57,14089.3,2865.42,96353.7,24732.6,1692.64,108032
1.468,0.0119544,8564.65,14052.4,2914.22,94404.9,24718.8,1315.99,105762
1.47,0.011978,7810.91,13947.2,2941.82,92144.2,24699.2,986.341,103372
1.472,0.0120016,7215.45,13354.2,2817.86,87652,24637.5,992.659,100119
1.474,0.0120252,6619.98,12761.2,2693.89,83159.8,24575.7,998.977,96866.5
1.476,0.0120488,6024.51,12168.1,2569.93,78667.5,24514,1005.3,93613.7
1.478,0.0120724,5429.01,11575.1,2445.96,74175,24452.3,1011.61,90360.8
1.48,0.012096,4833.55,10982.1,2321.99,69682.8,24390.6,1017.93,87108
1.482,0.0121196,4238.08,10389.1,2198.03,65190.5,24328.9,1024.25,83855.3
1.484,0.0121432,3642.62,9796.05,2074.06,60698.3,24267.1,1030.57,80602.5
1.486,0.0121668,3047.15,9203.04,1950.1,56206,24205.4,1036.89,77349.7
1.488,0.0121904,2451.65,8609.99,1826.12,51713.5,24143.7,1043.21,74096.8
1.49,0.012214,2203.86,8420.26,1815.07,48855.8,24426.9,1004.42,72294.1
1.492,0.0122376,2714.01,9109.71,2050.16,49561.5,25461.9,867.289,73652.9
1.494,0.0122613,3224.16,9799.16,2285.26,50267.3,26497,730.161,75011.5
1.496,0.0122849,3551.02,10370,2533.88,51330.8,26904.1,610.711,76062.9
1.498,0.0123086,3600.05,10760.9,2802.98,52936.4,26359.4,518.071,76648.4
1.5,0.0123323,3477.32,11110.6,3118.59,54676.9,25594.5,335.267,77234.1
1.502,0.0123559,3255.33,11436.3,3461.1,56495.5,24702.4,100.36,77819.8
1.504,0.0123796,3033.35,11762.1,3803.6,58314,23810.2,-134.547,78405.6
1.506,0.0124032,3295.77,12338.9,3919.01,60558.5,23547.3,-244.226,79656.4
1.508,0.0124269,3832.52,12855.9,3947.11,62277.5,23507.6,34.8301,81129.9
1.51,0.0124505,4470.81,13110.6,3992.04,62890.5,23392.3,835.688,82502.9
1.512,0.0124742,5109.09,13365.4,4036.97,63503.5,23276.9,1636.55,83875.8
1.514,0.0124979,5747.42,13620.1,4081.91,64116.6,23161.6,2437.45,85248.9
1.516,0.0125215,6376.35,13869.6,4114.52,64748.6,23009.4,3177.5,87123.1
1.518,0.0125452,6988.11,14109.3,4124.51,65415.6,22789.3,3805.93,89917.4
1.52,0.0125689,7599.87,14349.1,4134.51,66082.5,22569.3,4434.35,92711.7
1.522,0.0125926,7700.27,14482.7,4194.91,65884.1,22600.3,4950.09,88458.3
1.524,0.0126163,7497.08,14529.1,4158.67,65387.1,22373.9,4822.59,86541.4
1.526,0.01264,7287.38,14569.4,4116.62,64944.7,22134.4,4671.14,84637.1
1.528,0.0126637,7077.69,14609.6,4074.56,64502.3,21894.9,4519.69,82732.8
1.53,0.0126873,6868,14649.9,4032.51,64059.8,21655.4,4368.24,80828.4
1.532,0.012711,6658.3,14690.2,3990.46,63617.4,21415.9,4216.79,78924.1
1.534,0.0127347,6448.6,14730.4,3948.41,63174.9,21176.4,4065.33,77019.6
1.536,0.0127584,6326.25,14636,3896.9,62141.9,20945.4,4121.58,75111.7
1.538,0.0127822,6344.07,14325.3,3830.22,60161,20728.3,4511.15,73197.9
1.54,0.0128059,6361.9,14014.6,3763.53,58180.1,20511.2,4900.71,71284
1.542,0.0128296,6333.22,13671,3709.73,56170,20317.2,5198.22,69321.9
1.544,0.0128533,6194.46,13249.4,3686.43,54091.1,20178,5277.72,67245.7
1.546,0.012877,6055.7,12827.7,3663.13,52012.2,20038.8,5357.22,65169.6
1.548,0.0129007,5916.94,12406.1,3639.83,49933.3,19899.6,5436.72,63093.4
1.55,0.0129244,5782,12048.3,3597.51,48179.2,19768.2,5521.95,61301.3
1.552,0.0129481,5683.08,12291.3,3376.07,49485.4,19710.6,5661.21,62186.4
1.554,0.0129719,5584.17,12534.3,3154.64,50791.6,19653,5800.45,63071.5
1.556,0.0129957,5485.26,12777.3,2933.21,52097.8,19595.4,5939.69,63956.5
1.558,0.0130194,5386.35,13020.4,2711.78,53404,19537.8,6078.94,64841.6
1.56,0.0130432,5287.44,13263.4,2490.35,54710.2,19480.2,6218.18,65726.6
1.562,0.0130669,5188.52,13506.4,2268.91,56016.5,19422.6,6357.43,66611.7
1.564,0.0130907,5100.34,13642,2034.53,57011.3,19333,6500.99,68177.4
1.566,0.0131145,5023.95,13659.6,1785.93,57663.8,19208.3,6649.29,70491
1.568,0.0131382,4947.56,13677.3,1537.33,58316.4,19083.7,6797.6,72804.6
1.57,0.013162,4871.17,13694.9,1288.72,58969,18959,6945.91,75118.3
1.572,0.0131857,4794.77,13712.5,1040.12,59621.6,18834.3,7094.21,77431.9
1.574,0.0132095,4718.38,13730.1,791.517,60274.2,18709.6,7242.51,79745.5
1.576,0.0132333,4641.99,13747.7,542.916,60926.7,18584.9,7390.81,82059.1
1.578,0.013257,4695.96,13904.8,517.628,60836.2,18476.3,7669.46,81157.6
1.58,0.0132808,4623.21,13818.1,596.394,60128.8,18408.4,7734.49,78257.6
1.582,0.0133046,4574.06,13682.7,680.8,59238.1,18323.4,7811.26,75088.3
1.584,0.0133283,4552.35,13490.8,771.77,58134.1,18218.6,7901.69,71605.4
1.586,0.0133521,4483.57,13363.1,833.172,57217.9,18129.2,7914.32,68375
1.588,0.0133759,4315.77,13316.5,810.724,56564.3,18060.8,7726.87,66132.8
1.59,0.0133997,4395.04,12729.1,861.401,54424.7,17869.6,7809.36,64295.5
1.592,0.0134234,4474.3,12141.7,912.079,52285.1,17678.4,7891.85,62458.3
1.594,0.0134472,4553.57,11554.3,962.757,50145.5,17487.1,7974.35,60621
1.596,0.013471,4632.83,10967,1013.43,48005.9,17295.9,8056.84,58783.8
1.598,0.0134948,4712.1,10379.6,1064.12,45866.1,17104.7,8139.34,56946.4
1.6,0.0135186,4791.37,9792.19,1114.79,43726.5,16913.4,8221.83,55109.2
1.602,0.0135423,4870.63,9204.81,1165.47,41586.9,16722.2,8304.32,53271.9
1.604,0.0135661,4949.9,8617.44,1216.15,39447.3,16531,8386.81,51434.7
1.606,0.0135899,4898.67,8285.08,1397.07,36579.2,16556.1,8191.06,49027
1.608,0.0136137,4756.88,8129.67,1668.39,33205.4,16731.3,7802.2,46223.3
1.61,0.0136375,4615.1,7974.27,1939.69,29831.8,16906.6,7413.37,43419.8
1.612,0.0136613,4852.37,7511.39,2101.02,28271.2,16909.4,7505.88,43555.8
1.614,0.0136852,4812.62,7537.23,2147.69,28447.5,16769.1,7498.5,43851
1.616,0.013709,4655.53,7752.22,2159,29152.2,16586.4,7431.74,44057.2
1.618,0.0137328,4498.44,7967.21,2170.3,29856.9,16403.7,7364.99,44263.4
1.62,0.0137566,4341.35,8182.19,2181.61,30561.6,16221,7298.23,44469.7
1.622,0.0137804,4184.27,8397.18,2192.92,31266.3,16038.3,7231.48,44675.9
1.624,0.0138043,4027.18,8612.16,2204.23,31971,15855.6,7164.72,44882.1
1.626,0.0138281,3870.08,8827.16,2215.53,32675.7,15672.8,7097.97,45088.4
1.628,0.0138519,3713,9042.14,2226.84,33380.4,15490.1,7031.21,45294.6
1.63,0.0138757,3555.91,9257.13,2238.15,34085.1,15307.4,6964.46,45500.8
1.632,0.0138995,3398.82,9472.11,2249.46,34789.7,15124.7,6897.71,45707.1
1.634,0.0139233,3241.74,9687.1,2260.77,35494.4,14942,6830.95,45913.3
1.636,0.0139472,3084.64,9902.1,2272.07,36199.1,14759.3,6764.19,46119.5
1.638,0.013971,2927.55,10117.1,2283.38,36903.8,14576.6,6697.44,46325.8
1.64,0.0139948,2770.47,10332.1,2294.69,37608.5,14393.8,6630.69,46532
1.642,0.0140186,2619.74,10529.8,2303.84,38222.2,14195.2,6563.21,46947.9
1.644,0.0140424,2626.57,10549.9,2308.64,38124,13959.9,6533.78,47892.5
1.646,0.0140663,2362.58,10379,2239.69,37456,13938.8,6295.94,46955.6
1.648,0.0140901,2092.65,10191.1,2161.74,36779.8,13934.4,6042.17,45899.6
1.65,0.014114,1822.71,10003.3,2083.78,36103.6,13930,5788.39,44843.7
1.652,0.0141378,1577.64,9791.81,2007.06,35354.1,13910.4,5541.79,43964.9
1.654,0.0141616,1372.45,9542.53,1932.31,34487,13866.2,5306.69,43370.3
1.656,0.0141855,1167.28,9293.26,1857.56,33619.9,13822.1,5071.6,42775.7
1.658,0.0142093,962.099,9044,1782.81,32752.8,13777.9,4836.52,42181.1
1.66,0.0142332,756.922,8794.73,1708.06,31885.7,13733.8,4601.43,41586.5
1.662,0.014257,551.745,8545.47,1633.31,31018.6,13689.6,4366.34,40991.9
1.664,0.0142808,346.556,8296.18,1558.56,30151.5,13645.5,4131.25,40397.2
1.666,0.0143047,141.379,8046.92,1483.81,29284.4,13601.4,3896.16,39802.6
1.668,0.0143285,-63.7984,7797.65,1409.06,28417.3,13557.2,3661.07,39208
1.67,0.0143524,-268.975,7548.39,1334.31,27550.2,13513.1,3425.99,38613.4
1.672,0.0143762,-474.165,7299.1,1259.56,26683,13468.9,3190.89,38018.8
1.674,0.0144,-695.039,7045.83,1180.48,25713.9,13450.5,2999.2,37311.9
1.676,0.0144239,-925.621,6783.54,1117.95,24301.1,13518.3,3074.99,36262.4
1.678,0.0144478,-846.272,6577.03,1209.32,23552.5,13328.6,3148.5,36460.3
1.68,0.0144717,-766.924,6370.52,1300.68,22803.9,13138.9,3222,36658.1
1.682,0.0144955,-687.57,6164,1392.05,22055.3,12949.3,3295.51,36856
1.684,0.0145194,-608.221,5957.49,1483.41,21306.7,12759.6,3369.02,37053.8
1.686,0.0145433,-528.872,5750.98,1574.78,20558.2,12569.9,3442.52,37251.7
1.688,0.0145672,-449.523,5544.47,1666.14,19809.6,12380.2,3516.03,37449.5
1.69,0.014591,-370.169,5337.95,1757.51,19060.9,12190.6,3589.53,37647.4
1.692,0.0146149,-290.82,5131.44,1848.88,18312.4,12000.9,3663.04,37845.3
1.694,0.0146388,-211.471,4924.93,1940.24,17563.8,11811.2,3736.54,38043.1
1.696,0.0146627,-132.123,4718.42,2031.61,16815.2,11621.5,3810.05,38241
1.698,0.0146865,-52.7736,4511.91,2122.97,16066.6,11431.9,3883.55,38438.8
1.7,0.0147104,26.5801,4305.39,2214.34,15318,11242.2,3957.06,38636.7
1.702,0.0147343,82.1451,4202.06,2243.57,14719,11022.8,3974.46,38544.1
1.704,0.0147582,6.93788,4397,2133.55,14776.4,10769.1,3832.62,37688.1
1.706,0.0147821,-68.2694,4591.94,2023.54,14833.8,10515.4,3690.77,36832
1.708,0.0148059,-143.477,4786.87,1913.52,14891.2,10261.8,3548.93,35976
1.71,0.0148298,-218.688,4981.82,1803.5,14948.7,10008.1,3407.08,35119.8
1.712,0.0148537,-293.896,5176.76,1693.48,15006.1,9754.4,3265.24,34263.8
1.714,0.0148776,-369.103,5371.69,1583.46,15063.5,9500.73,3123.39,33407.7
1.716,0.0149014,-444.31,5566.63,1473.45,15121,9247.06,2981.55,32551.7
1.718,0.0149253,-519.522,5761.58,1363.43,15178.4,8993.37,2839.7,31695.6
1.72,0.0149492,-628.639,6085.24,1121.29,16029.4,8799.84,2672.18,30690.2
1.722,0.0149731,-761.025,6497.22,788.493,17424.9,8647.58,2487.03,29582.4
1.724,0.0149969,-893.411,6909.2,455.698,18820.4,8495.32,2301.89,28474.7
1.726,0.0150208,-1004.17,7163.29,225.249,19645.8,8382.55,2212.55,27602.1
1.728,0.0150447,-1068.84,7080.91,212.884,19256.5,8353.9,2327.38,27230.7
1.73,0.0150686,-1133.51,6998.54,200.519,18867.2,8325.26,2442.2,26859.4
1.732,0.0150925,-1198.19,6916.17,188.154,18477.9,8296.61,2557.02,26488.1
1.734,0.0151164,-1276.57,6838.33,-11.1506,18427.7,8527.3,2350.77,26568.2
1.736,0.0151403,-1520.35,6912.81,42.5894,18311.1,8488.46,2396.99,26595
1.738,0.0151642,-1763.05,6986.29,94.6135,18195,8451.45,2441.46,26622.2
1.74,0.0151881,-2005.74,7059.76,146.635,18078.9,8414.44,2485.94,26649.5
1.742,0.015212,-2248.42,7133.23,198.656,17962.7,8377.43,2530.41,26676.7
1.744,0.0152359,-2324.94,7089.04,202.448,17768.7,8414.84,2612.81,26968.2
1.746,0.0152598,-2390.74,7037.24,203.126,17569.6,8457.05,2697.67,27276.7
1.748,0.0152837,-2456.53,6985.45,203.804,17370.5,8499.26,2782.52,27585.3
1.75,0.0153076,-2522.33,6933.65,204.483,17171.4,8541.47,2867.36,27893.8
1.752,0.0153315,-2588.12,6881.86,205.161,16972.3,8583.68,2952.21,28202.3
1.754,0.0153554,-2653.91,6830.07,205.839,16773.2,8625.89,3037.06,28510.9
1.756,0.0153793,-2719.71,6778.27,206.517,16574.1,8668.11,3121.92,28819.4
1.758,0.0154032,-2785.5,6726.48,207.195,16375,8710.32,3206.77,29128
1.76,0.0154271,-2851.3,6674.68,207.874,16175.9,8752.53,3291.62,29436.5
1.762,0.015451,-2917.09,6622.89,208.552,15976.8,8794.74,3376.47,29745
1.764,0.0154749,-2982.89,6571.09,209.23,15777.7,8836.95,3461.32,30053.6
1.766,0.0154987,-3048.68,6519.3,209.908,15578.6,8879.16,3546.17,30362.1
1.768,0.0155227,-3033.31,6457.3,202.14,15420.5,8876.47,3549.16,30304.4
1.77,0.0155466,-2979.3,6390.43,190.351,15281.9,8852.41,3513.17,30072.3
1.772,0.0155705,-2796.33,6338.25,161.551,15074.5,8740.73,3513.96,29280.5
1.774,0.0155944,-2576.26,6290.28,127.856,14847.4,8603.84,3525.33,28327.8
1.776,0.0156183,-2356.2,6242.32,94.1627,14620.3,8466.95,3536.69,27375.1
1.778,0.0156422,-2136.14,6194.35,60.4695,14393.2,8330.07,3548.06,26422.4
1.78,0.0156661,-1916.08,6146.39,26.7764,14166.1,8193.18,3559.43,25469.8
1.782,0.01569,-1696.02,6098.42,-6.91679,13939,8056.3,3570.79,24517.1
1.784,0.0157139,-1475.95,6050.45,-40.6119,13711.9,7919.41,3582.16,23564.3
1.786,0.0157378,-1255.89,6002.49,-74.3051,13484.8,7782.52,3593.53,22611.7
1.788,0.0157617,-1035.83,5954.52,-107.998,13257.7,7645.64,3604.9,21659
1.79,0.0157856,-720.674,5748.46,-135.958,12715,7578.63,3700.67,20833.5
1.792,0.0158096,-379.767,5499.59,-162.367,12086.8,7530.53,3819.29,20042.5
1.794,0.0158335,-38.8801,5250.74,-188.775,11458.6,7482.43,3937.9,19251.4
1.796,0.0158574,46.1707,5124.9,-148.784,11014.2,7458.11,3919.83,18816.5
1.798,0.0158813,8.17749,5058.22,-76.8578,10658.3,7445.22,3836.02,18552.8
1.8,0.0159052,-29.8158,4991.54,-4.93151,10302.3,7432.34,3752.22,18289.1
1.802,0.0159291,-67.8113,4924.86,66.999,9946.31,7419.45,3668.4,18025.4
1.804,0.0159531,-105.805,4858.18,138.925,9590.34,7406.57,3584.6,17761.7
1.806,0.015977,-143.798,4791.5,210.852,9234.37,7393.68,3500.79,17498
1.808,0.0160009,-162.957,4789.68,247.252,9072.67,7311.79,3425.26,17339.9
1.81,0.0160248,-148.456,4813.71,260.41,9028.48,7198.66,3365.21,17517.2
1.812,0.0160487,-133.954,4837.74,273.568,8984.28,7085.53,3305.15,17694.4
1.814,0.0160727,-119.453,4861.76,286.725,8940.08,6972.41,3245.1,17871.6
1.816,0.0160966,-104.952,4885.79,299.883,8895.88,6859.28,3185.05,18048.8
1.818,0.0161205,-90.4513,4909.82,313.04,8851.68,6746.16,3125,18226.1
1.82,0.0161444,-75.9495,4933.85,326.198,8807.48,6633.03,3064.94,18403.3
1.822,0.0161683,-61.4485,4957.87,339.356,8763.28,6519.9,3004.89,18580.5
1.824,0.0161922,-46.9476,4981.9,352.513,8719.08,6406.78,2944.83,18757.8
1.826,0.0162161,-32.4466,5005.93,365.67,8674.89,6293.65,2884.78,18935
1.828,0.0162401,-93.9468,5033.85,387.614,8596.83,6216.36,2886.86,18727.4
1.83,0.016264,-166.188,5062.32,410.8,8513.99,6144.13,2897.72,18465.4
1.832,0.0162879,-238.426,5090.79,433.984,8431.15,6071.9,2908.58,18203.5
1.834,0.0163119,-310.663,5119.26,457.169,8348.31,5999.67,2919.44,17941.5
1.836,0.0163358,-382.9,5147.73,480.353,8265.47,5927.44,2930.3,17679.6
1.838,0.0163597,-455.142,5176.2,503.539,8182.63,5855.2,2941.16,17417.6
1.84,0.0163836,-527.379,5204.66,526.724,8099.79,5782.97,2952.02,17155.6
1.842,0.0164076,-599.617,5233.13,549.908,8016.95,5710.74,2962.87,16893.7
1.844,0.0164315,-671.854,5261.6,573.093,7934.12,5638.51,2973.73,16631.7
1.846,0.0164554,-744.091,5290.07,596.277,7851.28,5566.28,2984.59,16369.8
1.848,0.0164793,-816.333,5318.54,619.463,7768.43,5494.05,2995.45,16107.8
1.85,0.0165033,-888.57,5347.01,642.647,7685.6,5421.82,3006.31,15845.9
1.852,0.0165272,-943.472,5373.47,623.207,7637.54,5299.76,2953.81,15579.2
1.854,0.0165511,-996.119,5399.68,598.219,7594.01,5171.21,2893.07,15311.9
1.856,0.016575,-1048.77,5425.88,573.231,7550.47,5042.66,2832.32,15044.7
1.858,0.016599,-1017.64,5402.23,548.612,7457.04,4900.01,2785.05,14904.7
1.86,0.0166229,-953.07,5327.87,530.066,7235.86,4788.73,2708.57,14608.1
1.862,0.0166468,-1077.55,5476.82,506.283,7311.14,4671.85,2697.48,14573.4
1.864,0.0166707,-726.444,5218.8,513.724,7162.98,4532.42,2739.37,14653
1.866,0.0166947,-678.352,5068.89,469.318,6814.69,4505.73,2634.36,14552.6
1.868,0.0167186,-546.763,4952.18,392.107,6625.34,4453.07,2592.03,14298.7
1.87,0.0167425,-359.545,4817.78,311.58,6469.04,4388.44,2572.79,14024.7
1.872,0.0167665,-172.327,4683.38,231.054,6312.75,4323.82,2553.55,13750.8
1.874,0.0167904,14.8914,4548.97,150.527,6156.45,4259.19,2534.31,13476.9
1.876,0.0168143,202.121,4414.56,69.9957,6000.14,4194.56,2515.07,13203
1.878,0.0168382,389.339,4280.16,-10.531,5843.85,4129.94,2495.84,12929
1.88,0.0168622,576.557,4145.75,-91.0576,5687.55,4065.31,2476.6,12655.1
1.882,0.0168861,763.776,4011.35,-171.584,5531.25,4000.68,2457.36,12381.2
1.884,0.01691,950.994,3876.95,-252.111,5374.96,3936.06,2438.12,12107.3
1.886,0.016934,1138.22,3742.53,-332.642,5218.65,3871.43,2418.88,11833.3
1.888,0.0169579,1325.44,3608.13,-413.169,5062.36,3806.8,2399.64,11559.4
1.89,0.0169818,1512.66,3473.73,-493.695,4906.06,3742.17,2380.4,11285.5
1.892,0.0170057,1587.88,3542.78,-484.364,4938.58,3726.84,2382.33,11077.3
1.894,0.0170297,1607.32,3713.15,-430.283,5065.15,3736.05,2394.81,10901.9
1.896,0.0170536,1659.66,3829.4,-386.93,5146.62,3734.32,2396.96,10900.3
1.898,0.0170776,1764.12,3859.91,-360.572,5156.65,3715.26,2382.76,11174
1.9,0.0171015,1868.52,3890.45,-334.22,5166.65,3696.14,2368.63,11447.6
1.902,0.0171254,1909.43,3948.32,-313.165,5141.48,3630.22,2412.58,11644.7
1.904,0.0171494,1950.34,4006.2,-292.109,5116.31,3564.3,2456.53,11841.8
1.906,0.0171733,1991.24,4064.08,-271.055,5091.14,3498.38,2500.48,12038.9
1.908,0.0171972,2032.15,4121.96,-250,5065.96,3432.46,2544.42,12235.9
1.91,0.0172212,2073.06,4179.83,-228.946,5040.79,3366.54,2588.37,12433
1.912,0.0172451,2113.97,4237.71,-207.891,5015.62,3300.62,2632.32,12630.1
1.914,0.017269,2154.88,4295.59,-186.835,4990.45,3234.7,2676.27,12827.1
1.916,0.017293,2195.78,4353.47,-165.781,4965.28,3168.78,2720.22,13024.2
1.918,0.0173169,2236.69,4411.34,-144.726,4940.11,3102.86,2764.17,13221.3
1.92,0.0173408,2277.6,4469.22,-123.672,4914.94,3036.94,2808.12,13418.3
1.922,0.0173648,2318.51,4527.1,-102.616,4889.76,2971.02,2852.07,13615.4
1.924,0.0173887,2359.42,4584.98,-81.5611,4864.59,2905.1,2896.01,13812.5
1.926,0.0174126,2413.65,4550.96,-87.4783,4780.88,2826.69,2895.64,13626.4
1.928,0.0174366,2526.38,4500.76,-72.8526,4772.01,2763.07,2898.12,13304.8
1.93,0.0174605,2639.12,4450.56,-58.2268,4763.13,2699.46,2900.59,12983.2
1.932,0.0174844,2751.86,4400.36,-43.6002,4754.25,2635.85,2903.07,12661.6
1.934,0.0175084,2864.6,4350.16,-28.9744,4745.38,2572.23,2905.54,12340
1.936,0.0175323,3174.98,4097.36,-56.3141,4614.36,2530.54,2913.73,12348.4
1.938,0.0175562,3536.37,3792.26,-94.4854,4451.81,2494.5,2923.38,12441.8
1.94,0.0175802,3884.31,3495.23,-131.446,4286.49,2458.16,2930.34,12517.4
1.942,0.0176041,4110.2,3271.51,-157.418,4096.12,2419.14,2912.8,12431.2
1.944,0.0176281,4336.1,3047.8,-183.389,3905.75,2380.12,2895.26,12344.9
1.946,0.017652,4561.99,2824.08,-209.361,3715.37,2341.1,2877.73,12258.6
1.948,0.0176759,4787.89,2600.36,-235.332,3525,2302.09,2860.19,12172.3
1.95,0.0176999,5013.8,2376.63,-261.305,3334.62,2263.06,2842.66,12086
1.952,0.0177238,5239.69,2152.92,-287.277,3144.25,2224.05,2825.12,11999.7
1.954,0.0177477,5375.76,2028.45,-302.663,2996.98,2181.7,2813.72,11831.4
1.956,0.0177717,5329.06,2105.94,-296.511,2937.42,2132.57,2814.79,11496
1.958,0.0177956,5282.35,2183.43,-290.359,2877.86,2083.44,2815.87,11160.7
1.96,0.0178195,5235.64,2260.92,-284.206,2818.29,2034.31,2816.95,10825.3
1.962,0.0178435,5188.94,2338.41,-278.054,2758.73,1985.19,2818.02,10490
1.964,0.0178674,5142.23,2415.89,-271.901,2699.17,1936.06,2819.1,10154.7
1.966,0.0178914,5095.53,2493.38,-265.749,2639.61,1886.93,2820.17,9819.32
1.968,0.0179153,5048.82,2570.87,-259.596,2580.04,1837.8,2821.25,9483.96
1.97,0.0179392,4989.42,2656.79,-252.257,2518.96,1788.38,2820.2,9132.43
1.972,0.0179632,4796.84,2831.04,-232.466,2441.87,1735.77,2796.89,8611.06
1.974,0.0179871,4604.26,3005.3,-212.675,2364.79,1683.16,2773.57,8089.69
1.976,0.018011,4411.68,3179.56,-192.884,2287.71,1630.55,2750.26,7568.32
1.978,0.018035,4219.1,3353.83,-173.092,2210.63,1577.94,2726.94,7046.92
1.98,0.0180589,4359.45,3317.52,-135.268,2149.91,1514.04,2768.63,6778.65
1.982,0.0180829,4546.51,3241.17,-119.056,2149.24,1463.16,2845.84,6659.96
1.984,0.0181068,4817.7,3138.61,-53.0532,2188.9,1407.68,2887.78,6835.01
1.986,0.0181307,5022.78,3006.74,46.8301,2230.54,1317.97,2843.4,6968.89
1.988,0.0181547,5182.21,2915.21,156.067,2278.96,1229.56,2816.62,7058.25
1.99,0.0181786,5340.14,2852.29,278.638,2337.45,1146.25,2809.11,7181.28
1.992,0.0182025,5498.07,2789.36,401.21,2395.94,1062.94,2801.6,7304.3
1.994,0.0182265,5656,2726.44,523.781,2454.43,979.627,2794.09,7427.33
1.996,0.0182504,5813.94,2663.52,646.36,2512.93,896.312,2786.59,7550.37
1.998,0.0182743,5971.86,2600.59,768.931,2571.42,813.001,2779.08,7673.39
2,0.0182983,6129.79,2537.67,891.503,2629.91,729.691,2771.57,7796.42
