"arc_length","Displacement_Magnitude","Sxx","Sxy","Sxz","Syy","Syz","Szz","Von_Mises_Stress"
0,0,1.1901e+06,-68619.7,-6401.03,2.39538e+06,481315,1.02499e+06,1.54853e+06
0.002,1.82817e-06,1.13071e+06,-62706.8,-5560,2.30723e+06,451422,945668,1.51147e+06
0.004,2.96864e-06,1.09844e+06,-60217.8,-4555.24,2.25185e+06,434187,907613,1.48652e+06
0.006,3.92869e-06,1.07502e+06,-58847.4,-3496.99,2.20718e+06,421088,883038,1.46553e+06
0.008,4.91201e-06,1.05161e+06,-57477,-2438.74,2.16252e+06,407989,858462,1.44454e+06
0.01,5.90699e-06,1.02819e+06,-56106.6,-1380.49,2.11785e+06,394890,833887,1.42355e+06
0.012,6.90861e-06,1.00477e+06,-54736.2,-322.238,2.07318e+06,381791,809312,1.40256e+06
0.014,7.91433e-06,981359,-53365.8,736.012,2.02851e+06,368692,784736,1.38157e+06
0.016,8.889e-06,957932,-51584.7,1938.62,1.98272e+06,356548,761562,1.36079e+06
0.018,9.77997e-06,934480,-48768.4,3505.16,1.93408e+06,346812,741921,1.34053e+06
0.02,1.06718e-05,911027,-45952.2,5071.7,1.88545e+06,337076,722280,1.32028e+06
0.022,1.15642e-05,887575,-43135.9,6638.25,1.83681e+06,327340,702638,1.30003e+06
0.024,1.24572e-05,864123,-40319.6,8204.79,1.78817e+06,317604,682997,1.27977e+06
0.026,1.33505e-05,840670,-37503.3,9771.33,1.73954e+06,307868,663356,1.25952e+06
0.028,1.42442e-05,817218,-34687.1,11337.9,1.6909e+06,298132,643714,1.23927e+06
0.03,1.51382e-05,793766,-31870.8,12904.4,1.64227e+06,288396,624073,1.21901e+06
0.032,1.60324e-05,770313,-29054.5,14471,1.59363e+06,278661,604431,1.19876e+06
0.034,1.69267e-05,746861,-26238.2,16037.5,1.54499e+06,268925,584790,1.17851e+06
0.036,1.78213e-05,723409,-23422,17604,1.49636e+06,259189,565149,1.15825e+06
0.038,1.87159e-05,699956,-20605.7,19170.6,1.44772e+06,249453,545507,1.138e+06
0.04,1.96107e-05,676504,-17789.4,20737.1,1.39909e+06,239717,525866,1.11775e+06
0.042,2.05056e-05,653051,-14973.1,22303.7,1.35045e+06,229981,506224,1.09749e+06
0.044,2.14006e-05,629599,-12156.9,23870.2,1.30182e+06,220245,486583,1.07724e+06
0.046,2.22957e-05,606147,-9340.58,25436.8,1.25318e+06,210509,466942,1.05699e+06
0.048,2.31908e-05,582694,-6524.31,27003.3,1.20454e+06,200773,447300,1.03673e+06
0.05,2.50928e-05,555653,-4391.54,29442.8,1.16988e+06,195354,415853,1.0362e+06
0.052,2.73595e-05,527317,-2505.27,32197.3,1.14025e+06,191492,380148,1.04278e+06
0.054,2.96277e-05,498981,-619.012,34951.7,1.11062e+06,187631,344442,1.04937e+06
0.056,3.1897e-05,470645,1267.25,37706.1,1.08099e+06,183769,308737,1.05595e+06
0.058,3.41671e-05,442309,3153.51,40460.5,1.05137e+06,179907,273032,1.06253e+06
0.06,3.6438e-05,413972,5039.77,43214.9,1.02174e+06,176045,237327,1.06911e+06
0.062,3.87096e-05,385636,6926.04,45969.3,992109,172183,201621,1.0757e+06
0.064,4.09033e-05,381662,6312.16,46019.5,986073,175587,199172,1.07772e+06
0.066,4.31238e-05,379460,5516.4,45873,981754,179520,199142,1.0794e+06
0.068,4.53729e-05,377258,4720.63,45726.4,977434,183453,199113,1.08109e+06
0.07,4.76466e-05,375056,3924.86,45579.9,973115,187385,199083,1.08278e+06
0.072,4.99365e-05,370149,1390.93,45752,964930,186319,188556,1.08263e+06
0.074,5.22365e-05,364804,-1423.44,45975.5,956122,184446,176336,1.08218e+06
0.076,5.45456e-05,359460,-4237.79,46199.1,947314,182572,164116,1.08174e+06
0.078,5.68626e-05,354116,-7052.16,46422.6,938506,180699,151895,1.0813e+06
0.08,5.91866e-05,348772,-9866.51,46646.1,929697,178826,139675,1.08085e+06
0.082,6.15168e-05,343428,-12680.9,46869.6,920889,176953,127455,1.08041e+06
0.084,6.38525e-05,338083,-15495.2,47093.1,912081,175080,115235,1.07996e+06
0.086,6.61932e-05,332739,-18309.6,47316.7,903273,173206,103014,1.07952e+06
0.088,6.85388e-05,328590,-20816.4,47296.3,895993,172054,92542.3,1.08045e+06
0.09,7.08934e-05,330885,-21665.7,45961.2,896949,174786,91492.4,1.08876e+06
0.092,7.32557e-05,333180,-22515,44626,897905,177518,90442.6,1.09707e+06
0.094,7.56249e-05,335475,-23364.3,43290.9,898861,180251,89392.7,1.10538e+06
0.096,7.80004e-05,337770,-24213.6,41955.8,899817,182983,88342.9,1.1137e+06
0.098,8.03818e-05,340065,-25062.9,40620.7,900772,185715,87293,1.12201e+06
0.1,8.30371e-05,346513,-26476,39805.7,912517,188925,87602.7,1.13788e+06
0.102,8.65616e-05,366343,-29706.6,40666.8,959031,193673,92294.1,1.17812e+06
0.104,9.00876e-05,386173,-32937.1,41527.9,1.00555e+06,198422,96985.5,1.21837e+06
0.106,9.3615e-05,406004,-36167.7,42389,1.05206e+06,203171,101677,1.25861e+06
0.108,9.71437e-05,425834,-39398.3,43250.1,1.09858e+06,207920,106368,1.29885e+06
0.11,0.000100673,445664,-42628.8,44111.2,1.14509e+06,212669,111060,1.33909e+06
0.112,0.000104204,465494,-45859.4,44972.3,1.1916e+06,217418,115751,1.37934e+06
0.114,0.000107736,485325,-49090,45833.4,1.23812e+06,222166,120442,1.41958e+06
0.116,0.000111421,479052,-49371,44697,1.22063e+06,223541,118364,1.40789e+06
0.118,0.000115269,445010,-46514.4,41435.6,1.13507e+06,221327,109085,1.34097e+06
0.12,0.000119117,410969,-43657.8,38174.3,1.0495e+06,219113,99804.9,1.27404e+06
0.122,0.000122966,376927,-40801.2,34912.9,963929,216899,90525.3,1.20712e+06
0.124,0.000126815,342886,-37944.6,31651.6,878361,214685,81245.7,1.14019e+06
0.126,0.000130664,308844,-35088,28390.2,792793,212471,71966.1,1.07326e+06
0.128,0.000134514,274802,-32231.4,25128.9,707225,210256,62686.4,1.00634e+06
0.13,0.000138364,240761,-29374.8,21867.6,621657,208042,53406.9,939413
0.132,0.000142481,227783,-29180.1,19637.3,588014,206614,49752.3,915453
0.134,0.000146766,227266,-30560.3,18016.9,585090,205652,49425.5,916912
0.136,0.000151061,226749,-31940.5,16396.6,582165,204689,49098.8,918372
0.138,0.000155368,226232,-33320.6,14776.2,579241,203726,48772.1,919831
0.14,0.000159683,225715,-34700.8,13155.9,576317,202763,48445.3,921291
0.142,0.000164007,225198,-36081,11535.6,573393,201800,48118.6,922750
0.144,0.000168339,224681,-37461.2,9915.23,570469,200837,47791.9,924210
0.146,0.000172678,224165,-38841.4,8294.89,567545,199875,47465.1,925669
0.148,0.000177024,223648,-40221.6,6674.55,564621,198912,47138.4,927129
0.15,0.000181376,223131,-41601.7,5054.21,561697,197949,46811.7,928588
0.152,0.000185735,222614,-42981.9,3433.88,558773,196986,46484.9,930047
0.154,0.000190098,222097,-44362.1,1813.54,555848,196023,46158.2,931507
0.156,0.000194467,221580,-45742.3,193.194,552924,195060,45831.5,932966
0.158,0.000198841,221063,-47122.5,-1427.15,550000,194098,45504.7,934426
0.16,0.000203218,220546,-48502.6,-3047.48,547076,193135,45178,935885
0.162,0.000207601,220029,-49882.8,-4667.82,544152,192172,44851.3,937345
0.164,0.000211987,219513,-51263,-6288.16,541228,191209,44524.5,938804
0.166,0.000216376,218996,-52643.2,-7908.49,538304,190246,44197.8,940264
0.168,0.00022077,218479,-54023.4,-9528.83,535380,189284,43871,941723
0.17,0.000225166,217962,-55403.5,-11149.2,532456,188321,43544.3,943183
0.172,0.000229565,217445,-56783.7,-12769.5,529531,187358,43217.6,944642
0.174,0.000233877,219107,-57716.6,-11196.1,535205,186470,42633.6,943179
0.176,0.000238141,221959,-58405.1,-7877.55,545576,185623,41909,940120
0.178,0.000242896,222206,-58306.4,-9275.78,546991,184130,43337.9,929065
0.18,0.000248119,221037,-57620.5,-14711.4,543089,182028,47247.5,913540
0.182,0.000253633,230329,-58300.2,-17809.5,570092,179624,57275.7,928744
0.184,0.000259149,239621,-58979.9,-20907.7,597094,177219,67304,943948
0.186,0.000264665,248913,-59659.6,-24005.8,624097,174814,77332.3,959152
0.188,0.000270182,258205,-60339.3,-27103.9,651100,172409,87360.5,974355
0.19,0.000275699,267497,-61019,-30202.1,678103,170004,97388.7,989559
0.192,0.000281217,276789,-61698.7,-33300.2,705106,167599,107417,1.00476e+06
0.194,0.000286736,286081,-62378.4,-36398.3,732109,165194,117445,1.01997e+06
0.196,0.000292255,295373,-63058,-39496.4,759112,162789,127473,1.03517e+06
0.198,0.000297968,299223,-61988.5,-39793.3,766759,160370,131116,1.03319e+06
0.2,0.000303755,301096,-60283.5,-39072.5,767375,157945,132439,1.02496e+06
0.202,0.000309544,302969,-58578.5,-38351.6,767990,155521,133762,1.01673e+06
0.204,0.000315336,304842,-56873.5,-37630.8,768605,153096,135084,1.0085e+06
0.206,0.000321131,306715,-55168.5,-36909.9,769221,150672,136407,1.00028e+06
0.208,0.000326929,308588,-53463.5,-36189,769836,148248,137730,992050
0.21,0.00033273,310460,-51758.5,-35468.2,770451,145823,139052,983823
0.212,0.000338532,312333,-50053.5,-34747.3,771067,143399,140375,975595
0.214,0.000344337,314206,-48348.5,-34026.4,771682,140974,141698,967368
0.216,0.000350144,316079,-46643.5,-33305.6,772298,138550,143021,959140
0.218,0.000355954,317952,-44938.5,-32584.7,772913,136125,144343,950913
0.22,0.000361765,319825,-43233.5,-31863.9,773528,133701,145666,942685
0.222,0.000367578,321698,-41528.5,-31143,774144,131276,146989,934458
0.224,0.000373393,323570,-39823.5,-30422.1,774759,128852,148311,926230
0.226,0.000379616,312613,-37250.2,-23830.9,757547,126395,142988,915341
0.228,0.00038585,301354,-34656.5,-17101.9,739917,123937,137509,904389
0.23,0.000392084,290096,-32062.8,-10372.9,722286,121479,132030,893438
0.232,0.000398318,278837,-29469.1,-3643.93,704656,119021,126551,882486
0.234,0.000404553,267578,-26875.5,3085.09,687025,116563,121072,871535
0.236,0.000410788,256320,-24281.8,9814.1,669395,114105,115593,860583
0.238,0.000417023,245061,-21688.1,16543.1,651765,111647,110114,849632
0.24,0.000423482,242666,-21411.4,21211.1,646173,110811,109397,861092
0.242,0.000429991,242187,-21635.6,25433.5,643184,110326,109710,877399
0.244,0.000436503,241708,-21859.8,29655.9,640195,109841,110023,893705
0.246,0.000443016,241229,-22084,33878.4,637206,109357,110337,910011
0.248,0.00044953,240750,-22308.2,38100.8,634217,108872,110650,926317
0.25,0.000456047,240271,-22532.4,42323.2,631228,108387,110963,942623
0.252,0.000462565,239791,-22756.6,46545.6,628238,107902,111276,958929
0.254,0.000469084,239312,-22980.8,50768.1,625249,107417,111589,975235
0.256,0.000475604,238833,-23205,54990.5,622260,106932,111902,991541
0.258,0.000482126,238354,-23429.1,59212.9,619271,106447,112215,1.00785e+06
0.26,0.00048865,237875,-23653.3,63435.3,616282,105962,112528,1.02415e+06
0.262,0.000495527,232948,-21869.3,65643.2,612401,109494,112387,1.03182e+06
0.264,0.000502474,227150,-19691.7,67456.4,608346,113813,112157,1.0378e+06
0.266,0.000509421,221352,-17514.1,69269.5,604290,118132,111927,1.04377e+06
0.268,0.000516368,215554,-15336.5,71082.7,600235,122451,111696,1.04975e+06
0.27,0.000523315,209756,-13158.9,72895.8,596180,126770,111466,1.05572e+06
0.272,0.000530263,203958,-10981.3,74709,592124,131089,111236,1.06169e+06
0.274,0.000537283,199246,-8629.4,76044,588085,134934,111049,1.06596e+06
0.276,0.000544643,199574,-5469.23,75162.6,584123,136580,111063,1.06233e+06
0.278,0.000552004,199902,-2309.06,74281.2,580161,138227,111077,1.0587e+06
0.28,0.000559365,200230,851.111,73399.8,576199,139873,111092,1.05506e+06
0.282,0.000567017,206183,3531.27,70781.7,584523,137501,109682,1.03853e+06
0.284,0.000574781,214313,6025.75,67491.8,597601,133573,107722,1.01702e+06
0.286,0.000582546,222443,8520.23,64202,610679,129646,105762,995504
0.288,0.00059031,230572,11014.7,60912.1,623756,125719,103802,973990
0.29,0.000598076,238702,13509.1,57622.2,636834,121791,101842,952475
0.292,0.000605841,246832,16003.6,54332.3,649912,117864,99882.3,930960
0.294,0.000613684,250593,15771.7,50773.2,662791,117315,99398.3,915676
0.296,0.000621542,253643,15096,47170.2,675637,117315,99154.6,901407
0.298,0.0006294,256692,14420.2,43567.2,688484,117316,98910.9,887138
0.3,0.000637261,259742,13744.5,39964.2,701331,117317,98667.1,872869
0.302,0.000645122,262791,13068.7,36361.3,714177,117317,98423.4,858600
0.304,0.000652984,265841,12393,32758.3,727024,117318,98179.7,844331
0.306,0.000660848,268891,11717.2,29155.3,739870,117319,97936,830061
0.308,0.000668712,271940,11041.5,25552.3,752717,117319,97692.3,815792
0.31,0.000676578,274990,10365.7,21949.3,765563,117320,97448.5,801523
0.312,0.000684458,277977,9618.9,18142.9,777835,117329,97330.5,787531
0.314,0.000692712,279255,6912.54,8727.16,774251,117581,100678,781181
0.316,0.000700967,280532,4206.18,-688.628,770667,117833,104026,774830
0.318,0.000709221,281810,1499.86,-10104.3,767083,118085,107374,768480
0.32,0.000717476,283087,-1206.5,-19520.1,763499,118337,110722,762130
0.322,0.000725731,284365,-3912.86,-28935.9,759915,118589,114070,755780
0.324,0.000733986,285643,-6619.22,-38351.6,756330,118840,117418,749429
0.326,0.000742262,286489,-9118.12,-46713.9,751460,118918,120626,745221
0.328,0.000750714,283565,-9800.99,-45854.5,735327,117476,122612,759766
0.33,0.000759168,280641,-10483.9,-44995.1,719195,116034,124598,774310
0.332,0.000767622,277718,-11166.7,-44135.8,703063,114592,126584,788855
0.334,0.000776077,274794,-11849.6,-43276.4,686931,113150,128569,803400
0.336,0.000784533,271870,-12532.5,-42416.9,670799,111708,130555,817944
0.338,0.00079299,268946,-13215.3,-41557.6,654666,110266,132541,832489
0.34,0.000801447,266022,-13898.2,-40698.1,638534,108824,134527,847033
0.342,0.000809905,263098,-14581.1,-39838.8,622402,107382,136512,861578
0.344,0.000818364,260174,-15263.9,-38979.3,606269,105940,138498,876123
0.346,0.000826824,257250,-15946.8,-38120,590137,104498,140484,890667
0.348,0.000835441,251854,-16205.8,-35918.8,573692,103551,139798,894188
0.35,0.000844339,242008,-15702,-31303,556685,103497,134305,877871
0.352,0.000853238,232163,-15198.3,-26687.1,539677,103442,128813,861554
0.354,0.000862137,222317,-14694.5,-22071.3,522669,103388,123320,845237
0.356,0.000871036,212472,-14190.8,-17455.5,505662,103334,117827,828919
0.358,0.000879935,202626,-13687,-12839.7,488654,103279,112334,812602
0.36,0.000888834,192781,-13183.2,-8223.91,471646,103225,106841,796285
0.362,0.000897733,182936,-12679.5,-3608.16,454639,103170,101348,779968
0.364,0.000906792,182040,-12754.6,-2435.77,457291,101602,99722.4,772876
0.366,0.000915881,182791,-12936.3,-1896.82,463560,99754,98807.6,767480
0.368,0.000924971,183542,-13117.9,-1357.86,469829,97906.4,97892.8,762085
0.37,0.000934062,184293,-13299.5,-818.91,476098,96058.8,96978,756689
0.372,0.000943153,185044,-13481.2,-279.956,482366,94211.2,96063.2,751293
0.374,0.000952245,185795,-13662.8,258.998,488635,92363.6,95148.4,745898
0.376,0.000961338,186545,-13844.4,797.944,494904,90516.1,94233.6,740502
0.378,0.000970432,187296,-14026.1,1336.9,501173,88668.5,93318.8,735107
0.38,0.000979527,188047,-14207.7,1875.85,507442,86820.9,92404.1,729711
0.382,0.000988637,189480,-14489.3,2324.08,516335,85398.2,92060.6,722113
0.384,0.000997796,193156,-15100.3,2473.46,533872,85374.5,93598.9,707258
0.386,0.00100696,196833,-15711.2,2622.85,551409,85350.9,95137.1,692404
0.388,0.00101612,200510,-16322.2,2772.24,568946,85327.3,96675.4,677550
0.39,0.00102528,204187,-16933.2,2921.63,586483,85303.7,98213.7,662696
0.392,0.00103444,207864,-17544.1,3071.02,604020,85280,99751.9,647842
0.394,0.0010438,209844,-17882.1,3663.54,616679,85635,101772,635312
0.396,0.00105356,208340,-17659.2,5166.72,619314,86767.8,104782,627559
0.398,0.00106332,206835,-17436.2,6669.91,621949,87900.7,107792,619805
0.4,0.00107308,205330,-17213.3,8173.09,624584,89033.6,110802,612052
0.402,0.00108284,203825,-16990.3,9676.28,627219,90166.4,113812,604299
0.404,0.0010926,202320,-16767.4,11179.5,629854,91299.3,116822,596545
0.406,0.00110236,200815,-16544.4,12682.6,632489,92432.2,119832,588792
0.408,0.00111212,199311,-16321.5,14185.8,635124,93565,122842,581039
0.41,0.00112197,194508,-15238,15290.4,629916,94304.5,123072,581403
0.412,0.00113206,186201,-13693.4,14744.2,607704,92947,118154,595014
0.414,0.00114215,177893,-12148.8,14198,585492,91589.5,113235,608624
0.416,0.00115224,169585,-10604.2,13651.8,563280,90232,108317,622235
0.418,0.00116234,161277,-9059.54,13105.6,541069,88874.6,103399,635845
0.42,0.00117243,152970,-7514.94,12559.4,518857,87517.1,98480.4,649455
0.422,0.00118253,144662,-5970.32,12013.1,496645,86159.6,93562,663066
0.424,0.00119262,136354,-4425.7,11466.9,474433,84802.2,88643.7,676676
0.426,0.00120272,128046,-2881.08,10920.7,452221,83444.7,83725.3,690287
0.428,0.00121281,119738,-1336.45,10374.5,430009,82087.2,78807,703897
0.43,0.00122291,111431,208.166,9828.28,407797,80729.7,73888.6,717508
0.432,0.00123298,105119,-108.219,8738.92,385431,78784.2,70966.5,722967
0.434,0.00124303,100538,-2039.22,7178.35,362932,76328.4,69776.4,721355
0.436,0.00125309,95957.7,-3970.25,5617.75,340432,73872.6,68586.3,719743
0.438,0.00126314,91377.2,-5901.28,4057.16,317932,71416.9,67396.2,718131
0.44,0.00127319,86796.6,-7832.31,2496.56,295432,68961.1,66206.1,716518
0.442,0.00128325,82216.1,-9763.34,935.959,272932,66505.3,65016,714906
0.444,0.00129352,82624,-16028.2,-383.242,261349,63037.7,65693.6,710801
0.446,0.00130397,87123.5,-25847.8,-1504.44,258720,58740.3,67903.1,704650
0.448,0.00131442,91623.1,-35667.4,-2625.64,256091,54442.8,70112.6,698499
0.45,0.00132487,96122.6,-45486.8,-3746.82,253462,50145.4,72322,692348
0.452,0.00133569,101910,-44893.9,-2087.65,271914,50156.8,76443.3,684050
0.454,0.00134653,107797,-43496.2,-213.62,291995,50501.1,80712.3,675585
0.456,0.00135737,113684,-42098.5,1660.42,312075,50845.5,84981.3,667120
0.458,0.00136822,119571,-40700.8,3534.45,332156,51189.8,89250.3,658656
0.46,0.00137906,125458,-39303.1,5408.49,352237,51534.2,93519.3,650191
0.462,0.0013899,131345,-37905.4,7282.52,372318,51878.5,97788.3,641726
0.464,0.00140075,137232,-36507.8,9156.53,392399,52222.9,102057,633262
0.466,0.00141159,143119,-35110.1,11030.6,412480,52567.2,106326,624797
0.468,0.00142243,149006,-33712.4,12904.6,432561,52911.6,110595,616332
0.47,0.00143328,154893,-32314.7,14778.6,452642,53255.9,114864,607868
0.472,0.00144412,160780,-30917,16652.7,472723,53600.3,119133,599403
0.474,0.00145497,166668,-29519.3,18526.7,492803,53944.6,123402,590938
0.476,0.00146581,172555,-28121.6,20400.7,512884,54288.9,127671,582474
0.478,0.00147663,177613,-24656,22445.5,530919,54943,132241,572027
0.48,0.0014874,181575,-18452,24716.5,546244,56007.1,137208,558956
0.482,0.00149817,185538,-12248,26987.6,561569,57071.2,142175,545885
0.484,0.00150894,189500,-6043.92,29258.6,576893,58135.3,147142,532813
0.486,0.00151972,193462,160.11,31529.6,592218,59199.4,152110,519742
0.488,0.00153059,193726,6482.18,33053,601587,58887.2,153594,511286
0.49,0.00154171,185512,13074.8,32862.7,597304,55420.2,147095,513408
0.492,0.00155283,177299,19667.4,32672.5,593021,51953.3,140595,515530
0.494,0.00156395,169085,26260,32482.2,588738,48486.4,134096,517652
0.496,0.00157507,160872,32852.6,32292,584454,45019.5,127597,519774
0.498,0.00158618,152658,39445.2,32101.7,580171,41552.6,121097,521895
0.5,0.00159746,146083,42399,31597.3,576095,39503,114308,524020
0.502,0.00160885,141104,41826.5,30437.2,572509,38197.5,107435,527086
0.504,0.00162021,137852,37534.7,26636.6,571043,34184.4,101567,536356
0.506,0.00163155,134806,33499.9,23047,569353,30454.7,95997.1,544984
0.508,0.00164284,133479,31617,21223,565782,29097.1,92919.4,548244
0.51,0.00165413,132151,29734.2,19399.1,562211,27739.6,89841.9,551503
0.512,0.00166541,130823,27851.3,17575.2,558640,26382,86764.2,554763
0.514,0.0016767,129495,25968.4,15751.3,555069,25024.5,83686.6,558022
0.516,0.00168798,128168,24085.5,13927.4,551499,23666.9,80609,561282
0.518,0.00169927,126840,22202.6,12103.4,547928,22309.3,77531.3,564541
0.52,0.00171056,125512,20319.8,10279.5,544357,20951.8,74453.7,567801
0.522,0.00172185,124184,18436.9,8455.53,540786,19594.2,71376,571060
0.524,0.00173313,122857,16554,6631.62,537215,18236.6,68298.4,574320
0.526,0.00174442,121529,14671.1,4807.66,533644,16879,65220.7,577579
0.528,0.00175577,120343,13488.1,3787.86,530795,16467.1,62779.9,580931
0.53,0.00176736,119752,15253.5,6155.39,530987,20038.7,63021.7,584672
0.532,0.00177895,119162,17018.9,8523,531179,23610.5,63263.4,588414
0.534,0.00179054,118571,18784.3,10890.5,531370,27182.1,63505.2,592155
0.536,0.00180213,117981,20549.8,13258.1,531562,30753.8,63746.9,595897
0.538,0.00181372,117390,22315.2,15625.7,531754,34325.4,63988.6,599638
0.54,0.00182532,116835,23970.7,17954.9,531439,37856.3,64244.6,602678
0.542,0.00183701,116936,23601,19577.4,521779,40632.8,64761.9,592781
0.544,0.00184892,116613,21538.9,19423.7,509007,42802.5,65021.8,583027
0.546,0.00186099,115963,18168,17896.2,493827,44502.7,65082.6,573383
0.548,0.00187307,115313,14797.1,16368.7,478647,46202.9,65143.4,563739
0.55,0.00188514,114663,11426,14841.1,463467,47903.2,65204.2,554094
0.552,0.00189722,114012,8055.11,13313.6,448288,49603.5,65265,544450
0.554,0.00190929,113362,4684.08,11786.1,433107,51303.7,65325.8,534806
0.556,0.0019215,113317,3382.25,13567.2,429639,51862.3,65016.1,551413
0.558,0.00193374,113415,2568.06,16128.1,428930,52151.7,64619.1,574209
0.56,0.00194598,113513,1753.89,18689,428222,52441.2,64222.1,597004
0.562,0.00195822,113611,939.716,21249.9,427513,52730.6,63825,619799
0.564,0.00197046,113708,125.521,23810.9,426805,53020.1,63428,642594
0.566,0.0019827,113806,-688.649,26371.8,426096,53309.5,63031,665389
0.568,0.00199494,113904,-1502.84,28932.8,425388,53599,62633.9,688185
0.57,0.00200718,114002,-2317.01,31493.7,424679,53888.4,62236.9,710980
0.572,0.00201942,114099,-3131.21,34054.7,423971,54177.9,61839.8,733775
0.574,0.00203178,113274,-3523.67,36982.2,413374,54100.1,58797.7,741463
0.576,0.00204423,110665,-4245.84,39980.1,408317,54057.1,58512.8,739413
0.578,0.00205669,107906,-5043.72,42957.3,404758,54048.2,58789.5,737358
0.58,0.00206915,105146,-5841.58,45934.5,401200,54039.4,59066.3,735302
0.582,0.00208161,102387,-6639.46,48911.7,397641,54030.5,59343,733247
0.584,0.00209407,99627.8,-7437.32,51888.8,394083,54021.7,59619.7,731192
0.586,0.00210653,96868.5,-8235.21,54866,390524,54012.8,59896.4,729136
0.588,0.00211898,94109.3,-9033.07,57843.2,386965,54004,60173.1,727081
0.59,0.00213144,91350.1,-9830.93,60820.3,383407,53995.2,60449.8,725026
0.592,0.0021439,88590.9,-10628.8,63797.5,379848,53986.3,60726.5,722970
0.594,0.00215636,85831.7,-11426.7,66774.6,376290,53977.5,61003.2,720915
0.596,0.00216898,85236.6,-11882.6,68102.9,375637,55428,62936.6,717070
0.598,0.00218171,86055.1,-12115.1,68354.2,376883,57831.6,65951.8,712058
0.6,0.00219444,86873.6,-12347.6,68605.5,378128,60235.4,68967.1,707045
0.602,0.00220714,87945.4,-12420,67903.1,377734,62844.9,71218.1,697113
0.604,0.00221982,89137.9,-12416.1,66746.5,376558,65552.5,73105.3,684838
0.606,0.0022325,90330.5,-12412.2,65589.9,375383,68260.2,74992.4,672563
0.608,0.00224518,91523,-12408.3,64433.3,374208,70967.8,76879.5,660288
0.61,0.00225786,92715.5,-12404.5,63276.7,373032,73675.5,78766.7,648014
0.612,0.00227054,93908,-12400.6,62120.2,371857,76383.1,80653.9,635739
0.614,0.00228322,95100.6,-12396.7,60963.6,370682,79090.8,82541,623464
0.616,0.00229591,96293.1,-12392.8,59807,369506,81798.4,84428.1,611189
0.618,0.00230859,97485.6,-12388.9,58650.5,368331,84506,86315.3,598915
0.62,0.00232131,97705.1,-11920.3,56877,365826,87155,87870.8,591140
0.622,0.00233415,94602.1,-9865.06,52997.2,358781,89603.6,88294,598730
0.624,0.002347,91499,-7809.71,49117.3,351736,92052.2,88717.1,606320
0.626,0.00235995,88466.7,-6343.81,45896.7,345571,92535.8,89157.6,607846
0.628,0.00237302,85505.9,-5473.57,43342.3,340296,91033.2,89615.5,603242
0.63,0.00238608,82545.2,-4603.36,40788,335020,89530.7,90073.5,598637
0.632,0.00239914,79584.4,-3733.12,38233.6,329745,88028.2,90531.5,594033
0.634,0.00241221,76623.7,-2862.91,35679.3,324469,86525.7,90989.4,589429
0.636,0.00242534,74192.9,-2331.47,34078.8,319424,84759.9,91254.6,585075
0.638,0.00243864,73073.1,-2638.15,34837.9,314949,82342.5,91043,581340
0.64,0.00245195,71953.3,-2944.82,35596.9,310474,79925.2,90831.3,577605
0.642,0.00246526,70833.5,-3251.5,36356,305998,77507.8,90619.7,573870
0.644,0.00247856,69713.8,-3558.16,37115.1,301523,75090.5,90408,570135
0.646,0.00249196,68906.3,-3507.18,37019.7,299410,73060.8,89485.5,566447
0.648,0.00250549,68585.7,-2898.57,35592,300981,71635.8,87454.6,562834
0.65,0.00251902,68265.1,-2289.95,34164.3,302552,70210.7,85423.6,559221
0.652,0.00253255,67944.6,-1681.32,32736.5,304122,68785.6,83392.7,555608
0.654,0.00254608,67624,-1072.7,31308.8,305693,67360.6,81361.7,551995
0.656,0.00255961,67303.4,-464.07,29881.1,307264,65935.5,79330.8,548381
0.658,0.00257314,66982.9,144.546,28453.4,308834,64510.4,77299.8,544768
0.66,0.00258667,66662.3,753.18,27025.6,310405,63085.3,75268.9,541155
0.662,0.0026002,66341.8,1361.8,25597.9,311975,61660.2,73237.9,537542
0.664,0.00261373,66021.2,1970.41,24170.2,313546,60235.2,71207,533929
0.666,0.00262727,65700.6,2579.04,22742.5,315117,58810.1,69176,530315
0.668,0.0026408,65380.1,3187.66,21314.7,316687,57385,67145.1,526702
0.67,0.00265433,65059.5,3796.29,19887,318258,55959.9,65114.1,523089
0.672,0.00266786,64739,4404.91,18459.3,319829,54534.9,63083.2,519476
0.674,0.0026814,64418.4,5013.54,17031.5,321399,53109.8,61052.3,515862
0.676,0.00269493,64097.8,5622.16,15603.8,322970,51684.7,59021.3,512249
0.678,0.00270846,63777.3,6230.77,14176.1,324540,50259.6,56990.4,508636
0.68,0.002722,63429,6868.41,12652,325655,49041,54689.4,505056
0.682,0.0027357,62512.5,8100.75,9151.65,317426,52056.1,46850.8,502171
0.684,0.00274939,61596,9333.12,5651.21,309197,55071.3,39012.1,499285
0.686,0.00276309,60679.4,10565.5,2150.87,300968,58086.4,31173.6,496400
0.688,0.00277679,59762.9,11797.8,-1349.58,292739,61101.6,23334.8,493514
0.69,0.00279049,58846.4,13030.2,-4849.92,284509,64116.7,15496.3,490629
0.692,0.00280418,57929.9,14262.5,-8350.26,276280,67131.8,7657.74,487743
0.694,0.00281788,57013.3,15494.9,-11850.7,268051,70147,-181.019,484858
0.696,0.00283158,56096.8,16727.2,-15351,259822,73162,-8019.55,481972
0.698,0.00284535,55529.4,17221.4,-17188.3,253938,75597.2,-14011.7,477118
0.7,0.00285929,55690,16176,-15556.7,252946,76822.4,-16152.5,468158
0.702,0.00287323,55850.6,15130.5,-13925,251954,78047.7,-18293.4,459198
0.704,0.00288718,56011.2,14085.1,-12293.4,250963,79273,-20434.2,450239
0.706,0.00290112,56171.7,13039.7,-10661.8,249971,80498.3,-22575,441279
0.708,0.00291506,56332.3,11994.2,-9030.15,248979,81723.5,-24715.8,432319
0.71,0.002929,56492.9,10948.8,-7398.54,247987,82948.8,-26856.6,423359
0.712,0.00294313,56120.8,11877.1,-8506.41,253335,82790.4,-29228.2,420261
0.714,0.00295745,55265.2,14596.3,-12100,264434,81376.5,-31809.1,422482
0.716,0.00297176,54409.6,17315.5,-15693.6,275534,79962.6,-34390.1,424703
0.718,0.00298607,53554,20034.7,-19287.2,286634,78548.8,-36971,426924
0.72,0.00300039,52698.4,22754,-22880.8,297734,77134.8,-39551.9,429144
0.722,0.0030147,51842.8,25473.1,-26474.4,308834,75721,-42132.8,431365
0.724,0.00302899,51481.9,28829.7,-28446.6,318849,75136.5,-43962.1,435721
0.726,0.00304322,52268.1,33664.5,-26658.6,326350,76475.4,-44048.6,445029
0.728,0.00305744,53054.2,38499.2,-24870.7,333850,77814.3,-44135,454337
0.73,0.00307167,53840.4,43334.1,-23082.8,341351,79153.2,-44221.4,463645
0.732,0.0030859,54626.5,48168.8,-21294.9,348852,80492.1,-44307.8,472953
0.734,0.00310013,55412.7,53003.6,-19506.9,356353,81831,-44394.2,482261
0.736,0.00311436,56198.8,57838.3,-17719.1,363853,83169.9,-44480.6,491569
0.738,0.00312859,56985,62673,-15931.2,371354,84508.8,-44567,500877
0.74,0.00314277,54933.2,59326.1,-19429.7,372152,83486.9,-49040.9,493287
0.742,0.00315696,52792.9,55723.8,-23093.3,372741,82391.4,-53651.7,485170
0.744,0.00317115,50652.5,52121.4,-26757,373330,81295.7,-58262.6,477052
0.746,0.00318533,48512.2,48519,-30420.5,373919,80200.1,-62873.3,468934
0.748,0.00319967,51009.3,47391.5,-28565.6,371616,80223.6,-57949.1,461600
0.75,0.00321402,53835.5,46439.6,-26319.1,369108,80326.5,-52348.3,454321
0.752,0.00322837,56661.6,45487.8,-24072.5,366600,80429.3,-46747.4,447042
0.754,0.00324272,59487.9,44535.9,-21825.9,364092,80532.2,-41146.4,439763
0.756,0.00325729,58735.8,40903.7,-21359.5,361643,80746.5,-36205.4,433746
0.758,0.00327187,57750.7,37096.7,-21009.1,359197,80968.1,-31307.1,427810
0.76,0.00328645,56765.6,33289.9,-20658.8,356751,81189.7,-26409,421874
0.762,0.0033011,55385.3,30704.8,-20028.9,354117,81232.7,-22465.5,419828
0.764,0.00331584,53290.3,30330.5,-18893.6,351145,80952.5,-20249.9,424818
0.766,0.00333059,51195.3,29956.2,-17758.3,348172,80672.3,-18034.2,429809
0.768,0.00334534,49100.1,29581.9,-16622.9,345199,80392.2,-15818.5,434800
0.77,0.00336009,47005.1,29207.7,-15487.5,342226,80112,-13602.8,439790
0.772,0.00337484,44910,28833.4,-14352.2,339253,79831.9,-11387.1,444781
0.774,0.00338955,43228.5,27902.3,-13296,334371,79392.4,-8686.16,449654
0.776,0.00340421,42375.3,25855.7,-12398.4,325664,78633.7,-5013.09,454292
0.778,0.00341887,41522.2,23809.2,-11500.9,316957,77875,-1340.12,458930
0.78,0.00343353,40669.1,21762.6,-10603.4,308251,77116.4,2332.85,463568
0.782,0.00344819,39815.9,19716.1,-9705.79,299543,76357.7,6005.92,468206
0.784,0.00346285,38962.8,17669.6,-8808.25,290837,75599.1,9678.89,472844
0.786,0.00347751,38109.7,15623,-7910.69,282130,74840.4,13352,477482
0.788,0.00349217,37256.5,13576.5,-7013.15,273423,74081.7,17024.9,482120
0.79,0.00350684,36403.4,11529.9,-6115.59,264716,73323.1,20698,486758
0.792,0.00352152,35801.2,9568.34,-5318.18,255887,72503.2,24382.4,490214
0.794,0.00353658,39017.5,8899.84,-6044.36,245212,70751.5,28240.1,475688
0.796,0.00355165,42233.8,8231.35,-6770.52,234536,68999.8,32097.8,461163
0.798,0.00356671,45450,7562.87,-7496.68,223861,67248.1,35955.4,446637
0.8,0.00358177,48666.3,6894.36,-8222.87,213185,65496.4,39813.2,432112
0.802,0.00359683,51882.5,6225.88,-8949.03,202509,63744.7,43670.9,417586
0.804,0.0036119,55098.8,5557.38,-9675.21,191833,61993,47528.6,403060
0.806,0.00362696,58315,4888.89,-10401.4,181158,60241.4,51386.3,388535
0.808,0.00364202,61531.3,4220.39,-11127.6,170482,58489.6,55244,374009
0.81,0.00365716,64154.3,3794.9,-11244.2,167570,57904,58159.6,366825
0.812,0.00367236,66295.8,3566.58,-10866.2,170957,58264.5,60310.8,365598
0.814,0.00368756,68437.4,3338.26,-10488.3,174344,58625.1,62462.1,364371
0.816,0.00370277,70578.9,3109.94,-10110.3,177731,58985.6,64613.3,363144
0.818,0.00371797,72720.5,2881.61,-9732.36,181118,59346.1,66764.5,361917
0.82,0.00373317,74862,2653.29,-9354.41,184505,59706.6,68915.8,360689
0.822,0.00374837,77003.6,2424.97,-8976.44,187892,60067.2,71067,359462
0.824,0.00376357,79145.2,2196.65,-8598.49,191279,60427.7,73218.2,358235
0.826,0.00377877,81286.7,1968.33,-8220.54,194666,60788.2,75369.4,357008
0.828,0.00379398,83428.3,1740,-7842.58,198053,61148.7,77520.7,355781
0.83,0.00380918,85569.8,1511.69,-7464.63,201440,61509.2,79671.9,354554
0.832,0.00382438,87711.4,1283.36,-7086.67,204827,61869.8,81823.1,353327
0.834,0.00383958,89852.9,1055.04,-6708.72,208214,62230.3,83974.3,352100
0.836,0.00385478,91994.5,826.715,-6330.76,211601,62590.8,86125.6,350873
0.838,0.00386999,94136.1,598.396,-5952.81,214988,62951.3,88276.8,349646
0.84,0.00388519,96277.6,370.078,-5574.86,218375,63311.9,90428,348418
0.842,0.00390034,97573.6,569.408,-5003.01,221456,63962.5,92413.5,347782
0.844,0.00391549,98798.8,804.512,-4414.96,224512,64637.5,94385.2,347195
0.846,0.00393064,100024,1039.62,-3826.89,227568,65312.5,96356.9,346608
0.848,0.00394579,101249,1274.73,-3238.83,230624,65987.4,98328.6,346020
0.85,0.00396094,102475,1509.84,-2650.76,233680,66662.4,100300,345433
0.852,0.00397631,102259,805.617,-1447.12,230426,66804.8,98507.7,345634
0.854,0.00399173,101750,-90.2527,-117.878,225884,66838.7,95947.2,345996
0.856,0.00400718,99512.6,-718.706,1104.61,220589,66829.1,91637.7,346006
0.858,0.00402268,94698.1,-948.22,2167.76,214173,66754.7,84719.8,345492
0.86,0.00403818,89883.4,-1177.74,3230.94,207756,66680.4,77801.8,344979
0.862,0.00405368,85068.9,-1407.25,4294.09,201340,66606.1,70883.9,344465
0.864,0.00406918,80254.2,-1636.78,5357.27,194923,66531.8,63965.9,343951
0.866,0.00408481,77235,-1522.36,5949.01,193177,66503.5,59704.2,343252
0.868,0.00410053,75408.3,-1179.54,6227.67,194534,66505.9,57206.6,342430
0.87,0.00411625,73581.5,-836.701,6506.33,195890,66508.3,54708.9,341607
0.872,0.00413197,71754.8,-493.876,6784.99,197247,66510.7,52211.3,340785
0.874,0.00414769,69928,-151.04,7063.65,198603,66513.1,49713.6,339963
0.876,0.00416341,68101.3,191.785,7342.31,199960,66515.5,47216,339140
0.878,0.00417912,66750.9,802.928,7925.67,202152,66446.6,45162.8,337937
0.88,0.00419483,65488.1,1463.38,8565.04,204499,66364.6,43191.3,336665
0.882,0.00421054,64225.3,2123.86,9204.42,206846,66282.6,41219.8,335392
0.884,0.00422626,62962.6,2784.32,9843.79,209193,66200.5,39248.4,334119
0.886,0.00424197,61699.8,3444.78,10483.2,211539,66118.5,37276.9,332846
0.888,0.00425768,60437,4105.25,11122.5,213886,66036.5,35305.4,331574
0.89,0.00427339,59174.3,4765.71,11761.9,216233,65954.5,33333.9,330301
0.892,0.00428911,57911.5,5426.19,12401.3,218579,65872.5,31362.4,329028
0.894,0.00430482,56648.7,6086.64,13040.7,220926,65790.5,29391,327755
0.896,0.00432053,55385.9,6747.12,13680.1,223273,65708.5,27419.4,326482
0.898,0.00433624,54123.2,7407.58,14319.4,225620,65626.5,25448,325210
0.9,0.00435196,52860.4,8068.03,14958.8,227966,65544.5,23476.5,323937
0.902,0.00436767,51597.6,8728.51,15598.2,230313,65462.4,21505,322664
0.904,0.00438355,48066.6,8087.04,15213.1,230564,66840.9,18958,325627
0.906,0.00439945,44345.3,7336.39,14742.2,230639,68341.9,16362.7,328944
0.908,0.00441535,40624,6585.77,14271.3,230715,69842.9,13767.5,332262
0.91,0.00443126,36902.7,5835.12,13800.4,230790,71343.9,11172.2,335580
0.912,0.00444716,33181.5,5084.49,13329.4,230865,72844.9,8576.96,338897
0.914,0.00446306,29460.3,4333.87,12858.5,230940,74345.8,5981.73,342215
0.916,0.00447896,25739,3583.22,12387.6,231016,75846.8,3386.42,345533
0.918,0.00449486,22017.8,2832.59,11916.7,231091,77347.8,791.184,348850
0.92,0.0045109,19885.3,2848.63,11571.6,230788,78547.4,-760.928,351398
0.922,0.0045271,19460.4,3688.6,11361.7,230078,79423.3,-1191.9,353117
0.924,0.00454329,19035.4,4528.59,11151.9,229367,80299.1,-1622.88,354836
0.926,0.00455949,18610.5,5368.56,10942,228657,81174.9,-2053.85,356556
0.928,0.00457569,18185.5,6208.52,10732.2,227947,82050.8,-2484.81,358275
0.93,0.00459185,18703.6,6784.9,10828.4,223519,82979.5,-2784.79,355774
0.932,0.00460801,19259.3,7350.72,10936.9,218943,83910.3,-3079.51,353105
0.934,0.00462417,19815,7916.56,11045.4,214367,84841.1,-3374.25,350435
0.936,0.00464033,20370.7,8482.38,11153.8,209791,85771.9,-3668.98,347765
0.938,0.0046565,20926.5,9048.22,11262.3,205215,86702.7,-3963.72,345096
0.94,0.00467266,21482.2,9614.05,11370.8,200639,87633.5,-4258.44,342426
0.942,0.00468882,22037.9,10179.9,11479.2,196062,88564.2,-4553.17,339757
0.944,0.00470498,22593.6,10745.7,11587.7,191486,89495.1,-4847.91,337087
0.946,0.00472114,23149.3,11311.5,11696.2,186910,90425.8,-5142.64,334417
0.948,0.0047373,23705.1,11877.4,11804.6,182334,91356.7,-5437.37,331748
0.95,0.00475346,24260.8,12443.2,11913.1,177758,92287.4,-5732.1,329078
0.952,0.00476963,24816.5,13009,12021.6,173181,93218.3,-6026.84,326408
0.954,0.00478579,25372.2,13574.9,12130.1,168605,94149,-6321.56,323739
0.956,0.00480195,25927.9,14140.7,12238.5,164029,95079.8,-6616.29,321069
0.958,0.00481816,29550.2,16188.7,12812.8,166164,97023.1,-2747.24,321831
0.96,0.00483444,37060.5,20116,13977.8,176807,100250,6401,326943
0.962,0.00485081,48988.4,26766.8,15509.3,206046,104772,21447.5,346898
0.964,0.00486729,66184.5,36665.5,17478.1,257464,110839,43528.3,384555
0.966,0.00488374,78103.3,42643.8,18619.6,291899,114689,59740.9,408553
0.968,0.00490005,73118.9,36065.9,17111.6,271942,111442,57157.9,388804
0.97,0.00491636,68134.4,29487.8,15603.6,251985,108195,54574.7,369056
0.972,0.00493268,63150,22909.9,14095.6,232028,104948,51991.7,349307
0.974,0.00494899,58165.7,16332,12587.6,212071,101701,49408.6,329559
0.976,0.00496536,53462.9,11296.6,11991.4,198929,98371,47892.2,316614
0.978,0.00498173,48720.6,6534.45,11607.8,187257,94967.5,46584.1,305111
0.98,0.00499824,48200.2,6401.19,12032.1,186146,93544.6,47743.3,305104
0.982,0.00501475,47679.8,6267.94,12456.3,185035,92121.8,48902.6,305097
0.984,0.00503126,47159.4,6134.69,12880.5,183923,90699,50061.8,305090
0.986,0.00504777,46639,6001.44,13304.8,182812,89276.2,51221.1,305083
0.988,0.00506428,46118.6,5868.19,13729,181700,87853.3,52380.3,305076
0.99,0.00508079,45598.2,5734.94,14153.2,180589,86430.5,53539.6,305069
0.992,0.0050973,45077.8,5601.69,14577.5,179478,85007.7,54698.8,305063
0.994,0.00511382,44557.4,5468.44,15001.7,178366,83584.8,55858.1,305056
0.996,0.00513033,44037,5335.19,15425.9,177255,82162,57017.3,305049
0.998,0.00514684,43516.6,5201.93,15850.2,176143,80739.1,58176.6,305042
1,0.00516335,42996.2,5068.68,16274.4,175032,79316.3,59335.8,305035
1.002,0.00517986,42475.8,4935.44,16698.6,173920,77893.5,60495,305028
1.004,0.00519637,41955.4,4802.19,17122.8,172809,76470.7,61654.3,305021
1.006,0.00521288,41435,4668.93,17547.1,171698,75047.8,62813.6,305015
1.008,0.00522939,40914.6,4535.68,17971.3,170586,73625,63972.8,305008
1.01,0.0052459,40394.2,4402.43,18395.5,169475,72202.2,65132,305001
1.012,0.00526241,39873.8,4269.18,18819.8,168363,70779.4,66291.2,304994
1.014,0.00527892,39353.3,4135.92,19244,167252,69356.5,67450.5,304987
1.016,0.00529543,38832.9,4002.67,19668.3,166141,67933.7,68609.8,304980
1.018,0.00531195,38312.5,3869.43,20092.5,165029,66510.9,69769,304973
1.02,0.00532846,37792.1,3736.18,20516.7,163918,65088,70928.2,304966
1.022,0.00534497,37271.7,3602.93,20940.9,162806,63665.2,72087.5,304960
1.024,0.00536148,36674.7,3503.72,21400.2,161694,62267.1,73227.9,305060
1.026,0.00537794,37063.4,2966.4,21409.4,160591,60550.8,74611.2,303775
1.028,0.00539457,35391.9,1742.63,21246.9,158589,59105.2,71075.5,305376
1.03,0.0054113,33619.9,659.133,22226.5,156562,58421.6,66466.4,306162
1.032,0.00542803,31848,-424.363,23206.1,154534,57738.1,61857.3,306949
1.034,0.00544476,30075.9,-1507.92,24185.7,152507,57054.5,57247.9,307735
1.036,0.00546149,28303.9,-2591.42,25165.3,150480,56371,52638.7,308522
1.038,0.00547822,26531.9,-3674.92,26144.9,148453,55687.5,48029.6,309308
1.04,0.00549495,24759.9,-4758.41,27124.5,146425,55003.9,43420.5,310095
1.042,0.00551168,22987.8,-5841.97,28104.2,144398,54320.4,38811.1,310882
1.044,0.00552842,21921.1,-6439.48,29600.1,141494,54109.1,35546.7,310415
1.046,0.00554529,21957.7,-6017.12,30092.3,143038,54914.1,34227,305599
1.048,0.00556217,21989.7,-5589.21,30521,144782,55725.3,32893.4,300712
1.05,0.00557905,22021.7,-5161.3,30949.7,146525,56536.6,31559.9,295824
1.052,0.00559592,22053.8,-4733.36,31378.5,148269,57347.9,30226.3,290937
1.054,0.0056128,22085.8,-4305.45,31807.2,150012,58159.1,28892.8,286049
1.056,0.00562968,22117.9,-3877.54,32235.9,151756,58970.4,27559.3,281162
1.058,0.00564656,22149.9,-3449.62,32664.7,153499,59781.6,26225.8,276275
1.06,0.00566344,22182,-3021.71,33093.4,155243,60592.9,24892.3,271388
1.062,0.00568032,22214,-2593.78,33522.1,156987,61404.2,23558.7,266500
1.064,0.00569719,22246.1,-2165.87,33950.9,158730,62215.4,22225.2,261613
1.066,0.00571407,22278.1,-1737.95,34379.6,160474,63026.6,20891.7,256725
1.068,0.00573095,22310.2,-1310.04,34808.3,162217,63837.9,19558.1,251838
1.07,0.00574783,22342.2,-882.106,35237.1,163961,64649.2,18224.5,246951
1.072,0.00576471,22374.3,-454.195,35665.8,165704,65460.4,16891,242063
1.074,0.0057816,22430.4,303.244,35690.5,166234,65610.2,16016.9,235567
1.076,0.00579856,22554.8,1995.49,34569.1,163320,63883.4,16445.7,224508
1.078,0.00581551,22679.3,3687.73,33447.6,160407,62156.6,16874.6,213449
1.08,0.00583248,22464.4,5232.73,32642.9,157117,60494.3,16814,204136
1.082,0.00584956,21465.4,5889.33,32805.4,154054,59451.7,15264.5,203239
1.084,0.0058667,21178.6,5887.34,32719,153713,59104,14109.5,206408
1.086,0.00588383,20891.9,5885.35,32632.6,153371,58756.3,12954.4,209577
1.088,0.00590097,20605.1,5883.36,32546.2,153030,58408.6,11799.3,212747
1.09,0.0059181,20318.4,5881.37,32459.8,152689,58061,10644.3,215916
1.092,0.00593523,20031.6,5879.37,32373.4,152347,57713.3,9489.3,219085
1.094,0.00595237,19744.9,5877.38,32287,152006,57365.6,8334.28,222254
1.096,0.0059695,19458.1,5875.39,32200.6,151664,57018,7179.26,225423
1.098,0.00598664,19171.4,5873.4,32114.2,151323,56670.3,6024.17,228592
1.1,0.00600377,18884.6,5871.41,32027.8,150982,56322.6,4869.15,231761
1.102,0.0060209,18597.9,5869.42,31941.4,150640,55974.9,3714.14,234930
1.104,0.00603804,18311.1,5867.43,31855,150299,55627.3,2559.11,238099
1.106,0.00605517,18024.4,5865.43,31768.6,149957,55279.6,1404.09,241268
1.108,0.00607231,18467.8,5892.27,30936.4,148774,54797,936.838,242827
1.11,0.00608945,19213.4,5931.03,29795.5,147242,54258.4,754.414,243720
1.112,0.00610659,19959.1,5969.8,28654.5,145711,53719.9,571.99,244612
1.114,0.00612373,20704.8,6008.56,27513.6,144179,53181.4,389.566,245505
1.116,0.00614087,21450.5,6047.33,26372.6,142647,52642.9,207.131,246398
1.118,0.00615801,22196.1,6086.09,25231.6,141116,52104.3,24.7068,247290
1.12,0.00617515,22941.8,6124.86,24090.7,139584,51565.8,-157.717,248183
1.122,0.00619239,23352.7,7012.77,21779.7,137457,51422.4,1605.89,245479
1.124,0.00620965,23696.3,8071.35,19233.5,135211,51358.3,3760.61,242051
1.126,0.00622691,24039.9,9129.98,16687.1,132965,51294.2,5915.45,238624
1.128,0.00624416,24383.5,10188.6,14140.9,130719,51230.2,8070.16,235197
1.13,0.00626142,24727.1,11247.1,11594.7,128473,51166.1,10224.9,231770
1.132,0.00627868,25070.6,12305.7,9048.5,126226,51102.1,12379.6,228342
1.134,0.00629597,25169.4,13036.4,7463.22,123963,51260.4,14239.2,225254
1.136,0.00631332,24905.2,13281.2,7302.5,121672,51748.4,15661.6,222668
1.138,0.00633067,24641,13525.8,7141.79,119382,52236.3,17083.8,220082
1.14,0.00634801,24518.7,13387.6,6857.61,117807,51770.5,17013.3,216731
1.142,0.00636535,24421.7,13180.8,6551.33,116361,51134,16675.6,213244
1.144,0.00638269,24324.8,12974,6245.02,114914,50497.5,16337.8,209757
1.146,0.00640003,24227.9,12767.3,5938.74,113468,49861,16000.1,206270
1.148,0.00641737,24131,12560.5,5632.45,112021,49224.5,15662.4,202783
1.15,0.00643471,24034.1,12353.7,5326.16,110575,48587.9,15324.7,199296
1.152,0.00645205,23937.1,12146.9,5019.88,109128,47951.4,14986.9,195810
1.154,0.00646939,23840.2,11940.1,4713.57,107682,47314.9,14649.2,192322
1.156,0.00648672,23743.3,11733.3,4407.29,106235,46678.4,14311.5,188835
1.158,0.00650406,23646.4,11526.5,4101,104789,46041.9,13973.8,185348
1.16,0.0065214,23549.4,11319.7,3794.72,103342,45405.3,13636,181862
1.162,0.00653874,23452.5,11113,3488.43,101896,44768.8,13298.3,178375
1.164,0.00655608,23355.6,10906.2,3182.13,100449,44132.3,12960.6,174887
1.166,0.00657342,23258.7,10699.4,2875.84,99002.5,43495.8,12622.9,171400
1.168,0.00659076,23048.4,10563.2,2520.21,98123.4,42798.9,12326.8,168361
1.17,0.00660811,22561.1,10599.7,2044.07,98630,41954.6,12132.5,166415
1.172,0.00662546,22073.8,10636.1,1567.9,99136.7,41110.3,11938.3,164469
1.174,0.00664281,21586.5,10672.5,1091.75,99643.4,40266,11744,162523
1.176,0.00666016,21099.2,10709,615.608,100150,39421.7,11549.7,160577
1.178,0.00667755,19980.2,10398.1,245.382,99255,38470.2,10480.4,158428
1.18,0.00669505,17394.2,9280.94,121.119,95105,37270,7379.18,155806
1.182,0.00671255,14808.1,8163.67,-3.15223,90954.7,36069.7,4277.75,153184
1.184,0.00673004,12222.1,7046.48,-127.416,86804.7,34869.4,1176.5,150562
1.186,0.00674754,9636.15,5929.28,-251.679,82654.7,33669.2,-1924.74,147940
1.188,0.00676504,7050.18,4812.08,-375.942,78504.7,32468.9,-5025.99,145318
1.19,0.00678258,6999.35,4687.21,-290.564,78920.9,32450.9,-4836.29,144665
1.192,0.00680012,7527.11,4788.83,-157.346,80379.2,32702.7,-3895.51,144461
1.194,0.00681767,8054.88,4890.45,-24.1272,81837.5,32954.5,-2954.74,144256
1.196,0.00683521,8582.65,4992.07,109.091,83295.8,33206.3,-2013.96,144052
1.198,0.00685276,9110.41,5093.68,242.31,84754.1,33458.1,-1073.19,143848
1.2,0.00687031,9638.21,5195.31,375.536,86212.5,33709.9,-132.358,143644
1.202,0.00688785,10166,5296.93,508.754,87670.8,33961.7,808.416,143439
1.204,0.0069054,10693.7,5398.54,641.973,89129,34213.5,1749.19,143235
1.206,0.00692295,11221.5,5500.16,775.191,90587.3,34465.3,2689.96,143031
1.208,0.00694049,11749.3,5601.78,908.409,92045.6,34717.1,3630.74,142827
1.21,0.00695804,12277.1,5703.4,1041.64,93504,34968.9,4571.57,142622
1.212,0.00697558,12804.8,5805.02,1174.85,94962.3,35220.7,5512.34,142418
1.214,0.00699313,13332.6,5906.64,1308.07,96420.6,35472.5,6453.12,142214
1.216,0.00701069,13830.2,6343.22,1554.98,98576.1,35740.2,7990.32,142795
1.218,0.00702827,14291.2,7185.83,1939.71,101577,36027.1,10250.5,144327
1.22,0.00704585,16386.6,7995.83,2356.52,105454,36794,13164.7,146053
1.222,0.00706343,19652.6,8782.5,2796.32,109958,37904.7,16547.3,147917
1.224,0.00708102,22918.6,9569.17,3236.13,114463,39015.3,19929.9,149781
1.226,0.0070986,26184.6,10355.8,3675.93,118967,40125.9,23312.4,151645
1.228,0.00711618,29450.7,11142.6,4115.76,123472,41236.6,26695.2,153509
1.23,0.00713376,32716.7,11929.2,4555.56,127976,42347.2,30077.8,155372
1.232,0.00715138,35442.3,12349.2,4567.23,130102,43224,32460.9,155492
1.234,0.0071691,37154.7,12081.3,3775.98,127768,43662.1,32969.8,152342
1.236,0.00718681,37693.2,11789.5,3227.24,125058,43903.2,33134.5,150629
1.238,0.00720451,36941,11471.1,2945.11,121936,43927.7,32920.8,150499
1.24,0.00722221,36188.9,11152.8,2663,118815,43952.2,32707.1,150369
1.242,0.00723991,35436.7,10834.5,2380.88,115693,43976.8,32493.5,150238
1.244,0.00725761,34684.5,10516.1,2098.77,112571,44001.3,32279.8,150108
1.246,0.00727531,33932.3,10197.8,1816.64,109449,44025.8,32066.2,149978
1.248,0.00729301,33180.2,9879.44,1534.53,106328,44050.4,31852.5,149847
1.25,0.00731071,32428,9561.11,1252.42,103206,44074.9,31638.8,149717
1.252,0.00732841,31675.8,9242.78,970.308,100084,44099.4,31425.2,149587
1.254,0.00734611,30923.7,8924.45,688.196,96962.6,44123.9,31211.5,149456
1.256,0.00736381,30171.5,8606.09,406.067,93840.8,44148.5,30997.8,149326
1.258,0.00738151,29419.3,8287.76,123.955,90719.1,44173,30784.2,149196
1.26,0.00739923,29225.7,8021.1,-113.289,88786.8,44012.1,30784.2,150845
1.262,0.00741696,29216.1,7771.45,-335.757,87246.1,43790.1,30854.6,153081
1.264,0.00743468,29206.4,7521.79,-558.239,85705.4,43568.1,30924.9,155317
1.266,0.0074524,29196.8,7272.15,-780.707,84164.8,43346.1,30995.3,157553
1.268,0.00747013,29187.1,7022.5,-1003.18,82624.2,43124.1,31065.6,159789
1.27,0.00748785,29177.5,6772.85,-1225.64,81083.6,42902.2,31136,162025
1.272,0.00750558,29167.8,6523.2,-1448.11,79542.9,42680.2,31206.4,164261
1.274,0.0075233,29158.2,6273.54,-1670.59,78002.2,42458.2,31276.7,166497
1.276,0.00754111,29256,5644.73,-1855.16,77999.1,41307,31748.2,168160
1.278,0.00755894,29371.5,4953.27,-2033.46,78250.1,40002.3,32286,169729
1.28,0.00757677,29487,4261.81,-2211.76,78501,38697.5,32823.8,171297
1.282,0.00759459,29602.5,3570.35,-2390.06,78752,37392.8,33361.6,172865
1.284,0.00761242,29718,2878.85,-2568.37,79002.9,36088,33899.4,174434
1.286,0.00763025,29833.5,2187.39,-2746.68,79253.9,34783.3,34437.2,176002
1.288,0.00764808,29949,1495.93,-2924.98,79504.9,33478.6,34974.9,177570
1.29,0.0076659,30064.5,804.466,-3103.28,79755.8,32173.8,35512.7,179138
1.292,0.00768378,30251.1,729.225,-3246.25,80150.6,31573.5,35598.6,178649
1.294,0.00770168,30458.6,835.311,-3378.81,80587.8,31180.4,35551.4,177554
1.296,0.00771959,30003.2,1036.94,-3091.97,79371.6,30787.5,34547.4,176222
1.298,0.0077375,29492.5,1246.57,-2770.05,78017.1,30394.7,33463.3,174869
1.3,0.00775541,28981.7,1456.2,-2448.12,76662.6,30001.8,32379.2,173517
1.302,0.00777333,28470.9,1665.84,-2126.17,75308,29608.9,31295.1,172165
1.304,0.00779124,27960.1,1875.47,-1804.24,73953.5,29216,30211,170812
1.306,0.00780915,27449.3,2085.1,-1482.32,72599,28823.2,29127,169460
1.308,0.00782706,26938.6,2294.72,-1160.39,71244.5,28430.3,28042.9,168108
1.31,0.00784497,26427.8,2504.35,-838.46,69890,28037.4,26958.8,166755
1.312,0.00786289,25917,2713.99,-516.513,68535.4,27644.5,25874.7,165403
1.314,0.0078808,25406.2,2923.62,-194.585,67180.9,27251.7,24790.6,164050
1.316,0.00789871,24895.4,3133.25,127.343,65826.4,26858.8,23706.6,162698
1.318,0.00791662,24384.6,3342.88,449.271,64471.9,26465.9,22622.5,161346
1.32,0.00793454,23873.8,3552.52,771.218,63117.3,26073,21538.4,159993
1.322,0.00795244,23480.5,3793.87,1070.21,62481.1,25775.3,20658,158081
1.324,0.00797034,23439,4130.33,1300.47,63998.1,25762.8,20388.1,154489
1.326,0.00798824,23397.5,4466.79,1530.72,65515,25750.2,20118.3,150897
1.328,0.00800614,23356.1,4803.25,1760.98,67031.9,25737.7,19848.4,147305
1.33,0.00802404,23314.6,5139.74,1991.25,68549,25725.2,19578.5,143713
1.332,0.00804194,23273.1,5476.2,2221.51,70065.9,25712.6,19308.7,140121
1.334,0.00805983,23231.7,5812.66,2451.76,71582.9,25700.1,19038.8,136529
1.336,0.00807773,23190.2,6149.12,2682.02,73099.8,25687.6,18769,132937
1.338,0.00809563,23148.7,6485.6,2912.29,74616.8,25675,18499.1,129345
1.34,0.00811353,23107.3,6822.06,3142.54,76133.8,25662.5,18229.2,125753
1.342,0.00813145,22902.7,6893.07,3436.83,75287.6,25820.5,17942.9,122366
1.344,0.00814943,22442.8,6548.73,3831.3,70743.9,26245.5,17630.8,119298
1.346,0.0081674,21982.9,6204.38,4225.78,66200.2,26670.4,17318.8,116230
1.348,0.00818537,21523,5860.02,4620.28,61656.2,27095.4,17006.7,113162
1.35,0.00820334,21063.1,5515.68,5014.76,57112.5,27520.4,16694.6,110094
1.352,0.00822132,20603.3,5171.34,5409.23,52568.8,27945.4,16382.6,107026
1.354,0.00823929,20143.4,4826.99,5803.71,48025,28370.3,16070.5,103958
1.356,0.00825726,19683.5,4482.65,6198.19,43481.3,28795.3,15758.4,100891
1.358,0.00827523,19223.6,4138.29,6592.69,38937.3,29220.3,15446.3,97822.6
1.36,0.00829324,18965,3958.16,7010.43,36676.7,29748.4,15906.4,98076.8
1.362,0.00831127,18830,3878.94,7442.46,35818.9,30340,16841,100372
1.364,0.00832931,18695,3799.72,7874.5,34961.1,30931.5,17775.6,102668
1.366,0.00834735,18521.5,3740.26,8184.04,34351.6,31406.1,18335.2,104122
1.368,0.00836541,18272.1,3719.79,8251.79,34232,31649.7,18154.8,103915
1.37,0.00838347,18022.8,3699.33,8319.55,34112.4,31893.3,17974.3,103707
1.372,0.00840153,17773.4,3678.86,8387.3,33992.8,32136.8,17793.9,103500
1.374,0.00841959,17524,3658.39,8455.06,33873.2,32380.4,17613.4,103293
1.376,0.00843765,17274.7,3637.92,8522.82,33753.6,32624,17433,103085
1.378,0.00845571,17025.3,3617.46,8590.57,33634,32867.6,17252.5,102878
1.38,0.00847377,16775.9,3596.99,8658.33,33514.4,33111.2,17072.1,102671
1.382,0.00849183,16526.6,3576.52,8726.08,33394.8,33354.8,16891.7,102464
1.384,0.00850989,16277.2,3556.05,8793.83,33275.2,33598.4,16711.2,102256
1.386,0.00852795,16027.8,3535.58,8861.59,33155.6,33842,16530.8,102049
1.388,0.00854601,15778.5,3515.12,8929.35,33036,34085.6,16350.3,101842
1.39,0.00856407,15529.1,3494.65,8997.1,32916.4,34329.2,16169.9,101634
1.392,0.00858213,15279.7,3474.18,9064.86,32796.8,34572.8,15989.4,101427
1.394,0.00860019,15093,3452.03,9089.03,32806,34769.6,15788.6,101067
1.396,0.00861832,15427.7,3415.91,8750.44,33887.6,34576.5,15417.8,99435.3
1.398,0.00863644,15762.3,3379.79,8411.85,34969.1,34383.4,15047,97803.7
1.4,0.00865456,16097,3343.67,8073.25,36050.7,34190.3,14676.2,96172
1.402,0.0086727,16429.2,3532.08,7228.48,38923.1,33951.3,15125,97937.2
1.404,0.00869085,16761.1,3750.75,6315.44,42037,33706,15684.2,100160
1.406,0.008709,17092.9,3969.42,5402.45,45150.7,33460.8,16243.5,102383
1.408,0.00872714,17424.8,4188.08,4489.45,48264.5,33215.5,16802.7,104607
1.41,0.00874529,17756.7,4406.75,3576.46,51378.2,32970.3,17361.9,106830
1.412,0.00876343,18088.6,4625.41,2663.47,54492,32725.1,17921.2,109053
1.414,0.00878158,18420.4,4844.09,1750.43,57605.9,32479.8,18480.4,111276
1.416,0.00879976,18535.2,4960.84,1200.94,58823.1,32191.3,18688.7,112084
1.418,0.00881795,18476.1,4996.02,942.394,58522.5,31868.1,18616.1,111760
1.42,0.00883615,18417.1,5031.2,683.846,58221.8,31544.9,18543.5,111436
1.422,0.00885435,18358,5066.39,425.282,57921.1,31221.6,18470.9,111112
1.424,0.00887255,18299,5101.57,166.733,57620.5,30898.4,18398.3,110788
1.426,0.00889075,18239.9,5136.75,-91.8152,57319.8,30575.2,18325.7,110465
1.428,0.00890895,18013.3,5124.63,-355.252,56539.1,30190.8,18166,109766
1.43,0.00892713,17354.1,4990.35,-631.311,54518.8,29648.5,17781.1,108099
1.432,0.00894532,16694.8,4856.06,-907.388,52498.4,29106.2,17396.1,106432
1.434,0.00896351,16035.5,4721.78,-1183.45,50478.1,28563.9,17011.2,104765
1.436,0.0089817,15376.3,4587.5,-1459.51,48457.8,28021.6,16626.3,103098
1.438,0.00899988,14717,4453.21,-1735.57,46437.5,27479.3,16241.4,101431
1.44,0.00901807,14057.8,4318.93,-2011.64,44417.1,26937,15856.5,99764.3
1.442,0.00903626,13398.5,4184.64,-2287.7,42396.8,26394.7,15471.6,98097.5
1.444,0.00905444,12771.3,4066.58,-2550.34,40546.3,25867,15098.6,96500.3
1.446,0.00907263,12583.3,4170.96,-2628.92,41022.6,25539.9,14889.1,95859.4
1.448,0.00909082,12395.3,4275.34,-2707.51,41499,25212.9,14679.5,95218.5
1.45,0.00910901,12207.3,4379.72,-2786.1,41975.4,24885.8,14470,94577.5
1.452,0.00912719,12019.4,4484.1,-2864.68,42451.8,24558.7,14260.4,93936.6
1.454,0.00914538,11831.4,4588.47,-2943.26,42928.2,24231.6,14050.9,93295.6
1.456,0.00916357,11643.4,4692.85,-3021.85,43404.6,23904.5,13841.4,92654.7
1.458,0.00918176,11455.4,4797.22,-3100.43,43881,23577.5,13631.8,92013.8
1.46,0.00919995,11267.4,4901.61,-3179.02,44357.4,23250.4,13422.3,91372.8
1.462,0.00921813,11079.5,5005.98,-3257.6,44833.8,22923.3,13212.7,90731.9
1.464,0.00923632,10891.5,5110.36,-3336.19,45310.2,22596.2,13003.2,90090.9
1.466,0.00925451,10703.5,5214.73,-3414.77,45786.6,22269.1,12793.7,89450
1.468,0.0092727,10515.5,5319.12,-3493.36,46263,21942,12584.1,88809
1.47,0.00929089,10327.5,5423.49,-3571.94,46739.4,21615,12374.6,88168.1
1.472,0.00930907,10139.5,5527.87,-3650.53,47215.8,21287.9,12165.1,87527.2
1.474,0.00932726,9951.56,5632.24,-3729.11,47692.2,20960.8,11955.5,86886.3
1.476,0.00934545,9763.58,5736.62,-3807.69,48168.6,20633.7,11746,86245.3
1.478,0.00936364,9575.59,5841,-3886.28,48645,20306.6,11536.4,85604.4
1.48,0.00938186,9358.03,5680.83,-3513.25,47610.9,20394.9,10981.2,84503.2
1.482,0.0094001,9119.21,5330.56,-2815.68,45491.3,20781.7,10177.4,83071.4
1.484,0.00941834,8880.39,4980.28,-2118.1,43371.7,21168.4,9373.66,81639.6
1.486,0.00943659,8641.58,4630,-1420.52,41252.2,21555.2,8569.91,80207.7
1.488,0.00945483,8402.75,4279.71,-722.906,39132.5,21942,7766.12,78775.8
1.49,0.00947307,8163.93,3929.43,-25.3293,37012.9,22328.7,6962.37,77344
1.492,0.00949132,7925.11,3579.15,672.247,34893.3,22715.5,6158.63,75912.1
1.494,0.00950956,7686.3,3228.88,1369.82,32773.7,23102.2,5354.88,74480.3
1.496,0.00952782,7519.3,3113.52,2043.94,32343.5,23203.2,4833.55,74274.2
1.498,0.0095461,7397.81,3146.98,2703.14,32983.5,23123.2,4491.17,74844.7
1.5,0.00956437,7276.32,3180.45,3362.33,33623.6,23043.2,4148.79,75415.1
1.502,0.00958265,7154.83,3213.92,4021.52,34263.6,22963.2,3806.41,75985.5
1.504,0.00960093,7040.01,3256.2,4641.92,34903.2,22873.3,3480.58,76447.1
1.506,0.00961925,7051.09,3464.68,4531.15,35534,22596.2,3466.76,74856.3
1.508,0.00963758,7062.16,3673.15,4420.39,36164.9,22319.1,3452.94,73265.5
1.51,0.0096559,7073.23,3881.61,4309.62,36795.7,22042,3439.12,71674.8
1.512,0.00967423,7084.31,4090.08,4198.86,37426.5,21764.9,3425.3,70084
1.514,0.00969255,7095.38,4298.56,4088.08,38057.4,21487.9,3411.48,68493.2
1.516,0.00971087,7052.97,4312.81,3898.71,37241.1,21272.1,3740.57,67178.4
1.518,0.00972917,7000.36,4289.99,3694.33,36148.7,21068.1,4135.12,65916.2
1.52,0.00974748,6947.75,4267.17,3489.95,35056.3,20864,4529.66,64654
1.522,0.00976579,6895.13,4244.35,3285.56,33963.8,20660,4924.2,63391.8
1.524,0.0097841,6842.52,4221.53,3081.17,32871.3,20456,5318.77,62129.6
1.526,0.00980241,6789.9,4198.71,2876.79,31778.9,20251.9,5713.31,60867.4
1.528,0.00982072,6737.29,4175.89,2672.41,30686.5,20047.9,6107.86,59605.2
1.53,0.00983902,6684.68,4153.07,2468.03,29594,19843.9,6502.4,58343
1.532,0.00985733,6638.7,4138.58,2274.13,28585,19639.5,6859.02,57133.8
1.534,0.00987563,6696.33,4253.97,2243.72,28877.2,19429.5,6623.83,56751.5
1.536,0.00989393,6753.95,4369.36,2213.31,29169.4,19219.6,6388.65,56369.1
1.538,0.00991223,6811.56,4484.75,2182.9,29461.5,19009.7,6153.47,55986.8
1.54,0.00993053,6869.18,4600.14,2152.49,29753.7,18799.8,5918.29,55604.4
1.542,0.00994883,6926.81,4715.54,2122.08,30045.9,18589.9,5683.1,55222.1
1.544,0.00996713,6984.42,4830.93,2091.67,30338,18379.9,5447.93,54839.7
1.546,0.00998543,7042.04,4946.32,2061.27,30630.2,18170,5212.75,54457.4
1.548,0.0100037,7099.66,5061.71,2030.86,30922.4,17960.1,4977.57,54075
1.55,0.010022,7157.28,5177.09,2000.45,31214.5,17750.2,4742.39,53692.7
1.552,0.0100403,7214.9,5292.49,1970.04,31506.7,17540.2,4507.2,53310.3
1.554,0.0100587,7215.2,5311.23,2052.69,31501.4,17460.4,4645.87,53247.5
1.556,0.010077,7181.82,5273.21,2201.73,31321.4,17456.9,5004.1,53372.4
1.558,0.0100954,7148.45,5235.19,2350.78,31141.5,17453.4,5362.33,53497.2
1.56,0.0101137,7115.07,5197.17,2499.82,30961.5,17449.9,5720.56,53622.1
1.562,0.0101321,7081.7,5159.15,2648.87,30781.5,17446.5,6078.82,53746.9
1.564,0.0101504,7048.32,5121.13,2797.92,30601.5,17443,6437.05,53871.8
1.566,0.0101688,7014.95,5083.11,2946.96,30421.5,17439.5,6795.28,53996.6
1.568,0.0101871,6981.57,5045.09,3096.01,30241.5,17436,7153.51,54121.5
1.57,0.0102055,6948.2,5007.07,3245.06,30061.5,17432.5,7511.77,54246.3
1.572,0.0102238,6914.82,4969.05,3394.11,29881.5,17429.1,7870,54371.2
1.574,0.0102422,6881.45,4931.03,3543.15,29701.5,17425.6,8228.23,54496
1.576,0.0102605,6978.3,4881.08,3874.75,29558.2,17355.5,8400.49,54440
1.578,0.0102789,7185.62,4821,4361.2,29445.9,17228.8,8415.02,54230.7
1.58,0.0102972,7392.96,4760.92,4847.67,29333.6,17102.2,8429.54,54021.3
1.582,0.0103156,7600.27,4700.85,5334.12,29221.3,16975.5,8444.07,53812
1.584,0.010334,7807.59,4640.77,5820.56,29109,16848.9,8458.59,53602.6
1.586,0.0103524,8014.91,4580.7,6307.01,28996.7,16722.3,8473.12,53393.3
1.588,0.0103707,8222.24,4520.62,6793.48,28884.4,16595.6,8487.64,53183.9
1.59,0.0103891,8429.56,4460.54,7279.93,28772.1,16469,8502.17,52974.6
1.592,0.0104075,8636.88,4400.47,7766.38,28659.8,16342.3,8516.69,52765.2
1.594,0.0104258,8676.61,4352.77,7762.07,28458.9,16311.2,8644.44,52779.9
1.596,0.0104442,8680.46,4307.71,7652.72,28239,16300.5,8796.43,52842.6
1.598,0.0104626,8684.31,4262.66,7543.37,28019.2,16289.8,8948.42,52905.2
1.6,0.010481,8688.17,4217.61,7434.03,27799.3,16279.1,9100.41,52967.8
1.602,0.0104993,8692.02,4172.56,7324.69,27579.4,16268.3,9252.4,53030.5
1.604,0.0105177,8695.87,4127.51,7215.35,27359.5,16257.6,9404.38,53093.1
1.606,0.0105361,8460.92,4095.31,7023.61,26181.9,16135.1,9221.18,52250.5
1.608,0.0105545,8066.98,4071.68,6777,24366.5,15938.1,8814.82,50805.2
1.61,0.0105729,7673.05,4048.05,6530.41,22551.2,15741.1,8408.48,49359.9
1.612,0.0105913,7279.12,4024.42,6283.82,20735.9,15544.1,8002.15,47914.7
1.614,0.0106097,6885.2,4000.79,6037.23,18920.6,15347.1,7595.81,46469.4
1.616,0.0106281,6491.25,3977.16,5790.63,17105.2,15150.1,7189.45,45024.1
1.618,0.0106465,6097.32,3953.53,5544.04,15289.9,14953.1,6783.11,43578.8
1.62,0.0106649,5703.4,3929.9,5297.45,13474.7,14756.1,6376.77,42133.5
1.622,0.0106833,5568,3916.34,5113.15,12565.7,14635.9,6198.08,41298.2
1.624,0.0107017,5725.12,3914.16,4999.35,12682.1,14602.5,6276.96,41153.1
1.626,0.0107201,5882.24,3911.98,4885.54,12798.6,14569.1,6355.85,41007.9
1.628,0.0107385,6039.36,3909.8,4771.74,12915,14535.7,6434.73,40862.7
1.63,0.0107569,6196.48,3907.63,4657.94,13031.5,14502.3,6513.61,40717.6
1.632,0.0107753,6353.6,3905.45,4544.13,13148,14469,6592.5,40572.4
1.634,0.0107937,6510.72,3903.27,4430.33,13264.4,14435.6,6671.38,40427.3
1.636,0.0108121,6667.84,3901.09,4316.52,13380.9,14402.2,6750.26,40282.1
1.638,0.0108305,6824.96,3898.91,4202.72,13497.3,14368.8,6829.15,40136.9
1.64,0.0108489,6982.08,3896.74,4088.92,13613.8,14335.4,6908.03,39991.8
1.642,0.0108673,7139.2,3894.56,3975.11,13730.2,14302.1,6986.91,39846.6
1.644,0.0108857,7296.33,3892.38,3861.3,13846.7,14268.7,7065.8,39701.5
1.646,0.0109041,7453.44,3890.2,3747.5,13963.2,14235.3,7144.68,39556.3
1.648,0.0109225,7610.56,3888.03,3633.7,14079.6,14201.9,7223.56,39411.1
1.65,0.0109409,7767.68,3885.85,3519.9,14196.1,14168.5,7302.45,39266
1.652,0.0109593,7924.8,3883.67,3406.09,14312.5,14135.2,7381.33,39120.8
1.654,0.0109777,8081.93,3881.49,3292.28,14429,14101.8,7460.21,38975.6
1.656,0.0109961,8168.36,3923.3,3143.96,14559.9,14060.6,7566.76,38721.6
1.658,0.0110145,8189.64,3784.76,2808.35,14021.2,14069.1,7644.34,38155.9
1.66,0.011033,8057.84,3552.39,2544.83,13191.2,14072.7,7483.38,37461.9
1.662,0.0110514,7926.05,3320.02,2281.32,12361.2,14076.2,7322.42,36767.9
1.664,0.0110698,7794.25,3087.63,2017.79,11531.2,14079.7,7161.44,36073.9
1.666,0.0110883,7662.46,2855.26,1754.27,10701.3,14083.2,7000.48,35379.9
1.668,0.0111067,7530.67,2622.88,1490.76,9871.28,14086.8,6839.52,34685.9
1.67,0.0111251,7398.88,2390.51,1227.24,9041.3,14090.3,6678.55,33991.9
1.672,0.0111436,7267.08,2158.12,963.711,8211.28,14093.8,6517.58,33297.8
1.674,0.011162,7135.29,1925.75,700.196,7381.31,14097.4,6356.62,32603.8
1.676,0.0111804,6730.74,1526.15,565.164,6032.29,14092,5770.56,31681.3
1.678,0.0111988,6804.24,1407.55,478.879,5773.95,14067.6,5705.06,31901.2
1.68,0.0112173,6892.81,1297.94,391.101,5547.99,14043,5658.44,32148.9
1.682,0.0112357,6981.39,1188.33,303.318,5322.02,14018.4,5611.82,32396.6
1.684,0.0112541,7069.96,1078.72,215.541,5096.06,13993.8,5565.21,32644.3
1.686,0.0112726,7158.53,969.115,127.763,4870.09,13969.2,5518.6,32892
1.688,0.011291,7247.18,851.465,35.4538,4689.19,13923.8,5475.07,33176.2
1.69,0.0113094,7335.89,729.353,-59.3714,4533.23,13866.9,5433.26,33480.7
1.692,0.0113279,7424.6,607.248,-154.191,4377.29,13810.1,5391.46,33785.1
1.694,0.0113463,7513.3,485.144,-249.011,4221.34,13753.2,5349.65,34089.6
1.696,0.0113647,7602,363.039,-343.83,4065.39,13696.4,5307.84,34394.1
1.698,0.0113831,7690.71,240.935,-438.65,3909.44,13639.5,5266.03,34698.5
1.7,0.0114016,7779.41,118.823,-533.475,3753.49,13582.6,5224.22,35003
1.702,0.01142,7868.12,-3.28159,-628.294,3597.54,13525.8,5182.41,35307.5
1.704,0.0114384,7956.82,-125.386,-723.114,3441.59,13468.9,5140.61,35612
1.706,0.0114569,8045.53,-247.491,-817.934,3285.64,13412,5098.8,35916.4
1.708,0.0114753,8120.44,-346.485,-902.221,3138.83,13370.3,5046.6,36167.3
1.71,0.0114937,8127.52,-331.761,-934.686,3036.94,13403.1,4943.29,36154.2
1.712,0.0115122,8149.81,-298.878,-968.835,2974.56,13422.4,4868.4,36156.6
1.714,0.0115306,8250.42,-172.485,-1011.67,3115.58,13372.6,4939.84,36238.8
1.716,0.0115491,8351.04,-46.0927,-1054.5,3256.61,13322.7,5011.28,36321
1.718,0.0115675,8451.67,80.3073,-1097.34,3397.63,13272.9,5082.72,36403.2
1.72,0.011586,8552.29,206.7,-1140.17,3538.66,13223,5154.16,36485.4
1.722,0.0116044,8652.9,333.092,-1183,3679.68,13173.1,5225.6,36567.6
1.724,0.0116229,8753.52,459.485,-1225.84,3820.7,13123.3,5297.04,36649.8
1.726,0.0116413,8835.44,582.361,-1266.96,3972.05,13071,5354.76,36685.7
1.728,0.0116598,8715.38,667.263,-1289.56,4235.02,12992.3,5264.33,36221.8
1.73,0.0116783,8595.32,752.16,-1312.17,4497.98,12913.6,5173.9,35757.9
1.732,0.0116967,8475.27,837.057,-1334.77,4760.94,12834.9,5083.48,35294
1.734,0.0117152,8355.21,921.954,-1357.37,5023.89,12756.2,4993.05,34830.1
1.736,0.0117336,8235.15,1006.85,-1379.98,5286.85,12677.5,4902.62,34366.2
1.738,0.0117521,8115.09,1091.75,-1402.58,5549.82,12598.8,4812.19,33902.3
1.74,0.0117705,7995.03,1176.65,-1425.19,5812.78,12520.1,4721.77,33438.4
1.742,0.011789,7874.98,1261.55,-1447.79,6075.73,12441.4,4631.34,32974.5
1.744,0.0118074,7754.92,1346.44,-1470.4,6338.69,12362.7,4540.91,32510.6
1.746,0.0118259,7634.86,1431.35,-1493,6601.66,12284,4450.48,32046.7
1.748,0.0118443,7514.8,1516.24,-1515.61,6864.62,12205.3,4360.06,31582.8
1.75,0.0118628,7394.74,1601.14,-1538.21,7127.57,12126.6,4269.63,31118.9
1.752,0.0118812,7274.69,1686.04,-1560.81,7390.53,12047.9,4179.2,30655.1
1.754,0.0118997,7154.63,1770.93,-1583.42,7653.48,11969.1,4088.78,30191.2
1.756,0.0119182,7034.57,1855.83,-1606.02,7916.46,11890.4,3998.35,29727.3
1.758,0.0119366,6907.94,1936.48,-1629.82,8157.08,11811.2,3909.78,29269.3
1.76,0.0119551,6580.11,1886.9,-1690.14,7714.24,11715.9,3878.17,28993.5
1.762,0.0119735,6226.61,1830.26,-1725.15,7245.15,11565,3783.78,28667.6
1.764,0.011992,5837.61,1763.89,-1725.2,6739.79,11337.1,3602.68,28272.7
1.766,0.0120104,5448.63,1697.52,-1725.25,6234.46,11109.3,3421.59,27877.8
1.768,0.0120289,5059.65,1631.15,-1725.29,5729.13,10881.5,3240.51,27483
1.77,0.0120474,4670.67,1564.79,-1725.34,5223.8,10653.6,3059.42,27088.1
1.772,0.0120658,4281.7,1498.42,-1725.39,4718.47,10425.8,2878.34,26693.2
1.774,0.0120843,3892.7,1432.05,-1725.44,4213.11,10198,2697.24,26298.3
1.776,0.0121028,3760.59,1488.11,-1711.6,4186.37,10045,2715.91,25933.5
1.778,0.0121212,3682.42,1569.88,-1694.86,4260.12,9907.77,2776.52,25575
1.78,0.0121397,3604.25,1651.65,-1678.11,4333.88,9770.54,2837.14,25216.6
1.782,0.0121581,3526.08,1733.42,-1661.36,4407.63,9633.31,2897.75,24858.1
1.784,0.0121766,3445.96,1810.35,-1637.22,4496.07,9492.61,2961.36,24505.9
1.786,0.0121951,3359.37,1871.13,-1588.42,4633.48,9340.35,3034.92,24174.4
1.788,0.0122135,3272.77,1931.9,-1539.62,4770.88,9188.09,3108.47,23842.8
1.79,0.012232,3186.17,1992.67,-1490.83,4908.29,9035.84,3182.03,23511.3
1.792,0.0122504,3099.57,2053.44,-1442.03,5045.7,8883.57,3255.6,23179.8
1.794,0.0122689,3012.98,2114.21,-1393.23,5183.11,8731.31,3329.15,22848.3
1.796,0.0122874,2926.38,2174.98,-1344.43,5320.52,8579.06,3402.71,22516.8
1.798,0.0123058,2839.79,2235.76,-1295.63,5457.92,8426.8,3476.27,22185.3
1.8,0.0123243,2753.19,2296.53,-1246.84,5595.33,8274.54,3549.83,21853.8
1.802,0.0123428,2666.59,2357.3,-1198.04,5732.75,8122.28,3623.39,21522.2
1.804,0.0123612,2580,2418.07,-1149.24,5870.15,7970.02,3696.95,21190.7
1.806,0.0123797,2493.4,2478.84,-1100.44,6007.56,7817.76,3770.51,20859.2
1.808,0.0123981,2410.83,2491.36,-1057.34,5743.34,7690.72,3678.8,20469.5
1.81,0.0124166,2332.83,2448.93,-1020.71,5021.78,7592.4,3398.89,20013.4
1.812,0.0124351,2254.83,2406.49,-984.09,4300.17,7494.08,3118.96,19557.3
1.814,0.0124536,2176.84,2364.06,-947.468,3578.6,7395.75,2839.05,19101.3
1.816,0.012472,2098.84,2321.62,-910.845,2857.03,7297.43,2559.14,18645.2
1.818,0.0124905,2020.85,2279.19,-874.223,2135.46,7199.11,2279.23,18189.1
1.82,0.012509,1942.85,2236.75,-837.598,1413.85,7100.78,1999.31,17733.1
1.822,0.0125275,1864.85,2194.32,-800.976,692.283,7002.46,1719.4,17277
1.824,0.0125459,1794.49,2161.46,-776.871,96.3887,6911.87,1476.76,16872.8
1.826,0.0125644,1764.34,2179.03,-818.672,162.222,6861.96,1430.39,16741.6
1.828,0.0125829,1734.19,2196.59,-860.474,228.055,6812.05,1384.01,16610.3
1.83,0.0126014,1704.03,2214.15,-902.278,293.892,6762.14,1337.64,16479.1
1.832,0.0126198,1673.88,2231.71,-944.08,359.725,6712.24,1291.26,16347.9
1.834,0.0126383,1643.73,2249.28,-985.882,425.558,6662.33,1244.89,16216.7
1.836,0.0126568,1613.58,2266.84,-1027.68,491.391,6612.43,1198.51,16085.5
1.838,0.0126753,1583.42,2284.4,-1069.49,557.228,6562.52,1152.14,15954.2
1.84,0.0126937,1553.27,2301.96,-1111.29,623.061,6512.61,1105.76,15823
1.842,0.0127122,1539.02,2319.55,-1145.15,773.459,6470.69,1079.45,15755.8
1.844,0.0127307,1606.85,2337.28,-1138.03,1360.28,6469.97,1156.65,16019
1.846,0.0127492,1674.68,2355.01,-1130.9,1947.09,6469.24,1233.86,16282.3
1.848,0.0127676,1742.51,2372.74,-1123.78,2533.94,6468.52,1311.07,16545.5
1.85,0.0127861,1810.34,2390.47,-1116.66,3120.76,6467.8,1388.28,16808.7
1.852,0.0128046,1911.02,2276.02,-1163.09,3122.73,6449.6,1421.56,16618.2
1.854,0.0128231,2031.23,2083.03,-1241.35,2777.22,6421.01,1428.74,16158.1
1.856,0.0128415,2151.44,1890.05,-1319.6,2431.71,6392.42,1435.92,15698
1.858,0.01286,2271.66,1697.05,-1397.86,2086.18,6363.82,1443.11,15237.9
1.86,0.0128785,2492.51,1617.48,-1415.69,2367.48,6278.43,1735.06,15088.5
1.862,0.012897,2722.01,1547.64,-1428.34,2702.64,6188.16,2051.47,14965.9
1.864,0.0129154,2951.51,1477.8,-1440.99,3037.79,6097.89,2367.89,14843.3
1.866,0.0129339,3181.02,1407.96,-1453.64,3372.96,6007.62,2684.32,14720.7
1.868,0.0129524,3243.78,1357.93,-1385.91,3324.19,5888.71,2755.69,14477.9
1.87,0.0129709,3253.26,1314.22,-1292.49,3152.76,5760.66,2748.77,14196.7
1.872,0.0129894,3262.74,1270.51,-1199.08,2981.32,5632.6,2741.84,13915.5
1.874,0.0130078,3272.23,1226.79,-1105.67,2809.88,5504.55,2734.92,13634.3
1.876,0.0130263,3281.71,1183.08,-1012.25,2638.43,5376.48,2728,13353.1
1.878,0.0130448,3345.87,1141.55,-964.842,2638.7,5310.82,2727.01,13237.1
1.88,0.0130633,3414.76,1100.22,-921.422,2653.85,5250.57,2726.54,13135.4
1.882,0.0130818,3483.66,1058.88,-878.002,2669.01,5190.33,2726.08,13033.8
1.884,0.0131002,3552.56,1017.54,-834.583,2684.16,5130.08,2725.61,12932.1
1.886,0.0131187,3621.46,976.201,-791.16,2699.32,5069.83,2725.14,12830.4
1.888,0.0131372,3690.36,934.863,-747.74,2714.48,5009.58,2724.67,12728.7
1.89,0.0131557,3759.25,893.525,-704.32,2729.63,4949.33,2724.2,12627
1.892,0.0131742,3828.15,852.188,-660.901,2744.79,4889.08,2723.73,12525.3
1.894,0.0131926,3897.05,810.847,-617.478,2759.94,4828.83,2723.27,12423.7
1.896,0.0132111,3965.95,769.51,-574.058,2775.1,4768.58,2722.8,12322
1.898,0.0132296,4034.84,728.172,-530.638,2790.25,4708.33,2722.33,12220.3
1.9,0.0132481,4103.74,686.834,-487.219,2805.41,4648.08,2721.86,12118.6
1.902,0.0132666,4172.64,645.496,-443.799,2820.56,4587.83,2721.39,12016.9
1.904,0.0132851,4241.54,604.156,-400.376,2835.72,4527.58,2720.93,11915.2
1.906,0.0133035,4310.44,562.818,-356.956,2850.88,4467.33,2720.46,11813.6
1.908,0.013322,4379.33,521.48,-313.537,2866.03,4407.08,2719.99,11711.9
1.91,0.0133405,4448.23,480.142,-270.117,2881.19,4346.84,2719.52,11610.2
1.912,0.013359,4515.01,471.561,-237.392,2935.11,4268.1,2731.4,11517.9
1.914,0.0133775,4581.72,464.29,-205.093,2990.6,4188.63,2743.78,11426
1.916,0.013396,4648.42,457.018,-172.796,3046.07,4109.16,2756.15,11334.2
1.918,0.0134144,4715.12,449.747,-140.499,3101.55,4029.69,2768.53,11242.3
1.92,0.0134329,4781.82,442.476,-108.202,3157.03,3950.22,2780.9,11150.4
1.922,0.0134514,4848.52,435.204,-75.9026,3212.51,3870.75,2793.28,11058.5
1.924,0.0134699,4915.22,427.933,-43.6054,3267.99,3791.28,2805.66,10966.6
1.926,0.0134884,4981.92,420.661,-11.3083,3323.47,3711.81,2818.03,10874.7
1.928,0.0135068,5048.62,413.39,20.9888,3378.95,3632.34,2830.41,10782.8
1.93,0.0135253,5115.32,406.119,53.2859,3434.43,3552.87,2842.78,10691
1.932,0.0135438,5182.02,398.847,85.585,3489.91,3473.39,2855.16,10599.1
1.934,0.0135623,5216.4,408.504,123.397,3541.08,3412.18,2860.82,10515.6
1.936,0.0135808,5231.13,428.452,164.562,3589.65,3362.06,2862.41,10437.3
1.938,0.0135992,5245.87,448.401,205.727,3638.21,3311.94,2864,10359
1.94,0.0136177,5260.6,468.35,246.894,3686.78,3261.81,2865.58,10280.6
1.942,0.0136362,5291.88,533.089,301.864,3610.65,3194.96,2850.03,10199.2
1.944,0.0136547,5331.31,619.89,363.635,3473.1,3119.86,2826.04,10116.1
1.946,0.0136732,5370.73,706.692,425.405,3335.54,3044.76,2802.04,10033.1
1.948,0.0136916,5410.16,793.494,487.175,3197.99,2969.66,2778.05,9950.06
1.95,0.0137101,5449.59,880.301,548.95,3060.43,2894.56,2754.05,9867.02
1.952,0.0137286,5489.02,967.103,610.72,2922.87,2819.46,2730.06,9783.98
1.954,0.0137471,5528.45,1053.91,672.49,2785.32,2744.36,2706.06,9700.95
1.956,0.0137656,5567.88,1140.71,734.261,2647.77,2669.27,2682.07,9617.91
1.958,0.0137841,5607.31,1227.51,796.031,2510.21,2594.17,2658.08,9534.88
1.96,0.0138025,5646.74,1314.32,857.805,2372.65,2519.06,2634.08,9451.83
1.962,0.013821,5679.69,1400.71,922.467,2263.24,2444.1,2612.55,9364.75
1.964,0.0138395,5678.58,1484.95,1002.32,2301.74,2369.84,2604.01,9256.4
1.966,0.013858,5677.47,1569.2,1082.18,2340.24,2295.58,2595.46,9148.04
1.968,0.0138765,5676.36,1653.45,1162.04,2378.74,2221.32,2586.91,9039.68
1.97,0.013895,5675.25,1737.69,1241.9,2417.24,2147.06,2578.37,8931.32
1.972,0.0139135,5674.13,1821.94,1321.76,2455.74,2072.8,2569.82,8822.97
1.974,0.0139319,5673.02,1906.18,1401.61,2494.24,1998.54,2561.27,8714.61
1.976,0.0139504,5667.3,1928.88,1413.77,2417.81,1968.51,2535.15,8634.74
1.978,0.0139689,5659.91,1929.18,1401.29,2299.53,1954.58,2502.63,8565.23
1.98,0.0139874,5652.51,1929.48,1388.8,2181.25,1940.65,2470.1,8495.73
1.982,0.0140059,5645.12,1929.78,1376.31,2062.97,1926.72,2437.58,8426.22
1.984,0.0140244,5637.72,1930.08,1363.83,1944.7,1912.8,2405.06,8356.72
1.986,0.0140428,5630.32,1930.38,1351.34,1826.42,1898.87,2372.53,8287.22
1.988,0.0140613,5663.57,1887.72,1361.23,1747.21,1878.54,2352.37,8212.29
1.99,0.0140798,5799.41,1736.61,1427.61,1766.61,1842.05,2363.39,8123.71
1.992,0.0140983,5935.24,1585.5,1493.99,1786.01,1805.56,2374.4,8035.12
1.994,0.0141168,6071.08,1434.39,1560.36,1805.42,1769.07,2385.42,7946.53
1.996,0.0141353,6206.92,1283.27,1626.74,1824.82,1732.58,2396.44,7857.94
1.998,0.0141537,6342.75,1132.17,1693.12,1844.23,1696.09,2407.46,7769.35
2,0.0141722,6478.59,981.057,1759.49,1863.63,1659.6,2418.48,7680.76
