"arc_length","Displacement_Magnitude","Sxx","Sxy","Sxz","Syy","Syz","Szz","Von_Mises_Stress"
0,0,1.20623e+06,-68775.1,-6292.91,2.42739e+06,484712,1.0387e+06,1.56623e+06
0.002,1.85112e-06,1.14608e+06,-62779.5,-5426.85,2.33808e+06,454403,958311,1.52874e+06
0.004,3.00411e-06,1.1134e+06,-60258.7,-4390.2,2.28198e+06,436927,919765,1.5035e+06
0.006,3.97374e-06,1.08969e+06,-58872.9,-3297.83,2.23672e+06,423643,894888,1.48226e+06
0.008,4.96692e-06,1.06598e+06,-57487.2,-2205.45,2.19146e+06,410359,870010,1.46102e+06
0.01,5.97191e-06,1.04227e+06,-56101.5,-1113.07,2.1462e+06,397075,845132,1.43978e+06
0.012,6.98362e-06,1.01855e+06,-54715.8,-20.6982,2.10094e+06,383791,820254,1.41854e+06
0.014,7.9995e-06,994842,-53330.1,1071.68,2.05568e+06,370507,795377,1.3973e+06
0.016,8.98402e-06,971122,-51528.8,2309.12,2.00928e+06,358192,771923,1.37628e+06
0.018,9.88403e-06,947377,-48679.8,3912.28,1.95999e+06,348322,752062,1.35582e+06
0.02,1.07849e-05,923632,-45830.8,5515.44,1.91071e+06,338451,732200,1.33536e+06
0.022,1.16864e-05,899888,-42981.8,7118.6,1.86142e+06,328581,712339,1.3149e+06
0.024,1.25884e-05,876143,-40132.8,8721.75,1.81214e+06,318711,692478,1.29444e+06
0.026,1.34909e-05,852399,-37283.8,10324.9,1.76285e+06,308840,672616,1.27398e+06
0.028,1.43936e-05,828654,-34434.8,11928.1,1.71357e+06,298970,652755,1.25351e+06
0.03,1.52967e-05,804910,-31585.8,13531.2,1.66428e+06,289099,632893,1.23305e+06
0.032,1.62e-05,781165,-28736.8,15134.4,1.615e+06,279229,613032,1.21259e+06
0.034,1.71034e-05,757421,-25887.8,16737.6,1.56571e+06,269359,593170,1.19213e+06
0.036,1.80071e-05,733676,-23038.8,18340.7,1.51643e+06,259488,573309,1.17167e+06
0.038,1.89108e-05,709932,-20189.8,19943.9,1.46714e+06,249618,553447,1.15121e+06
0.04,1.98147e-05,686187,-17340.8,21547,1.41785e+06,239748,533586,1.13075e+06
0.042,2.07187e-05,662443,-14491.8,23150.2,1.36857e+06,229877,513724,1.11028e+06
0.044,2.16228e-05,638698,-11642.8,24753.3,1.31928e+06,220007,493863,1.08982e+06
0.046,2.2527e-05,614954,-8793.83,26356.5,1.27e+06,210136,474001,1.06936e+06
0.048,2.34312e-05,591209,-5944.83,27959.7,1.22071e+06,200266,454140,1.0489e+06
0.05,2.53575e-05,563912,-3808.43,30453.1,1.18574e+06,194782,422315,1.04856e+06
0.052,2.76539e-05,535335,-1929.02,33267.6,1.15594e+06,190880,386176,1.05547e+06
0.054,2.99518e-05,506757,-49.6155,36082.1,1.12613e+06,186977,350037,1.06239e+06
0.056,3.22508e-05,478179,1829.79,38896.6,1.09632e+06,183075,313898,1.0693e+06
0.058,3.45507e-05,449601,3709.19,41711.1,1.06651e+06,179173,277760,1.07622e+06
0.06,3.68514e-05,421023,5588.6,44525.6,1.03671e+06,175271,241621,1.08313e+06
0.062,3.91526e-05,392446,7468,47340.1,1.0069e+06,171368,205482,1.09005e+06
0.064,4.13727e-05,388435,6842.57,47401.4,1.00079e+06,174822,203003,1.09205e+06
0.066,4.36198e-05,386212,6034.91,47262.4,996401,178811,202974,1.0937e+06
0.068,4.58961e-05,383989,5227.24,47123.4,992014,182799,202944,1.09535e+06
0.07,4.81975e-05,381765,4419.58,46984.5,987628,186788,202914,1.097e+06
0.072,5.05153e-05,376751,1865.88,47168.8,979260,185694,192203,1.0967e+06
0.074,5.28435e-05,371286,-969.524,47405.2,970251,183779,179767,1.09608e+06
0.076,5.51808e-05,365822,-3804.91,47641.7,961242,181864,167332,1.09547e+06
0.078,5.75263e-05,360357,-6640.31,47878.2,952232,179950,154897,1.09486e+06
0.08,5.98788e-05,354893,-9475.7,48114.6,943223,178035,142462,1.09424e+06
0.082,6.22377e-05,349428,-12311.1,48351.1,934213,176120,130027,1.09363e+06
0.084,6.46022e-05,343963,-15146.5,48587.5,925204,174205,117592,1.09302e+06
0.086,6.69718e-05,338499,-17981.9,48824,916195,172291,105157,1.0924e+06
0.088,6.93464e-05,334254,-20508.2,48813.9,908745,171108,94498.2,1.0932e+06
0.09,7.17305e-05,336580,-21368.4,47475.2,909702,173873,93414.1,1.10159e+06
0.092,7.41225e-05,338906,-22228.7,46136.5,910660,176638,92329.9,1.10998e+06
0.094,7.65215e-05,341232,-23088.9,44797.8,911617,179403,91245.7,1.11837e+06
0.096,7.89269e-05,343559,-23949.1,43459.1,912575,182168,90161.6,1.12676e+06
0.098,8.13383e-05,345885,-24809.4,42120.3,913532,184933,89077.4,1.13515e+06
0.1,8.40282e-05,352462,-26252.3,41310,925503,188188,89381.6,1.15128e+06
0.102,8.7602e-05,372737,-29573.4,42202.6,972972,193021,94160.5,1.19235e+06
0.104,9.11773e-05,393012,-32894.4,43095.1,1.02044e+06,197854,98939.5,1.23343e+06
0.106,9.47541e-05,413287,-36215.4,43987.7,1.06791e+06,202688,103718,1.2745e+06
0.108,9.83321e-05,433562,-39536.4,44880.3,1.11538e+06,207521,108497,1.31557e+06
0.11,0.000101911,453837,-42857.5,45772.9,1.16285e+06,212354,113276,1.35664e+06
0.112,0.000105491,474112,-46178.5,46665.5,1.21032e+06,217187,118055,1.39771e+06
0.114,0.000109072,494387,-49499.5,47558,1.25779e+06,222021,122834,1.43878e+06
0.116,0.000112809,488111,-49806,46420.6,1.24019e+06,223417,120737,1.42704e+06
0.118,0.000116712,453589,-46905.7,43123.7,1.15338e+06,221158,111326,1.35912e+06
0.12,0.000120614,419067,-44005.3,39826.8,1.06657e+06,218898,101915,1.2912e+06
0.122,0.000124518,384545,-41105,36529.9,979758,216638,92503.6,1.22328e+06
0.124,0.000128421,350023,-38204.7,33233,892948,214378,83092.4,1.15536e+06
0.126,0.000132325,315501,-35304.4,29936.1,806137,212119,73681.2,1.08744e+06
0.128,0.000136229,280979,-32404,26639.2,719327,209859,64270,1.01952e+06
0.13,0.000140134,246458,-29503.7,23342.3,632517,207599,54858.9,951602
0.132,0.000144309,233290,-29306.9,21090.9,598375,206147,51144,927308
0.134,0.000148655,232756,-30709.6,19458,595393,205173,50799.3,928825
0.136,0.000153012,232221,-32112.2,17825,592410,204198,50454.5,930341
0.138,0.000157379,231687,-33514.8,16192.1,589428,203224,50109.7,931858
0.14,0.000161756,231153,-34917.5,14559.2,586446,202250,49764.9,933374
0.142,0.000166141,230619,-36320.1,12926.3,583464,201275,49420.2,934891
0.144,0.000170535,230085,-37722.8,11293.4,580482,200301,49075.4,936407
0.146,0.000174936,229550,-39125.4,9660.47,577499,199326,48730.6,937924
0.148,0.000179344,229016,-40528,8027.56,574517,198352,48385.9,939440
0.15,0.000183758,228482,-41930.7,6394.64,571535,197377,48041.1,940956
0.152,0.000188179,227948,-43333.3,4761.73,568553,196403,47696.3,942473
0.154,0.000192605,227413,-44735.9,3128.81,565571,195428,47351.5,943989
0.156,0.000197036,226879,-46138.6,1495.9,562588,194454,47006.8,945506
0.158,0.000201472,226345,-47541.2,-137.021,559606,193479,46662,947022
0.16,0.000205912,225811,-48943.9,-1769.93,556624,192505,46317.2,948539
0.162,0.000210357,225277,-50346.5,-3402.84,553642,191531,45972.5,950055
0.164,0.000214806,224742,-51749.1,-5035.76,550660,190556,45627.7,951572
0.166,0.000219258,224208,-53151.8,-6668.67,547677,189582,45282.9,953088
0.168,0.000223714,223674,-54554.4,-8301.58,544695,188607,44938.1,954605
0.17,0.000228174,223140,-55957.1,-9934.5,541713,187633,44593.4,956121
0.172,0.000232636,222605,-57359.7,-11567.4,538731,186658,44248.6,957637
0.174,0.000237009,224299,-58305.5,-9957.61,544498,185759,43648.4,956165
0.176,0.000241334,227210,-59001.8,-6575.91,555045,184901,42908.7,953060
0.178,0.000246159,227458,-58897.6,-7987.28,556483,183386,44344.5,941735
0.18,0.000251458,226268,-58200,-13501.1,552530,181254,48295.7,925810
0.182,0.000257057,235857,-58932.5,-16637.3,580206,178823,58531.8,941421
0.184,0.000262657,245446,-59664.9,-19773.4,607882,176392,68768,957033
0.186,0.000268258,255035,-60397.3,-22909.6,635559,173961,79004.2,972644
0.188,0.000273859,264624,-61129.8,-26045.7,663235,171530,89240.3,988255
0.19,0.000279461,274213,-61862.2,-29181.9,690912,169100,99476.5,1.00387e+06
0.192,0.000285063,283802,-62594.7,-32318.1,718588,166669,109713,1.01948e+06
0.194,0.000290666,293392,-63327.1,-35454.2,746264,164238,119949,1.03509e+06
0.196,0.00029627,302981,-64059.6,-38590.4,773941,161807,130185,1.0507e+06
0.198,0.000302071,306925,-62978.6,-38894.6,781766,159364,133881,1.04873e+06
0.2,0.000307947,308819,-61238.8,-38169.9,782379,156917,135201,1.04038e+06
0.202,0.000313827,310712,-59499,-37445.2,782993,154470,136521,1.03202e+06
0.204,0.000319709,312606,-57759.2,-36720.5,783606,152023,137841,1.02367e+06
0.206,0.000325594,314500,-56019.4,-35995.8,784220,149576,139161,1.01531e+06
0.208,0.000331482,316393,-54279.6,-35271.1,784833,147129,140481,1.00696e+06
0.21,0.000337372,318287,-52539.8,-34546.4,785446,144682,141801,998602
0.212,0.000343265,320181,-50800,-33821.7,786060,142235,143121,990247
0.214,0.00034916,322074,-49060.2,-33097,786673,139788,144441,981892
0.216,0.000355057,323968,-47320.3,-32372.3,787286,137341,145761,973538
0.218,0.000360957,325861,-45580.6,-31647.6,787900,134894,147081,965183
0.22,0.000366858,327755,-43840.7,-30922.9,788513,132447,148401,956828
0.222,0.000372761,329649,-42100.9,-30198.2,789126,130000,149721,948473
0.224,0.000378666,331542,-40361.1,-29473.4,789740,127553,151041,940118
0.226,0.000384988,320440,-37745.4,-22767.3,772351,125060,145641,929149
0.228,0.00039132,309033,-35109.1,-15920.8,754539,122567,140084,918119
0.23,0.000397653,297626,-32472.9,-9074.22,736727,120074,134526,907089
0.232,0.000403985,286219,-29836.6,-2227.72,718915,117580,128969,896059
0.234,0.000410318,274812,-27200.3,4618.83,701104,115087,123411,885029
0.236,0.000416652,263405,-24564,11465.4,683292,112594,117853,873998
0.238,0.000422985,251998,-21927.8,18311.9,665480,110100,112296,862968
0.24,0.000429546,249566,-21642.2,23077.1,659811,109267,111589,874842
0.242,0.000436158,249074,-21864.9,27392.3,656768,108794,111931,891667
0.244,0.000442772,248582,-22087.6,31707.5,653724,108320,112273,908493
0.246,0.000449388,248090,-22310.2,36022.7,650680,107846,112615,925318
0.248,0.000456006,247598,-22532.9,40337.9,647636,107372,112957,942144
0.25,0.000462625,247106,-22755.6,44653.1,644593,106898,113299,958969
0.252,0.000469246,246614,-22978.2,48968.3,641549,106424,113641,975795
0.254,0.000475868,246122,-23200.9,53283.5,638505,105950,113982,992620
0.256,0.000482491,245630,-23423.5,57598.7,635462,105476,114324,1.00945e+06
0.258,0.000489116,245138,-23646.2,61913.8,632418,105002,114666,1.02627e+06
0.26,0.000495742,244646,-23868.9,66229,629374,104528,115008,1.0431e+06
0.262,0.000502732,239637,-22051,68486.2,625475,108165,114889,1.05107e+06
0.264,0.000509793,233743,-19833.4,70340.1,621409,112607,114680,1.05732e+06
0.266,0.000516855,227849,-17615.7,72194,617343,117049,114471,1.06356e+06
0.268,0.000523917,221955,-15398,74047.9,613276,121492,114262,1.06981e+06
0.27,0.000530979,216060,-13180.3,75901.8,609210,125934,114053,1.07605e+06
0.272,0.000538041,210166,-10962.7,77755.7,605144,130376,113844,1.0823e+06
0.274,0.000545177,205397,-8578.6,79119.2,601110,134330,113678,1.08679e+06
0.276,0.000552659,205845,-5423.05,78209.7,597226,136017,113707,1.08316e+06
0.278,0.000560142,206292,-2267.49,77300.1,593341,137704,113737,1.07954e+06
0.28,0.000567625,206740,888.062,76390.6,589457,139391,113767,1.07592e+06
0.282,0.000575404,212912,3548.48,73707.8,598048,136980,112313,1.059e+06
0.284,0.000583299,221299,6017.37,70339.2,611466,132984,110286,1.03695e+06
0.286,0.000591194,229686,8486.25,66970.6,624884,128988,108258,1.01489e+06
0.288,0.000599088,238073,10955.1,63602,638301,124992,106230,992838
0.29,0.000606983,246460,13424,60233.4,651719,120996,104202,970783
0.292,0.000614879,254847,15892.9,56864.8,665137,117000,102175,948728
0.294,0.000622854,258738,15617.7,53232,678303,116453,101668,933007
0.296,0.000630843,261898,14895.8,49556.3,691428,116467,101408,918318
0.298,0.000638833,265058,14173.9,45880.5,704552,116482,101149,903628
0.3,0.000646825,268218,13452,42204.8,717677,116496,100889,888939
0.302,0.000654818,271378,12730.1,38529.1,730802,116511,100630,874250
0.304,0.000662812,274538,12008.2,34853.4,743927,116525,100370,859560
0.306,0.000670807,277697,11286.3,31177.6,757052,116540,100111,844871
0.308,0.000678803,280857,10564.4,27501.9,770177,116554,99851,830181
0.31,0.000686801,284017,9842.5,23826.1,783301,116569,99591.5,815492
0.312,0.000694813,287114,9048.54,19942.8,795845,116593,99462.3,801092
0.314,0.000703209,288471,6267.2,10335.1,792342,116877,102927,794698
0.316,0.000711606,289829,3485.87,727.287,788839,117161,106392,788304
0.318,0.000720002,291186,704.576,-8880.33,785337,117446,109857,781909
0.32,0.000728398,292543,-2076.76,-18488.1,781834,117730,113322,775515
0.322,0.000736795,293901,-4858.09,-28095.9,778332,118014,116787,769120
0.324,0.000745192,295258,-7639.43,-37703.6,774829,118299,120251,762726
0.326,0.00075361,296165,-10203.7,-46236.2,769991,118400,123574,758528
0.328,0.000762209,293127,-10868,-45357.4,753464,116906,125653,773554
0.33,0.00077081,290088,-11532.4,-44478.5,736936,115411,127732,788580
0.332,0.000779411,287050,-12196.7,-43599.6,720408,113916,129812,803606
0.334,0.000788014,284012,-12861.1,-42720.8,703880,112421,131891,818632
0.336,0.000796617,280974,-13525.4,-41841.9,687353,110926,133970,833659
0.338,0.000805221,277935,-14189.7,-40963.1,670825,109431,136049,848685
0.34,0.000813826,274897,-14854.1,-40084.2,654297,107937,138128,863711
0.342,0.000822431,271859,-15518.4,-39205.3,637769,106442,140207,878737
0.344,0.000831037,268821,-16182.7,-38326.5,621242,104947,142286,893763
0.346,0.000839644,265782,-16847.1,-37447.6,604714,103452,144365,908789
0.348,0.000848412,260250,-17095,-35197.9,587916,102469,143696,912505
0.35,0.000857467,250229,-16593.7,-30481.1,570633,102408,138080,895865
0.352,0.000866523,240209,-16092.4,-25764.4,553349,102346,132464,879225
0.354,0.000875578,230188,-15591.1,-21047.6,536066,102285,126848,862586
0.356,0.000884634,220167,-15089.7,-16330.9,518782,102224,121233,845946
0.358,0.00089369,210147,-14588.4,-11614.2,501499,102162,115617,829306
0.36,0.000902745,200126,-14087.1,-6897.44,484215,102101,110001,812667
0.362,0.000911801,190106,-13585.8,-2180.77,466932,102040,104385,796027
0.364,0.000921019,189216,-13677.5,-981.504,469678,100440,102699,788819
0.366,0.000930267,190007,-13878.4,-429.3,476108,98557.8,101735,783345
0.368,0.000939516,190797,-14079.3,122.905,482538,96675.5,100772,777872
0.37,0.000948765,191587,-14280.1,675.109,488969,94793.1,99808.3,772399
0.372,0.000958016,192378,-14481,1227.31,495399,92910.8,98844.8,766925
0.374,0.000967267,193168,-14681.8,1779.52,501829,91028.5,97881.3,761452
0.376,0.000976519,193958,-14882.7,2331.71,508260,89146.2,96917.9,755978
0.378,0.000985772,194748,-15083.6,2883.92,514690,87263.9,95954.4,750505
0.38,0.000995026,195539,-15284.4,3436.12,521120,85381.5,94990.9,745031
0.382,0.0010043,197034,-15592.6,3899.51,530235,83938.4,94606.6,737278
0.384,0.00101362,200853,-16254.5,4070.4,548192,83942.1,96130.2,722013
0.386,0.00102294,204672,-16916.3,4241.28,566149,83945.7,97653.7,706748
0.388,0.00103227,208491,-17578.1,4412.16,584106,83949.3,99177.3,691484
0.39,0.00104159,212310,-18239.9,4583.04,602062,83952.9,100701,676219
0.392,0.00105092,216129,-18901.8,4753.92,620019,83956.6,102224,660954
0.394,0.00106044,218226,-19289.8,5380.29,633049,84347.8,104271,648118
0.396,0.00107038,216787,-19115.2,6942.73,635953,85535.5,107391,640271
0.398,0.00108032,215347,-18940.6,8505.17,638858,86723.2,110511,632423
0.4,0.00109026,213908,-18766,10067.6,641762,87910.9,113631,624576
0.402,0.0011002,212468,-18591.4,11630.1,644666,89098.6,116751,616729
0.404,0.00111014,211028,-18416.8,13192.5,647571,90286.4,119871,608882
0.406,0.00112007,209589,-18242.2,14754.9,650475,91474.1,122992,601035
0.408,0.00113001,208149,-18067.6,16317.4,653380,92661.8,126112,593188
0.41,0.00114005,203317,-16977.2,17466.8,648134,93450.7,126357,593620
0.412,0.00115032,194774,-15323.6,16918.9,625233,92093.1,121299,607618
0.414,0.0011606,186231,-13670,16371.1,602332,90735.5,116241,621617
0.416,0.00117088,177689,-12016.4,15823.2,579430,89377.8,111183,635616
0.418,0.00118116,169146,-10362.8,15275.3,556529,88020.2,106125,649614
0.42,0.00119143,160603,-8709.18,14727.4,533628,86662.6,101068,663613
0.422,0.00120171,152061,-7055.56,14179.6,510727,85304.9,96009.7,677611
0.424,0.00121199,143518,-5401.94,13631.7,487825,83947.3,90951.8,691610
0.426,0.00122227,134975,-3748.33,13083.8,464924,82589.7,85893.9,705608
0.428,0.00123255,126433,-2094.71,12535.9,442023,81232,80836,719607
0.43,0.00124283,117890,-441.092,11988,419122,79874.4,75778.1,733606
0.432,0.00125309,111346,-691.453,10884,396142,77909.3,72784.4,739318
0.434,0.00126333,106537,-2593.71,9297.32,373094,75417.2,71581.7,737842
0.436,0.00127357,101728,-4496,7710.66,350046,72925.1,70379,736366
0.438,0.0012838,96918.2,-6398.29,6124,326998,70433,69176.3,734890
0.44,0.00129404,92108.8,-8300.58,4537.34,303950,67940.8,67973.6,733414
0.442,0.00130428,87299.4,-10202.9,2950.68,280901,65448.7,66770.9,731938
0.444,0.00131474,87763.7,-16610.8,1625.39,269201,61902.8,67491.8,728004
0.446,0.00132539,92553.7,-26714.4,514.491,266810,57492.4,69790.5,722055
0.448,0.00133604,97343.8,-36818,-596.407,264418,53082.1,72089.1,716105
0.45,0.00134669,102134,-46921.5,-1707.29,262027,48671.9,74387.8,710156
0.452,0.00135771,108170,-46380,-1.34004,281043,48653.2,78607.5,701670
0.454,0.00136876,114302,-45015.8,1922.3,301714,48974,82975.5,692988
0.456,0.00137981,120434,-43651.6,3845.94,322384,49294.8,87343.6,684306
0.458,0.00139085,126566,-42287.4,5769.58,343055,49615.6,91711.7,675624
0.46,0.0014019,132698,-40923.2,7693.22,363725,49936.4,96079.8,666942
0.462,0.00141295,138831,-39559,9616.86,384396,50257.1,100448,658260
0.464,0.001424,144963,-38194.9,11540.5,405066,50577.9,104816,649578
0.466,0.00143505,151095,-36830.7,13464.1,425737,50898.7,109184,640896
0.468,0.0014461,157227,-35466.5,15387.7,446407,51219.5,113552,632214
0.47,0.00145715,163359,-34102.3,17311.4,467078,51540.3,117920,623532
0.472,0.0014682,169492,-32738.1,19235,487748,51861,122288,614850
0.474,0.00147925,175624,-31373.9,21158.7,508419,52181.8,126656,606168
0.476,0.0014903,181756,-30009.7,23082.3,529090,52502.6,131024,597486
0.478,0.00150132,186958,-26503.8,25173.8,547625,53140.7,135687,586743
0.48,0.0015123,190927,-20161.8,27487.7,563334,54199.1,140741,573271
0.482,0.00152328,194897,-13819.8,29801.5,579043,55257.5,145795,559799
0.484,0.00153425,198867,-7477.86,32115.4,594752,56315.8,150849,546326
0.486,0.00154523,202837,-1135.87,34429.2,610461,57374.2,155902,532854
0.488,0.00155632,202993,5334.23,35963.8,620065,57033.6,157400,524131
0.49,0.00156765,194409,12098,35712,615675,53486.1,150747,526294
0.492,0.00157898,185826,18861.8,35460.2,611284,49938.7,144093,528457
0.494,0.00159031,177242,25625.5,35208.5,606894,46391.3,137440,530619
0.496,0.00160164,168658,32389.2,34956.7,602504,42843.9,130787,532782
0.498,0.00161297,160074,39153,34704.9,598114,39296.5,124133,534945
0.5,0.00162446,153336,42160.6,34130.4,594010,37220.5,117229,537133
0.502,0.00163608,148352,41535.6,32888.8,590450,35920,110265,540299
0.504,0.00164766,145034,37121,28977.5,588931,31827.8,104265,549781
0.506,0.00165923,141927,32970.6,25281.8,587185,28026,98571.4,558609
0.508,0.00167073,140574,31030.9,23390.8,583539,26655,95442,561966
0.51,0.00168224,139220,29091.4,21499.9,579894,25284,92312.7,565322
0.512,0.00169375,137867,27151.7,19608.9,576248,23912.9,89183.3,568679
0.514,0.00170525,136514,25212.2,17718,572603,22541.9,86054,572035
0.516,0.00171676,135161,23272.6,15827.1,568958,21170.9,82924.8,575392
0.518,0.00172827,133808,21333,13936.1,565312,19799.8,79795.4,578748
0.52,0.00173978,132454,19393.4,12045.2,561667,18428.8,76666.1,582105
0.522,0.00175129,131101,17453.7,10154.2,558021,17057.8,73536.7,585461
0.524,0.0017628,129748,15514.2,8263.3,554376,15686.8,70407.4,588818
0.526,0.00177431,128395,13574.5,6372.33,550730,14315.7,67278.1,592174
0.528,0.00178587,127178,12348.7,5315.04,547842,13904.4,64806.4,595616
0.53,0.00179769,126539,14129.7,7769.42,548144,17536.1,65104.9,599414
0.532,0.00180951,125900,15910.7,10223.9,548446,21167.9,65403.5,603213
0.534,0.00182133,125261,17691.7,12678.3,548748,24799.5,65702,607012
0.536,0.00183315,124622,19472.7,15132.7,549050,28431.3,66000.5,610810
0.538,0.00184496,123983,21253.6,17587.1,549351,32063,66299.1,614609
0.54,0.00185679,123378,22923.5,20001.6,549135,35654.9,66608.8,617699
0.542,0.00186871,123413,22545,21680.2,539373,38511.6,67124.4,607724
0.544,0.00188086,123038,20457.3,21534.9,526370,40781.6,67371.8,597902
0.546,0.00189317,122347,17047.7,19979,510861,42597.7,67411.7,588199
0.548,0.00190549,121656,13638.1,18423.1,495352,44413.7,67451.6,578496
0.55,0.00191781,120965,10228.4,16867.2,479842,46229.9,67491.5,568793
0.552,0.00193013,120274,6818.83,15311.3,464333,48045.9,67531.4,559090
0.554,0.00194244,119583,3409.14,13755.3,448824,49862.1,67571.3,549386
0.556,0.0019549,119510,2097.94,15614.5,445231,50455.8,67200.6,566699
0.558,0.00196739,119583,1281.27,18278.7,444446,50761.5,66733,590380
0.56,0.00197987,119655,464.631,20942.7,443662,51067.1,66265.4,614060
0.562,0.00199236,119728,-352.012,23606.8,442878,51372.8,65797.8,637740
0.564,0.00200485,119800,-1168.68,26271,442093,51678.5,65330.2,661421
0.566,0.00201734,119872,-1985.32,28935,441309,51984.2,64862.7,685101
0.568,0.00202983,119945,-2801.99,31599.2,440525,52289.8,64395.1,708782
0.57,0.00204232,120017,-3618.63,34263.2,439740,52595.5,63927.5,732462
0.572,0.00205481,120090,-4435.3,36927.4,438956,52901.2,63459.9,756143
0.574,0.00206741,119249,-4846.34,39976.4,428040,52790.2,60314.6,764220
0.576,0.00208013,116723,-5642.52,43069.6,423011,52701.6,60107.7,762186
0.578,0.00209284,114058,-6520.11,46137.4,419544,52649.7,60487.7,760139
0.58,0.00210556,111393,-7397.67,49205.1,416077,52597.7,60867.8,758092
0.582,0.00211827,108729,-8275.26,52272.9,412610,52545.8,61247.9,756045
0.584,0.00213099,106064,-9152.82,55340.7,409143,52493.8,61628,753999
0.586,0.0021437,103400,-10030.4,58408.5,405675,52441.9,62008.1,751952
0.588,0.00215642,100735,-10908,61476.2,402208,52389.9,62388.2,749905
0.59,0.00216913,98070.5,-11785.5,64543.9,398741,52337.9,62768.2,747858
0.592,0.00218185,95405.8,-12663.1,67611.7,395274,52286,63148.3,745812
0.594,0.00219456,92741.3,-13540.7,70679.4,391806,52234,63528.4,743765
0.596,0.00220745,92195.3,-14025.4,72047.3,391200,53698.8,65580.5,739780
0.598,0.00222044,93033.1,-14253.5,72304.9,392462,56154,68724.6,734530
0.6,0.00223343,93870.8,-14481.5,72562.5,393723,58609.3,71868.7,729279
0.602,0.00224639,94952.1,-14545.3,71839.9,393271,61280.1,74226.8,718917
0.604,0.00225934,96149.3,-14530.8,70650.5,392002,64053.5,76210.7,706120
0.606,0.00227228,97346.5,-14516.2,69461,390732,66827,78194.7,693323
0.608,0.00228522,98543.7,-14501.7,68271.6,389463,69600.4,80178.5,680526
0.61,0.00229817,99741,-14487.2,67082.2,388194,72373.9,82162.5,667729
0.612,0.00231111,100938,-14472.7,65892.8,386925,75147.4,84146.4,654932
0.614,0.00232406,102135,-14458.1,64703.4,385656,77920.9,86130.3,642135
0.616,0.002337,103333,-14443.6,63513.9,384387,80694.3,88114.2,629338
0.618,0.00234995,104530,-14429.1,62324.5,383118,83467.7,90098.1,616541
0.62,0.00236293,104723,-13932.5,60508.9,380509,86186.3,91749.9,608429
0.622,0.00237605,101486,-11790,56554.9,373329,88717.2,92267.3,616316
0.624,0.00238917,98250,-9647.35,52600.9,366148,91248.2,92784.8,624203
0.626,0.00240239,95111.1,-8109.96,49324.1,359857,91744.9,93298.6,625803
0.628,0.00241573,92070.5,-7184.18,46731.7,354464,90185.6,93808.7,621051
0.63,0.00242907,89030.1,-6258.42,44139.4,349072,88626.4,94318.9,616298
0.632,0.00244241,85989.5,-5332.64,41547,343679,87067.1,94829.1,611546
0.634,0.00245575,82949,-4406.88,38954.7,338286,85507.8,95339.2,606793
0.636,0.00246916,80449.7,-3828.9,37332.4,333106,83676.4,95639.7,602309
0.638,0.00248275,79289,-4111.31,38109.9,328451,81171.3,95421.4,598486
0.64,0.00249634,78128.3,-4393.7,38887.4,323796,78666.4,95203,594663
0.642,0.00250993,76967.6,-4676.1,39664.9,319142,76161.4,94984.7,590840
0.644,0.00252353,75806.9,-4958.5,40442.4,314487,73656.4,94766.4,587017
0.646,0.00253721,74980.7,-4894.08,40333.5,312285,71568.5,93803.4,583235
0.648,0.00255103,74675.9,-4288.91,38842.7,313907,70130.9,91679.3,579517
0.65,0.00256485,74371.1,-3683.75,37351.8,315529,68693.4,89555.2,575799
0.652,0.00257867,74066.4,-3078.57,35860.9,317151,67255.8,87431,572081
0.654,0.0025925,73761.6,-2473.4,34370,318773,65818.2,85306.9,568364
0.656,0.00260632,73456.8,-1868.22,32879.1,320396,64380.6,83182.8,564646
0.658,0.00262014,73152.1,-1263.06,31388.3,322018,62943,81058.7,560928
0.66,0.00263397,72847.3,-657.873,29897.4,323640,61505.4,78934.5,557210
0.662,0.00264779,72542.5,-52.7086,28406.5,325262,60067.8,76810.4,553493
0.664,0.00266161,72237.8,552.456,26915.6,326884,58630.2,74686.3,549775
0.666,0.00267544,71933,1157.64,25424.7,328507,57192.6,72562.2,546057
0.668,0.00268926,71628.3,1762.8,23933.9,330129,55755,70438.1,542339
0.67,0.00270308,71323.5,2367.99,22443,331751,54317.4,68313.9,538622
0.672,0.00271691,71018.7,2973.15,20952.1,333373,52879.8,66189.8,534904
0.674,0.00273073,70713.9,3578.33,19461.2,334995,51442.2,64065.7,531186
0.676,0.00274456,70409.2,4183.5,17970.3,336617,50004.6,61941.6,527468
0.678,0.00275838,70104.4,4788.66,16479.5,338240,48567.1,59817.5,523751
0.68,0.00277222,69769.9,5422.07,14889,339396,47343.4,57409.9,520073
0.682,0.00278621,68826.5,6634.23,11258.1,330992,50505.7,49190.5,517223
0.684,0.00280021,67883.1,7846.43,7626.96,322589,53668.1,40970.8,514372
0.686,0.00281421,66939.7,9058.59,3995.99,314186,56830.4,32751.4,511522
0.688,0.00282821,65996.2,10270.8,364.898,305783,59992.8,24531.7,508671
0.69,0.00284221,65052.8,11482.9,-3266.08,297379,63155.1,16312.3,505821
0.692,0.00285621,64109.4,12695.1,-6897.06,288976,66317.4,8092.91,502970
0.694,0.00287021,63165.9,13907.3,-10528.1,280573,69479.8,-126.746,500120
0.696,0.00288421,62222.5,15119.5,-14159.1,272170,72642.1,-8346.16,497269
0.698,0.00289829,61633.5,15590.5,-16067.1,266158,75190.1,-14632.3,492349
0.7,0.00291254,61783.7,14515.8,-14381.5,265133,76456.4,-16885.6,483114
0.702,0.00292679,61933.9,13441.1,-12695.7,264108,77722.8,-19139.1,473879
0.704,0.00294104,62084.1,12366.4,-11010.1,263083,78989.2,-21392.4,464644
0.706,0.0029553,62234.3,11291.7,-9324.41,262058,80255.5,-23645.8,455409
0.708,0.00296955,62384.5,10216.9,-7638.69,261033,81521.9,-25899.2,446173
0.71,0.0029838,62534.8,9142.25,-5953.02,260008,82788.2,-28152.5,436938
0.712,0.00299825,62167.9,10064.6,-7099.28,265541,82641.5,-30649.6,433718
0.714,0.00301289,61332,12799.1,-10815.1,277024,81212.5,-33367.6,435957
0.716,0.00302753,60496,15533.7,-14531.1,288507,79783.5,-36085.7,438195
0.718,0.00304217,59660,18268.2,-18246.9,299990,78354.6,-38803.8,440434
0.72,0.0030568,58824,21002.7,-21962.8,311473,76925.6,-41521.9,442672
0.722,0.00307144,57988,23737.2,-25678.7,322956,75496.6,-44239.9,444911
0.724,0.00308605,57637.6,27145.1,-27736.3,333333,74918.9,-46168.6,449366
0.726,0.0031006,58413.3,32114.8,-25948.2,341146,76315,-46266.8,458963
0.728,0.00311515,59189,37084.4,-24160.2,348958,77711.2,-46365,468559
0.73,0.0031297,59964.8,42054.1,-22372.1,356770,79107.4,-46463.2,478156
0.732,0.00314425,60740.5,47023.6,-20584.1,364582,80503.5,-46561.4,487753
0.734,0.0031588,61516.2,51993.3,-18796,372395,81899.7,-46659.6,497350
0.736,0.00317335,62291.9,56962.9,-17008,380207,83295.9,-46757.8,506947
0.738,0.0031879,63067.6,61932.5,-15220,388019,84692,-46855.9,516543
0.74,0.0032024,60922.4,58453.4,-18838.7,388818,83671.5,-51511.4,508768
0.742,0.00321691,58686.1,54710.5,-22626.2,389397,82575.6,-56309,500450
0.744,0.00323141,56449.7,50967.6,-26413.7,389976,81479.7,-61106.8,492132
0.746,0.00324592,54213.4,47224.7,-30201.2,390555,80383.8,-65904.5,483815
0.748,0.00326058,56683.6,46097.9,-28291.4,388272,80388.2,-60798.7,476371
0.75,0.00327525,59487.8,45156.9,-25977.3,385785,80470.8,-54990.1,468989
0.752,0.00328993,62292,44215.8,-23663.2,383299,80553.4,-49181.5,461608
0.754,0.0033046,65096.3,43274.8,-21349,380812,80636,-43372.8,454226
0.756,0.0033195,64365.3,39540.7,-20897.3,378480,80909,-38160.2,448178
0.758,0.00333442,63404,35624.6,-20566.9,376158,81194.4,-32986.2,442217
0.76,0.00334934,62442.7,31708.6,-20236.4,373835,81479.8,-27812.4,436255
0.762,0.00336432,61079.6,29061.8,-19617,371260,81574.8,-23633.1,434265
0.764,0.00337941,58989.7,28711.5,-18474.7,368228,81325,-21253.3,439460
0.766,0.0033945,56899.7,28361.3,-17332.5,365195,81075.3,-18873.6,444656
0.768,0.00340959,54809.7,28011,-16190.1,362162,80825.5,-16493.7,449851
0.77,0.00342468,52719.8,27660.8,-15047.9,359130,80575.8,-14114,455046
0.772,0.00343977,50629.8,27310.5,-13905.5,356097,80326,-11734.2,460241
0.774,0.00345483,48925.1,26395.2,-12844.6,351054,79903.8,-8861.81,465340
0.776,0.00346984,47992.2,24347.9,-11946.5,341985,79136.2,-5002.57,470245
0.778,0.00348484,47059.2,22300.6,-11048.5,332916,78368.6,-1143.44,475151
0.78,0.00349984,46126.3,20253.3,-10150.5,323847,77601,2715.68,480056
0.782,0.00351484,45193.4,18205.9,-9252.42,314778,76833.3,6574.92,484961
0.784,0.00352984,44260.5,16158.7,-8354.38,305709,76065.7,10434,489867
0.786,0.00354485,43327.5,14111.3,-7456.33,296640,75298.1,14293.3,494772
0.788,0.00355985,42394.6,12064,-6558.29,287571,74530.5,18152.4,499677
0.79,0.00357485,41461.7,10016.7,-5660.24,278502,73762.9,22011.6,504583
0.792,0.00358988,40782.6,8055.92,-4863.15,269312,72929.2,25881.2,508262
0.794,0.0036053,43965.5,7411.86,-5602.01,258279,71090.6,29909.9,493280
0.796,0.00362072,47148.3,6767.82,-6340.85,247247,69252.1,33938.6,478298
0.798,0.00363614,50331.1,6123.78,-7079.69,236214,67413.6,37967.2,463317
0.8,0.00365157,53514,5479.72,-7818.56,225181,65575,41995.9,448335
0.802,0.00366699,56696.8,4835.67,-8557.4,214149,63736.5,46024.5,433354
0.804,0.00368241,59879.7,4191.61,-9296.26,203116,61897.9,50053.2,418372
0.806,0.00369783,63062.6,3547.57,-10035.1,192083,60059.4,54081.8,403390
0.808,0.00371325,66245.5,2903.51,-10774,181051,58220.8,58110.6,388408
0.81,0.00372875,68911.5,2472.6,-10887.2,178059,57607.3,61174.1,380993
0.812,0.00374432,71158.3,2214.64,-10492.7,181593,57987.7,63454.6,379715
0.814,0.00375989,73405.1,1956.67,-10098.3,185126,58368.2,65735.1,378438
0.816,0.00377546,75651.9,1698.7,-9703.86,188659,58748.7,68015.6,377161
0.818,0.00379102,77898.8,1440.73,-9309.41,192193,59129.2,70296.2,375884
0.82,0.00380659,80145.5,1182.76,-8914.97,195726,59509.7,72576.7,374607
0.822,0.00382216,82392.4,924.789,-8520.53,199259,59890.2,74857.2,373330
0.824,0.00383773,84639.2,666.824,-8126.09,202792,60270.7,77137.7,372053
0.826,0.00385329,86886,408.859,-7731.66,206326,60651.1,79418.2,370776
0.828,0.00386886,89132.8,150.886,-7337.21,209859,61031.6,81698.7,369498
0.83,0.00388443,91379.6,-107.079,-6942.78,213392,61412.1,83979.2,368221
0.832,0.0039,93626.4,-365.052,-6548.33,216926,61792.6,86259.7,366944
0.834,0.00391556,95873.2,-623.018,-6153.89,220459,62173.1,88540.2,365667
0.836,0.00393113,98120,-880.991,-5759.45,223992,62553.6,90820.8,364390
0.838,0.0039467,100367,-1138.96,-5365.01,227525,62934.1,93101.3,363113
0.84,0.00396227,102614,-1396.92,-4970.58,231059,63314.5,95381.7,361836
0.842,0.00397778,103981,-1215.19,-4382.68,234272,63979.4,97484.1,361164
0.844,0.00399329,105275,-996.683,-3778.61,237458,64668,99571.5,360543
0.846,0.0040088,106569,-778.166,-3174.53,240645,65356.6,101659,359923
0.848,0.00402431,107863,-559.656,-2570.46,243831,66045.2,103746,359302
0.85,0.00403982,109157,-341.139,-1966.38,247018,66733.8,105834,358681
0.852,0.00405556,108942,-1069.08,-656.267,243640,66820.2,103990,358914
0.854,0.00407135,108420,-1990.13,797.9,238922,66783.8,101345,359321
0.856,0.00408718,106153,-2638.84,2136.13,233467,66709.2,96904.7,359361
0.858,0.00410306,101284,-2881.29,3301.31,226912,66577.7,89786.6,358851
0.86,0.00411894,96415.5,-3123.74,4466.52,220357,66446.2,82668.3,358341
0.862,0.00413482,91546.8,-3366.18,5631.71,213802,66314.7,75550.2,357831
0.864,0.00415071,86677.9,-3608.63,6796.92,207247,66183.2,68431.9,357321
0.866,0.00416672,83617.8,-3495.22,7433.08,205505,66125.4,64032.6,356574
0.868,0.00418283,81758.7,-3145.47,7717.89,206959,66116.4,61438.9,355669
0.87,0.00419893,79899.6,-2795.7,8002.71,208413,66107.4,58845.1,354764
0.872,0.00421504,78040.6,-2445.95,8287.53,209867,66098.4,56251.4,353860
0.874,0.00423115,76181.5,-2096.19,8572.35,211322,66089.4,53657.6,352955
0.876,0.00424725,74322.5,-1746.44,8857.16,212776,66080.4,51063.9,352050
0.878,0.00426336,72925.9,-1123.22,9468.49,215079,65988.6,48904.8,350747
0.88,0.00427946,71614.4,-449.734,10139.8,217538,65881.6,46825.6,349370
0.882,0.00429556,70302.8,223.769,10811.2,219997,65774.6,44746.3,347994
0.884,0.00431166,68991.3,897.252,11482.5,222456,65667.6,42667.2,346617
0.886,0.00432777,67679.8,1570.73,12153.9,224915,65560.5,40588,345241
0.888,0.00434387,66368.3,2244.24,12825.3,227374,65453.5,38508.7,343864
0.89,0.00435997,65056.8,2917.72,13496.6,229833,65346.5,36429.5,342488
0.892,0.00437608,63745.2,3591.22,14168,232292,65239.4,34350.3,341111
0.894,0.00439218,62433.7,4264.71,14839.3,234751,65132.4,32271.1,339734
0.896,0.00440828,61122.2,4938.21,15510.7,237210,65025.4,30191.8,338358
0.898,0.00442438,59810.6,5611.69,16182,239670,64918.3,28112.7,336981
0.9,0.00444049,58499.1,6285.18,16853.4,242129,64811.3,26033.5,335605
0.902,0.00445659,57187.6,6958.68,17524.7,244588,64704.3,23954.2,334228
0.904,0.00447287,53461.3,6253.45,17124.5,244904,66183.3,21182.5,337451
0.906,0.00448918,49532.5,5432.6,16634.4,245040,67795.3,18352.6,341059
0.908,0.00450548,45603.8,4611.77,16144.3,245177,69407.3,15522.8,344667
0.91,0.00452178,41675,3790.92,15654.2,245314,71019.3,12692.9,348275
0.912,0.00453808,37746.3,2970.09,15164.1,245450,72631.3,9863.15,351882
0.914,0.00455438,33817.6,2149.26,14674,245587,74243.3,7033.35,355490
0.916,0.00457068,29888.7,1328.41,14183.9,245723,75855.3,4203.47,359098
0.918,0.00458698,25960,507.578,13693.8,245860,77467.3,1373.68,362706
0.92,0.00460343,23703.1,503.542,13332.9,245569,78760,-328.844,365463
0.922,0.00462005,23243,1377.32,13110.9,244817,79709.6,-819.773,367305
0.924,0.00463666,22782.8,2251.12,12888.8,244066,80659.3,-1310.72,369147
0.926,0.00465328,22322.7,3124.9,12666.8,243315,81608.9,-1801.65,370988
0.928,0.00466989,21862.5,3998.67,12444.7,242563,82558.5,-2292.58,372830
0.93,0.00468647,22411.5,4624.91,12540.6,237998,83549,-2592.7,370280
0.932,0.00470305,23000.9,5241.23,12649.2,233280,84541.1,-2885.18,367556
0.934,0.00471963,23590.2,5857.57,12757.7,228562,85533.2,-3177.67,364830
0.936,0.0047362,24179.6,6473.89,12866.3,223844,86525.3,-3470.16,362106
0.938,0.00475278,24768.9,7090.23,12974.9,219126,87517.4,-3762.65,359381
0.94,0.00476936,25358.3,7706.55,13083.5,214408,88509.5,-4055.14,356656
0.942,0.00478593,25947.6,8322.87,13192.1,209691,89501.6,-4347.62,353931
0.944,0.00480251,26537,8939.21,13300.7,204973,90493.7,-4640.11,351206
0.946,0.00481909,27126.3,9555.53,13409.2,200255,91485.8,-4932.6,348481
0.948,0.00483566,27715.7,10171.9,13517.8,195537,92477.9,-5225.09,345756
0.95,0.00485224,28305,10788.2,13626.4,190819,93470,-5517.57,343031
0.952,0.00486882,28894.4,11404.5,13735,186101,94462.1,-5810.07,340306
0.954,0.00488539,29483.7,12020.8,13843.6,181383,95454.2,-6102.55,337581
0.956,0.00490197,30073,12637.2,13952.2,176665,96446.3,-6395.04,334856
0.958,0.0049186,33930.6,14785.4,14500.5,179201,98523.2,-2240.46,335790
0.96,0.00493529,41931.8,18875.9,15606.5,190932,101976,7552.45,341365
0.962,0.00495209,54719.3,25697.1,17050.1,222583,106843,23665.5,362610
0.964,0.00496901,73215,35774.8,18896.2,277991,113397,47315.9,402545
0.966,0.00498588,86018.8,41836.7,19936.3,315124,117578,64660.5,428059
0.968,0.00500261,80592.4,35036.4,18394.4,293724,114155,61807.6,407384
0.97,0.00501935,75165.8,28235.9,16852.6,272323,110733,58954.7,386709
0.972,0.00503608,69739.4,21435.6,15310.8,250923,107310,56101.8,366034
0.974,0.00505281,64313,14635.4,13768.9,229523,103887,53248.9,345359
0.976,0.0050696,59343.7,9384.47,13144,215587,100370,51616.6,331857
0.978,0.00508641,54373.8,4403.1,12732.4,203271,96773.5,50227.4,319876
0.98,0.00510336,53857.6,4258.71,13152,202113,95278.9,51484,319964
0.982,0.00512031,53341.4,4114.31,13571.6,200955,93784.3,52740.6,320051
0.984,0.00513726,52825.1,3969.91,13991.2,199797,92289.6,53997.1,320139
0.986,0.00515421,52308.9,3825.52,14410.8,198640,90795.1,55253.7,320226
0.988,0.00517116,51792.7,3681.13,14830.3,197482,89300.5,56510.2,320314
0.99,0.00518811,51276.5,3536.73,15250,196324,87805.9,57766.8,320402
0.992,0.00520505,50760.3,3392.34,15669.5,195166,86311.3,59023.3,320489
0.994,0.005222,50244.1,3247.94,16089.2,194008,84816.6,60279.9,320577
0.996,0.00523895,49727.8,3103.54,16508.7,192850,83322.1,61536.4,320664
0.998,0.0052559,49211.6,2959.15,16928.4,191693,81827.4,62793,320752
1,0.00527285,48695.4,2814.75,17347.9,190535,80332.9,64049.5,320839
1.002,0.0052898,48179.2,2670.36,17767.5,189377,78838.3,65306,320927
1.004,0.00530675,47663,2525.97,18187.1,188219,77343.7,66562.6,321014
1.006,0.0053237,47146.7,2381.56,18606.8,187061,75849,67819.2,321102
1.008,0.00534065,46630.5,2237.17,19026.3,185904,74354.4,69075.7,321189
1.01,0.0053576,46114.3,2092.78,19445.9,184746,72859.9,70332.2,321277
1.012,0.00537455,45598.1,1948.38,19865.5,183588,71365.3,71588.8,321365
1.014,0.0053915,45081.9,1803.98,20285.2,182430,69870.6,72845.4,321452
1.016,0.00540845,44565.7,1659.59,20704.7,181272,68376,74101.9,321540
1.018,0.0054254,44049.4,1515.19,21124.3,180114,66881.4,75358.4,321627
1.02,0.00544235,43533.2,1370.8,21543.9,178957,65386.9,76615,321715
1.022,0.0054593,43017,1226.41,21963.5,177799,63892.3,77871.5,321802
1.024,0.00547625,42423.4,1116.36,22420,176645,62422.9,79109.2,322003
1.026,0.00549314,42825.7,564.265,22402.5,175436,60628.3,80590.3,320747
1.028,0.00551022,41103.5,-710.301,22285.1,173325,59113.5,76826.2,322613
1.03,0.00552741,39308,-1867.19,23400.2,171285,58399.3,71946.3,323628
1.032,0.00554459,37512.4,-3024.09,24515.4,169245,57685.1,67066.3,324643
1.034,0.00556178,35716.8,-4181.05,25630.6,167205,56970.9,62186.1,325658
1.036,0.00557896,33921.3,-5337.94,26745.8,165165,56256.7,57306.2,326674
1.038,0.00559615,32125.7,-6494.84,27860.9,163125,55542.4,52426.2,327689
1.04,0.00561333,30330.2,-7651.73,28976.1,161085,54828.2,47546.3,328704
1.042,0.00563052,28534.5,-8808.69,30091.3,159045,54114,42666.1,329719
1.044,0.00564771,27448.8,-9438.78,31741.4,156055,53897.3,39235.4,329371
1.046,0.00566505,27444.3,-8979.03,32309,157704,54757,37804.9,324232
1.048,0.00568239,27434.4,-8513.79,32809.5,159563,55623.4,36356.4,319014
1.05,0.00569973,27424.5,-8048.54,33309.9,161421,56489.8,34907.8,313795
1.052,0.00571708,27414.6,-7583.27,33810.4,163280,57356.3,33459.1,308577
1.054,0.00573442,27404.7,-7118.03,34310.8,165139,58222.7,32010.6,303358
1.056,0.00575176,27394.8,-6652.79,34811.3,166997,59089.1,30562,298140
1.058,0.0057691,27384.9,-6187.55,35311.7,168856,59955.6,29113.4,292922
1.06,0.00578644,27375,-5722.31,35812.1,170714,60822,27664.9,287703
1.062,0.00580379,27365.1,-5257.04,36312.6,172573,61688.5,26216.2,282485
1.064,0.00582113,27355.2,-4791.79,36813.1,174431,62554.9,24767.6,277266
1.066,0.00583847,27345.3,-4326.55,37313.5,176290,63421.3,23319.1,272048
1.068,0.00585581,27335.4,-3861.31,37813.9,178148,64287.7,21870.5,266830
1.07,0.00587316,27325.5,-3396.04,38314.4,180007,65154.2,20421.9,261611
1.072,0.0058905,27315.6,-2930.8,38814.9,181866,66020.6,18973.3,256393
1.074,0.00590786,27310.6,-2101.2,38894.1,182437,66185.6,18001.5,249453
1.076,0.00592529,27319.8,-237.979,37778.4,179355,64360.5,18382.1,237630
1.078,0.00594271,27329,1625.24,36662.7,176274,62535.4,18762.7,225808
1.08,0.00596016,26995.2,3324.56,35871.2,172791,60784,18629.1,215865
1.082,0.00597772,25916.7,4032.39,36058.6,169541,59710.7,16953.5,214948
1.084,0.00599534,25643.3,4002.54,35971.1,169189,59379.8,15732.9,218346
1.086,0.00601296,25369.9,3972.69,35883.6,168836,59048.9,14512.2,221744
1.088,0.00603058,25096.5,3942.83,35796.1,168484,58717.9,13291.5,225142
1.09,0.0060482,24823.1,3912.98,35708.5,168132,58387,12070.9,228540
1.092,0.00606582,24549.7,3883.13,35621,167779,58056.1,10850.2,231938
1.094,0.00608344,24276.3,3853.28,35533.5,167427,57725.2,9629.61,235336
1.096,0.00610106,24003,3823.43,35446,167075,57394.3,8408.97,238734
1.098,0.00611868,23729.6,3793.57,35358.4,166722,57063.4,7188.26,242132
1.1,0.0061363,23456.2,3763.72,35270.9,166370,56732.5,5967.62,245531
1.102,0.00615392,23182.8,3733.87,35183.4,166017,56401.6,4746.98,248929
1.104,0.00617154,22909.4,3704.02,35095.9,165665,56070.7,3526.35,252327
1.106,0.00618915,22636,3674.16,35008.3,165313,55739.8,2305.71,255725
1.108,0.00620678,23092.6,3694.2,34124.4,164052,55269,1818.06,257413
1.11,0.0062244,23851.4,3734.9,32910.8,162416,54740.4,1633.97,258394
1.112,0.00624203,24610.2,3775.6,31697.1,160780,54211.8,1449.88,259375
1.114,0.00625965,25369,3816.3,30483.5,159143,53683.2,1265.8,260356
1.116,0.00627728,26127.9,3857,29269.8,157507,53154.6,1081.7,261337
1.118,0.0062949,26886.7,3897.7,28056.2,155871,52626,897.612,262318
1.12,0.00631253,27645.5,3938.4,26842.5,154234,52097.4,713.525,263299
1.122,0.00633026,28060.1,4937.79,24350.5,152070,51979.7,2680.25,260413
1.124,0.00634801,28405.6,6129.86,21601.4,149799,51944.5,5079.24,256751
1.126,0.00636577,28751.1,7321.99,18852.3,147528,51909.4,7478.38,253088
1.128,0.00638352,29096.5,8514.05,16103.2,145257,51874.3,9877.37,249425
1.13,0.00640128,29442,9706.12,13354.2,142987,51839.2,12276.4,245763
1.132,0.00641903,29787.5,10898.2,10605.2,140716,51804.1,14675.4,242100
1.134,0.00643682,29878.8,11713.8,8902.72,138420,52006,16753.8,238803
1.136,0.00645467,29593.2,11971.5,8751.75,136088,52559.4,18357.1,236046
1.138,0.00647252,29307.7,12229.1,8600.79,133756,53112.8,19960.3,233289
1.14,0.00649037,29131.7,12078.4,8269.95,132071,52660.7,19875.6,229791
1.142,0.00650821,28975.2,11854.7,7906.92,130501,52028.6,19488.7,226160
1.144,0.00652605,28818.7,11631,7543.86,128931,51396.5,19101.8,222529
1.146,0.00654389,28662.3,11407.3,7180.83,127361,50764.5,18714.9,218898
1.148,0.00656173,28505.9,11183.6,6817.8,125791,50132.4,18328,215267
1.15,0.00657958,28349.4,10960,6454.76,124221,49500.4,17941.1,211637
1.152,0.00659742,28193,10736.3,6091.73,122651,48868.3,17554.2,208006
1.154,0.00661526,28036.5,10512.6,5728.67,121081,48236.2,17167.3,204375
1.156,0.0066331,27880,10288.9,5365.64,119511,47604.1,16780.4,200744
1.158,0.00665094,27723.6,10065.2,5002.61,117941,46972.1,16393.5,197113
1.16,0.00666879,27567.1,9841.47,4639.57,116371,46340,16006.7,193482
1.162,0.00668663,27410.7,9617.77,4276.54,114801,45708,15619.8,189851
1.164,0.00670447,27254.2,9394.06,3913.48,113231,45075.9,15232.9,186220
1.166,0.00672231,27097.8,9170.37,3550.45,111662,44443.8,14846,182589
1.168,0.00674016,26835.4,9024.76,3135.18,110695,43746.5,14508.6,179424
1.17,0.00675801,26314.1,9069.88,2592.32,111203,42889.9,14292.2,177398
1.172,0.00677587,25792.8,9115,2049.42,111711,42033.3,14075.7,175371
1.174,0.00679372,25271.5,9160.12,1506.56,112219,41176.7,13859.3,173344
1.176,0.00681157,24750.2,9205.23,963.7,112727,40320.1,13642.8,171317
1.178,0.00682947,23520.8,8908.21,554.269,111717,39342.9,12480.7,169076
1.18,0.00684749,20646.8,7816.66,454.688,107183,38085.7,9122.49,166338
1.182,0.0068655,17772.7,6725.04,355.101,102649,36828.5,5764.08,163600
1.184,0.00688352,14898.8,5633.49,255.521,98114.3,35571.3,2405.87,160861
1.186,0.00690154,12024.9,4541.93,155.94,93580,34314.1,-952.344,158123
1.188,0.00691955,9150.93,3450.38,56.3592,89045.8,33056.9,-4310.55,155385
1.19,0.00693761,9101.94,3303.49,171.684,89497.7,33043.8,-4074.62,154712
1.192,0.00695568,9697.69,3372.21,336.048,91087.5,33314.7,-3018.42,154511
1.194,0.00697375,10293.4,3440.93,500.412,92677.4,33585.6,-1962.21,154310
1.196,0.00699182,10889.2,3509.65,664.775,94267.2,33856.4,-906.008,154108
1.198,0.00700989,11484.9,3578.37,829.139,95857.1,34127.3,150.196,153907
1.2,0.00702796,12080.7,3647.1,993.513,97447,34398.2,1206.46,153706
1.202,0.00704603,12676.5,3715.82,1157.88,99036.9,34669.1,2262.67,153504
1.204,0.0070641,13272.2,3784.54,1322.24,100627,34939.9,3318.87,153303
1.206,0.00708217,13868,3853.26,1486.6,102217,35210.8,4375.07,153101
1.208,0.00710024,14463.7,3921.98,1650.97,103806,35481.7,5431.28,152900
1.21,0.00711831,15059.5,3990.7,1815.34,105396,35752.5,6487.54,152699
1.212,0.00713638,15655.3,4059.42,1979.71,106986,36023.4,7543.75,152497
1.214,0.00715445,16251,4128.14,2144.07,108576,36294.3,8599.95,152296
1.216,0.00717254,16824.7,4532.56,2430.34,110941,36562.5,10282.1,152932
1.218,0.00719064,17371.7,5343.91,2864.39,114247,36827.5,12723.2,154584
1.22,0.00720875,19622.3,6160.22,3348.13,118498,37620.2,15846.7,156457
1.222,0.00722686,23092.8,6980.11,3867.48,123426,38790.7,19459,158489
1.224,0.00724497,26563.4,7800,4386.82,128354,39961.2,23071.3,160521
1.226,0.00726308,30034,8619.89,4906.16,133283,41131.7,26683.6,162553
1.228,0.00728119,33504.8,9439.83,5425.54,138211,42302.2,30296.1,164585
1.23,0.0072993,36975.4,10259.7,5944.88,143139,43472.7,33908.4,166617
1.232,0.00731746,39874.8,10729.2,5991.74,145471,44409.3,36451.5,166758
1.234,0.00733571,41703.1,10541.6,5152.52,142932,44907.1,36989.6,163354
1.236,0.00735395,42284.2,10300.1,4582.17,139977,45181.8,37169.3,161518
1.238,0.00737219,41494.1,9999.35,4307.41,136564,45211.1,36955,161408
1.24,0.00739043,40704.1,9698.57,4032.68,133150,45240.5,36740.8,161298
1.242,0.00740867,39914,9397.79,3757.94,129737,45269.9,36526.5,161187
1.244,0.00742691,39123.9,9097,3483.21,126324,45299.2,36312.3,161077
1.246,0.00744515,38333.8,8796.21,3208.45,122910,45328.6,36098,160967
1.248,0.00746339,37543.8,8495.43,2933.72,119497,45358,35883.8,160856
1.25,0.00748163,36753.7,8194.65,2658.98,116084,45387.4,35669.5,160746
1.252,0.00749987,35963.7,7893.87,2384.25,112671,45416.7,35455.3,160636
1.254,0.00751811,35173.6,7593.09,2109.51,109258,45446.1,35241,160526
1.256,0.00753635,34383.5,7292.29,1834.76,105844,45475.5,35026.8,160415
1.258,0.00755459,33593.4,6991.51,1560.02,102431,45504.8,34812.5,160305
1.26,0.00757285,33384.7,6739.57,1306.29,100298,45337,34811.5,162167
1.262,0.00759111,33367.5,6503.73,1059.47,98586,45104.2,34880.6,164678
1.264,0.00760938,33350.3,6267.86,812.634,96874.2,44871.3,34949.8,167190
1.266,0.00762765,33333,6032.02,565.815,95162.5,44638.5,35019,169702
1.268,0.00764591,33315.8,5796.17,318.995,93450.7,44405.7,35088.1,172213
1.27,0.00766417,33298.5,5560.32,72.1761,91739,44172.9,35157.3,174725
1.272,0.00768244,33281.3,5324.47,-174.643,90027.3,43940.1,35226.4,177236
1.274,0.0077007,33264.1,5088.61,-421.477,88315.5,43707.3,35295.6,179748
1.276,0.00771907,33413.5,4414.03,-665.38,88366.8,42493.5,35821.9,181698
1.278,0.00773745,33590.5,3666.95,-908.802,88709.5,41117.7,36423.6,183556
1.28,0.00775583,33767.5,2919.87,-1152.22,89052.1,39741.9,37025.4,185414
1.282,0.00777421,33944.4,2172.79,-1395.65,89394.7,38366,37627.2,187271
1.284,0.00779259,34121.4,1425.67,-1639.08,89737.4,36990.1,38229,189129
1.286,0.00781097,34298.4,678.596,-1882.5,90080,35614.3,38830.8,190987
1.288,0.00782935,34475.4,-68.4816,-2125.92,90422.7,34238.5,39432.5,192844
1.29,0.00784773,34652.4,-815.559,-2369.35,90765.3,32862.6,40034.3,194702
1.292,0.00786617,34851.5,-894.903,-2545.95,91195.8,32216.2,40100.1,194183
1.294,0.00788463,35057,-777.762,-2702.88,91652.1,31784.4,40008.1,192965
1.296,0.0079031,34537.1,-546.365,-2450.42,90420.3,31367.8,38908,191602
1.298,0.00792158,33956.4,-305.409,-2163.71,89047.2,30952.5,37723.6,190226
1.3,0.00794006,33375.8,-64.4521,-1877,87674.2,30537.3,36539.2,188851
1.302,0.00795853,32795.1,176.519,-1590.28,86301.1,30122,35354.8,187476
1.304,0.00797701,32214.5,417.475,-1303.57,84928,29706.7,34170.4,186100
1.306,0.00799548,31633.8,658.432,-1016.86,83555,29291.4,32986,184725
1.308,0.00801396,31053.2,899.389,-730.147,82181.9,28876.2,31801.6,183350
1.31,0.00803244,30472.5,1140.35,-443.437,80808.9,28460.9,30617.2,181975
1.312,0.00805091,29891.9,1381.32,-156.71,79435.8,28045.6,29432.7,180599
1.314,0.00806939,29311.2,1622.27,129.999,78062.7,27630.3,28248.3,179224
1.316,0.00808786,28730.6,1863.23,416.709,76689.7,27215.1,27063.9,177849
1.318,0.00810634,28149.9,2104.19,703.418,75316.7,26799.8,25879.5,176473
1.32,0.00812482,27569.2,2345.16,990.145,73943.5,26384.5,24695,175098
1.322,0.00814329,27117.7,2611.56,1275.24,73321.3,26067.6,23718.9,173059
1.324,0.00816175,27053,2954.22,1555.5,74949.5,26045.4,23366.9,169032
1.326,0.0081802,26988.3,3296.89,1835.75,76577.6,26023.3,23014.9,165004
1.328,0.00819866,26923.6,3639.56,2116.01,78205.8,26001.2,22662.9,160977
1.33,0.00821712,26858.9,3982.25,2396.28,79834.1,25979,22310.9,156949
1.332,0.00823558,26794.2,4324.91,2676.53,81462.2,25956.9,21959,152921
1.334,0.00825404,26729.5,4667.58,2956.79,83090.4,25934.8,21607,148894
1.336,0.0082725,26664.9,5010.25,3237.05,84718.6,25912.6,21255,144866
1.338,0.00829096,26600.2,5352.93,3517.32,86346.8,25890.5,20903,140838
1.34,0.00830942,26535.5,5695.6,3797.57,87975,25868.4,20551,136811
1.342,0.00832791,26271.1,5777.97,4155.58,86982.3,26037.7,20180.6,133015
1.344,0.00834645,25694.1,5453.03,4635.23,81888.8,26506.8,19781.3,129580
1.346,0.00836499,25117.2,5128.09,5114.89,76795.2,26975.9,19382,126146
1.348,0.00838353,24540.2,4803.14,5594.58,71701.4,27445,18982.7,122711
1.35,0.00840207,23963.2,4478.2,6074.24,66607.8,27914.1,18583.4,119276
1.352,0.00842061,23386.3,4153.26,6553.9,61514.3,28383.2,18184.1,115842
1.354,0.00843915,22809.4,3828.32,7033.56,56420.7,28852.2,17784.8,112407
1.356,0.00845769,22232.4,3503.39,7513.22,51327.1,29321.3,17385.5,108973
1.358,0.00847624,21655.4,3178.43,7992.9,46233.3,29790.4,16986.2,105538
1.36,0.00849482,21348,3005.09,8494.67,43683.8,30377.5,17494.9,105865
1.362,0.00851342,21206.1,2924.91,9010.02,42697.7,31037,18561.5,108504
1.364,0.00853202,21064.2,2844.73,9525.37,41711.5,31696.5,19628.1,111142
1.366,0.00855064,20879.5,2786.1,9894.37,41002.2,32237.7,20274.9,112833
1.368,0.00856929,20610.4,2770.02,9974.48,40839.3,32545.1,20092.9,112656
1.37,0.00858793,20341.3,2753.93,10054.6,40676.4,32852.5,19910.9,112478
1.372,0.00860657,20072.2,2737.85,10134.7,40513.5,33160,19728.9,112300
1.374,0.00862522,19803.1,2721.77,10214.8,40350.6,33467.4,19546.9,112122
1.376,0.00864386,19533.9,2705.68,10294.9,40187.7,33774.9,19364.9,111944
1.378,0.00866251,19264.8,2689.6,10375.1,40024.8,34082.3,19182.9,111766
1.38,0.00868115,18995.7,2673.51,10455.2,39861.9,34389.8,19000.9,111589
1.382,0.00869979,18726.6,2657.43,10535.3,39699,34697.2,18819,111411
1.384,0.00871844,18457.5,2641.35,10615.4,39536.1,35004.6,18637,111233
1.386,0.00873708,18188.4,2625.26,10695.5,39373.2,35312.1,18455,111055
1.388,0.00875572,17919.2,2609.18,10775.6,39210.3,35619.5,18273,110877
1.39,0.00877437,17650.1,2593.09,10855.8,39047.4,35927,18091,110699
1.392,0.00879301,17381,2577.01,10935.9,38884.5,36234.4,17909,110522
1.394,0.00881166,17178.3,2556.46,10965.7,38864.8,36490,17700.3,110168
1.396,0.00883037,17527.9,2498.8,10577.3,40036.7,36314.1,17269.5,108351
1.398,0.00884908,17877.6,2441.14,10188.9,41208.6,36138.2,16838.7,106534
1.4,0.00886779,18227.2,2383.48,9800.42,42380.5,35962.3,16407.9,104717
1.402,0.00888652,18749.2,2506.77,8917.3,45799,35748.4,16955.2,106826
1.404,0.00890527,19294.4,2654.46,7967.46,49520.6,35529.4,17634.4,109465
1.406,0.00892401,19839.6,2802.14,7017.67,53241.9,35310.4,18313.6,112103
1.408,0.00894275,20384.8,2949.82,6067.88,56963.2,35091.4,18992.7,114742
1.41,0.00896149,20930,3097.5,5118.09,60684.5,34872.3,19671.9,117380
1.412,0.00898023,21475.2,3245.17,4168.31,64405.8,34653.3,20351.1,120019
1.414,0.00899897,22020.4,3392.86,3218.46,68127.4,34434.3,21030.3,122657
1.416,0.00901774,22220.9,3481.82,2627.67,69595.2,34152.1,21303.7,123652
1.418,0.00903654,22145.7,3523.78,2324.19,69259.6,33819.4,21252.3,123332
1.42,0.00905534,22070.4,3565.74,2020.72,68923.9,33486.6,21200.9,123012
1.422,0.00907414,21995.2,3607.7,1717.22,68588.2,33153.9,21149.6,122692
1.424,0.00909294,21919.9,3649.66,1413.75,68252.6,32821.2,21098.2,122372
1.426,0.00911175,21844.7,3691.62,1110.28,67916.9,32488.4,21046.9,122052
1.428,0.00913054,21549.5,3691.99,788.955,67050.5,32082.7,20885.3,121329
1.43,0.00914933,20686.2,3584.96,421.548,64813.3,31488.3,20439.3,119567
1.432,0.00916812,19822.9,3477.92,54.1185,62576,30893.8,19993.2,117805
1.434,0.00918691,18959.7,3370.89,-313.289,60338.9,30299.4,19547.1,116043
1.436,0.0092057,18096.5,3263.85,-680.697,58101.7,29705,19101.1,114281
1.438,0.00922449,17233.2,3156.82,-1048.1,55864.6,29110.6,18655,112519
1.44,0.00924328,16369.9,3049.78,-1415.53,53627.3,28516.2,18208.9,110756
1.442,0.00926207,15506.7,2942.75,-1782.94,51390.1,27921.8,17762.9,108994
1.444,0.00928085,14690.4,2848.63,-2131.75,49343,27344.2,17331.8,107306
1.446,0.00929965,14518.3,2931.53,-2225.57,49901.1,26996.2,17106.2,106628
1.448,0.00931844,14346.1,3014.43,-2319.39,50459.2,26648.3,16880.5,105951
1.45,0.00933724,14173.9,3097.34,-2413.21,51017.4,26300.4,16654.9,105273
1.452,0.00935603,14001.8,3180.25,-2507.03,51575.5,25952.5,16429.3,104595
1.454,0.00937482,13829.6,3263.15,-2600.84,52133.6,25604.6,16203.6,103918
1.456,0.00939362,13657.5,3346.06,-2694.66,52691.8,25256.7,15978,103240
1.458,0.00941241,13485.3,3428.96,-2788.48,53249.9,24908.8,15752.4,102562
1.46,0.00943121,13313.2,3511.87,-2882.3,53808.1,24560.8,15526.7,101885
1.462,0.00945,13141,3594.77,-2976.12,54366.2,24212.9,15301.1,101207
1.464,0.00946879,12968.9,3677.68,-3069.93,54924.3,23865,15075.5,100530
1.466,0.00948759,12796.7,3760.58,-3163.75,55482.4,23517.1,14849.9,99851.9
1.468,0.00950638,12624.6,3843.49,-3257.57,56040.6,23169.1,14624.2,99174.3
1.47,0.00952518,12452.4,3926.39,-3351.39,56598.7,22821.2,14398.6,98496.7
1.472,0.00954397,12280.3,4009.3,-3445.21,57156.9,22473.3,14173,97819
1.474,0.00956276,12108.1,4092.2,-3539.02,57715,22125.4,13947.3,97141.4
1.476,0.00958156,11936,4175.11,-3632.84,58273.1,21777.5,13721.7,96463.8
1.478,0.00960035,11763.8,4258.01,-3726.66,58831.3,21429.6,13496.1,95786.1
1.48,0.00961918,11505,4093.09,-3306.39,57667,21533.2,12865.5,94587.4
1.482,0.00963804,11183.9,3750.08,-2516.67,55265,21961.4,11944,93014.3
1.484,0.00965689,10862.7,3407.06,-1726.96,52863,22389.6,11022.5,91441.1
1.486,0.00967575,10541.6,3064.05,-937.243,50461,22817.8,10101,89867.9
1.488,0.0096946,10220.5,2721.01,-147.481,48058.9,23246.1,9179.42,88294.6
1.49,0.00971346,9899.39,2378,642.235,45656.9,23674.3,8257.9,86721.5
1.492,0.00973231,9578.28,2034.98,1431.95,43254.9,24102.5,7336.38,85148.3
1.494,0.00975117,9257.17,1691.96,2221.67,40852.8,24530.7,6414.86,83575.1
1.496,0.00977005,9064.05,1569.15,2970.83,40363.3,24621.9,5805.1,83375.2
1.498,0.00978893,8952.02,1585.85,3694.24,41085.4,24499.6,5392.89,84045.3
1.5,0.00980782,8839.99,1602.54,4417.65,41807.5,24377.2,4980.68,84715.4
1.502,0.00982671,8727.96,1619.24,5141.06,42529.6,24254.9,4568.46,85385.5
1.504,0.00984561,8622.61,1645.1,5823.17,43254.2,24125.5,4175.19,85933.5
1.506,0.00986456,8643.19,1843.68,5726.73,44026.1,23862.6,4138.89,84180.7
1.508,0.0098835,8663.77,2042.25,5630.3,44798.1,23599.7,4102.6,82428
1.51,0.00990245,8684.35,2240.82,5533.87,45570,23336.8,4066.3,80675.4
1.512,0.0099214,8704.93,2439.39,5437.44,46342,23073.9,4030.01,78922.7
1.514,0.00994035,8725.51,2637.97,5341.01,47113.9,22811,3993.71,77169.9
1.516,0.00995928,8675.93,2676.5,5125.02,46247.8,22609,4410.54,75707.7
1.518,0.00997822,8612.96,2684.49,4886.2,45069,22418.6,4913.85,74300.9
1.52,0.00999715,8550,2692.48,4647.39,43890.3,22228.1,5417.16,72894.1
1.522,0.0100161,8487.03,2700.47,4408.58,42711.5,22037.7,5920.47,71487.3
1.524,0.010035,8424.06,2708.47,4169.75,41532.6,21847.2,6423.8,70080.4
1.526,0.0100539,8361.1,2716.46,3930.94,40353.9,21656.8,6927.11,68673.6
1.528,0.0100729,8298.13,2724.45,3692.13,39175.1,21466.4,7430.42,67266.8
1.53,0.0100918,8235.17,2732.44,3453.32,37996.3,21275.9,7933.73,65860.1
1.532,0.0101107,8177.85,2747.83,3227.03,36907.5,21084,8389.57,64514.1
1.534,0.0101297,8208.66,2878.73,3196.1,37222.6,20868,8104.8,64116.9
1.536,0.0101486,8239.48,3009.61,3165.18,37537.7,20652.1,7820.06,63719.7
1.538,0.0101675,8270.29,3140.5,3134.26,37852.8,20436.1,7535.31,63322.5
1.54,0.0101864,8301.1,3271.38,3103.34,38167.9,20220.2,7250.56,62925.3
1.542,0.0102054,8331.92,3402.27,3072.42,38483.1,20004.2,6965.8,62528.1
1.544,0.0102243,8362.73,3533.16,3041.5,38798.2,19788.3,6681.05,62130.9
1.546,0.0102432,8393.54,3664.04,3010.58,39113.3,19572.3,6396.3,61733.7
1.548,0.0102621,8424.36,3794.93,2979.66,39428.4,19356.4,6111.55,61336.5
1.55,0.0102811,8455.17,3925.82,2948.73,39743.5,19140.5,5826.81,60939.3
1.552,0.0103,8485.98,4056.71,2917.81,40058.6,18924.5,5542.04,60542.1
1.554,0.010319,8479.26,4081.33,3012.62,40031.3,18849.3,5703.95,60512.4
1.556,0.0103379,8450.5,4043.54,3181.27,39803,18856.7,6128.19,60698.6
1.558,0.0103569,8421.73,4005.74,3349.91,39574.6,18864.1,6552.43,60884.8
1.56,0.0103759,8392.97,3967.95,3518.56,39346.3,18871.5,6976.67,61071
1.562,0.0103949,8364.2,3930.16,3687.22,39117.9,18879,7400.93,61257.2
1.564,0.0104139,8335.44,3892.36,3855.87,38889.5,18886.4,7825.17,61443.4
1.566,0.0104329,8306.67,3854.57,4024.52,38661.2,18893.8,8249.41,61629.6
1.568,0.0104518,8277.91,3816.78,4193.16,38432.8,18901.2,8673.65,61815.8
1.57,0.0104708,8249.14,3778.98,4361.82,38204.4,18908.6,9097.92,62002
1.572,0.0104898,8220.37,3741.19,4530.47,37976.1,18916.1,9522.16,62188.2
1.574,0.0105088,8191.61,3703.4,4699.12,37747.7,18923.5,9946.4,62374.4
1.576,0.0105278,8298.82,3632.16,5080.51,37588.5,18846.4,10142,62350.7
1.578,0.0105468,8521.36,3532.54,5642.37,37488,18697.5,10143.7,62148.9
1.58,0.0105658,8743.92,3432.92,6204.26,37387.5,18548.7,10145.4,61947.1
1.582,0.0105848,8966.47,3333.3,6766.12,37287,18399.9,10147.1,61745.3
1.584,0.0106038,9189.01,3233.69,7327.98,37186.5,18251.1,10148.8,61543.5
1.586,0.0106228,9411.56,3134.07,7889.84,37086,18102.3,10150.5,61341.7
1.588,0.0106418,9634.12,3034.45,8451.73,36985.5,17953.5,10152.2,61139.8
1.59,0.0106608,9856.67,2934.83,9013.58,36885,17804.6,10153.8,60938
1.592,0.0106798,10079.2,2835.22,9575.44,36784.5,17655.8,10155.5,60736.2
1.594,0.0106988,10131.4,2781.01,9573.84,36518.3,17617.7,10315.8,60764.3
1.596,0.0107179,10147,2736.51,9451.66,36216.6,17603.3,10510,60841.7
1.598,0.0107369,10162.7,2692.02,9329.46,35914.9,17588.9,10704.2,60919
1.6,0.0107559,10178.4,2647.52,9207.27,35613.2,17574.5,10898.4,60996.3
1.602,0.0107749,10194.1,2603.03,9085.08,35311.5,17560,11092.6,61073.6
1.604,0.0107939,10209.7,2558.53,8962.89,35009.9,17545.6,11286.8,61150.9
1.606,0.0108129,9961.43,2534.78,8738.67,33632.1,17438.4,11080.8,60151.8
1.608,0.010832,9537.34,2524.82,8446.49,31537.8,17269.3,10608.3,58436
1.61,0.010851,9113.28,2514.86,8154.33,29443.7,17100.3,10135.9,56720.2
1.612,0.01087,8689.21,2504.91,7862.17,27349.6,16931.2,9663.41,55004.5
1.614,0.0108891,8265.15,2494.95,7570.01,25255.5,16762.2,9190.96,53288.8
1.616,0.0109081,7841.06,2484.99,7277.84,23161.3,16593.1,8718.47,51572.9
1.618,0.0109272,7417,2475.04,6985.68,21067.1,16424,8246.02,49857.2
1.62,0.0109462,6992.94,2465.08,6693.52,18973,16255,7773.56,48141.5
1.622,0.0109652,6852.79,2461.63,6482.3,17921.1,16167.6,7573.35,47178.8
1.624,0.0109843,7033.9,2465.52,6362.66,18048.3,16172.5,7681.19,47068.2
1.626,0.0110033,7215.03,2469.42,6243.01,18175.5,16177.4,7789.03,46957.6
1.628,0.0110224,7396.14,2473.32,6123.37,18302.7,16182.3,7896.86,46847
1.63,0.0110414,7577.25,2477.22,6003.73,18429.9,16187.2,8004.7,46736.4
1.632,0.0110605,7758.36,2481.11,5884.09,18557.2,16192.1,8112.53,46625.8
1.634,0.0110795,7939.47,2485.01,5764.45,18684.4,16197,8220.37,46515.2
1.636,0.0110986,8120.59,2488.91,5644.8,18811.6,16201.9,8328.21,46404.6
1.638,0.0111177,8301.7,2492.81,5525.16,18938.8,16206.9,8436.04,46294
1.64,0.0111367,8482.82,2496.71,5405.52,19066.1,16211.8,8543.88,46183.4
1.642,0.0111558,8663.93,2500.6,5285.88,19193.3,16216.7,8651.71,46072.8
1.644,0.0111748,8845.05,2504.5,5166.23,19320.5,16221.6,8759.55,45962.2
1.646,0.0111939,9026.16,2508.4,5046.59,19447.7,16226.5,8867.39,45851.6
1.648,0.0112129,9207.27,2512.3,4926.95,19575,16231.4,8975.22,45741
1.65,0.011232,9388.38,2516.19,4807.31,19702.2,16236.3,9083.05,45630.4
1.652,0.011251,9569.49,2520.09,4687.67,19829.4,16241.2,9190.89,45519.8
1.654,0.0112701,9750.62,2523.99,4568.02,19956.6,16246.2,9298.73,45409.2
1.656,0.0112891,9855.95,2569.42,4406.67,20160,16234.1,9417.43,45191.6
1.658,0.0113082,9855.46,2451.84,4054.65,19552.6,16252.4,9508.04,44605.8
1.66,0.0113273,9677.7,2235.35,3778.67,18566.3,16272.1,9332.31,43834.4
1.662,0.0113464,9499.93,2018.86,3502.7,17580,16291.8,9156.57,43063
1.664,0.0113655,9322.16,1802.36,3226.7,16593.7,16311.5,8980.82,42291.6
1.666,0.0113845,9144.39,1585.87,2950.72,15607.4,16331.2,8805.09,41520.2
1.668,0.0114036,8966.63,1369.39,2674.75,14621.1,16350.9,8629.35,40748.9
1.67,0.0114227,8788.86,1152.9,2398.77,13634.9,16370.7,8453.61,39977.5
1.672,0.0114418,8611.08,936.396,2122.78,12648.5,16390.4,8277.87,39206.1
1.674,0.0114609,8433.32,719.907,1846.8,11662.2,16410.1,8102.13,38434.7
1.676,0.01148,7939.64,327.161,1706.34,10000.8,16432.5,7451.75,37332.7
1.678,0.0114991,7994.36,215.406,1593.29,9625.21,16418.9,7374.35,37613
1.68,0.0115181,8066.42,112.816,1478.18,9289.01,16404.6,7317.88,37928
1.682,0.0115372,8138.49,10.2204,1363.06,8952.79,16390.2,7261.4,38243.1
1.684,0.0115563,8210.55,-92.3691,1247.95,8616.59,16375.8,7204.92,38558.1
1.686,0.0115754,8282.61,-194.959,1132.84,8280.4,16361.5,7148.45,38873.1
1.688,0.0115945,8355.11,-306.656,1012.09,7989.99,16318.2,7090.15,39224.8
1.69,0.0116136,8427.84,-423.404,888.213,7724.94,16258.8,7030.84,39596.9
1.692,0.0116327,8500.57,-540.146,764.343,7459.9,16199.4,6971.53,39968.9
1.694,0.0116517,8573.31,-656.888,640.474,7194.86,16140,6912.23,40341
1.696,0.0116708,8646.04,-773.63,516.604,6929.82,16080.6,6852.92,40713.1
1.698,0.0116899,8718.77,-890.372,392.734,6664.78,16021.2,6793.61,41085.1
1.7,0.011709,8791.5,-1007.12,268.857,6399.72,15961.8,6734.3,41457.2
1.702,0.0117281,8864.24,-1123.86,144.988,6134.68,15902.4,6675,41829.3
1.704,0.0117472,8936.97,-1240.6,21.1182,5869.64,15843.1,6615.69,42201.3
1.706,0.0117663,9009.7,-1357.35,-102.751,5604.6,15783.7,6556.38,42573.4
1.708,0.0117853,9073.29,-1457.09,-210.639,5371.49,15739.9,6483.16,42881.5
1.71,0.0118044,9091.9,-1473.18,-239.883,5295.5,15772.7,6341.44,42875.3
1.712,0.0118235,9122.18,-1460.78,-275.561,5258.43,15792.3,6237.43,42883.1
1.714,0.0118427,9212.55,-1301.7,-344.38,5421.76,15743.7,6327.56,42962.6
1.716,0.0118618,9302.93,-1142.62,-413.199,5585.09,15695,6417.7,43042.1
1.718,0.0118809,9393.31,-983.536,-482.022,5748.43,15646.3,6507.84,43121.7
1.72,0.0119,9483.68,-824.456,-550.841,5911.76,15597.6,6597.97,43201.2
1.722,0.0119191,9574.06,-665.376,-619.66,6075.09,15549,6688.11,43280.7
1.724,0.0119382,9664.43,-506.297,-688.479,6238.42,15500.3,6778.24,43360.2
1.726,0.0119574,9738.93,-353.702,-752.938,6416.42,15446.7,6851.29,43384.9
1.728,0.0119765,9641.85,-271.155,-770.292,6752.96,15340.1,6739.77,42816.8
1.73,0.0119956,9544.77,-188.612,-787.646,7089.48,15233.6,6628.26,42248.7
1.732,0.0120147,9447.7,-106.07,-805,7425.99,15127,6516.75,41680.7
1.734,0.0120338,9350.63,-23.5269,-822.354,7762.51,15020.5,6405.24,41112.6
1.736,0.012053,9253.55,59.0156,-839.707,8099.03,14913.9,6293.73,40544.6
1.738,0.0120721,9156.48,141.563,-857.062,8435.57,14807.3,6182.21,39976.5
1.74,0.0120912,9059.4,224.106,-874.416,8772.08,14700.8,6070.7,39408.4
1.742,0.0121103,8962.33,306.648,-891.77,9108.6,14594.2,5959.19,38840.4
1.744,0.0121294,8865.26,389.191,-909.123,9445.12,14487.6,5847.68,38272.3
1.746,0.0121485,8768.18,471.738,-926.478,9781.65,14381.1,5736.16,37704.2
1.748,0.0121677,8671.1,554.281,-943.832,10118.2,14274.5,5624.65,37136.2
1.75,0.0121868,8574.03,636.823,-961.186,10454.7,14167.9,5513.14,36568.1
1.752,0.0122059,8476.96,719.366,-978.539,10791.2,14061.4,5401.63,36000
1.754,0.012225,8379.88,801.909,-995.893,11127.7,13954.8,5290.12,35432
1.756,0.0122441,8282.81,884.456,-1013.25,11464.3,13848.2,5178.6,34863.9
1.758,0.0122633,8177.82,963.055,-1032.96,11773.6,13742,5070.5,34302.1
1.76,0.0122824,7830.76,920.93,-1124.83,11250.8,13644.4,5066.77,33930.6
1.762,0.0123015,7455.79,851.407,-1182.72,10704.2,13460.1,4967.86,33495.6
1.764,0.0123206,7042.28,744.043,-1193.7,10124.6,13156.2,4737.47,32972.8
1.766,0.0123397,6628.8,636.686,-1204.67,9545.13,12852.3,4507.09,32450.1
1.768,0.0123589,6215.31,529.329,-1215.65,8965.62,12548.4,4276.72,31927.3
1.77,0.012378,5801.83,421.972,-1226.62,8386.11,12244.5,4046.34,31404.6
1.772,0.0123971,5388.34,314.614,-1237.6,7806.6,11940.7,3815.97,30881.8
1.774,0.0124163,4974.83,207.251,-1248.57,7227.05,11636.7,3585.58,30359
1.776,0.0124354,4831.41,244.185,-1252.13,7236.2,11467.8,3606.9,29948.5
1.778,0.0124545,4744.7,311.418,-1254.13,7368.95,11327.2,3681.08,29561.6
1.78,0.0124737,4657.99,378.65,-1256.13,7501.7,11186.6,3755.27,29174.6
1.782,0.0124928,4571.28,445.883,-1258.12,7634.45,11045.9,3829.45,28787.7
1.784,0.0125119,4485.35,507.477,-1250.37,7784.39,10903.8,3907.44,28411.1
1.786,0.012531,4402.08,550.246,-1210.07,7991.61,10756.4,3998.13,28069.2
1.788,0.0125502,4318.81,593.015,-1169.77,8198.83,10609,4088.83,27727.2
1.79,0.0125693,4235.54,635.784,-1129.47,8406.05,10461.7,4179.52,27385.3
1.792,0.0125884,4152.26,678.556,-1089.17,8613.28,10314.3,4270.22,27043.3
1.794,0.0126076,4068.99,721.325,-1048.88,8820.5,10167,4360.92,26701.3
1.796,0.0126267,3985.72,764.094,-1008.58,9027.71,10019.6,4451.61,26359.4
1.798,0.0126458,3902.44,806.863,-968.28,9234.93,9872.26,4542.3,26017.4
1.8,0.012665,3819.17,849.632,-927.982,9442.15,9724.91,4633,25675.5
1.802,0.0126841,3735.89,892.404,-887.682,9649.38,9577.55,4723.7,25333.5
1.804,0.0127032,3652.62,935.173,-847.385,9856.6,9430.19,4814.39,24991.6
1.806,0.0127224,3569.35,977.942,-807.087,10063.8,9282.84,4905.09,24649.6
1.808,0.0127415,3423.63,993.254,-765.917,9711.5,9175.59,4766.77,24189.3
1.81,0.0127606,3206.81,977.298,-723.754,8722.02,9113.99,4367.65,23594.3
1.812,0.0127798,2989.97,961.341,-681.588,7732.47,9052.4,3968.51,22999.2
1.814,0.0127989,2773.14,945.385,-639.425,6742.98,8990.81,3569.39,22404.2
1.816,0.0128181,2556.31,929.429,-597.261,5753.5,8929.21,3170.28,21809.1
1.818,0.0128372,2339.48,913.473,-555.098,4764.01,8867.62,2771.16,21214.1
1.82,0.0128564,2122.64,897.516,-512.932,3774.46,8806.03,2372.02,20619
1.822,0.0128755,1905.82,881.56,-470.769,2784.98,8744.43,1972.9,20024
1.824,0.0128947,1721.53,870.57,-441.903,1964.28,8684.1,1627.92,19502.5
1.826,0.0129138,1708.55,885.73,-483.057,2032.35,8630.4,1567.95,19368.5
1.828,0.012933,1695.57,900.891,-524.21,2100.42,8576.7,1507.98,19234.5
1.83,0.0129521,1682.59,916.052,-565.366,2168.5,8522.99,1448.01,19100.5
1.832,0.0129713,1669.61,931.212,-606.52,2236.57,8469.29,1388.05,18966.4
1.834,0.0129904,1656.63,946.372,-647.673,2304.64,8415.59,1328.08,18832.4
1.836,0.0130096,1643.65,961.532,-688.826,2372.71,8361.89,1268.11,18698.4
1.838,0.0130287,1630.67,976.693,-729.982,2440.78,8308.18,1208.14,18564.4
1.84,0.0130479,1617.69,991.853,-771.136,2508.85,8254.48,1148.18,18430.4
1.842,0.013067,1645.84,1000.57,-798.8,2700.64,8204.09,1119.62,18382.4
1.844,0.0130862,1886.28,976.039,-756.848,3530.89,8170.79,1253.15,18778.6
1.846,0.0131053,2126.71,951.508,-714.896,4361.14,8137.48,1386.67,19174.7
1.848,0.0131245,2367.16,926.975,-672.941,5191.44,8104.18,1520.21,19570.8
1.85,0.0131436,2607.59,902.443,-630.989,6021.69,8070.87,1653.73,19966.9
1.852,0.0131628,2698.16,804.985,-670.541,5901.86,8059.97,1677.61,19748.8
1.854,0.0131819,2699.69,664.199,-758.518,5217.54,8062.39,1636.34,19165.6
1.856,0.0132011,2701.21,523.412,-846.494,4533.22,8064.8,1595.07,18582.4
1.858,0.0132202,2702.74,382.617,-934.476,3848.85,8067.22,1553.79,17999.3
1.86,0.0132394,2992.59,275.132,-934.678,4157.34,7976.72,1954.14,17815.8
1.862,0.0132585,3307.22,170.507,-927.339,4551.11,7878.25,2392.43,17666.7
1.864,0.0132777,3621.84,65.8815,-920.001,4944.88,7779.78,2830.72,17517.6
1.866,0.0132968,3936.48,-38.7499,-912.661,5338.67,7681.3,3269.03,17368.5
1.868,0.013316,4001.83,-100.611,-843.543,5264.38,7555.34,3386.99,17081.1
1.87,0.0133351,3987.54,-148.807,-754.684,5040.53,7420.61,3402.6,16749.5
1.872,0.0133543,3973.24,-197.004,-665.825,4816.68,7285.88,3418.2,16417.9
1.874,0.0133735,3958.94,-245.2,-576.966,4592.83,7151.15,3433.81,16086.3
1.876,0.0133926,3944.64,-293.4,-488.102,4368.96,7016.42,3449.42,15754.7
1.878,0.0134118,4010.21,-327.604,-436.649,4330.58,6941.72,3453.29,15629.3
1.88,0.0134309,4082.7,-360.595,-388.44,4308.27,6872.23,3456.14,15521.8
1.882,0.0134501,4155.19,-393.585,-340.231,4285.97,6802.75,3458.99,15414.3
1.884,0.0134693,4227.68,-426.576,-292.021,4263.67,6733.26,3461.84,15306.9
1.886,0.0134884,4300.17,-459.569,-243.809,4241.37,6663.77,3464.7,15199.4
1.888,0.0135076,4372.66,-492.56,-195.6,4219.06,6594.28,3467.55,15091.9
1.89,0.0135267,4445.15,-525.551,-147.39,4196.76,6524.79,3470.4,14984.4
1.892,0.0135459,4517.64,-558.541,-99.181,4174.46,6455.3,3473.25,14876.9
1.894,0.0135651,4590.14,-591.534,-50.9688,4152.16,6385.81,3476.1,14769.5
1.896,0.0135842,4662.63,-624.525,-2.75952,4129.85,6316.32,3478.96,14662
1.898,0.0136034,4735.12,-657.516,45.4498,4107.55,6246.83,3481.81,14554.5
1.9,0.0136225,4807.6,-690.506,93.6591,4085.25,6177.35,3484.66,14447
1.902,0.0136417,4880.09,-723.497,141.868,4062.95,6107.86,3487.51,14339.5
1.904,0.0136609,4952.59,-756.49,190.081,4040.64,6038.36,3490.36,14232.1
1.906,0.01368,5025.08,-789.481,238.29,4018.34,5968.88,3493.22,14124.6
1.908,0.0136992,5097.57,-822.471,286.499,3996.04,5899.39,3496.07,14017.1
1.91,0.0137183,5170.06,-855.462,334.709,3973.74,5829.9,3498.92,13909.6
1.912,0.0137375,5247.78,-859.005,371.441,4015.2,5745.71,3523.71,13815.4
1.914,0.0137567,5325.71,-861.37,407.717,4059.22,5660.92,3549.37,13721.6
1.916,0.0137758,5403.64,-863.735,443.99,4103.23,5576.13,3575.03,13627.9
1.918,0.013795,5481.57,-866.1,480.264,4147.25,5491.35,3600.7,13534.2
1.92,0.0138141,5559.5,-868.465,516.538,4191.26,5406.57,3626.36,13440.5
1.922,0.0138333,5637.44,-870.83,552.813,4235.28,5321.78,3652.02,13346.7
1.924,0.0138525,5715.36,-873.195,589.087,4279.29,5237,3677.69,13253
1.926,0.0138716,5793.29,-875.56,625.361,4323.31,5152.21,3703.35,13159.3
1.928,0.0138908,5871.22,-877.925,661.634,4367.32,5067.43,3729.01,13065.5
1.93,0.0139099,5949.15,-880.29,697.908,4411.33,4982.65,3754.68,12971.8
1.932,0.0139291,6027.09,-882.655,734.184,4455.35,4897.86,3780.34,12878.1
1.934,0.0139483,6074.73,-871.998,763.83,4504.56,4824.73,3807.06,12781.3
1.936,0.0139674,6103.96,-853.425,789.447,4556.93,4758.69,3834.43,12682.7
1.938,0.0139866,6133.2,-834.852,815.064,4609.3,4692.65,3861.79,12584.2
1.94,0.0140057,6162.43,-816.278,840.683,4661.67,4626.61,3889.16,12485.6
1.942,0.0140249,6159.61,-739.779,878.392,4563.41,4540.01,3870.94,12326.1
1.944,0.0140441,6141.01,-634.748,922.056,4390.97,4443.28,3830.27,12136.7
1.946,0.0140632,6122.4,-529.716,965.721,4218.52,4346.55,3789.6,11947.2
1.948,0.0140824,6103.79,-424.684,1009.39,4046.08,4249.82,3748.93,11757.8
1.95,0.0141016,6085.18,-319.646,1053.05,3873.62,4153.09,3708.26,11568.4
1.952,0.0141207,6066.57,-214.614,1096.72,3701.18,4056.36,3667.59,11378.9
1.954,0.0141399,6047.96,-109.583,1140.38,3528.73,3959.64,3626.92,11189.5
1.956,0.0141591,6029.36,-4.5509,1184.05,3356.29,3862.91,3586.25,11000.1
1.958,0.0141782,6010.75,100.481,1227.71,3183.84,3766.18,3545.58,10810.6
1.96,0.0141974,5992.14,205.519,1271.38,3011.39,3669.45,3504.91,10621.2
1.962,0.0142165,5977.39,307.393,1313.42,2875.07,3572.81,3471.62,10436
1.964,0.0142357,5982.9,392.675,1346.95,2928.62,3476.64,3477.12,10272.9
1.966,0.0142549,5988.41,477.957,1380.47,2982.17,3380.47,3482.63,10109.8
1.968,0.014274,5993.93,563.244,1414,3035.72,3284.29,3488.13,9946.66
1.97,0.0142932,5999.44,648.526,1447.52,3089.27,3188.11,3493.63,9783.57
1.972,0.0143124,6004.95,733.808,1481.04,3142.82,3091.94,3499.14,9620.48
1.974,0.0143315,6010.47,819.09,1514.57,3196.37,2995.77,3504.64,9457.38
1.976,0.0143507,5994.27,837.726,1494.7,3063.02,2958.77,3474.15,9300.78
1.978,0.0143699,5970.18,832.099,1455.38,2861.62,2943.31,3430.54,9146.54
1.98,0.014389,5946.08,826.472,1416.07,2660.24,2927.85,3386.94,8992.3
1.982,0.0144082,5921.99,820.845,1376.76,2458.85,2912.4,3343.34,8838.07
1.984,0.0144274,5897.9,815.217,1337.45,2257.47,2896.94,3299.74,8683.83
1.986,0.0144465,5873.8,809.59,1298.14,2056.08,2881.48,3256.14,8529.6
1.988,0.0144657,5917.66,776.692,1283.15,1908.11,2854.58,3235.76,8411.8
1.99,0.0144849,6133.03,674.964,1329.58,1895,2798.8,3274,8385.98
1.992,0.014504,6348.4,573.236,1376.01,1881.88,2743.02,3312.24,8360.17
1.994,0.0145232,6563.76,471.508,1422.43,1868.77,2687.25,3350.48,8334.35
1.996,0.0145424,6779.14,369.774,1468.86,1855.66,2631.46,3388.72,8308.54
1.998,0.0145615,6994.51,268.046,1515.29,1842.54,2575.68,3426.96,8282.72
2,0.0145807,7209.88,166.318,1561.71,1829.43,2519.91,3465.2,8256.91
