"arc_length","Displacement_Magnitude","Sxx","Sxy","Sxz","Syy","Syz","Szz","Von_Mises_Stress"
0,0,1.25092e+06,-73279.9,-7919.17,2.50512e+06,436664,1.08954e+06,1.54985e+06
0.002,1.86328e-06,1.18987e+06,-67119.3,-7046.17,2.41466e+06,407332,1.00823e+06,1.5138e+06
0.004,3.00059e-06,1.15632e+06,-64490.4,-6011.13,2.35718e+06,391047,968479,1.49012e+06
0.006,3.94555e-06,1.13174e+06,-63015.1,-4923.16,2.31047e+06,379025,942303,1.47047e+06
0.008,4.91454e-06,1.10716e+06,-61539.8,-3835.19,2.26376e+06,367002,916126,1.45082e+06
0.01,5.89573e-06,1.08258e+06,-60064.5,-2747.23,2.21705e+06,354980,889950,1.43117e+06
0.012,6.88389e-06,1.058e+06,-58589.2,-1659.26,2.17035e+06,342957,863774,1.41153e+06
0.014,7.87641e-06,1.03342e+06,-57113.9,-571.289,2.12364e+06,330935,837598,1.39188e+06
0.016,8.83606e-06,1.00883e+06,-55189.3,728.898,2.07578e+06,319960,812909,1.37241e+06
0.018,9.70703e-06,984200,-52131.9,2564.1,2.02504e+06,311626,791972,1.3534e+06
0.02,1.05788e-05,959571,-49074.6,4399.3,1.97429e+06,303291,771035,1.33439e+06
0.022,1.14512e-05,934943,-46017.2,6234.51,1.92355e+06,294957,750098,1.31538e+06
0.024,1.23241e-05,910314,-42959.9,8069.71,1.8728e+06,286623,729161,1.29638e+06
0.026,1.31974e-05,885685,-39902.5,9904.91,1.82206e+06,278288,708223,1.27737e+06
0.028,1.4071e-05,861057,-36845.1,11740.1,1.77131e+06,269954,687286,1.25836e+06
0.03,1.49448e-05,836428,-33787.8,13575.3,1.72057e+06,261620,666349,1.23935e+06
0.032,1.58189e-05,811800,-30730.4,15410.5,1.66982e+06,253285,645412,1.22034e+06
0.034,1.66932e-05,787171,-27673.1,17245.7,1.61907e+06,244951,624475,1.20133e+06
0.036,1.75676e-05,762542,-24615.7,19080.9,1.56833e+06,236617,603538,1.18232e+06
0.038,1.84421e-05,737914,-21558.4,20916.1,1.51758e+06,228283,582600,1.16331e+06
0.04,1.93168e-05,713285,-18501,22751.3,1.46684e+06,219948,561663,1.1443e+06
0.042,2.01916e-05,688657,-15443.6,24586.5,1.41609e+06,211614,540726,1.12529e+06
0.044,2.10665e-05,664028,-12386.3,26421.7,1.36535e+06,203280,519789,1.10628e+06
0.046,2.19414e-05,639399,-9328.92,28256.9,1.3146e+06,194945,498852,1.08727e+06
0.048,2.28164e-05,614771,-6271.57,30092.1,1.26386e+06,186611,477914,1.06826e+06
0.05,2.48152e-05,585775,-3890.64,32846.2,1.22806e+06,183245,443685,1.07046e+06
0.052,2.72201e-05,555205,-1753.67,35931.6,1.19766e+06,181672,404662,1.08031e+06
0.054,2.96258e-05,524635,383.303,39017,1.16726e+06,180098,365639,1.09015e+06
0.056,3.20322e-05,494065,2520.27,42102.4,1.13685e+06,178525,326616,1.1e+06
0.058,3.44391e-05,463495,4657.24,45187.9,1.10645e+06,176951,287593,1.10984e+06
0.06,3.68464e-05,432924,6794.21,48273.3,1.07605e+06,175378,248570,1.11969e+06
0.062,3.92541e-05,402354,8931.18,51358.7,1.04564e+06,173804,209547,1.12954e+06
0.064,4.15426e-05,398009,8288.65,51489.3,1.03924e+06,177911,206792,1.13222e+06
0.066,4.38599e-05,395571,7443.91,51405,1.03459e+06,182432,206676,1.13438e+06
0.068,4.62104e-05,393133,6599.16,51320.7,1.02994e+06,186952,206560,1.13654e+06
0.07,4.85892e-05,390696,5754.41,51236.3,1.02529e+06,191472,206445,1.13871e+06
0.072,5.09899e-05,385302,2914.04,51333.5,1.01638e+06,190488,195090,1.13879e+06
0.074,5.34028e-05,379430,-248.299,51460,1.00678e+06,188615,181922,1.13855e+06
0.076,5.5826e-05,373559,-3410.63,51586.5,997189,186742,168754,1.1383e+06
0.078,5.82583e-05,367687,-6572.96,51713,987594,184869,155586,1.13805e+06
0.08,6.06986e-05,361816,-9735.29,51839.4,978000,182997,142419,1.1378e+06
0.082,6.3146e-05,355944,-12897.6,51965.9,968406,181124,129251,1.13755e+06
0.084,6.55996e-05,350073,-16060,52092.4,958811,179251,116083,1.13731e+06
0.086,6.80588e-05,344202,-19222.3,52218.9,949217,177378,102915,1.13706e+06
0.088,7.05225e-05,339628,-22031.3,52091.2,941256,176283,91645.4,1.13827e+06
0.09,7.29906e-05,342046,-22936.1,50593.3,942098,179379,90606.9,1.14736e+06
0.092,7.54673e-05,344465,-23840.8,49095.4,942939,182475,89568.4,1.15645e+06
0.094,7.79517e-05,346884,-24745.5,47597.6,943781,185571,88529.9,1.16554e+06
0.096,8.04431e-05,349303,-25650.3,46099.7,944622,188667,87491.5,1.17463e+06
0.098,8.29409e-05,351721,-26555,44601.8,945464,191763,86453,1.18372e+06
0.1,8.57286e-05,358606,-28049.6,43648.8,957952,195206,86987.7,1.20079e+06
0.102,8.9435e-05,379884,-31445.1,44451.5,1.00797e+06,199768,92592.5,1.24359e+06
0.104,9.31431e-05,401163,-34840.7,45254.2,1.058e+06,204331,98197.3,1.28638e+06
0.106,9.68527e-05,422441,-38236.2,46057,1.10802e+06,208893,103802,1.32918e+06
0.108,0.000100563,443719,-41631.8,46859.7,1.15804e+06,213455,109407,1.37198e+06
0.11,0.000104275,464997,-45027.3,47662.5,1.20807e+06,218018,115012,1.41478e+06
0.112,0.000107988,486276,-48422.9,48465.2,1.25809e+06,222580,120617,1.45758e+06
0.114,0.000111702,507554,-51818.4,49268,1.30811e+06,227143,126221,1.50038e+06
0.116,0.000115581,501057,-52061,47972.5,1.29013e+06,228357,124379,1.4882e+06
0.118,0.000119636,465013,-48949.6,44445,1.1998e+06,226008,114614,1.41753e+06
0.12,0.000123691,428969,-45838.2,40917.5,1.10948e+06,223660,104848,1.34686e+06
0.122,0.000127746,392926,-42726.9,37390,1.01915e+06,221312,95083.3,1.27619e+06
0.124,0.000131802,356882,-39615.5,33862.5,928823,218964,85318.1,1.20552e+06
0.126,0.000135858,320838,-36504.1,30335,838496,216616,75553,1.13486e+06
0.128,0.000139914,284794,-33392.7,26807.4,748170,214267,65787.8,1.06419e+06
0.13,0.000143971,248751,-30281.3,23280,657843,211919,56022.7,993521
0.132,0.000148308,235043,-30063.6,20855.1,622275,210371,52166.9,968288
0.134,0.000152821,234550,-31557.8,19082.5,619101,209296,51807.1,969935
0.136,0.000157347,234057,-33052.1,17310,615928,208220,51447.3,971582
0.138,0.000161884,233563,-34546.3,15537.4,612755,207145,51087.4,973229
0.14,0.000166431,233070,-36040.5,13764.9,609582,206070,50727.6,974876
0.142,0.000170987,232577,-37534.7,11992.3,606409,204995,50367.8,976523
0.144,0.000175552,232084,-39028.9,10219.8,603236,203919,50008,978171
0.146,0.000180125,231591,-40523.1,8447.21,600063,202844,49648.2,979818
0.148,0.000184705,231098,-42017.3,6674.66,596890,201769,49288.4,981465
0.15,0.000189293,230604,-43511.6,4902.1,593716,200694,48928.6,983112
0.152,0.000193887,230111,-45005.8,3129.56,590543,199618,48568.8,984759
0.154,0.000198486,229618,-46500,1357.01,587370,198543,48209,986406
0.156,0.000203092,229125,-47994.2,-415.547,584197,197468,47849.2,988053
0.158,0.000207702,228632,-49488.4,-2188.1,581024,196393,47489.4,989700
0.16,0.000212317,228138,-50982.6,-3960.64,577851,195318,47129.6,991347
0.162,0.000216937,227645,-52476.9,-5733.2,574678,194242,46769.7,992994
0.164,0.000221561,227152,-53971.1,-7505.75,571504,193167,46409.9,994641
0.166,0.000226189,226659,-55465.3,-9278.29,568331,192092,46050.1,996288
0.168,0.000230821,226166,-56959.5,-11050.8,565158,191017,45690.3,997935
0.17,0.000235457,225673,-58453.7,-12823.4,561985,189941,45330.5,999582
0.172,0.000240095,225179,-59947.9,-14596,558812,188866,44970.7,1.00123e+06
0.174,0.000244637,226924,-60964.4,-12940.7,564843,187839,44367.3,999585
0.176,0.000249126,229890,-61719.8,-9412.47,575904,186839,43630.8,996143
0.178,0.000254145,230140,-61617.9,-10980.2,577456,185229,45168.7,984126
0.18,0.000259667,228912,-60879.5,-16911.7,573433,183040,49326.4,967403
0.182,0.000265503,238583,-61664.1,-20336.8,603012,180505,59942.4,984620
0.184,0.000271341,248253,-62448.7,-23762,632592,177971,70558.5,1.00184e+06
0.186,0.000277179,257924,-63233.4,-27187.1,662172,175436,81174.5,1.01905e+06
0.188,0.000283018,267594,-64018,-30612.2,691751,172901,91790.5,1.03627e+06
0.19,0.000288858,277265,-64802.6,-34037.3,721331,170366,102407,1.05349e+06
0.192,0.000294698,286936,-65587.3,-37462.4,750911,167832,113023,1.0707e+06
0.194,0.000300539,296606,-66371.9,-40887.6,780491,165297,123639,1.08792e+06
0.196,0.000306381,306277,-67156.5,-44312.7,810070,162762,134255,1.10514e+06
0.198,0.000312429,310265,-66058.4,-44685.2,818426,160182,138110,1.10325e+06
0.2,0.000318556,312188,-64276.3,-43948.6,819071,157587,139508,1.09442e+06
0.202,0.000324686,314112,-62494.1,-43212.1,819716,154991,140907,1.08559e+06
0.204,0.000330819,316036,-60712,-42475.6,820361,152395,142305,1.07675e+06
0.206,0.000336956,317959,-58929.9,-41739,821006,149799,143704,1.06792e+06
0.208,0.000343095,319883,-57147.7,-41002.5,821651,147203,145103,1.05909e+06
0.21,0.000349237,321807,-55365.6,-40265.9,822296,144607,146501,1.05026e+06
0.212,0.000355381,323731,-53583.4,-39529.4,822941,142011,147900,1.04143e+06
0.214,0.000361528,325654,-51801.3,-38792.8,823586,139415,149298,1.0326e+06
0.216,0.000367678,327578,-50019.2,-38056.3,824231,136819,150697,1.02377e+06
0.218,0.000373829,329502,-48237,-37319.8,824876,134223,152095,1.01493e+06
0.22,0.000379983,331425,-46454.9,-36583.2,825521,131627,153494,1.0061e+06
0.222,0.000386138,333349,-44672.7,-35846.7,826166,129031,154893,997271
0.224,0.000392296,335273,-42890.6,-35110.1,826811,126435,156291,988439
0.226,0.000398902,323788,-40120.4,-27828.8,809370,123741,150762,977581
0.228,0.000405519,311989,-37327,-20393.9,791503,121044,145070,966676
0.23,0.000412136,300190,-34533.6,-12959,773637,118347,139378,955770
0.232,0.000418753,288391,-31740.2,-5524.13,755770,115650,133686,944865
0.234,0.000425371,276591,-28946.8,1910.8,737904,112953,127994,933959
0.236,0.000431989,264792,-26153.4,9345.72,720037,110256,122302,923054
0.238,0.000438607,252993,-23360,16780.7,702171,107559,116611,912148
0.24,0.000445467,250537,-23049,21889.9,696310,106632,115830,925186
0.242,0.000452381,250101,-23274.7,26496.5,693046,106088,116110,943400
0.244,0.000459297,249665,-23500.3,31103.1,689781,105543,116391,961614
0.246,0.000466215,249229,-23726,35709.7,686516,104999,116672,979828
0.248,0.000473135,248793,-23951.7,40316.2,683252,104454,116953,998041
0.25,0.000480057,248357,-24177.3,44922.8,679987,103910,117233,1.01626e+06
0.252,0.00048698,247921,-24403,49529.3,676722,103366,117514,1.03447e+06
0.254,0.000493904,247484,-24628.7,54135.9,673457,102821,117795,1.05268e+06
0.256,0.000500831,247048,-24854.3,58742.5,670193,102277,118076,1.0709e+06
0.258,0.000507758,246612,-25080,63349,666928,101732,118356,1.08911e+06
0.26,0.000514687,246176,-25305.7,67955.6,663663,101188,118637,1.10732e+06
0.262,0.000522001,241112,-23176.9,70369.2,659718,104963,118412,1.11619e+06
0.264,0.00052939,235141,-20586.9,72353.1,655640,109584,118089,1.12322e+06
0.266,0.000536779,229170,-17996.8,74337.1,651562,114204,117765,1.13025e+06
0.268,0.000544168,223199,-15406.8,76321,647484,118825,117442,1.13728e+06
0.27,0.000551557,217228,-12816.7,78304.9,643405,123446,117118,1.14431e+06
0.272,0.000558947,211257,-10226.7,80288.9,639327,128067,116794,1.15134e+06
0.274,0.000566417,206392,-7463.05,81740.2,635345,132170,116538,1.15654e+06
0.276,0.000574256,206656,-3894.63,80723,631806,133872,116591,1.15327e+06
0.278,0.000582097,206919,-326.205,79705.8,628267,135573,116645,1.15001e+06
0.28,0.000589938,207183,3242.22,78688.6,624728,137275,116699,1.14674e+06
0.282,0.000598096,213237,6136.68,75783.7,634247,134634,115308,1.12859e+06
0.284,0.000606377,221532,8770.43,72148.5,648817,130312,113358,1.10469e+06
0.286,0.000614658,229827,11404.2,68513.3,663387,125990,111408,1.08079e+06
0.288,0.000622939,238122,14037.9,64878.2,677957,121668,109458,1.05688e+06
0.29,0.000631221,246417,16671.7,61243,692527,117347,107508,1.03298e+06
0.292,0.000639503,254712,19305.4,57607.8,707097,113025,105558,1.00908e+06
0.294,0.000647868,258524,19029.5,53714.7,721110,112447,105121,991893
0.296,0.000656249,261607,18280,49779.7,735033,112479,104931,975804
0.298,0.00066463,264690,17530.4,45844.6,748956,112511,104741,959714
0.3,0.000673014,267774,16780.9,41909.5,762879,112544,104551,943625
0.302,0.000681398,270857,16031.4,37974.5,776801,112576,104361,927535
0.304,0.000689784,273940,15281.8,34039.5,790724,112608,104171,911446
0.306,0.000698171,277023,14532.3,30104.4,804647,112640,103981,895356
0.308,0.000706559,280106,13782.7,26169.4,818569,112672,103791,879267
0.31,0.000714948,283189,13033.2,22234.3,832492,112704,103601,863177
0.312,0.000723354,286234,12208.4,18070.4,845829,112751,103556,847435
0.314,0.000732181,288217,9306.85,7596.25,843026,113198,107496,841271
0.316,0.000741008,290200,6405.35,-2877.93,840223,113645,111437,835108
0.318,0.000749835,292183,3503.89,-13352,837420,114092,115378,828944
0.32,0.000758662,294166,602.382,-23826.1,834617,114539,119319,822780
0.322,0.00076749,296149,-2299.12,-34300.3,831814,114986,123260,816616
0.324,0.000776318,298133,-5200.62,-44774.5,829011,115433,127200,810452
0.326,0.000785168,299610,-7884.32,-54073.2,824669,115680,130961,806669
0.328,0.00079421,296661,-8661.47,-53082.5,806866,114178,133142,823728
0.33,0.000803254,293713,-9438.62,-52091.7,789062,112677,135324,840786
0.332,0.000812298,290764,-10215.8,-51101,771259,111175,137505,857843
0.334,0.000821343,287815,-10992.9,-50110.3,753455,109673,139686,874902
0.336,0.00083039,284866,-11770.1,-49119.5,735652,108171,141868,891960
0.338,0.000839437,281918,-12547.2,-48128.8,717848,106670,144049,909018
0.34,0.000848485,278969,-13324.4,-47138,700045,105168,146231,926076
0.342,0.000857533,276020,-14101.5,-46147.3,682241,103666,148412,943134
0.344,0.000866583,273071,-14878.7,-45156.5,664437,102164,150593,960192
0.346,0.000875633,270123,-15655.8,-44165.8,646634,100663,152775,977250
0.348,0.000884859,264393,-15925.1,-41652.5,628784,99654.2,152045,981966
0.35,0.0008944,253658,-15280.5,-36399.1,610852,99533.1,146076,964472
0.352,0.000903941,242924,-14636,-31145.7,592919,99412,140106,946979
0.354,0.000913482,232189,-13991.4,-25892.4,574987,99291,134137,929485
0.356,0.000923023,221455,-13346.8,-20639,557054,99169.9,128168,911992
0.358,0.000932565,210720,-12702.3,-15385.6,539121,99048.9,122199,894498
0.36,0.000942106,199986,-12057.7,-10132.3,521189,98927.8,116230,877005
0.362,0.000951647,189251,-11413.2,-4879,503257,98806.7,110261,859511
0.364,0.000961363,188156,-11476.4,-3555,506399,97062.5,108482,851690
0.366,0.000971112,188834,-11669.9,-2953.83,513418,95019.8,107474,845648
0.368,0.000980862,189512,-11863.4,-2352.67,520438,92977,106466,839607
0.37,0.000990613,190190,-12056.8,-1751.5,527457,90934.2,105458,833565
0.372,0.00100037,190868,-12250.3,-1150.34,534476,88891.4,104450,827523
0.374,0.00101012,191545,-12443.8,-549.175,541495,86848.6,103442,821481
0.376,0.00101987,192223,-12637.2,51.9812,548515,84805.9,102434,815440
0.378,0.00102963,192901,-12830.7,653.146,555534,82763.1,101426,809398
0.38,0.00103938,193579,-13024.2,1254.31,562553,80720.3,100418,803356
0.382,0.00104915,194954,-13325.6,1741.09,572422,79159.1,100038,794769
0.384,0.00105897,198625,-13982.8,1851.14,591677,79184.1,101727,777796
0.386,0.00106879,202297,-14640,1961.19,610931,79209.1,103415,760823
0.388,0.00107861,205968,-15297.1,2071.24,630186,79234.2,105104,743850
0.39,0.00108844,209639,-15954.3,2181.29,649440,79259.2,106792,726878
0.392,0.00109826,213310,-16611.4,2291.34,668694,79284.2,108481,709905
0.394,0.00110831,215356,-16914.3,2886.06,682905,79729,110791,695788
0.396,0.00111881,214060,-16489,4476.81,686751,81036.5,114381,687540
0.398,0.00112931,212765,-16063.7,6067.57,690596,82344,117970,679291
0.4,0.00113981,211469,-15638.4,7658.32,694442,83651.5,121560,671043
0.402,0.00115031,210174,-15213.1,9249.07,698287,84959,125149,662795
0.404,0.00116081,208878,-14787.8,10839.8,702133,86266.5,128739,654546
0.406,0.00117131,207583,-14362.5,12430.6,705978,87573.9,132328,646298
0.408,0.00118181,206288,-13937.2,14021.3,709824,88881.4,135918,638050
0.41,0.00119242,200860,-12690.7,15167.5,704452,89734.2,136231,639178
0.412,0.00120329,191219,-11169.4,14507.8,679198,88212.5,130553,655526
0.414,0.00121416,181578,-9648.04,13848,653944,86690.9,124874,671875
0.416,0.00122503,171937,-8126.69,13188.3,628690,85169.2,119196,688224
0.418,0.00123591,162296,-6605.34,12528.6,603436,83647.5,113517,704572
0.42,0.00124678,152655,-5084.02,11868.9,578183,82125.8,107839,720920
0.422,0.00125766,143015,-3562.67,11209.1,552929,80604.1,102160,737269
0.424,0.00126853,133374,-2041.32,10549.4,527675,79082.4,96481.6,753618
0.426,0.00127941,123733,-519.975,9889.69,502421,77560.8,90803,769966
0.428,0.00129028,114092,1001.37,9229.97,477167,76039.1,85124.5,786315
0.43,0.00130116,104451,2522.72,8570.24,451913,74517.4,79446,802663
0.432,0.00131201,97651.5,2050.62,7321.34,426874,72390,76215.9,809675
0.434,0.00132284,93317,-151.008,5561.27,402022,69737.1,75110.2,808585
0.436,0.00133366,88982.5,-2352.67,3801.18,377169,67084.1,74004.5,807496
0.438,0.00134449,84647.9,-4554.32,2041.09,352316,64431.2,72898.8,806406
0.44,0.00135532,80313.4,-6755.98,281.001,327464,61778.2,71793.1,805316
0.442,0.00136615,75978.8,-8957.64,-1479.09,302611,59125.3,70687.4,804227
0.444,0.00137722,77151.2,-16009.2,-2990.82,290348,55366,71789.2,800226
0.446,0.0013885,82840.5,-27039,-4298.84,288410,50699.4,74701.9,793838
0.448,0.00139979,88529.8,-38068.7,-5606.85,286472,46032.7,77614.6,787449
0.45,0.00141107,94219,-49098.3,-6914.85,284534,41366.1,80527.2,781061
0.452,0.00142276,100512,-48368.8,-5042.36,305446,41464.1,85260.1,771553
0.454,0.00143448,106851,-46730.5,-2924.08,328124,41930.4,90133.8,761803
0.456,0.00144621,113190,-45092.3,-805.795,350802,42396.7,95007.4,752054
0.458,0.00145793,119529,-43454.1,1312.49,373479,42862.9,99881.1,742304
0.46,0.00146966,125868,-41815.8,3430.77,396157,43329.2,104755,732555
0.462,0.00148138,132207,-40177.6,5549.05,418835,43795.5,109628,722805
0.464,0.00149311,138546,-38539.3,7667.3,441513,44261.7,114502,713056
0.466,0.00150484,144886,-36901.1,9785.58,464190,44728,119376,703307
0.468,0.00151656,151225,-35262.9,11903.9,486868,45194.3,124249,693557
0.47,0.00152829,157564,-33624.6,14022.1,509546,45660.5,129123,683808
0.472,0.00154002,163903,-31986.4,16140.4,532224,46126.8,133996,674058
0.474,0.00155175,170242,-30348.1,18258.7,554902,46593.1,138870,664309
0.476,0.00156348,176581,-28709.9,20377,577580,47059.3,143744,654560
0.478,0.00157517,182192,-24704.7,22714.2,598008,47877.4,148994,642554
0.48,0.00158681,186838,-17565.1,25341.5,615457,49161.2,154744,627560
0.482,0.00159846,191483,-10425.5,27968.8,632906,50445.1,160493,612566
0.484,0.0016101,196129,-3285.93,30596.1,650355,51729,166243,597572
0.486,0.00162175,200775,3853.66,33223.4,667804,53012.8,171992,582579
0.488,0.00163351,201343,11130.3,35026.7,678791,52703.2,173748,573188
0.49,0.00164556,192565,18721.1,34941.3,674968,48740.8,166348,576641
0.492,0.0016576,183786,26311.8,34855.9,671146,44778.5,158948,580094
0.494,0.00166965,175008,33902.5,34770.4,667323,40816.3,151549,583547
0.496,0.0016817,166230,41493.2,34685,663500,36853.9,144149,587000
0.498,0.00169374,157452,49084,34599.6,659677,32891.6,136749,590453
0.5,0.00170596,150225,52523.4,34143.3,655912,30567.9,128992,593768
0.502,0.00171832,144532,51926.9,32907.9,652448,29098.1,121111,597976
0.504,0.00173063,140613,47001.6,28522.3,650652,24457.4,114331,608815
0.506,0.00174293,136961,42375.5,24387.4,648620,20143.6,107900,618920
0.508,0.00175515,135551,40254.3,22352.5,644608,18567.1,104388,622871
0.51,0.00176738,134141,38133.1,20317.6,640596,16990.7,100876,626822
0.512,0.00177961,132730,36011.8,18282.6,636584,15414.2,97363.8,630772
0.514,0.00179184,131320,33890.7,16247.7,632573,13837.7,93851.7,634723
0.516,0.00180406,129910,31769.5,14212.8,628561,12261.3,90339.6,638674
0.518,0.00181629,128500,29648.2,12177.8,624549,10684.8,86827.4,642625
0.52,0.00182852,127090,27527,10142.9,620538,9108.32,83315.3,646576
0.522,0.00184075,125680,25405.8,8107.91,616526,7531.82,79803.1,650527
0.524,0.00185297,124270,23284.6,6073,612514,5955.38,76291,654477
0.526,0.0018652,122860,21163.3,4038.02,608502,4378.88,72778.8,658428
0.528,0.0018775,121569,19847.1,2926.29,605378,3903.66,69978.1,662517
0.53,0.00189008,120785,21921.5,5703.43,605995,8067.36,70174.6,667189
0.532,0.00190267,120000,23996,8480.66,606611,12231.2,70371.1,671860
0.534,0.00191525,119215,26070.4,11257.8,607227,16394.9,70567.5,676531
0.536,0.00192784,118430,28144.9,14035,607843,20558.7,70764,681202
0.538,0.00194042,117645,30219.4,16812.2,608460,24722.4,70960.5,685874
0.54,0.00195301,116936,32168.6,19544.5,608518,28836.5,71188.1,689739
0.542,0.00196572,117631,31810,21449.1,598285,32034.3,71989.9,678761
0.544,0.00197867,117922,29465.4,21267.9,584238,34529.9,72522.5,667621
0.546,0.00199181,117903,25584.7,19473.5,567241,36482.4,72846.9,656358
0.548,0.00200495,117883,21704.1,17679,550245,38434.8,73171.3,645094
0.55,0.0020181,117864,17823.3,15884.5,533248,40387.3,73495.8,633830
0.552,0.00203124,117844,13942.6,14090.1,516252,42339.8,73820.2,622567
0.554,0.00204438,117825,10061.9,12295.6,499255,44292.3,74144.6,611303
0.556,0.00205768,117820,8516.84,14369.1,495241,45013.7,73789,631180
0.558,0.00207101,117818,7522.27,17354.3,494285,45445,73273,658398
0.56,0.00208434,117816,6527.73,20339.3,493330,45876.4,72757.1,685614
0.562,0.00209768,117815,5533.19,23324.4,492374,46307.7,72241.2,712831
0.564,0.00211101,117813,4538.62,26309.6,491419,46739,71725.3,740048
0.566,0.00212434,117811,3544.08,29294.7,490463,47170.3,71209.3,767265
0.568,0.00213768,117810,2549.51,32279.9,489508,47601.7,70693.4,794483
0.57,0.00215101,117808,1554.97,35265,488553,48033,70177.5,821699
0.572,0.00216434,117806,560.402,38250.1,487597,48464.3,69661.5,848917
0.574,0.00217781,116710,84.0207,41674.9,475394,48478.4,65978,858745
0.576,0.0021914,113638,-685.054,45226.2,470111,48506.1,65570.8,857125
0.578,0.00220499,110406,-1532.98,48757.9,466610,48569.2,65832.9,855468
0.58,0.00221859,107173,-2380.88,52289.5,463108,48632.3,66095.1,853811
0.582,0.00223218,103941,-3228.8,55821.2,459607,48695.4,66357.3,852155
0.584,0.00224577,100708,-4076.7,59352.8,456106,48758.5,66619.5,850498
0.586,0.00225936,97475.3,-4924.63,62884.5,452605,48821.6,66881.6,848842
0.588,0.00227295,94242.8,-5772.53,66416.1,449104,48884.7,67143.8,847185
0.59,0.00228655,91010.2,-6620.43,69947.7,445603,48947.8,67406,845529
0.592,0.00230014,87777.6,-7468.35,73479.5,442101,49010.9,67668.1,843872
0.594,0.00231373,84545.1,-8316.25,77011.1,438600,49074,67930.3,842216
0.596,0.00232751,83951.4,-8792.22,78618.2,438061,50884.5,70227.1,837940
0.598,0.00234142,85081.2,-9025.24,78968.4,439457,53836,73852.6,831954
0.6,0.00235533,86211.1,-9258.27,79318.6,440852,56787.7,77478.2,825968
0.602,0.0023692,87620.3,-9317.94,78554.1,440244,59975,80217.4,814043
0.604,0.00238305,89162.6,-9295.07,77259,438682,63274.6,82534.6,799291
0.606,0.0023969,90704.9,-9272.19,75963.8,437119,66574.2,84851.9,784538
0.608,0.00241075,92247.2,-9249.31,74668.6,435557,69873.8,87169.1,769785
0.61,0.0024246,93789.5,-9226.43,73373.4,433995,73173.4,89486.4,755033
0.612,0.00243845,95331.8,-9203.55,72078.2,432432,76473,91803.6,740280
0.614,0.0024523,96874.1,-9180.68,70783,430870,79772.7,94120.8,725528
0.616,0.00246615,98416.3,-9157.8,69487.8,429307,83072.2,96438,710775
0.618,0.00248,99958.6,-9134.92,68192.7,427745,86371.8,98755.3,696023
0.62,0.00249389,100405,-8533.08,66156.1,424745,89605.1,100649,686783
0.622,0.00250794,97106.7,-5954.37,61588.2,416835,92612,101095,696367
0.624,0.00252198,93808.8,-3375.59,57020.1,408926,95619,101541,705951
0.626,0.00253616,90563.5,-1557.81,53221.2,402325,96241.1,102108,708507
0.628,0.00255047,87371.2,-509.069,50199.6,397048,94452.9,102797,703958
0.63,0.00256478,84178.9,539.643,47178,391770,92664.7,103486,699409
0.632,0.00257909,80986.5,1588.39,44156.3,386492,90876.5,104176,694860
0.634,0.0025934,77794.3,2637.1,41134.8,381215,89088.3,104865,690312
0.636,0.00260779,75162.3,3250.17,39240.1,376032,86992,105313,685986
0.638,0.00262238,73916.3,2785.5,40133.5,371086,84133.4,105162,682211
0.64,0.00263697,72670.3,2320.85,41026.9,366139,81275,105012,678437
0.642,0.00265157,71424.3,1856.18,41920.3,361192,78416.4,104861,674662
0.644,0.00266616,70178.3,1391.53,42813.6,356245,75558,104711,670887
0.646,0.00268085,69218.3,1388.15,42692.9,353900,73156,103682,666943
0.648,0.00269571,68704.2,2103.97,40991.1,355611,71465.9,101282,662735
0.65,0.00271057,68190.1,2819.8,39289.3,357322,69775.8,98883.1,658527
0.652,0.00272543,67676,3535.64,37587.4,359034,68085.6,96483.7,654319
0.654,0.00274029,67161.9,4251.47,35885.6,360745,66395.6,94084.5,650111
0.656,0.00275515,66647.7,4967.32,34183.8,362456,64705.4,91685.1,645903
0.658,0.00277001,66133.6,5683.14,32482,364167,63015.3,89285.9,641695
0.66,0.00278487,65619.5,6398.99,30780.1,365878,61325.2,86886.5,637487
0.662,0.00279973,65105.4,7114.81,29078.3,367589,59635.1,84487.2,633279
0.664,0.00281458,64591.3,7830.64,27376.5,369300,57945,82088,629071
0.666,0.00282945,64077.2,8546.49,25674.6,371011,56254.8,79688.6,624863
0.668,0.00284431,63563.1,9262.31,23972.8,372722,54564.7,77289.4,620655
0.67,0.00285917,63049,9978.16,22270.9,374433,52874.6,74890,616447
0.672,0.00287403,62534.9,10694,20569.1,376144,51184.5,72490.7,612239
0.674,0.00288889,62020.7,11409.8,18867.3,377856,49494.3,70091.4,608031
0.676,0.00290375,61506.6,12125.7,17165.4,379567,47804.2,67692.1,603823
0.678,0.00291861,60992.5,12841.5,15463.6,381278,46114.1,65292.9,599615
0.68,0.00293348,60456.6,13599.6,13644.7,382480,44672,62576.8,595453
0.682,0.00294853,59472.9,15224.7,9425.3,373239,48314.8,53365.9,592250
0.684,0.00296359,58489.2,16849.8,5205.79,363998,51957.7,44154.7,589047
0.686,0.00297865,57505.6,18474.9,986.405,354758,55600.6,34943.8,585844
0.688,0.0029937,56521.9,20100,-3233.11,345517,59243.5,25732.7,582641
0.69,0.00300876,55538.2,21725.1,-7452.49,336277,62886.3,16521.8,579438
0.692,0.00302381,54554.5,23350.2,-11671.9,327036,66529.2,7310.92,576235
0.694,0.00303887,53570.8,24975.3,-15891.4,317796,70172.1,-1900.23,573032
0.696,0.00305392,52587.2,26600.4,-20110.8,308555,73814.9,-11111.1,569829
0.698,0.00306907,52057.8,27295.2,-22308.7,301980,76777.6,-18142.6,564116
0.7,0.00308442,52476.2,26049.6,-20290.4,300966,78321.4,-20628.1,553171
0.702,0.00309977,52894.6,24804,-18272.1,299951,79865.2,-23113.7,542226
0.704,0.00311512,53312.9,23558.4,-16253.8,298937,81409,-25599.2,531281
0.706,0.00313047,53731.3,22312.9,-14235.5,297923,82952.8,-28084.7,520336
0.708,0.00314582,54149.6,21067.2,-12217.1,296908,84496.6,-30570.3,509390
0.71,0.00316117,54568,19821.7,-10198.8,295894,86040.4,-33055.8,498445
0.712,0.00317675,53949.8,20990.9,-11556.6,302286,85904.8,-35979.3,494823
0.714,0.00319255,52391,24351.2,-15977.9,315400,84245.5,-39300.3,497846
0.716,0.00320836,50832.2,27711.6,-20399.3,328514,82586.1,-42621.3,500869
0.718,0.00322416,49273.5,31071.8,-24820.6,341628,80926.8,-45942.2,503892
0.72,0.00323996,47714.7,34432.2,-29242,354741,79267.5,-49263.2,506914
0.722,0.00325576,46155.9,37792.5,-33663.2,367855,77608.1,-52584.2,509937
0.724,0.00327153,45380.4,41917.6,-36068.6,380065,76984.9,-54898.8,515752
0.726,0.00328724,46421.2,47816.5,-33799.1,390180,78764.5,-54879.6,528042
0.728,0.00330294,47461.9,53715.2,-31529.7,400294,80544.1,-54860.5,540331
0.73,0.00331864,48502.7,59614.1,-29260.2,410409,82323.7,-54841.4,552620
0.732,0.00333434,49543.5,65512.8,-26990.8,420524,84103.2,-54822.2,564910
0.734,0.00335004,50584.2,71411.7,-24721.3,430638,85882.8,-54803.1,577199
0.736,0.00336575,51625,77310.4,-22451.9,440753,87662.4,-54784,589489
0.738,0.00338145,52665.8,83209.1,-20182.4,450867,89441.9,-54764.9,601778
0.74,0.0033971,50027.3,79062.5,-24485.5,451470,88220.2,-60425.7,592460
0.742,0.00341274,47273.9,74602.2,-28993.7,451774,86904.8,-66263.8,582467
0.744,0.00342839,44520.5,70141.8,-33502.1,452079,85589.4,-72102,572473
0.746,0.00344404,41767.2,65681.6,-38010.4,452384,84274,-77940.1,562480
0.748,0.00345988,45236.7,64282.6,-35747.4,450441,84347.2,-71769.8,554134
0.75,0.00347573,49147.7,63100.9,-33004,448338,84518.9,-64747.4,545905
0.752,0.00349159,53058.8,61919.3,-30260.5,446235,84690.6,-57724.9,537676
0.754,0.00350745,56969.9,60737.6,-27516.9,444131,84862.4,-50702.2,529446
0.756,0.00352357,56469.7,56352.7,-26945,442159,85122.4,-44637.5,522920
0.758,0.00353971,55682.1,51758.9,-26514.6,440194,85388.1,-38635,516504
0.76,0.00355585,54894.5,47165.3,-26084.1,438230,85653.8,-32632.7,510089
0.762,0.00357207,53537,44053.4,-25311.6,435784,85712.5,-27821.8,508342
0.764,0.00358841,51148.4,43622.6,-23920.2,432468,85396.8,-25166.9,515041
0.766,0.00360475,48759.8,43191.8,-22528.8,429151,85081.1,-22512,521741
0.768,0.00362109,46371,42761,-21137.4,425834,84765.3,-19857,528440
0.77,0.00363743,43982.4,42330.3,-19746.1,422517,84449.6,-17202.1,535140
0.772,0.00365377,41593.7,41899.5,-18354.7,419200,84133.9,-14547.1,541839
0.774,0.00367007,39711.4,40742.5,-17050.7,413449,83625.1,-11303.3,548306
0.776,0.0036863,38843.3,38130.7,-15921.6,402822,82729.5,-6879.76,554308
0.778,0.00370252,37975.2,35519.1,-14792.7,392195,81833.9,-2456.34,560310
0.78,0.00371875,37107.2,32907.4,-13663.7,381568,80938.3,1967.08,566312
0.782,0.00373497,36239.1,30295.7,-12534.7,370941,80042.7,6390.63,572314
0.784,0.0037512,35371.1,27684,-11405.7,360314,79147.2,10814,578315
0.786,0.00376742,34503,25072.3,-10276.7,349687,78251.5,15237.6,584317
0.788,0.00378365,33634.9,22460.6,-9147.69,339060,77356,19661,590319
0.79,0.00379988,32766.9,19848.9,-8018.67,328433,76460.4,24084.6,596321
0.792,0.00381613,32231,17349.9,-7019.38,317696,75485.6,28541.8,600874
0.794,0.00383286,36748.7,16565.3,-7993.38,305277,73306.5,33513.4,583378
0.796,0.0038496,41266.4,15780.6,-8967.36,292859,71127.5,38484.9,565882
0.798,0.00386633,45784,14996,-9941.33,280441,68948.4,43456.4,548387
0.8,0.00388306,50301.8,14211.4,-10915.3,268023,66769.3,48428,530891
0.802,0.00389979,54819.4,13426.8,-11889.3,255605,64590.2,53399.5,513396
0.804,0.00391652,59337.2,12642.2,-12863.3,243186,62411.1,58371.1,495900
0.806,0.00393325,63854.8,11857.5,-13837.3,230768,60232.1,63342.6,478405
0.808,0.00394998,68372.6,11072.9,-14811.3,218350,58052.9,68314.2,460909
0.81,0.00396681,71891.8,10550.5,-14991.1,215044,57344.8,72063.7,452244
0.812,0.00398372,74600.8,10240.8,-14526.5,219132,57830.3,74821.7,450743
0.814,0.00400062,77309.9,9931.13,-14061.9,223221,58315.7,77579.8,449242
0.816,0.00401752,80018.9,9621.46,-13597.3,227309,58801.1,80337.8,447741
0.818,0.00403443,82728,9311.77,-13132.7,231398,59286.6,83095.9,446240
0.82,0.00405133,85437,9002.1,-12668.1,235486,59772,85853.9,444739
0.822,0.00406824,88146.1,8692.42,-12203.5,239575,60257.4,88612,443238
0.824,0.00408514,90855.1,8382.74,-11738.9,243663,60742.9,91370,441737
0.826,0.00410205,93564.1,8073.07,-11274.3,247751,61228.3,94128,440236
0.828,0.00411895,96273.2,7763.39,-10809.7,251840,61713.7,96886.1,438735
0.83,0.00413586,98982.2,7453.71,-10345.1,255928,62199.2,99644.1,437234
0.832,0.00415276,101691,7144.03,-9880.54,260017,62684.6,102402,435733
0.834,0.00416967,104400,6834.36,-9415.96,264105,63170,105160,434232
0.836,0.00418657,107109,6524.67,-8951.35,268194,63655.5,107918,432732
0.838,0.00420348,109818,6215,-8486.76,272282,64140.9,110676,431231
0.84,0.00422038,112527,5905.33,-8022.18,276370,64626.3,113434,429730
0.842,0.00423723,114109,6152.93,-7300.92,280059,65494.3,115936,428913
0.844,0.00425406,115597,6447.14,-6558.2,283714,66394.2,118417,428154
0.846,0.0042709,117084,6741.36,-5815.47,287369,67294.2,120898,427394
0.848,0.00428774,118572,7035.58,-5072.75,291024,68194.1,123379,426635
0.85,0.00430457,120060,7329.8,-4330.02,294679,69094.1,125860,425876
0.852,0.0043217,119784,6345.88,-2853.89,290956,69325.5,123552,426598
0.854,0.00433888,119148,5101.18,-1228.12,285727,69420.6,120268,427622
0.856,0.0043561,116314,4292.27,301.061,279546,69471.4,114712,428222
0.858,0.00437339,110201,4133.47,1686.04,271944,69456.3,105766,428191
0.86,0.00439067,104087,3974.66,3071.06,264342,69441.1,96820.2,428159
0.862,0.00440796,97972.9,3815.86,4456.04,256740,69426,87874.5,428128
0.864,0.00442524,91859,3657.05,5841.06,249138,69410.9,78928.5,428097
0.866,0.0044427,88013.4,3892.15,6635.48,247165,69445.4,73414.5,427486
0.868,0.00446026,85674,4388.84,7037.67,248931,69512.8,70179.5,426489
0.87,0.00447783,83334.5,4885.55,7439.88,250696,69580.2,66944.3,425493
0.872,0.00449539,80995.1,5382.25,7842.08,252462,69647.6,63709.3,424496
0.874,0.00451295,78655.7,5878.96,8244.29,254228,69715,60474.2,423499
0.876,0.00453052,76316.3,6375.65,8646.49,255993,69782.5,57239.1,422503
0.878,0.00454807,74534.2,7171.57,9411.83,258761,69772.6,54573.5,420959
0.88,0.00456562,72854.7,8022.48,10243.9,261714,69748.6,52012.6,419314
0.882,0.00458318,71175.2,8873.42,11076,264667,69724.6,49451.6,417668
0.884,0.00460073,69495.6,9724.33,11908.1,267619,69700.5,46890.7,416023
0.886,0.00461828,67816.1,10575.2,12740.2,270572,69676.5,44329.9,414378
0.888,0.00463583,66136.5,11426.2,13572.3,273524,69652.5,41768.9,412733
0.89,0.00465338,64457,12277.1,14404.4,276477,69628.4,39208,411088
0.892,0.00467094,62777.5,13128,15236.5,279430,69604.4,36647.1,409443
0.894,0.00468849,61097.9,13978.9,16068.6,282382,69580.4,34086.2,407798
0.896,0.00470604,59418.4,14829.9,16900.7,285335,69556.3,31525.2,406153
0.898,0.00472359,57738.9,15680.8,17732.7,288287,69532.3,28964.3,404508
0.9,0.00474115,56059.3,16531.7,18564.8,291240,69508.3,26403.4,402863
0.902,0.0047587,54379.8,17382.6,19396.9,294193,69484.2,23842.5,401218
0.904,0.00477648,49808.4,16620.5,18864.6,295240,71461.1,20692.3,405684
0.906,0.00479428,44994.4,15723.1,18217.8,296128,73605.8,17492.7,410662
0.908,0.00481208,40180.5,14825.7,17571,297016,75750.5,14293.1,415640
0.91,0.00482988,35366.5,13928.3,16924.2,297904,77895.2,11093.5,420618
0.912,0.00484768,30552.7,13030.9,16277.5,298792,80039.9,7893.91,425596
0.914,0.00486548,25738.8,12133.6,15630.7,299680,82184.5,4694.36,430574
0.916,0.00488328,20924.8,11236.2,14983.9,300568,84329.2,1494.71,435552
0.918,0.00490108,16110.9,10338.8,14337.2,301456,86473.9,-1704.85,440530
0.92,0.00491907,13334.3,10406.7,13880.8,301371,88198.2,-3638.29,444340
0.922,0.00493725,12747.2,11512.2,13629,300242,89470.7,-4210.91,446895
0.924,0.00495544,12160.1,12617.6,13377.2,299112,90743.2,-4783.55,449450
0.926,0.00497363,11573,13723.1,13125.4,297982,92015.7,-5356.18,452004
0.928,0.00499181,10986,14828.5,12873.6,296852,93288.2,-5928.8,454559
0.93,0.00500996,11766.7,15535.1,13023.2,291159,94607.5,-6290.05,451561
0.932,0.0050281,12602,16225.8,13188.9,285284,95928.7,-6642.84,448341
0.934,0.00504624,13437.4,16916.4,13354.6,279408,97249.9,-6995.64,445121
0.936,0.00506439,14272.7,17607.1,13520.2,273533,98571,-7348.43,441901
0.938,0.00508253,15108.1,18297.8,13685.9,267658,99892.2,-7701.23,438681
0.94,0.00510067,15943.4,18988.4,13851.6,261782,101213,-8054.02,435462
0.942,0.00511881,16778.8,19679.1,14017.2,255907,102535,-8406.81,432242
0.944,0.00513696,17614.1,20369.8,14182.9,250032,103856,-8759.61,429022
0.946,0.0051551,18449.5,21060.4,14348.6,244157,105177,-9112.4,425802
0.948,0.00517324,19284.9,21751.1,14514.2,238281,106498,-9465.2,422582
0.95,0.00519139,20120.2,22441.8,14679.9,232406,107819,-9818,419362
0.952,0.00520953,20955.6,23132.5,14845.6,226531,109140,-10170.8,416142
0.954,0.00522767,21790.9,23823.1,15011.2,220655,110462,-10523.6,412922
0.956,0.00524581,22626.3,24513.8,15176.9,214780,111783,-10876.4,409703
0.958,0.00526403,27680.5,27298.9,16010.3,218139,114477,-5670.29,411286
0.96,0.00528232,38083.7,32739.6,17690.3,233207,118911,6583.8,418958
0.962,0.00530075,54426.2,42154.5,19937.7,273081,125168,26647.8,446907
0.964,0.00531933,77851.6,56309.1,22861.7,342542,133598,56025.9,499038
0.966,0.00533786,94133.4,64902.8,24577.6,389309,138964,77640.7,532500
0.968,0.00535621,87534.7,55685.5,22424.3,363391,134515,74389.6,506167
0.97,0.00537456,80935.8,46468,20271,337471,130066,71138.4,479833
0.972,0.00539291,74337.1,37250.8,18117.6,311553,125618,67887.3,453500
0.974,0.00541126,67738.4,28033.5,15964.3,285635,121169,64636.2,427167
0.976,0.00542968,61540.2,21134.6,15093.9,268921,116673,62768.9,410370
0.978,0.00544812,55445,14831.1,14552.8,254571,112166,61256.8,396021
0.98,0.00546673,54600.9,14523.8,15120.2,252698,110251,62755.1,396127
0.982,0.00548534,53904.1,14384.6,15718.8,251175,108408,64337.7,396638
0.984,0.00550395,53207.2,14245.4,16317.3,249652,106566,65920.4,397149
0.986,0.00552256,52510.3,14106.2,16915.8,248128,104723,67503,397660
0.988,0.00554118,51813.4,13967,17514.4,246605,102880,69085.7,398171
0.99,0.00555979,51116.5,13827.7,18112.9,245082,101038,70668.3,398682
0.992,0.0055784,50419.7,13688.5,18711.5,243559,99195.3,72251,399193
0.994,0.00559701,49722.8,13549.3,19310,242035,97352.6,73833.7,399705
0.996,0.00561563,49025.9,13410.1,19908.5,240512,95510.1,75416.3,400216
0.998,0.00563424,48329,13270.9,20507.1,238989,93667.4,76999,400727
1,0.00565285,47632.2,13131.7,21105.6,237465,91824.9,78581.6,401238
1.002,0.00567146,46935.3,12992.5,21704.2,235942,89982.3,80164.2,401749
1.004,0.00569008,46238.4,12853.3,22302.7,234419,88139.7,81746.9,402260
1.006,0.00570869,45541.5,12714,22901.3,232895,86297,83329.6,402771
1.008,0.0057273,44844.7,12574.8,23499.8,231372,84454.4,84912.2,403282
1.01,0.00574591,44147.8,12435.6,24098.3,229849,82611.9,86494.9,403793
1.012,0.00576453,43450.9,12296.4,24696.9,228326,80769.3,88077.5,404304
1.014,0.00578314,42754,12157.2,25295.4,226802,78926.6,89660.2,404815
1.016,0.00580175,42057.2,12018,25894,225279,77084,91242.9,405326
1.018,0.00582037,41360.3,11878.8,26492.5,223756,75241.5,92825.5,405837
1.02,0.00583898,40663.4,11739.5,27091,222232,73398.9,94408.1,406348
1.022,0.00585759,39966.6,11600.3,27689.6,220709,71556.3,95990.8,406859
1.024,0.00587621,39167.2,11512.1,28336.1,219188,69748.4,97548.5,407523
1.026,0.00589474,39686.1,10768.1,28365,217639,67493.4,99428,406216
1.028,0.00591352,37480.6,9200.06,28153.5,215560,65650.2,94700.5,409263
1.03,0.00593243,35088.1,7797.55,29563.4,213876,64900.3,88413,411395
1.032,0.00595135,32695.6,6395.03,30973.2,212192,64150.5,82125.6,413528
1.034,0.00597026,30303,4992.44,32383.2,210508,63400.6,75837.8,415660
1.036,0.00598918,27910.5,3589.92,33793.1,208824,62650.8,69550.3,417792
1.038,0.00600809,25518.1,2187.41,35203,207141,61900.9,63262.9,419925
1.04,0.00602701,23125.6,784.893,36612.9,205457,61151.1,56975.5,422057
1.042,0.00604592,20733,-617.705,38022.8,203773,60401.2,50687.7,424190
1.044,0.00606485,19298.3,-1439.69,40149.5,200646,60284.8,46187,424455
1.046,0.00608396,19358.8,-873.976,40895,202812,61500.4,44285.5,417788
1.048,0.00610308,19413.2,-296.007,41552.9,205239,62723.4,42366.1,410999
1.05,0.00612221,19467.6,281.962,42210.7,207665,63946.4,40446.8,404210
1.052,0.00614133,19521.9,859.966,42868.6,210091,65169.4,38527.3,397421
1.054,0.00616045,19576.3,1437.93,43526.5,212518,66392.4,36608,390632
1.056,0.00617957,19630.7,2015.9,44184.3,214944,67615.4,34688.7,383844
1.058,0.00619869,19685,2593.87,44842.2,217371,68838.4,32769.3,377055
1.06,0.00621782,19739.4,3171.84,45500.1,219797,70061.4,30850,370266
1.062,0.00623694,19793.8,3749.85,46158,222224,71284.4,28930.5,363477
1.064,0.00625606,19848.1,4327.81,46815.8,224650,72507.4,27011.2,356688
1.066,0.00627518,19902.5,4905.78,47473.7,227076,73730.4,25091.9,349900
1.068,0.0062943,19956.9,5483.75,48131.5,229503,74953.3,23172.5,343111
1.07,0.00631343,20011.2,6061.76,48789.4,231929,76176.4,21253.1,336322
1.072,0.00633255,20065.6,6639.73,49447.3,234356,77399.4,19333.8,329533
1.074,0.0063517,20236.8,7728.75,49502.9,235260,77677,18106.6,320631
1.076,0.00637092,20739.5,10267.5,47850.3,231848,75272.7,18843.2,305734
1.078,0.00639015,21242.2,12806.3,46197.6,228435,72868.4,19579.7,290836
1.08,0.0064094,21205,15119.4,45021.7,224555,70568.2,19612,278494
1.082,0.00642881,19801.3,16083.2,45319.1,220908,69209,17471.5,278096
1.084,0.0064483,19320.2,16059.8,45270.8,220560,68867.8,15845.3,283006
1.086,0.00646778,18839.1,16036.3,45222.6,220211,68526.6,14219.2,287916
1.088,0.00648727,18358,16012.9,45174.3,219862,68185.5,12592.9,292827
1.09,0.00650676,17876.9,15989.4,45126,219513,67844.3,10966.7,297737
1.092,0.00652624,17395.8,15966,45077.8,219165,67503.1,9340.56,302647
1.094,0.00654573,16914.7,15942.5,45029.5,218816,67162,7714.38,307557
1.096,0.00656521,16433.6,15919.1,44981.3,218467,66820.8,6088.21,312467
1.098,0.0065847,15952.5,15895.6,44933,218118,66479.6,4461.94,317378
1.1,0.00660419,15471.5,15872.2,44884.7,217770,66138.4,2835.77,322288
1.102,0.00662367,14990.4,15848.7,44836.5,217421,65797.3,1209.59,327198
1.104,0.00664316,14509.3,15825.3,44788.2,217072,65456.1,-416.581,332108
1.106,0.00666264,14028.2,15801.8,44739.9,216723,65114.9,-2042.75,337019
1.108,0.00668214,14719.5,15797.6,43598.4,215165,64561.6,-2638.76,339546
1.11,0.00670164,15896.2,15801.3,42004.3,213106,63920.4,-2808.14,341086
1.112,0.00672113,17072.9,15805.1,40410.1,211047,63279.2,-2977.51,342625
1.114,0.00674063,18249.6,15808.8,38816,208988,62638,-3146.89,344165
1.116,0.00676013,19426.3,15812.5,37221.7,206929,61996.8,-3316.28,345705
1.118,0.00677962,20603,15816.3,35627.6,204870,61355.6,-3485.65,347245
1.12,0.00679912,21779.7,15820,34033.4,202811,60714.4,-3655.03,348785
1.122,0.00681876,22659.1,17181.9,30685,200704,60623.4,-933.31,345808
1.124,0.00683843,23478.7,18816.8,26984,198588,60643,2369.45,341922
1.126,0.00685811,24298.3,20451.7,23282.8,196471,60662.7,5672.41,338037
1.128,0.00687778,25117.9,22086.6,19581.8,194354,60682.3,8975.18,334152
1.13,0.00689745,25937.5,23721.4,15880.9,192237,60701.9,12277.9,330266
1.132,0.00691712,26757.2,25356.3,12179.9,190121,60721.5,15580.7,326381
1.134,0.00693685,27129.7,26517.1,9879.49,187811,61059.2,18356.8,322854
1.136,0.00695667,26839.3,26975.1,9655.51,185213,61868.4,20352.2,319857
1.138,0.00697648,26549,27433.1,9431.55,182616,62677.5,22347.5,316861
1.14,0.00699627,26455.3,27220,9070.81,180531,62004.9,22254.7,312073
1.142,0.00701606,26396.9,26886.7,8685.59,178538,61067.1,21788.1,306964
1.144,0.00703586,26338.5,26553.5,8300.34,176544,60129.3,21321.6,301854
1.146,0.00705565,26280,26220.2,7915.12,174551,59191.5,20855,296745
1.148,0.00707544,26221.6,25886.9,7529.89,172558,58253.6,20388.5,291636
1.15,0.00709523,26163.2,25553.6,7144.67,170565,57315.8,19921.9,286527
1.152,0.00711502,26104.8,25220.4,6759.44,168572,56378,19455.4,281418
1.154,0.00713482,26046.4,24887.1,6374.2,166578,55440.2,18988.8,276309
1.156,0.00715461,25987.9,24553.8,5988.97,164585,54502.4,18522.2,271200
1.158,0.0071744,25929.5,24220.6,5603.75,162592,53564.5,18055.7,266090
1.16,0.00719419,25871.1,23887.3,5218.52,160599,52626.7,17589.1,260981
1.162,0.00721398,25812.7,23554,4833.3,158605,51688.9,17122.6,255872
1.164,0.00723378,25754.2,23220.7,4448.05,156612,50751.1,16656,250763
1.166,0.00725357,25695.8,22887.5,4062.83,154619,49813.2,16189.5,245654
1.168,0.00727336,25453,22666,3598.82,153428,48794.9,15781.5,241201
1.17,0.00729317,24759.6,22717.4,2942.41,154195,47580,15516.8,238350
1.172,0.00731298,24066.2,22768.9,2285.95,154963,46365,15252,235499
1.174,0.00733279,23372.9,22820.3,1629.53,155730,45150,14987.2,232649
1.176,0.00735259,22679.6,22871.8,973.115,156498,43935.1,14722.5,229798
1.178,0.00737247,21125.5,22450.3,431.112,155305,42556.1,13098.1,226776
1.18,0.0073925,17572.4,20930.5,154.802,149559,40796,8316.56,223358
1.182,0.00741254,14019.1,19410.5,-121.524,143814,39035.9,3534.72,219940
1.184,0.00743258,10466,17890.7,-397.833,138069,37275.9,-1246.84,216522
1.186,0.00745261,6912.9,16370.9,-674.143,132324,35515.9,-6028.4,213104
1.188,0.00747265,3359.82,14851,-950.453,126578,33755.8,-10810,209686
1.19,0.00749275,3351.4,14704.8,-845.264,127364,33861.4,-10486.1,208958
1.192,0.00751286,4151.97,14872.1,-653.014,129639,34392.8,-8997.16,208844
1.194,0.00753297,4952.54,15039.4,-460.764,131915,34924.2,-7508.17,208730
1.196,0.00755308,5753.11,15206.7,-268.514,134190,35455.6,-6019.18,208616
1.198,0.00757319,6553.68,15374,-76.2641,136465,35987,-4530.19,208502
1.2,0.0075933,7354.3,15541.3,115.997,138741,36518.4,-3041.12,208388
1.202,0.00761341,8154.87,15708.6,308.247,141017,37049.8,-1552.13,208274
1.204,0.00763352,8955.45,15875.9,500.497,143292,37581.2,-63.1449,208160
1.206,0.00765363,9756.02,16043.3,692.747,145568,38112.6,1425.84,208046
1.208,0.00767374,10556.6,16210.6,884.997,147843,38644,2914.83,207932
1.21,0.00769385,11357.2,16377.9,1077.26,150119,39175.4,4403.91,207818
1.212,0.00771396,12157.8,16545.2,1269.51,152394,39706.8,5892.89,207704
1.214,0.00773407,12958.4,16712.5,1461.76,154670,40238.2,7381.88,207590
1.216,0.00775421,13675.3,17427.8,1821.52,158235,40800.2,9840.29,208916
1.218,0.00777438,14291,18807.4,2384.34,163365,41399.4,13473.9,211987
1.22,0.00779455,17798.6,20250.4,2976.95,170287,42736.7,18288.7,215419
1.222,0.00781471,23377.2,21738.8,3590.92,178493,44602.4,23949.4,219110
1.224,0.00783488,28955.7,23227.1,4204.9,186699,46468.2,29610.1,222801
1.226,0.00785504,34534.3,24715.4,4818.87,194905,48334,35270.9,226492
1.228,0.00787521,40113.2,26203.9,5432.89,203112,50199.9,40931.9,230184
1.23,0.00789538,45691.7,27692.2,6046.86,211317,52065.6,46592.7,233875
1.232,0.00791562,50399.2,28512.2,5995.02,215715,53554.8,50648.1,234730
1.234,0.00793601,53473,28078.8,4694.54,212972,54337.5,51693.1,230266
1.236,0.00795638,54473.3,27539.1,3777.78,209220,54798.2,52068,228049
1.238,0.00797674,53193.5,26882.3,3282.9,204357,54904.6,51706.3,228303
1.24,0.0079971,51913.9,26225.6,2788.05,199495,55011.1,51344.7,228556
1.242,0.00801746,50634.3,25568.9,2293.2,194632,55117.5,50983,228810
1.244,0.00803782,49354.7,24912.2,1798.35,189770,55224,50621.4,229063
1.246,0.00805818,48074.9,24255.5,1303.46,184908,55330.5,50259.7,229317
1.248,0.00807854,46795.3,23598.8,808.612,180045,55436.9,49898,229570
1.25,0.0080989,45515.7,22942.1,313.76,175183,55543.4,49536.4,229824
1.252,0.00811926,44236,22285.4,-181.092,170321,55649.8,49174.7,230078
1.254,0.00813961,42956.4,21628.7,-675.944,165458,55756.3,48813,230331
1.256,0.00815998,41676.7,20972,-1170.83,160596,55862.7,48451.3,230585
1.258,0.00818033,40397.1,20315.3,-1665.68,155734,55969.2,48089.7,230838
1.26,0.00820072,40055.4,19785,-2071.71,152563,55729.6,48077.5,234095
1.262,0.00822112,40022.5,19296.3,-2448.49,149950,55376,48180.4,238342
1.264,0.00824152,39989.7,18807.6,-2825.29,147337,55022.5,48283.3,242588
1.266,0.00826192,39956.9,18319,-3202.07,144724,54668.9,48386.1,246835
1.268,0.00828232,39924.1,17830.3,-3578.85,142111,54315.4,48489,251081
1.27,0.00830271,39891.2,17341.7,-3955.63,139499,53961.8,48591.9,255327
1.272,0.00832311,39858.4,16853,-4332.41,136886,53608.3,48694.8,259574
1.274,0.00834351,39825.6,16364.3,-4709.21,134273,53254.7,48797.7,263820
1.276,0.00836406,40246.2,15534.2,-4941.35,134512,51327.1,49652.6,267570
1.278,0.00838463,40741.8,14647.6,-5149.6,135223,49139.4,50631.9,271237
1.28,0.00840519,41237.4,13761,-5357.85,135933,46951.6,51611.1,274904
1.282,0.00842576,41732.9,12874.4,-5566.1,136644,44763.9,52590.3,278571
1.284,0.00844633,42228.5,11987.8,-5774.36,137355,42576.1,53569.6,282239
1.286,0.0084669,42724.1,11101.2,-5982.61,138066,40388.4,54548.8,285906
1.288,0.00848747,43219.7,10214.6,-6190.85,138777,38200.6,55528,289573
1.29,0.00850804,43715.3,9328,-6399.1,139487,36012.9,56507.3,293240
1.292,0.0085287,44109.2,9264.38,-6607.43,140068,35061,56732.6,292856
1.294,0.00854938,44473.2,9442.93,-6815.76,140610,34472.8,56736,291280
1.296,0.00857009,44028.5,9856.52,-6243.53,139318,33866.5,55197,289762
1.298,0.00859081,43516.1,10289.8,-5605.99,137873,33258.7,53528.8,288250
1.3,0.00861152,43003.6,10723,-4968.44,136427,32650.9,51860.6,286738
1.302,0.00863224,42491.2,11156.3,-4330.86,134981,32043,50192.4,285225
1.304,0.00865295,41978.8,11589.6,-3693.32,133536,31435.2,48524.2,283713
1.306,0.00867367,41466.3,12022.8,-3055.78,132090,30827.3,46856.1,282201
1.308,0.00869438,40953.9,12456.1,-2418.23,130645,30219.5,45187.9,280689
1.31,0.0087151,40441.5,12889.4,-1780.69,129199,29611.7,43519.8,279177
1.312,0.00873582,39929.1,13322.6,-1143.11,127754,29003.8,41851.5,277664
1.314,0.00875653,39416.6,13755.9,-505.565,126308,28396,40183.3,276152
1.316,0.00877725,38904.2,14189.2,131.979,124862,27788.2,38515.2,274640
1.318,0.00879796,38391.8,14622.4,769.522,123417,27180.3,36847,273127
1.32,0.00881868,37879.3,15055.7,1407.1,121971,26572.5,35178.8,271615
1.322,0.00883939,37472.7,15517.9,1972.02,121443,26136,33829,268837
1.324,0.00886008,37383.2,16066.9,2319.23,123665,26213.3,33433.4,262267
1.326,0.00888077,37293.6,16615.9,2666.45,125886,26290.6,33037.8,255696
1.328,0.00890146,37204,17164.8,3013.66,128108,26367.9,32642.2,249125
1.33,0.00892215,37114.5,17713.8,3360.9,130329,26445.3,32246.5,242554
1.332,0.00894284,37024.9,18262.8,3708.11,132551,26522.6,31850.9,235984
1.334,0.00896353,36935.3,18811.8,4055.33,134773,26599.9,31455.3,229413
1.336,0.00898422,36845.8,19360.7,4402.54,136994,26677.2,31059.7,222843
1.338,0.00900491,36756.2,19909.8,4749.78,139216,26754.5,30664.1,216271
1.34,0.0090256,36666.7,20458.7,5096.99,141438,26831.8,30268.5,209701
1.342,0.00904634,36335.8,20554.7,5572.64,139892,27220.7,29862.5,203712
1.344,0.00906717,35627.3,19941.7,6249.24,132450,28097.1,29440.1,198635
1.346,0.00908799,34918.8,19328.7,6925.84,125009,28973.5,29017.8,193558
1.348,0.00910882,34210.2,18715.7,7602.48,117568,29850,28595.4,188480
1.35,0.00912964,33501.7,18102.7,8279.08,110126,30726.4,28173,183403
1.352,0.00915047,32793.2,17489.8,8955.68,102685,31602.9,27750.6,178326
1.354,0.00917129,32084.7,16876.8,9632.28,95244.1,32479.3,27328.3,173249
1.356,0.00919211,31376.2,16263.8,10308.9,87802.9,33355.7,26905.9,168171
1.358,0.00921294,30667.7,15650.8,10985.5,80361.2,34232.2,26483.5,163094
1.36,0.00923384,30196.8,15285.6,11726,76410.9,35279.2,27345.5,164200
1.362,0.00925477,29872,15072.7,12505.6,74605.6,36430.9,28996.6,169105
1.364,0.00927571,29547.2,14859.8,13285.2,72800.2,37582.6,30647.8,174011
1.366,0.00929667,29207,14704.3,13837.1,71509.8,38550.8,31623.1,177125
1.368,0.00931765,28836.9,14662.1,13939.5,71235.8,39156.3,31264.7,176702
1.37,0.00933863,28466.7,14619.9,14041.9,70961.8,39761.9,30906.2,176280
1.372,0.00935961,28096.5,14577.8,14144.2,70687.8,40367.5,30547.8,175857
1.374,0.0093806,27726.4,14535.6,14246.6,70413.8,40973,30189.3,175435
1.376,0.00940158,27356.2,14493.4,14349,70139.8,41578.6,29830.9,175012
1.378,0.00942256,26986,14451.2,14451.3,69865.8,42184.2,29472.4,174590
1.38,0.00944355,26615.8,14409,14553.7,69591.8,42789.8,29114,174167
1.382,0.00946453,26245.7,14366.8,14656.1,69317.8,43395.4,28755.5,173745
1.384,0.00948551,25875.5,14324.7,14758.4,69043.8,44000.9,28397.1,173322
1.386,0.0095065,25505.3,14282.5,14860.8,68769.7,44606.5,28038.6,172900
1.388,0.00952748,25135.2,14240.3,14963.2,68495.7,45212.1,27680.2,172477
1.39,0.00954846,24765,14198.1,15065.6,68221.7,45817.7,27321.7,172055
1.392,0.00956944,24394.8,14155.9,15167.9,67947.7,46423.2,26963.3,171632
1.394,0.00959044,24132.7,14106.7,15182.5,67919.6,46939.2,26566.6,170900
1.396,0.00961155,24770,13999.2,14466.8,69937.9,46709.2,25851.4,167588
1.398,0.00963266,25407.3,13891.7,13751.1,71956.2,46479.3,25136.3,164276
1.4,0.00965378,26044.6,13784.2,13035.4,73974.5,46249.3,24421.1,160964
1.402,0.00967493,26875.2,14359.4,11269.2,80160.5,45940.3,25330,165237
1.404,0.00969608,27731.9,15026.8,9361.25,86908.6,45620.7,26457.8,170533
1.406,0.00971724,28588.5,15694.1,7453.43,93656.4,45301.1,27585.6,175829
1.408,0.00973839,29445.2,16361.3,5545.6,100404,44981.5,28713.4,181125
1.41,0.00975955,30301.8,17028.6,3637.78,107152,44661.8,29841.1,186421
1.412,0.0097807,31158.5,17695.9,1729.96,113900,44342.2,30968.9,191716
1.414,0.00980186,32015.1,18363.2,-177.978,120648,44022.6,32096.7,197012
1.416,0.00982308,32299,18640.6,-1267.06,123237,43564.1,32616.7,199252
1.418,0.00984434,32124.3,18606,-1700.87,122498,42994.6,32650.4,199046
1.42,0.00986561,31949.7,18571.5,-2134.67,121760,42425.1,32684.1,198840
1.422,0.00988687,31775,18536.9,-2568.5,121021,41855.6,32717.8,198634
1.424,0.00990814,31600.4,18502.3,-3002.31,120283,41286.1,32751.4,198428
1.426,0.0099294,31425.7,18467.7,-3436.11,119544,40716.6,32785.1,198222
1.428,0.00995066,31189,18439.5,-3847.96,118302,40021.1,32728.6,197443
1.43,0.0099719,30791.7,18427.9,-4203.12,115760,39000.2,32439.4,195183
1.432,0.00999314,30394.5,18416.4,-4558.29,113218,37979.3,32150.1,192923
1.434,0.0100144,29997.3,18404.8,-4913.45,110677,36958.4,31860.8,190664
1.436,0.0100356,29600,18393.3,-5268.6,108135,35937.6,31571.6,188404
1.438,0.0100569,29202.8,18381.7,-5623.76,105593,34916.7,31282.3,186144
1.44,0.0100781,28805.6,18370.1,-5978.93,103051,33895.8,30993.1,183884
1.442,0.0100993,28408.3,18358.6,-6334.09,100509,32874.9,30703.8,181625
1.444,0.0101206,28014.8,18360.5,-6671.09,98195.4,31888,30407.1,179456
1.446,0.0101418,27672.2,18546.7,-6759.19,99003.1,31365.8,30007.8,178532
1.448,0.0101631,27329.6,18732.9,-6847.28,99810.8,30843.7,29608.5,177609
1.45,0.0101843,26986.9,18919.1,-6935.39,100619,30321.6,29209.2,176686
1.452,0.0102055,26644.3,19105.3,-7023.48,101426,29799.5,28809.9,175763
1.454,0.0102268,26301.7,19291.5,-7111.58,102234,29277.4,28410.6,174839
1.456,0.010248,25959,19477.7,-7199.68,103042,28755.2,28011.3,173916
1.458,0.0102692,25616.4,19663.9,-7287.77,103849,28233.1,27612,172993
1.46,0.0102905,25273.8,19850.1,-7375.88,104657,27711,27212.7,172070
1.462,0.0103117,24931.2,20036.3,-7463.97,105465,27188.9,26813.4,171146
1.464,0.0103329,24588.5,20222.5,-7552.07,106273,26666.8,26414.1,170223
1.466,0.0103542,24245.9,20408.8,-7640.17,107080,26144.6,26014.8,169300
1.468,0.0103754,23903.3,20595,-7728.27,107888,25622.5,25615.5,168377
1.47,0.0103966,23560.6,20781.2,-7816.36,108696,25100.4,25216.2,167454
1.472,0.0104179,23218,20967.4,-7904.46,109503,24578.3,24816.9,166530
1.474,0.0104391,22875.4,21153.6,-7992.56,110311,24056.1,24417.6,165607
1.476,0.0104603,22532.8,21339.8,-8080.65,111119,23534,24018.3,164684
1.478,0.0104816,22190.1,21526,-8168.76,111927,23011.9,23619,163761
1.48,0.0105029,21702.8,21214.9,-7385.12,110071,23412.7,22397.5,161991
1.482,0.0105242,21111.5,20546.3,-5975.02,106302,24476.8,20585.1,159613
1.484,0.0105456,20520.2,19877.7,-4564.93,102533,25540.8,18772.7,157236
1.486,0.010567,19928.9,19209.1,-3154.83,98764,26604.9,16960.4,154858
1.488,0.0105883,19337.6,18540.5,-1744.65,94994.7,27669,15147.9,152480
1.49,0.0106097,18746.3,17871.9,-334.558,91225.7,28733.1,13335.5,150103
1.492,0.010631,18155,17203.3,1075.54,87456.6,29797.1,11523.1,147725
1.494,0.0106524,17563.7,16534.7,2485.63,83687.5,30861.2,9710.73,145347
1.496,0.0106738,17247.5,16363.6,3919.98,82983.5,31343.3,8322.91,145619
1.498,0.0106953,17105.4,16507.8,5369.55,84221.1,31456.7,7204.16,147568
1.5,0.0107167,16963.4,16652,6819.12,85458.7,31570.1,6085.42,149517
1.502,0.0107381,16821.4,16796.1,8268.69,86696.3,31683.5,4966.68,151466
1.504,0.0107596,16692.9,16957,9634.77,87947.5,31765.3,3900.78,153132
1.506,0.0107811,16820.1,17433.6,9427.19,89453.8,31252.5,3830.85,149460
1.508,0.0108027,16947.3,17910.3,9219.62,90960.1,30739.7,3760.93,145788
1.51,0.0108242,17074.5,18386.9,9012.05,92466.4,30226.8,3691.01,142116
1.512,0.0108458,17201.6,18863.5,8804.48,93972.7,29714,3621.09,138445
1.514,0.0108673,17328.8,19340.1,8596.9,95479.1,29201.2,3551.17,134772
1.516,0.0108888,17803.3,19476.8,8267.08,94556.2,28785.7,4397.6,132434
1.518,0.0109104,18344.1,19548.5,7913.93,93169.7,28388.7,5418.92,130349
1.52,0.0109319,18884.8,19620.3,7560.78,91783.2,27991.8,6440.24,128265
1.522,0.0109534,19425.6,19692,7207.63,90396.7,27594.8,7461.56,126180
1.524,0.0109749,19966.4,19763.8,6854.46,89010.1,27197.8,8482.94,124095
1.526,0.0109964,20507.1,19835.6,6501.31,87623.6,26800.9,9504.26,122011
1.528,0.0110179,21047.9,19907.3,6148.15,86237.1,26403.9,10525.6,119926
1.53,0.0110394,21588.7,19979.1,5795,84850.6,26007,11546.9,117842
1.532,0.0110609,22111.6,20062.1,5456.82,83590.7,25609.1,12473.6,115855
1.534,0.0110824,22356.2,20320.2,5352.18,84305.5,25197.5,11923.6,115392
1.536,0.0111039,22600.8,20578.3,5247.55,85020.2,24785.9,11373.7,114929
1.538,0.0111254,22845.5,20836.4,5142.91,85735,24374.4,10823.8,114467
1.54,0.0111469,23090.1,21094.4,5038.28,86449.7,23962.8,10273.8,114004
1.542,0.0111683,23334.7,21352.6,4933.64,87164.5,23551.2,9723.87,113541
1.544,0.0111898,23579.3,21610.7,4829.01,87879.3,23139.6,9173.94,113078
1.546,0.0112113,23824,21868.7,4724.37,88594,22728,8624.01,112615
1.548,0.0112328,24068.6,22126.8,4619.74,89308.8,22316.5,8074.08,112152
1.55,0.0112543,24313.2,22384.9,4515.11,90023.5,21904.9,7524.15,111689
1.552,0.0112758,24557.9,22643,4410.47,90738.3,21493.3,6974.19,111226
1.554,0.0112973,24559.8,22672.7,4647.93,90702.9,21461,7304.81,111376
1.556,0.0113189,24419.2,22568.3,5086.32,90226.9,21651.4,8152.6,111886
1.558,0.0113405,24278.6,22463.8,5524.7,89751,21841.9,9000.38,112396
1.56,0.0113621,24138,22359.3,5963.09,89275,22032.3,9848.17,112906
1.562,0.0113837,23997.5,22254.9,6401.5,88799,22222.8,10696,113416
1.564,0.0114053,23856.9,22150.4,6839.88,88323,22413.2,11543.8,113926
1.566,0.0114269,23716.3,22046,7278.26,87847,22603.6,12391.6,114436
1.568,0.0114485,23575.7,21941.5,7716.65,87371,22794.1,13239.4,114946
1.57,0.0114701,23435.1,21837,8155.06,86895,22984.6,14087.2,115456
1.572,0.0114917,23294.5,21732.6,8593.44,86419,23175,14935,115966
1.574,0.0115133,23153.9,21628.1,9031.83,85943,23365.4,15782.8,116476
1.576,0.011535,23738,21720.3,9933.81,86215.2,23461.8,16322.2,117092
1.578,0.0115566,24936.8,21979.4,11229,87122,23478.4,16600,117798
1.58,0.0115783,26135.7,22238.5,12524.3,88028.9,23494.9,16877.8,118504
1.582,0.0116,27334.5,22497.5,13819.6,88935.7,23511.5,17155.6,119210
1.584,0.0116216,28533.3,22756.6,15114.8,89842.6,23528.1,17433.5,119916
1.586,0.0116433,29732.1,23015.7,16410,90749.4,23544.7,17711.3,120622
1.588,0.011665,30930.9,23274.8,17705.3,91656.3,23561.2,17989.1,121327
1.59,0.0116866,32129.7,23533.8,19000.5,92563.1,23577.8,18266.9,122033
1.592,0.0117083,33328.5,23792.9,20295.7,93470,23594.4,18544.8,122739
1.594,0.01173,33571.4,23720.8,20264,93138.5,23670.5,18936.6,123104
1.596,0.0117517,33609.8,23577.7,19948.3,92542.1,23759.4,19352.8,123396
1.598,0.0117734,33648.2,23434.7,19632.6,91945.6,23848.3,19769.1,123687
1.6,0.0117951,33686.6,23291.7,19316.9,91349.1,23937.3,20185.3,123979
1.602,0.0118168,33724.9,23148.6,19001.2,90752.7,24026.2,20601.5,124271
1.604,0.0118385,33763.3,23005.6,18685.5,90156.2,24115.1,21017.8,124563
1.606,0.0118602,33554.5,23015.9,18171.2,87657.3,23837.8,20828.4,122883
1.608,0.0118819,33181,23128.2,17524.5,83891.8,23316.8,20236,119891
1.61,0.0119037,32807.5,23240.5,16877.9,80126.4,22795.8,19643.6,116900
1.612,0.0119254,32434.1,23352.9,16231.3,76361.1,22274.8,19051.1,113908
1.614,0.0119472,32060.7,23465.2,15584.6,72595.7,21753.8,18458.7,110916
1.616,0.0119689,31687.2,23577.5,14938,68830.1,21232.7,17866.3,107924
1.618,0.0119906,31313.7,23689.9,14291.3,65064.8,20711.7,17273.8,104932
1.62,0.0120124,30940.3,23802.2,13644.7,61299.4,20190.7,16681.4,101941
1.622,0.0120341,30902.2,23826.4,13122.6,59354.8,19911.7,16448,100185
1.624,0.0120559,31243.4,23750.8,12741.4,59470.4,19906.5,16621,99827.9
1.626,0.0120776,31584.7,23675.3,12360.2,59585.9,19901.3,16793.9,99470.8
1.628,0.0120994,31925.9,23599.7,11979,59701.4,19896.2,16966.8,99113.8
1.63,0.0121211,32267.2,23524.2,11597.8,59817,19891,17139.7,98756.8
1.632,0.0121429,32608.4,23448.7,11216.6,59932.5,19885.8,17312.6,98399.8
1.634,0.0121646,32949.7,23373.1,10835.4,60048.1,19880.6,17485.5,98042.8
1.636,0.0121864,33290.9,23297.6,10454.2,60163.6,19875.4,17658.5,97685.7
1.638,0.0122081,33632.2,23222,10073,60279.1,19870.3,17831.4,97328.7
1.64,0.0122299,33973.4,23146.5,9691.83,60394.7,19865.1,18004.3,96971.7
1.642,0.0122516,34314.7,23071,9310.64,60510.2,19859.9,18177.2,96614.7
1.644,0.0122734,34655.9,22995.4,8929.42,60625.8,19854.7,18350.1,96257.7
1.646,0.0122951,34997.2,22919.9,8548.23,60741.3,19849.5,18523,95900.6
1.648,0.0123169,35338.4,22844.3,8167.04,60856.9,19844.4,18695.9,95543.6
1.65,0.0123386,35679.7,22768.8,7785.84,60972.4,19839.2,18868.9,95186.6
1.652,0.0123604,36020.9,22693.3,7404.65,61087.9,19834,19041.8,94829.6
1.654,0.0123821,36362.2,22617.7,7023.43,61203.5,19828.8,19214.7,94472.6
1.656,0.0124039,36972.6,22739.6,6570.91,61827.6,19864.3,19579.3,94197.5
1.658,0.0124258,37903.7,22505.3,5513.88,61246.6,20132.3,19893.3,93197.9
1.66,0.0124476,37856,21828.5,4604.73,59239.9,20314.3,19229.9,91507.4
1.662,0.0124695,37808.3,21151.6,3695.58,57233.1,20496.2,18566.5,89816.9
1.664,0.0124913,37760.7,20474.8,2786.37,55226.3,20678.2,17903.1,88126.3
1.666,0.0125132,37713,19797.9,1877.22,53219.5,20860.2,17239.8,86435.8
1.668,0.012535,37665.3,19121.1,968.066,51212.8,21042.2,16576.4,84745.3
1.67,0.0125569,37617.7,18444.3,58.915,49206,21224.1,15913,83054.8
1.672,0.0125787,37570,17767.4,-850.291,47199.2,21406.1,15249.6,81364.2
1.674,0.0126006,37522.3,17090.6,-1759.44,45192.4,21588.1,14586.2,79673.7
1.676,0.0126224,35730.5,15625.1,-2405.06,40645,21616.8,12181.1,76752.1
1.678,0.0126443,35606.6,15205.4,-2617.67,39556,21756.7,12028.8,78044.7
1.68,0.0126661,35550.6,14822.4,-2826.51,38587,21901.8,11956.3,79447.5
1.682,0.012688,35494.7,14439.4,-3035.37,37617.9,22046.9,11883.8,80850.3
1.684,0.0127098,35438.7,14056.4,-3244.22,36648.9,22192.1,11811.3,82253.1
1.686,0.0127317,35382.7,13673.4,-3453.07,35679.9,22337.2,11738.8,83655.8
1.688,0.0127535,35269.4,13256.2,-3678.5,34756.5,22441.4,11674.4,85188.8
1.69,0.0127754,35124.2,12820.1,-3913.15,33858.4,22522.9,11614.3,86794
1.692,0.0127972,34979,12384,-4147.77,32960.3,22604.4,11554.3,88399.1
1.694,0.0128191,34833.8,11947.9,-4382.4,32062.2,22685.9,11494.3,90004.2
1.696,0.0128409,34688.6,11511.8,-4617.03,31164.1,22767.4,11434.2,91609.3
1.698,0.0128628,34543.5,11075.7,-4851.66,30266,22848.9,11374.2,93214.4
1.7,0.0128846,34398.3,10639.6,-5086.3,29367.8,22930.4,11314.2,94819.6
1.702,0.0129065,34253.1,10203.5,-5320.92,28469.7,23011.9,11254.1,96424.7
1.704,0.0129283,34107.9,9767.4,-5555.55,27571.6,23093.4,11194.1,98029.8
1.706,0.0129501,33962.7,9331.3,-5790.18,26673.5,23174.9,11134.1,99634.9
1.708,0.012972,33981.9,9005.18,-6002.46,26015.5,23285,11041.3,101102
1.71,0.0129939,34809.5,9220.27,-6104.81,26538.9,23536.1,10787.7,101890
1.712,0.0130157,35763.1,9523.41,-6181.8,27189,23754.4,10633.4,102789
1.714,0.0130377,37365.7,10280,-6128.23,28491.1,23803.8,10990.5,104255
1.716,0.0130596,38968.3,11036.6,-6074.65,29793.2,23853.2,11347.6,105721
1.718,0.0130816,40571,11793.3,-6021.08,31095.4,23902.6,11704.7,107187
1.72,0.0131035,42173.6,12549.9,-5967.5,32397.5,23952,12061.8,108653
1.722,0.0131255,43776.1,13306.5,-5913.93,33699.6,24001.4,12418.9,110119
1.724,0.0131474,45378.7,14063.1,-5860.35,35001.7,24050.8,12776,111585
1.726,0.0131694,46801,14764.2,-5818.82,36241.1,24086.8,13065.5,112812
1.728,0.0131913,46276.2,14865.4,-5907.35,36803.3,23977.7,12624.9,111456
1.73,0.0132132,45751.4,14966.6,-5995.87,37365.4,23868.7,12184.3,110099
1.732,0.0132352,45226.5,15067.8,-6084.39,37927.6,23759.6,11743.7,108743
1.734,0.0132571,44701.7,15169,-6172.91,38489.7,23650.5,11303.1,107386
1.736,0.013279,44176.9,15270.2,-6261.43,39051.9,23541.4,10862.6,106030
1.738,0.0133009,43652,15371.4,-6349.96,39614.1,23432.3,10421.9,104673
1.74,0.0133229,43127.2,15472.6,-6438.48,40176.2,23323.3,9981.37,103317
1.742,0.0133448,42602.4,15573.8,-6527,40738.4,23214.2,9540.78,101960
1.744,0.0133667,42077.6,15675,-6615.52,41300.5,23105.1,9100.2,100604
1.746,0.0133887,41552.7,15776.2,-6704.05,41862.7,22996,8659.59,99246.9
1.748,0.0134106,41027.9,15877.4,-6792.57,42424.9,22886.9,8219.01,97890.4
1.75,0.0134325,40503.1,15978.6,-6881.09,42987,22777.9,7778.43,96533.9
1.752,0.0134545,39978.2,16079.8,-6969.61,43549.2,22668.8,7337.85,95177.3
1.754,0.0134764,39453.4,16181,-7058.13,44111.3,22559.7,6897.27,93820.8
1.756,0.0134983,38928.6,16282.2,-7146.66,44673.5,22450.6,6456.66,92464.2
1.758,0.0135203,38418.6,16375.3,-7228.51,45190.8,22336.3,6042.64,91115.9
1.76,0.0135422,38362.5,16220.3,-7106.22,44335.6,22062.6,6441.86,90017.6
1.762,0.0135641,38216.6,16162.5,-6914.76,43462.9,21690.3,6764.46,89061.7
1.764,0.0135861,37946.6,16238.8,-6627.77,42565.9,21181.9,6981.27,88302.5
1.766,0.0136081,37676.7,16315.2,-6340.79,41669,20673.6,7198.06,87543.4
1.768,0.01363,37406.7,16391.5,-6053.82,40772.1,20165.3,7414.85,86784.3
1.77,0.013652,37136.8,16467.8,-5766.84,39875.1,19657,7631.64,86025.1
1.772,0.013674,36866.8,16544.2,-5479.87,38978.2,19148.7,7848.43,85266
1.774,0.013696,36596.8,16620.5,-5192.88,38081.3,18640.4,8065.23,84506.8
1.776,0.0137179,36977.4,17111.1,-4984.6,38456.2,18313.3,8421.34,83940.2
1.778,0.0137399,37494.5,17688.7,-4792.85,39098.2,18024.3,8806.71,83414.1
1.78,0.0137619,38011.6,18266.3,-4601.09,39740.2,17735.4,9192.07,82888
1.782,0.0137839,38528.7,18843.9,-4409.33,40382.2,17446.4,9577.44,82361.9
1.784,0.0138058,38996.6,19355.8,-4201.64,41002.9,17140.1,9942.25,81775.5
1.786,0.0138278,39299.9,19648.1,-3940.86,41552.2,16776.4,10238.4,80988.3
1.788,0.0138498,39603.3,19940.4,-3680.07,42101.6,16412.6,10534.6,80201.1
1.79,0.0138718,39906.7,20232.7,-3419.29,42651,16048.8,10830.8,79413.9
1.792,0.0138938,40210.1,20525.1,-3158.49,43200.4,15685,11127,78626.6
1.794,0.0139158,40513.5,20817.4,-2897.7,43749.8,15321.2,11423.2,77839.4
1.796,0.0139377,40816.9,21109.8,-2636.92,44299.2,14957.5,11719.4,77052.2
1.798,0.0139597,41120.3,21402.1,-2376.13,44848.5,14593.7,12015.5,76264.9
1.8,0.0139817,41423.6,21694.4,-2115.35,45397.9,14229.9,12311.7,75477.7
1.802,0.0140037,41727,21986.8,-1854.55,45947.3,13866.1,12607.9,74690.4
1.804,0.0140257,42030.4,22279.1,-1593.76,46496.7,13502.3,12904.1,73903.2
1.806,0.0140477,42333.8,22571.4,-1332.98,47046.1,13138.6,13200.3,73116
1.808,0.0140697,42930.1,22599.4,-1148.32,46302.3,12730.5,13156.3,72417.2
1.81,0.0140917,43860.1,22326.2,-1050.35,44085.9,12271.9,12725,71819.1
1.812,0.0141137,44790.1,22053.1,-952.379,41869.3,11813.2,12293.6,71220.9
1.814,0.0141358,45720,21779.9,-854.411,39652.9,11354.6,11862.3,70622.8
1.816,0.0141578,46650,21506.8,-756.443,37436.5,10896,11431,70024.6
1.818,0.0141798,47579.9,21233.7,-658.476,35220.1,10437.5,10999.7,69426.5
1.82,0.0142018,48509.9,20960.5,-560.502,33003.6,9978.83,10568.3,68828.3
1.822,0.0142239,49439.9,20687.4,-462.535,30787.2,9520.23,10137,68230.2
1.824,0.0142459,50191.9,20441.8,-373.523,28947,9158.67,9821.56,67747.2
1.826,0.0142679,50007.3,20341.1,-331.673,29087.8,9308.04,10116.4,67870.2
1.828,0.0142899,49822.7,20240.3,-289.822,29228.6,9457.42,10411.1,67993.2
1.83,0.014312,49638,20139.6,-247.969,29369.4,9606.8,10706,68116.2
1.832,0.014334,49453.4,20038.9,-206.119,29510.2,9756.18,11000.7,68239.2
1.834,0.014356,49268.8,19938.1,-164.268,29651,9905.55,11295.5,68362.3
1.836,0.014378,49084.1,19837.4,-122.418,29791.9,10054.9,11590.3,68485.3
1.838,0.0144,48899.5,19736.6,-80.5649,29932.7,10204.3,11885.1,68608.3
1.84,0.0144221,48714.9,19635.9,-38.7144,30073.5,10353.7,12179.9,68731.3
1.842,0.0144441,48384,19460.5,23.1027,30387.1,10595.7,12494.5,68918.3
1.844,0.0144661,47298.3,18899.9,187.963,31592.5,11316.1,12910.9,69435.2
1.846,0.0144881,46212.7,18339.3,352.823,32797.9,12036.4,13327.3,69952.2
1.848,0.0145101,45126.9,17778.7,517.693,34003.4,12756.8,13743.7,70469.1
1.85,0.0145321,44041.3,17218.1,682.553,35208.9,13477.2,14160.1,70986.1
1.852,0.0145542,43984.5,16784.2,608.012,35188.5,13724.5,14377.8,70763.1
1.854,0.0145762,44539,16425.5,391.234,34439.8,13690.9,14477.5,70100.4
1.856,0.0145982,45093.5,16066.9,174.456,33691.2,13657.3,14577.2,69437.8
1.858,0.0146202,45648,15708.2,-42.3352,32942.5,13623.7,14677,68775.1
1.86,0.0146422,46921,15914.5,-489.66,34072.6,13793,15376.2,69423.3
1.862,0.0146643,48255.7,16169.5,-956.79,35364.2,13979.7,16127,70184.1
1.864,0.0146863,49590.4,16424.4,-1423.92,36655.8,14166.5,16877.7,70944.8
1.866,0.0147084,50925.2,16679.3,-1891.08,37947.5,14353.3,17628.5,71705.7
1.868,0.0147304,52407.1,16719,-1989.94,37530.8,14314.6,18000.3,72215.9
1.87,0.0147525,53936.1,16689.9,-1971.13,36568.4,14204,18251,72646.1
1.872,0.0147746,55465,16660.9,-1952.32,35605.9,14093.3,18501.7,73076.2
1.874,0.0147966,56994,16631.8,-1933.51,34643.5,13982.6,18752.4,73506.4
1.876,0.0148187,58523,16602.8,-1914.7,33681,13872,19003.1,73936.6
1.878,0.0148407,58545.3,16435.9,-1951.24,33395.5,13792.2,19001.5,73635.2
1.88,0.0148628,58436.9,16257.1,-1992.57,33168.6,13715.1,18978,73270.3
1.882,0.0148849,58328.5,16078.3,-2033.91,32941.8,13638,18954.6,72905.5
1.884,0.014907,58220.1,15899.5,-2075.24,32715,13560.9,18931.1,72540.6
1.886,0.0149291,58111.7,15720.6,-2116.58,32488.2,13483.8,18907.6,72175.8
1.888,0.0149512,58003.3,15541.8,-2157.91,32261.3,13406.7,18884.2,71810.9
1.89,0.0149733,57894.9,15363,-2199.25,32034.5,13329.6,18860.7,71446.1
1.892,0.0149954,57786.5,15184.2,-2240.58,31807.7,13252.6,18837.2,71081.2
1.894,0.0150175,57678.1,15005.4,-2281.92,31580.9,13175.5,18813.8,70716.4
1.896,0.0150396,57569.7,14826.5,-2323.25,31354,13098.4,18790.3,70351.5
1.898,0.0150617,57461.4,14647.7,-2364.59,31127.2,13021.3,18766.8,69986.7
1.9,0.0150838,57353,14468.9,-2405.92,30900.4,12944.2,18743.4,69621.8
1.902,0.0151058,57244.6,14290.1,-2447.26,30673.6,12867.1,18719.9,69257
1.904,0.0151279,57136.2,14111.3,-2488.6,30446.7,12790,18696.4,68892.1
1.906,0.01515,57027.8,13932.4,-2529.93,30219.9,12712.9,18673,68527.3
1.908,0.0151721,56919.4,13753.6,-2571.26,29993.1,12635.8,18649.5,68162.4
1.91,0.0151942,56806.4,13566,-2610.2,29752.8,12562.6,18627,67792.3
1.912,0.0152163,56818.6,13615.3,-2713.81,29877.5,12385.6,18579.2,67564.1
1.914,0.0152384,56830.8,13664.6,-2817.42,30002.3,12208.5,18531.4,67335.8
1.916,0.0152605,56843,13713.8,-2921.03,30127,12031.5,18483.7,67107.6
1.918,0.0152826,56855.2,13763.1,-3024.64,30251.8,11854.5,18435.9,66879.3
1.92,0.0153047,56867.4,13812.4,-3128.25,30376.5,11677.4,18388.1,66651.1
1.922,0.0153268,56879.6,13861.7,-3231.86,30501.3,11500.4,18340.4,66422.8
1.924,0.0153489,56891.8,13910.9,-3335.46,30626,11323.4,18292.6,66194.6
1.926,0.015371,56904,13960.2,-3439.07,30750.8,11146.4,18244.8,65966.3
1.928,0.0153931,56916.2,14009.5,-3542.68,30875.5,10969.3,18197,65738.1
1.93,0.0154152,56928.4,14058.7,-3646.29,31000.3,10792.3,18149.3,65509.9
1.932,0.0154373,56940.6,14108,-3749.9,31125,10615.3,18101.5,65281.6
1.934,0.0154593,57187.2,14198,-3611.81,31278.9,10609.2,18068.9,65364.4
1.936,0.0154814,57576.3,14312.6,-3326.81,31450.4,10707,18045.5,65636.4
1.938,0.0155034,57965.5,14427.3,-3041.8,31621.9,10804.8,18022.2,65908.3
1.94,0.0155255,58354.6,14542,-2756.78,31793.4,10902.6,17998.8,66180.2
1.942,0.0155475,59762,14805.2,-2392.26,31461.7,10980.6,17917,67314.9
1.944,0.0155696,61670.9,15141.5,-1988.58,30882.1,11048.9,17806.5,68874.7
1.946,0.0155917,63579.8,15477.7,-1584.89,30302.5,11117.3,17695.9,70434.4
1.948,0.0156137,65488.7,15814,-1181.21,29722.9,11185.6,17585.4,71994.1
1.95,0.0156358,67397.7,16150.3,-777.5,29143.2,11253.9,17474.8,73553.9
1.952,0.0156579,69306.6,16486.6,-373.816,28563.6,11322.2,17364.3,75113.6
1.954,0.01568,71215.6,16822.9,29.8684,27984,11390.6,17253.7,76673.4
1.956,0.015702,73124.5,17159.2,433.553,27404.3,11458.9,17143.2,78233.1
1.958,0.0157241,75033.4,17495.5,837.237,26824.7,11527.2,17032.7,79792.8
1.96,0.0157462,76942.4,17831.8,1240.95,26245.1,11595.5,16922.1,81352.6
1.962,0.0157683,78720.1,18161.1,1708.65,25793.8,11708.4,16796.7,82776.9
1.964,0.0157904,79808,18453.9,2512.82,26017.2,12055.7,16593.5,83489.5
1.966,0.0158125,80895.9,18746.8,3316.98,26240.5,12403.1,16390.2,84202.1
1.968,0.0158346,81983.9,19039.6,4121.2,26463.9,12750.4,16186.9,84914.7
1.97,0.0158568,83071.8,19332.4,4925.36,26687.3,13097.7,15983.7,85627.3
1.972,0.0158789,84159.7,19625.3,5729.53,26910.7,13445,15780.4,86339.9
1.974,0.015901,85247.6,19918.1,6533.7,27134,13792.3,15577.1,87052.5
1.976,0.0159231,87025.3,20172.5,7249.73,28082.4,13857.5,15795.7,88131.5
1.978,0.0159452,89054.2,20413,7933.72,29294.7,13820.1,16167.9,89344
1.98,0.0159673,91083,20653.5,8617.67,30506.9,13782.6,16540.1,90556.4
1.982,0.0159894,93111.8,20894,9301.62,31719.2,13745.2,16912.3,91768.8
1.984,0.0160115,95140.5,21134.5,9985.57,32931.4,13707.7,17284.5,92981.2
1.986,0.0160336,97169.3,21375,10669.5,34143.7,13670.2,17656.7,94193.6
1.988,0.0160557,97734,21146.9,11235.7,34634.3,14076.7,17589.7,94749.3
1.99,0.0160778,94602.9,19736.1,11504.7,33303.3,15603.8,16414.1,93647.5
1.992,0.0160999,91471.8,18325.3,11773.7,31972.4,17130.9,15238.5,92545.7
1.994,0.016122,88340.7,16914.6,12042.7,30641.4,18657.9,14062.9,91443.9
1.996,0.016144,85209.4,15503.7,12311.7,29310.4,20185.1,12887.2,90342
1.998,0.0161661,82078.3,14093,12580.7,27979.4,21712.1,11711.7,89240.2
2,0.0161882,78947.2,12682.2,12849.7,26648.4,23239.2,10536.1,88138.4
