"arc_length","Displacement_Magnitude","Sxx","Sxy","Sxz","Syy","Syz","Szz","Von_Mises_Stress"
0,0,1.35686e+06,-85312.1,-9301.02,2.6997e+06,373957,1.19744e+06,1.5819e+06
0.002,1.94365e-06,1.29246e+06,-78625.9,-8245.96,2.60444e+06,344971,1.11197e+06,1.54656e+06
0.004,3.09325e-06,1.25652e+06,-75676.2,-7075.88,2.54299e+06,329797,1.06913e+06,1.52414e+06
0.006,4.02913e-06,1.22987e+06,-73947,-5868.24,2.49259e+06,319136,1.04022e+06,1.50594e+06
0.008,4.99018e-06,1.20323e+06,-72217.8,-4660.6,2.44219e+06,308474,1.01131e+06,1.48774e+06
0.01,5.96423e-06,1.17658e+06,-70488.6,-3452.95,2.39179e+06,297812,982406,1.46953e+06
0.012,6.94583e-06,1.14994e+06,-68759.4,-2245.31,2.34139e+06,287151,953498,1.45133e+06
0.014,7.93216e-06,1.12329e+06,-67030.1,-1037.67,2.29098e+06,276489,924589,1.43313e+06
0.016,8.88213e-06,1.09665e+06,-64789.1,483.764,2.23943e+06,267032,897340,1.41505e+06
0.018,9.73393e-06,1.07e+06,-61257.9,2796.26,2.18497e+06,260613,874274,1.39728e+06
0.02,1.05865e-05,1.04336e+06,-57726.6,5108.77,2.13052e+06,254194,851209,1.37951e+06
0.022,1.14396e-05,1.01672e+06,-54195.3,7421.27,2.07606e+06,247775,828143,1.36174e+06
0.024,1.22931e-05,990072,-50664,9733.77,2.0216e+06,241356,805078,1.34397e+06
0.026,1.3147e-05,963429,-47132.8,12046.3,1.96715e+06,234937,782012,1.3262e+06
0.028,1.40012e-05,936785,-43601.5,14358.8,1.91269e+06,228518,758947,1.30843e+06
0.03,1.48556e-05,910141,-40070.2,16671.3,1.85823e+06,222098,735881,1.29066e+06
0.032,1.57102e-05,883497,-36539,18983.8,1.80378e+06,215679,712816,1.27289e+06
0.034,1.65651e-05,856854,-33007.7,21296.3,1.74932e+06,209260,689750,1.25512e+06
0.036,1.742e-05,830210,-29476.4,23608.8,1.69486e+06,202841,666685,1.23735e+06
0.038,1.82751e-05,803566,-25945.1,25921.3,1.64041e+06,196422,643619,1.21958e+06
0.04,1.91303e-05,776922,-22413.9,28233.8,1.58595e+06,190003,620554,1.20181e+06
0.042,1.99856e-05,750279,-18882.6,30546.3,1.53149e+06,183584,597488,1.18404e+06
0.044,2.08409e-05,723635,-15351.3,32858.8,1.47704e+06,177165,574423,1.16627e+06
0.046,2.16964e-05,696991,-11820,35171.3,1.42258e+06,170746,551357,1.1485e+06
0.048,2.25519e-05,670347,-8288.77,37483.8,1.36812e+06,164327,528292,1.13073e+06
0.05,2.47158e-05,638270,-5558.44,40808.9,1.33046e+06,163909,489660,1.13685e+06
0.052,2.7352e-05,604233,-3116.98,44499.3,1.29885e+06,165656,445414,1.15159e+06
0.054,2.99885e-05,570195,-675.509,48189.6,1.26725e+06,167403,401169,1.16633e+06
0.056,3.26252e-05,536158,1765.96,51879.9,1.23564e+06,169150,356923,1.18106e+06
0.058,3.52622e-05,502121,4207.42,55570.2,1.20403e+06,170897,312678,1.1958e+06
0.06,3.78992e-05,468084,6648.89,59260.6,1.17243e+06,172644,268432,1.21054e+06
0.062,4.05364e-05,434047,9090.36,62950.9,1.14082e+06,174390,224186,1.22528e+06
0.064,4.29876e-05,429128,8383.52,63235,1.13381e+06,179625,220945,1.22885e+06
0.066,4.5472e-05,426328,7447.63,63271.4,1.12859e+06,185113,220686,1.23161e+06
0.068,4.79974e-05,423529,6511.75,63307.7,1.12337e+06,190600,220428,1.23437e+06
0.07,5.05577e-05,420729,5575.86,63344,1.11815e+06,196088,220169,1.23713e+06
0.072,5.31452e-05,414461,2292.24,63371.7,1.1078e+06,195255,207384,1.23735e+06
0.074,5.5748e-05,407634,-1370.17,63397.9,1.09663e+06,193403,192579,1.23716e+06
0.076,5.83635e-05,400807,-5032.56,63424.2,1.08546e+06,191550,177773,1.23697e+06
0.078,6.09902e-05,393980,-8694.96,63450.4,1.07429e+06,189697,162967,1.23677e+06
0.08,6.36267e-05,387153,-12357.3,63476.7,1.06311e+06,187845,148162,1.23658e+06
0.082,6.62719e-05,380326,-16019.8,63502.9,1.05194e+06,185992,133356,1.23639e+06
0.084,6.89247e-05,373499,-19682.1,63529.2,1.04077e+06,184140,118551,1.2362e+06
0.086,7.15843e-05,366671,-23344.5,63555.4,1.02959e+06,182287,103745,1.23601e+06
0.088,7.42478e-05,361328,-26590.8,63308.6,1.02028e+06,181305,91097.1,1.23745e+06
0.09,7.69084e-05,363982,-27594.1,61589.7,1.02098e+06,185018,90079.5,1.24772e+06
0.092,7.95791e-05,366637,-28597.4,59870.8,1.02167e+06,188731,89061.9,1.25799e+06
0.094,8.22587e-05,369291,-29600.8,58151.8,1.02237e+06,192443,88044.3,1.26825e+06
0.096,8.49464e-05,371945,-30604.1,56432.9,1.02306e+06,196156,87026.7,1.27852e+06
0.098,8.76416e-05,374600,-31607.4,54714,1.02376e+06,199869,86009.1,1.28879e+06
0.1,9.06551e-05,382303,-33307.9,53578.1,1.03764e+06,203750,86908.9,1.30789e+06
0.102,9.46768e-05,406280,-37255.2,54321.1,1.094e+06,208174,93988.3,1.35545e+06
0.104,9.87004e-05,430258,-41202.4,55064.1,1.15036e+06,212598,101068,1.40302e+06
0.106,0.000102726,454235,-45149.7,55807,1.20672e+06,217022,108147,1.45058e+06
0.108,0.000106752,478212,-49097,56550,1.26308e+06,221446,115227,1.49814e+06
0.11,0.00011078,502189,-53044.3,57293,1.31944e+06,225869,122306,1.54571e+06
0.112,0.000114809,526167,-56991.5,58036,1.3758e+06,230293,129385,1.59327e+06
0.114,0.000118839,550144,-60938.8,58779,1.43216e+06,234717,136465,1.64083e+06
0.116,0.000123054,543343,-61217.5,57221.2,1.4134e+06,235725,134959,1.62791e+06
0.118,0.000127466,503801,-57593.8,53216,1.31471e+06,233100,124322,1.55063e+06
0.12,0.000131879,464260,-53970,49210.9,1.21602e+06,230474,113684,1.47336e+06
0.122,0.000136292,424718,-50346.2,45205.7,1.11734e+06,227848,103047,1.39609e+06
0.124,0.000140705,385176,-46722.5,41200.5,1.01865e+06,225222,92409,1.31882e+06
0.126,0.000145119,345634,-43098.7,37195.3,919967,222596,81771.3,1.24155e+06
0.128,0.000149533,306093,-39474.9,33190.1,821281,219971,71133.7,1.16427e+06
0.13,0.000153948,266551,-35851.2,29184.9,722596,217345,60496.2,1.087e+06
0.132,0.000158666,251568,-35550.5,26416.6,683655,215572,56298,1.0595e+06
0.134,0.000163577,251113,-37215.8,24380,680061,214304,55909.4,1.06144e+06
0.136,0.000168501,250659,-38881.1,22343.5,676467,213035,55520.8,1.06338e+06
0.138,0.000173439,250205,-40546.3,20307,672873,211767,55132.3,1.06532e+06
0.14,0.000178388,249751,-42211.6,18270.4,669279,210499,54743.7,1.06727e+06
0.142,0.000183348,249296,-43876.9,16233.8,665685,209231,54355.1,1.06921e+06
0.144,0.000188318,248842,-45542.2,14197.3,662091,207962,53966.6,1.07115e+06
0.146,0.000193298,248388,-47207.5,12160.8,658497,206694,53578,1.07309e+06
0.148,0.000198286,247934,-48872.8,10124.2,654903,205426,53189.4,1.07503e+06
0.15,0.000203281,247480,-50538,8087.66,651308,204158,52800.9,1.07697e+06
0.152,0.000208285,247025,-52203.3,6051.12,647714,202889,52412.3,1.07891e+06
0.154,0.000213295,246571,-53868.6,4014.57,644120,201621,52023.7,1.08085e+06
0.156,0.000218311,246117,-55533.9,1978.02,640526,200353,51635.2,1.08279e+06
0.158,0.000223333,245663,-57199.2,-58.5281,636932,199084,51246.6,1.08474e+06
0.16,0.000228361,245208,-58864.4,-2095.06,633338,197816,50858,1.08668e+06
0.162,0.000233394,244754,-60529.7,-4131.61,629744,196548,50469.5,1.08862e+06
0.164,0.000238432,244300,-62195,-6168.17,626150,195280,50080.9,1.09056e+06
0.166,0.000243475,243846,-63860.3,-8204.7,622556,194011,49692.3,1.0925e+06
0.168,0.000248521,243391,-65525.6,-10241.3,618962,192743,49303.8,1.09444e+06
0.17,0.000253572,242937,-67190.8,-12277.8,615368,191475,48915.2,1.09638e+06
0.172,0.000258627,242483,-68856.1,-14314.4,611773,190207,48526.6,1.09832e+06
0.174,0.000263565,244378,-70024.6,-12535,618396,188948,47904.9,1.09644e+06
0.176,0.000268441,247557,-70921.6,-8670.68,630602,187694,47155.7,1.09246e+06
0.178,0.000273909,247806,-70805,-10553.6,632372,185915,48899.5,1.07879e+06
0.18,0.000279941,246465,-69954.7,-17358.3,628134,183626,53515.6,1.05989e+06
0.182,0.000286332,256915,-71116.7,-21341.2,662035,180917,65218.1,1.08038e+06
0.184,0.000292724,267366,-72278.7,-25324,695937,178209,76920.7,1.10087e+06
0.186,0.000299117,277816,-73440.7,-29306.9,729839,175501,88623.3,1.12137e+06
0.188,0.000305511,288267,-74602.7,-33289.7,763740,172792,100326,1.14186e+06
0.19,0.000311906,298717,-75764.7,-37272.6,797642,170084,112028,1.16235e+06
0.192,0.000318302,309168,-76926.7,-41255.4,831544,167376,123731,1.18285e+06
0.194,0.000324699,319618,-78088.8,-45238.3,865445,164667,135434,1.20334e+06
0.196,0.000331096,330068,-79250.8,-49221.1,899347,161959,147136,1.22383e+06
0.198,0.000337727,334307,-78152.7,-49738.8,908889,159128,151414,1.2221e+06
0.2,0.000344447,336289,-76233.6,-48997.4,909581,156252,152994,1.2123e+06
0.202,0.000351171,338270,-74314.4,-48256.1,910273,153376,154575,1.2025e+06
0.204,0.000357898,340252,-72395.2,-47514.8,910966,150500,156155,1.19269e+06
0.206,0.000364629,342234,-70476.1,-46773.4,911658,147624,157735,1.18289e+06
0.208,0.000371363,344215,-68556.9,-46032.1,912350,144748,159315,1.17308e+06
0.21,0.0003781,346197,-66637.8,-45290.7,913042,141872,160896,1.16328e+06
0.212,0.00038484,348179,-64718.6,-44549.4,913734,138996,162476,1.15347e+06
0.214,0.000391583,350160,-62799.4,-43808.1,914426,136120,164056,1.14367e+06
0.216,0.000398329,352142,-60880.3,-43066.7,915118,133244,165637,1.13387e+06
0.218,0.000405077,354124,-58961.1,-42325.4,915810,130369,167217,1.12406e+06
0.22,0.000411827,356105,-57042,-41584,916503,127493,168797,1.11426e+06
0.222,0.00041858,358087,-55122.8,-40842.7,917195,124617,170377,1.10445e+06
0.224,0.000425335,360068,-53203.6,-40101.4,917887,121741,171958,1.09465e+06
0.226,0.000432598,347566,-50059.6,-31721.3,899865,118538,166034,1.08369e+06
0.228,0.000439873,334724,-46886.8,-23161.9,881403,115327,159934,1.0727e+06
0.23,0.000447148,321882,-43714,-14602.5,862941,112116,153834,1.06171e+06
0.232,0.000454424,309040,-40541.2,-6043.11,844480,108905,147734,1.05073e+06
0.234,0.0004617,296198,-37368.3,2516.31,826018,105695,141634,1.03974e+06
0.236,0.000468977,283355,-34195.5,11075.7,807556,102484,135535,1.02875e+06
0.238,0.000476254,270513,-31022.7,19635.1,789095,99273,129435,1.01776e+06
0.24,0.000483797,267886,-30624.2,25444.1,782737,98092.6,128520,1.03343e+06
0.242,0.000491401,267467,-30825.4,30658.6,778995,97351,128726,1.05486e+06
0.244,0.000499006,267047,-31026.6,35873,775254,96609.4,128933,1.07629e+06
0.246,0.000506614,266628,-31227.8,41087.4,771513,95867.9,129139,1.09772e+06
0.248,0.000514224,266209,-31428.9,46301.8,767772,95126.3,129345,1.11915e+06
0.25,0.000521836,265790,-31630.1,51516.3,764030,94384.8,129552,1.14057e+06
0.252,0.00052945,265371,-31831.3,56730.7,760289,93643.2,129758,1.162e+06
0.254,0.000537065,264952,-32032.5,61945.1,756548,92901.6,129964,1.18343e+06
0.256,0.000544682,264533,-32233.7,67159.6,752807,92160.1,130171,1.20486e+06
0.258,0.000552301,264113,-32434.9,72373.9,749065,91418.5,130377,1.22629e+06
0.26,0.000559922,263694,-32636.1,77588.3,745324,90677,130583,1.24772e+06
0.262,0.000567985,258355,-29913.4,80288,741233,94845.8,130212,1.25845e+06
0.264,0.000576135,252052,-26617.8,82494.8,737074,99976.7,129728,1.26708e+06
0.266,0.000584285,245749,-23322.2,84701.7,732914,105108,129244,1.27572e+06
0.268,0.000592435,239445,-20026.6,86908.5,728755,110239,128759,1.28435e+06
0.27,0.000600586,233142,-16730.9,89115.4,724595,115370,128275,1.29299e+06
0.272,0.000608737,226839,-13435.3,91322.2,720436,120501,127791,1.30162e+06
0.274,0.000616978,221706,-10006.5,92913.4,716493,125045,127409,1.30821e+06
0.276,0.000625636,222000,-5960.27,91650.5,713555,126868,127501,1.30534e+06
0.278,0.000634294,222293,-1914.01,90387.7,710616,128692,127593,1.30247e+06
0.28,0.000642954,222587,2132.25,89124.8,707678,130515,127685,1.2996e+06
0.282,0.000651977,228999,5127.71,85703.6,719129,127458,126226,1.27863e+06
0.284,0.000661142,237779,7716.69,81447.4,736145,122514,124167,1.25065e+06
0.286,0.000670307,246558,10305.7,77191.2,753162,117569,122108,1.22268e+06
0.288,0.000679471,255337,12894.6,72935.1,770179,112624,120049,1.1947e+06
0.29,0.000688637,264117,15483.6,68679,787196,107679,117990,1.16672e+06
0.292,0.000697802,272896,18072.6,64422.8,804212,102734,115932,1.13874e+06
0.294,0.000707056,276959,17583.5,59969.3,820178,102206,115521,1.1184e+06
0.296,0.000716325,280253,16593.4,55483.7,835972,102397,115379,1.0993e+06
0.298,0.000725596,283547,15603.2,50998.1,851767,102588,115237,1.0802e+06
0.3,0.000734869,286841,14613.1,46512.5,867561,102779,115095,1.06109e+06
0.302,0.000744143,290135,13622.9,42027,883355,102970,114953,1.04199e+06
0.304,0.000753419,293429,12632.8,37541.4,899150,103160,114811,1.02289e+06
0.306,0.000762696,296723,11642.7,33055.8,914944,103351,114669,1.00379e+06
0.308,0.000771975,300018,10652.5,28570.2,930739,103542,114527,984687
0.31,0.000781255,303312,9662.37,24084.6,946533,103733,114385,965585
0.312,0.000790554,306600,8592.61,19329.9,961717,103947,114421,946942
0.314,0.000800355,309735,5327.08,7152.67,960059,104805,119364,940975
0.316,0.000810157,312870,2061.54,-5024.56,958401,105663,124306,935007
0.318,0.000819959,316005,-1203.94,-17201.6,956743,106521,129248,929040
0.32,0.000829761,319139,-4469.47,-29378.8,955085,107379,134191,923072
0.322,0.000839564,322274,-7735,-41556.1,953427,108236,139133,917105
0.324,0.000849366,325409,-11000.5,-53733.3,951769,109094,144075,911137
0.326,0.000859195,327904,-14009.6,-64535.6,948169,109698,148762,907955
0.328,0.000869247,324800,-14773.3,-63302.1,927562,108073,151210,929154
0.33,0.0008793,321696,-15537,-62068.5,906956,106449,153658,950353
0.332,0.000889354,318592,-16300.8,-60835,886350,104825,156105,971552
0.334,0.000899409,315488,-17064.5,-59601.5,865743,103200,158553,992751
0.336,0.000909466,312384,-17828.2,-58368,845137,101576,161001,1.01395e+06
0.338,0.000919523,309280,-18592,-57134.5,824530,99951.4,163449,1.03515e+06
0.34,0.000929582,306176,-19355.7,-55900.9,803924,98327.1,165897,1.05635e+06
0.342,0.000939641,303072,-20119.4,-54667.4,783317,96702.7,168345,1.07755e+06
0.344,0.000949701,299968,-20883.2,-53433.9,762710,95078.3,170792,1.09875e+06
0.346,0.000959762,296864,-21646.9,-52200.4,742104,93454,173240,1.11995e+06
0.348,0.000970027,290489,-21829.7,-49181.2,721815,92324.7,172407,1.12654e+06
0.35,0.000980657,278228,-20967.1,-42948.7,702098,92086.3,165671,1.10687e+06
0.352,0.000991287,265968,-20104.5,-36716.1,682380,91848,158934,1.08719e+06
0.354,0.00100192,253707,-19242,-30483.6,662662,91609.6,152198,1.06751e+06
0.356,0.00101255,241446,-18379.4,-24251.1,642944,91371.2,145461,1.04783e+06
0.358,0.00102318,229185,-17516.8,-18018.5,623227,91132.9,138725,1.02815e+06
0.36,0.00103381,216925,-16654.2,-11786,603509,90894.5,131988,1.00848e+06
0.362,0.00104444,204664,-15791.7,-5553.52,583792,90656.2,125252,988800
0.364,0.00105526,203269,-15893.1,-4016.89,587669,88599,123218,979914
0.366,0.00106612,203874,-16171.8,-3344.11,595887,86207.3,122049,973014
0.368,0.00107699,204478,-16450.6,-2671.32,604105,83815.5,120880,966114
0.37,0.00108785,205082,-16729.3,-1998.54,612324,81423.8,119711,959213
0.372,0.00109871,205686,-17008,-1325.75,620542,79032.1,118542,952313
0.374,0.00110958,206290,-17286.8,-652.97,628760,76640.3,117374,945412
0.376,0.00112044,206895,-17565.5,19.8049,636978,74248.6,116205,938512
0.378,0.00113131,207499,-17844.3,692.589,645196,71856.9,115036,931612
0.38,0.00114218,208103,-18123,1365.37,653414,69465.1,113867,924711
0.382,0.00115307,209461,-18547.2,1885.52,664879,67668.2,113438,914708
0.384,0.00116401,213304,-19450.5,1902.91,687038,67830.3,115447,894486
0.386,0.00117496,217147,-20353.8,1920.31,709196,67992.4,117456,874264
0.388,0.00118591,220990,-21257.2,1937.7,731355,68154.5,119465,854041
0.39,0.00119686,224833,-22160.5,1955.1,753513,68316.6,121474,833819
0.392,0.00120781,228676,-23063.8,1972.49,775672,68478.7,123483,813597
0.394,0.00121902,230937,-23472.2,2556.57,792483,69120,126316,797045
0.396,0.00123078,229947,-22863.5,4305.23,798303,70745.9,130841,788037
0.398,0.00124254,228957,-22254.7,6053.88,804123,72371.8,135367,779028
0.4,0.0012543,227966,-21646,7802.54,809943,73997.7,139892,770019
0.402,0.00126606,226976,-21037.3,9551.2,815763,75623.6,144417,761011
0.404,0.00127782,225986,-20428.6,11299.9,821583,77249.5,148943,752002
0.406,0.00128957,224996,-19819.8,13048.5,827403,78875.4,153468,742994
0.408,0.00130133,224005,-19211.1,14797.1,833223,80501.3,157994,733985
0.41,0.0013132,217582,-17732.1,16016.2,827466,81581.2,158388,736190
0.412,0.00132539,205759,-15987.3,15172.3,797009,79836,151395,756625
0.414,0.00133757,193935,-14242.4,14328.3,766552,78090.7,144401,777060
0.416,0.00134975,182112,-12497.6,13484.3,736095,76345.5,137408,797495
0.418,0.00136194,170288,-10752.7,12640.3,705638,74600.3,130415,817931
0.42,0.00137412,158465,-9007.92,11796.4,675182,72855,123422,838365
0.422,0.00138631,146642,-7263.07,10952.4,644725,71109.8,116429,858801
0.424,0.00139849,134818,-5518.22,10108.4,614269,69364.6,109435,879236
0.426,0.00141068,122994,-3773.37,9264.44,583812,67619.3,102442,899671
0.428,0.00142286,111171,-2028.52,8420.46,553355,65874.1,95448.8,920106
0.43,0.00143505,99347.4,-283.672,7576.49,522898,64128.8,88455.5,940541
0.432,0.00144721,91694.3,-706.326,6083.29,493462,61760.9,84691.8,949987
0.434,0.00145934,87659.4,-3009.51,4026.85,464911,58852.8,83730,949899
0.436,0.00147147,83624.5,-5312.73,1970.38,436360,55944.7,82768.3,949810
0.438,0.0014836,79589.5,-7615.96,-86.0919,407809,53036.5,81806.5,949722
0.44,0.00149573,75554.6,-9919.18,-2142.56,379258,50128.4,80844.8,949634
0.442,0.00150786,71519.7,-12222.4,-4199.03,350706,47220.2,79883,949545
0.444,0.00152029,74193.7,-20368.6,-5943.75,337658,43014.7,81679.4,946167
0.446,0.00153297,82370.8,-33307.4,-7432.74,337326,37745,85738.2,940091
0.448,0.00154565,90547.9,-46246.2,-8921.73,336994,32475.4,89796.9,934014
0.45,0.00155833,98724.8,-59184.8,-10410.7,336661,27205.8,93855.6,927938
0.452,0.00157149,105988,-58451.4,-8144.9,361618,27369,99495.6,916565
0.454,0.00158469,113180,-56661.4,-5588.92,388529,27952.1,105258,904782
0.456,0.0015979,120372,-54871.4,-3032.93,415441,28535.2,111020,893000
0.458,0.0016111,127565,-53081.5,-476.955,442352,29118.3,116782,881218
0.46,0.00162431,134757,-51291.5,2079.03,469263,29701.3,122545,869435
0.462,0.00163751,141949,-49501.5,4635.01,496175,30284.4,128307,857653
0.464,0.00165072,149142,-47711.6,7190.95,523086,30867.5,134069,845871
0.466,0.00166392,156334,-45921.6,9746.93,549997,31450.6,139831,834089
0.468,0.00167713,163526,-44131.6,12302.9,576908,32033.7,145593,822306
0.47,0.00169033,170719,-42341.6,14858.9,603820,32616.8,151356,810524
0.472,0.00170354,177911,-40551.7,17414.9,630731,33199.9,157118,798742
0.474,0.00171675,185103,-38761.7,19970.8,657642,33782.9,162880,786959
0.476,0.00172995,192296,-36971.7,22526.8,684553,34366,168642,775177
0.478,0.00174312,198724,-32280.5,25363.2,708823,35365.1,174872,760621
0.48,0.00175623,204140,-23747.3,28571,729594,36915.1,181722,742391
0.482,0.00176933,209556,-15214.2,31778.8,750365,38465.2,188571,724162
0.484,0.00178244,214972,-6680.99,34986.7,771136,40015.2,195421,705932
0.486,0.00179555,220387,1852.17,38194.5,791908,41565.2,202270,687703
0.488,0.0018088,221030,10588.6,40405.7,805296,41214.2,204334,676551
0.49,0.00182239,210732,19790.8,40332.5,801762,36505.6,195431,681621
0.492,0.00183599,200434,28993,40259.3,798227,31797,186527,686692
0.494,0.00184958,190136,38195.1,40186.2,794693,27088.5,177623,691763
0.496,0.00186317,179838,47397.3,40113,791158,22379.9,168719,696834
0.498,0.00187676,169540,56599.6,40039.8,787624,17671.3,159815,701904
0.5,0.00189057,161091,60771.6,39488.6,784098,14988.3,150598,706726
0.502,0.00190454,154421,60055.5,37956.6,780745,13359.2,141299,712515
0.504,0.00191845,149548,54109.3,32518.4,778501,7797.52,133154,726039
0.506,0.00193235,145038,48531.4,27391.6,776001,2627.73,125441,738680
0.508,0.00194615,143558,46037.8,24871.7,771365,738.872,121349,743931
0.51,0.00195996,142078,43544.2,22351.8,766729,-1149.93,117256,749181
0.512,0.00197376,140599,41050.5,19831.8,762093,-3038.79,113164,754432
0.514,0.00198757,139119,38556.9,17312,757457,-4927.59,109071,759683
0.516,0.00200137,137639,36063.3,14792.1,752821,-6816.39,104979,764933
0.518,0.00201518,136159,33569.7,12272.2,748185,-8705.24,100886,770184
0.52,0.00202899,134679,31076.1,9752.3,743549,-10594,96794,775435
0.522,0.00204279,133199,28582.4,7232.36,738913,-12482.9,92701.5,780686
0.524,0.0020566,131720,26088.8,4712.49,734277,-14371.7,88609,785936
0.526,0.00207041,130240,23595.1,2192.55,729641,-16260.6,84516.5,791187
0.528,0.0020843,128836,22064.6,822.765,726162,-16828.4,81255.2,796554
0.53,0.00209853,127753,24591.1,4297.72,727558,-11832,81495.1,802410
0.532,0.00211277,126670,27117.6,7772.78,728955,-6835.31,81734.9,808266
0.534,0.00212701,125586,29644,11247.7,730351,-1838.81,81974.8,814122
0.536,0.00214124,124503,32170.5,14722.8,731747,3157.83,82214.7,819978
0.538,0.00215548,123420,34696.9,18197.7,733143,8154.32,82454.5,825834
0.54,0.00216973,122463,37079.1,21615.1,733897,13092.5,82744.6,830745
0.542,0.00218411,123836,36801.9,23968.1,722803,16953.6,83959.1,818244
0.544,0.0021988,124831,34129.5,23735.7,706751,20051.6,84861.2,805089
0.546,0.00221372,125532,29604.7,21503.7,686865,22559.2,85521.5,791430
0.548,0.00222863,126234,25079.9,19271.7,666978,25066.9,86181.8,777771
0.55,0.00224355,126935,20555,17039.6,647091,27574.6,86842.2,764111
0.552,0.00225847,127637,16030.2,14807.6,627205,30082.2,87502.5,750452
0.554,0.00227339,128338,11505.3,12575.5,607318,32589.9,88162.8,736792
0.556,0.00228849,128362,9643.8,15198.1,602426,33524.1,87784,761808
0.558,0.00230365,128226,8410.02,18965.1,601067,34087.4,87160.2,795939
0.56,0.0023188,128090,7176.27,22731.9,599709,34650.7,86536.4,830070
0.562,0.00233396,127954,5942.52,26498.7,598351,35214,85912.7,864200
0.564,0.00234911,127818,4708.74,30265.7,596993,35777.3,85288.9,898332
0.566,0.00236427,127682,3474.99,34032.5,595634,36340.6,84665.1,932463
0.568,0.00237942,127546,2241.21,37799.5,594276,36904,84041.4,966594
0.57,0.00239458,127410,1007.46,41566.3,592918,37467.3,83417.6,1.00072e+06
0.572,0.00240974,127274,-226.324,45333.3,591560,38030.6,82793.8,1.03486e+06
0.574,0.00242506,126011,-831.055,49654.9,576895,38006.6,78306.7,1.048e+06
0.576,0.00244053,122622,-1785.84,54132.7,571394,37960.5,77922.6,1.04691e+06
0.578,0.002456,119057,-2835.68,58585.5,568125,37959.3,78368.4,1.04573e+06
0.58,0.00247147,115493,-3885.49,63038.1,564856,37958,78814.2,1.04455e+06
0.582,0.00248695,111928,-4935.33,67490.9,561587,37956.7,79260,1.04337e+06
0.584,0.00250242,108363,-5985.14,71943.5,558318,37955.4,79705.8,1.04219e+06
0.586,0.00251789,104798,-7034.98,76396.3,555049,37954.1,80151.5,1.04101e+06
0.588,0.00253337,101233,-8084.79,80848.9,551780,37952.8,80597.3,1.03983e+06
0.59,0.00254884,97668.7,-9134.6,85301.6,548511,37951.6,81043.1,1.03865e+06
0.592,0.00256431,94103.8,-10184.4,89754.4,545242,37950.3,81488.9,1.03747e+06
0.594,0.00257979,90539.1,-11234.3,94207,541973,37949,81934.6,1.03629e+06
0.596,0.00259549,90066.6,-11766.5,96274,541629,40211.8,84850,1.03114e+06
0.598,0.00261135,91613.8,-11960.8,96782.9,543196,43953.3,89378,1.0234e+06
0.6,0.00262721,93161,-12155.1,97291.7,544762,47694.9,93906.2,1.01566e+06
0.602,0.00264302,95009.3,-12150.7,96421.8,543740,51735.7,97331.1,1.00038e+06
0.604,0.0026588,97000.9,-12051.8,94895.2,541485,55919,100231,981511
0.606,0.00267459,98992.6,-11952.8,93368.6,539230,60102.4,103131,962640
0.608,0.00269037,100984,-11853.9,91842.1,536975,64285.7,106030,943771
0.61,0.00270616,102976,-11754.9,90315.5,534720,68469.1,108930,924901
0.612,0.00272194,104968,-11655.9,88788.9,532465,72652.4,111830,906031
0.614,0.00273773,106959,-11557,87262.3,530210,76835.8,114729,887161
0.616,0.00275351,108951,-11458,85735.8,527955,81019.1,117629,868291
0.618,0.0027693,110942,-11359,84209.2,525700,85202.4,120529,849421
0.62,0.00278514,111623,-10498.1,81776.8,521858,89335.5,122891,837640
0.622,0.00280118,107824,-7035.12,76251.7,512596,93296.5,123421,850066
0.624,0.00281721,104026,-3572.09,70726.4,503333,97257.6,123951,862492
0.626,0.00283341,100350,-1116.41,66129.5,495946,98150.2,124739,866382
0.628,0.00284978,96797.8,321.257,62470.6,490455,95941.4,125786,861646
0.63,0.00286615,93245.6,1758.89,58811.8,484963,93732.7,126834,856910
0.632,0.00288251,89693.4,3196.56,55152.8,479472,91523.9,127881,852174
0.634,0.00289888,86141.2,4634.19,51494,473981,89315.2,128928,847438
0.636,0.00291535,83205.8,5486.3,49205.6,468390,86708.3,129642,842933
0.638,0.00293206,81796.3,4889.86,50307.5,462551,83116,129528,838997
0.64,0.00294878,80386.8,4293.44,51409.3,456713,79523.9,129414,835062
0.642,0.0029655,78977.3,3697,52511.2,450874,75931.6,129301,831127
0.644,0.00298222,77567.8,3100.58,53613.1,445036,72339.5,129187,827192
0.646,0.00299907,76397.9,3050.13,53440.3,442240,69360.5,127938,822824
0.648,0.00301611,75601.6,3850.95,51280.2,444189,67337.6,124919,817781
0.65,0.00303316,74805.3,4651.77,49120,446137,65314.8,121900,812739
0.652,0.0030502,74009,5452.62,46959.8,448086,63292,118881,807696
0.654,0.00306725,73212.7,6253.44,44799.7,450034,61269.2,115861,802654
0.656,0.0030843,72416.4,7054.28,42639.5,451983,59246.3,112842,797611
0.658,0.00310134,71620.1,7855.1,40479.3,453931,57223.5,109823,792569
0.66,0.00311839,70823.8,8655.95,38319.1,455880,55200.6,106803,787526
0.662,0.00313544,70027.5,9456.77,36159,457828,53177.8,103784,782484
0.664,0.00315248,69231.3,10257.6,33998.8,459777,51155,100765,777442
0.666,0.00316953,68435,11058.4,31838.6,461726,49132.1,97745.7,772399
0.668,0.00318658,67638.7,11859.3,29678.5,463674,47109.3,94726.5,767357
0.67,0.00320363,66842.4,12660.1,27518.3,465623,45086.5,91707.2,762314
0.672,0.00322067,66046.1,13460.9,25358.1,467571,43063.7,88687.9,757272
0.674,0.00323772,65249.8,14261.8,23197.9,469520,41040.8,85668.6,752229
0.676,0.00325477,64453.5,15062.6,21037.8,471468,39018,82649.4,747187
0.678,0.00327182,63657.2,15863.4,18877.7,473417,36995.2,79630.2,742144
0.68,0.00328888,62840.6,16721.7,16566.9,474766,35285.2,76211.3,737165
0.682,0.00330618,61607.7,18757.4,11169.5,463840,39990.3,64600.9,733480
0.684,0.00332348,60374.8,20793.1,5772.03,452913,44695.6,52990.1,729796
0.686,0.00334078,59141.9,22828.8,374.665,441986,49400.8,41379.7,726111
0.688,0.00335808,57908.9,24864.6,-5022.86,431059,54106,29768.9,722426
0.69,0.00337537,56676.1,26900.3,-10420.2,420132,58811.2,18158.5,718742
0.692,0.00339267,55443.2,28936,-15817.6,409205,63516.3,6548.02,715057
0.694,0.00340997,54210.2,30971.8,-21215.1,398278,68221.6,-5062.76,711373
0.696,0.00342727,52977.3,33007.5,-26612.5,387351,72926.8,-16673.2,707688
0.698,0.00344469,52409.6,33877.2,-29423.5,379620,76766.8,-25485,700699
0.7,0.00346237,53229.2,32314.9,-26840.2,378554,78802.2,-28458.9,686817
0.702,0.00348004,54048.8,30752.6,-24256.8,377487,80837.7,-31433,672935
0.704,0.00349771,54868.4,29190.4,-21673.5,376421,82873.1,-34406.9,659054
0.706,0.00351539,55688,27628.1,-19090.2,375355,84908.5,-37380.9,645173
0.708,0.00353306,56507.6,26065.8,-16506.8,374289,86944,-40354.9,631291
0.71,0.00355074,57327.2,24503.5,-13923.5,373223,88979.4,-43328.8,617409
0.712,0.00356871,56368.1,25939.8,-15675,381210,88901,-47130.1,612894
0.714,0.00358696,53795.1,30096.7,-21359.7,397412,86904.7,-51681.8,616877
0.716,0.00360521,51222,34253.8,-27044.6,413614,84908.3,-56233.7,620860
0.718,0.00362346,48648.9,38410.8,-32729.4,429816,82912,-60785.4,624843
0.72,0.00364171,46075.8,42567.8,-38414.3,446018,80915.6,-65337.3,628826
0.722,0.00365996,43502.8,46724.8,-44099,462220,78919.2,-69889,632809
0.724,0.00367817,42062.1,51865.4,-47214.3,477703,78257.8,-73016,640516
0.726,0.00369629,43247.3,59287.4,-44370.7,491522,80691.9,-72839.2,656858
0.728,0.00371442,44432.5,66709.2,-41527.2,505341,83126,-72662.4,673200
0.73,0.00373254,45617.7,74131.2,-38683.7,519159,85560.2,-72485.5,689543
0.732,0.00375066,46802.9,81553,-35840.2,532978,87994.3,-72308.7,705885
0.734,0.00376878,47988.1,88975,-32996.7,546797,90428.5,-72131.9,722227
0.736,0.00378691,49173.3,96396.8,-30153.2,560615,92862.5,-71955.1,738569
0.738,0.00380503,50358.4,103819,-27309.7,574433,95296.6,-71778.2,754911
0.74,0.00382308,47086.4,98500.9,-32852.5,574877,93859.5,-79274.8,743160
0.742,0.00384113,43675.3,92785.6,-38657,574902,92301.4,-87010.8,730533
0.744,0.00385918,40264,87070,-44461.8,574928,90743.3,-94747.1,717904
0.746,0.00387723,36852.8,81354.6,-50266.3,574953,89185.2,-102483,705277
0.748,0.00389553,41558.9,79686.2,-47400.3,573566,89246.2,-94471,695558
0.75,0.00391384,46840.9,78305.1,-43919.1,572080,89422,-85341.3,686047
0.752,0.00393216,52122.9,76924,-40437.8,570593,89597.9,-76211.6,676535
0.754,0.00395047,57405.1,75542.9,-36956.4,569106,89773.8,-67081.7,667024
0.756,0.00396915,57464.4,70130.7,-36302.8,568057,90158.2,-59127.3,659955
0.758,0.00398785,57183.7,64455.8,-35833.3,567037,90556.2,-51249.2,653046
0.76,0.00400655,56902.9,58781,-35363.8,566017,90954.3,-43371.3,646136
0.762,0.00402534,55747.5,54972.2,-34462.7,563979,91075.1,-37053.3,644981
0.764,0.00404429,53009.7,54540,-32780.7,560099,90694.2,-33558.1,654237
0.766,0.00406323,50271.9,54107.8,-31098.6,556218,90313.3,-30062.8,663493
0.768,0.00408218,47534,53675.5,-29416.5,552338,89932.4,-26567.5,672749
0.77,0.00410112,44796.2,53243.3,-27734.5,548458,89551.5,-23072.3,682005
0.772,0.00412007,42058.3,52811.1,-26052.4,544577,89170.6,-19577,691261
0.774,0.00413897,39926.5,51440.5,-24466.3,537460,88524.4,-15355,700187
0.776,0.00415776,39008.7,48190.1,-23072.6,523859,87346.5,-9677.08,708451
0.778,0.00417655,38091,44939.7,-21678.9,510259,86168.7,-3999.33,716714
0.78,0.00419535,37173.2,41689.4,-20285.2,496658,84990.9,1678.42,724978
0.782,0.00421414,36255.4,38439,-18891.5,483057,83813.1,7356.34,733242
0.784,0.00423294,35337.6,35188.6,-17497.8,469456,82635.2,13034.1,741506
0.786,0.00425173,34419.8,31938.2,-16104.1,455855,81457.4,18712,749770
0.788,0.00427053,33502.1,28687.9,-14710.4,442254,80279.6,24389.7,758034
0.79,0.00428932,32584.3,25437.4,-13316.6,428653,79101.7,30067.7,766298
0.792,0.00430816,32105.3,22334.5,-12087.8,414959,77820.5,35801.9,772703
0.794,0.00432762,38303.5,21474.1,-13367,399842,74965,42395.4,750816
0.796,0.00434708,44501.5,20613.7,-14646.1,384726,72109.6,48988.7,728930
0.798,0.00436655,50699.4,19753.3,-15925.3,369610,69254.3,55582,707044
0.8,0.00438601,56897.6,18892.9,-17204.5,354494,66398.8,62175.6,685157
0.802,0.00440547,63095.6,18032.6,-18483.7,339378,63543.5,68768.9,663270
0.804,0.00442494,69293.7,17172.2,-19762.9,324262,60688,75362.4,641384
0.806,0.0044444,75491.7,16311.8,-21042,309146,57832.6,81955.7,619497
0.808,0.00446386,81689.8,15451.4,-22321.2,294029,54977.2,88549.2,597611
0.81,0.00448345,86448.7,14807.1,-22547.5,290136,54082.7,93527.3,586699
0.812,0.00450314,90039.7,14338.2,-21919.5,295349,54779.2,97194.8,584691
0.814,0.00452283,93630.9,13869.3,-21291.5,300562,55475.8,100862,582684
0.816,0.00454252,97222,13400.4,-20663.5,305774,56172.3,104530,580676
0.818,0.00456221,100813,12931.5,-20035.4,310987,56868.9,108198,578669
0.82,0.0045819,104404,12462.6,-19407.4,316200,57565.4,111865,576661
0.822,0.00460159,107995,11993.6,-18779.4,321413,58262,115533,574654
0.824,0.00462128,111586,11524.7,-18151.4,326626,58958.6,119200,572646
0.826,0.00464097,115178,11055.8,-17523.4,331839,59655.1,122868,570639
0.828,0.00466066,118769,10586.9,-16895.3,337052,60351.7,126535,568631
0.83,0.00468035,122360,10118,-16267.3,342264,61048.2,130203,566624
0.832,0.00470004,125951,9649.06,-15639.3,347477,61744.8,133870,564616
0.834,0.00471973,129542,9180.15,-15011.3,352690,62441.3,137538,562609
0.836,0.00473942,133133,8711.23,-14383.3,357903,63137.9,141205,560601
0.838,0.00475911,136724,8242.32,-13755.2,363116,63834.5,144873,558594
0.84,0.0047788,140315,7773.41,-13127.2,368329,64531,148540,556586
0.842,0.0047984,142354,8047.56,-12140.3,373007,65719.9,151841,555359
0.844,0.00481799,144262,8383.86,-11123.4,377640,66949.9,155112,554198
0.846,0.00483758,146171,8720.18,-10106.4,382274,68180,158382,553037
0.848,0.00485717,148079,9056.49,-9089.49,386907,69410.1,161653,551876
0.85,0.00487676,149988,9392.81,-8072.54,391541,70640.1,164923,550714
0.852,0.00489674,149788,8048.09,-6015,387073,70878.8,161850,552067
0.854,0.00491679,149159,6360.4,-3745.15,380749,70915.3,157484,553933
0.856,0.00493691,145680,5309.12,-1579.29,373212,70917.9,150124,555240
0.858,0.0049571,137953,5207.2,431.302,363867,70870,138299,555712
0.86,0.0049773,130226,5105.28,2441.95,354522,70822.1,126475,556184
0.862,0.0049975,122499,5003.36,4452.54,345177,70774.3,114650,556656
0.864,0.0050177,114771,4901.44,6463.19,335832,70726.4,102825,557127
0.866,0.00503812,109860,5274.4,7618.52,333546,70798.3,95515.2,556454
0.868,0.00505868,106819,5962.74,8205.85,335947,70949.7,91203.4,555020
0.87,0.00507925,103778,6651.1,8793.2,338348,71101.1,86891.5,553586
0.872,0.00509982,100737,7339.44,9380.53,340750,71252.5,82579.8,552152
0.874,0.00512038,97696.1,8027.8,9967.88,343151,71403.9,78267.9,550718
0.876,0.00514095,94655.1,8716.13,10555.2,345552,71555.3,73956.1,549284
0.878,0.0051615,92245.8,9760.32,11616.6,349208,71611.9,70374.4,547077
0.88,0.00518205,89952.8,10869.9,12765,353094,71651.1,66927.2,544729
0.882,0.00520261,87659.7,11979.5,13913.6,356981,71690.4,63479.8,542381
0.884,0.00522316,85366.6,13089.1,15062,360867,71729.6,60032.5,540033
0.886,0.00524371,83073.6,14198.7,16210.5,364753,71768.8,56585.2,537685
0.888,0.00526426,80780.4,15308.3,17359,368640,71808,53137.8,535337
0.89,0.00528481,78487.4,16417.9,18507.5,372526,71847.2,49690.5,532988
0.892,0.00530536,76194.3,17527.5,19656,376413,71886.4,46243.2,530640
0.894,0.00532591,73901.2,18637.1,20804.5,380299,71925.6,42795.9,528292
0.896,0.00534646,71608.1,19746.7,21953,384185,71964.9,39348.5,525944
0.898,0.00536701,69315,20856.3,23101.5,388072,72004.1,35901.2,523596
0.9,0.00538757,67022,21965.9,24250,391958,72043.3,32453.9,521247
0.902,0.00540812,64728.8,23075.5,25398.5,395844,72082.5,29006.5,518899
0.904,0.00542898,58519.8,22035.8,24702.4,397975,75029.7,24753.4,525657
0.906,0.00544988,51982.3,20815.8,23851.6,399958,78220.8,20432.6,533178
0.908,0.00547077,45444.9,19595.9,23000.8,401941,81411.9,16111.9,540698
0.91,0.00549166,38907.4,18375.9,22150,403924,84603,11791.1,548219
0.912,0.00551255,32370,17156,21299.2,405907,87794,7470.44,555740
0.914,0.00553344,25832.7,15936.1,20448.4,407890,90985.1,3149.76,563261
0.916,0.00555434,19295.1,14716.1,19597.6,409873,94176.2,-1171.05,570782
0.918,0.00557523,12757.8,13496.2,18746.8,411856,97367.2,-5491.74,578303
0.92,0.00559638,8969.86,13587.7,18149,412064,99940.9,-8109.9,584047
0.922,0.00561781,8137,15088.8,17823.2,410365,101851,-8898.19,587883
0.924,0.00563924,7304.12,16589.8,17497.4,408666,103761,-9686.5,591718
0.926,0.00566067,6471.25,18090.9,17171.6,406967,105671,-10474.8,595554
0.928,0.0056821,5638.39,19591.9,16845.7,405268,107581,-11263.1,599389
0.93,0.00570346,6920.33,20599.3,17036.7,397840,109498,-11605.2,595711
0.932,0.00572482,8286.75,21587,17248.4,390184,111415,-11929.4,591733
0.934,0.00574619,9653.21,22574.8,17460,382528,113332,-12253.6,587755
0.936,0.00576755,11019.6,23562.5,17671.6,374872,115249,-12577.9,583777
0.938,0.00578891,12386.1,24550.2,17883.3,367216,117166,-12902.1,579799
0.94,0.00581028,13752.5,25537.9,18094.9,359560,119083,-13226.4,575821
0.942,0.00583164,15118.9,26525.6,18306.5,351904,121000,-13550.6,571843
0.944,0.005853,16485.4,27513.3,18518.2,344247,122917,-13874.9,567864
0.946,0.00587437,17851.8,28501,18729.8,336591,124834,-14199.1,563886
0.948,0.00589573,19218.2,29488.7,18941.4,328935,126751,-14523.3,559908
0.95,0.00591709,20584.7,30476.4,19153.1,321279,128668,-14847.6,555930
0.952,0.00593845,21951.1,31464.1,19364.7,313623,130585,-15171.8,551952
0.954,0.00595982,23317.5,32451.8,19576.3,305967,132502,-15496.1,547974
0.956,0.00598118,24684,33439.5,19788,298311,134419,-15820.3,543996
0.958,0.00600264,32026.8,37365.3,20869.8,304017,138287,-8353.86,546924
0.96,0.00602422,46947,45016.3,23054.9,326665,144628,8990.22,558611
0.962,0.00604598,70133.8,58124.7,26034.3,384188,153647,37257.8,598831
0.964,0.00606795,103179,77741.6,29960.8,483304,165862,78552.7,673083
0.966,0.00608985,126168,89625.6,32223.6,550291,173689,108924,721088
0.968,0.00611149,116944,76741.9,29158.1,514370,167465,104307,685026
0.97,0.00613314,107720,63857.8,26092.4,478449,161240,99689.5,648963
0.972,0.00615479,98496.5,50974.1,23026.9,442528,155016,95072.3,612901
0.974,0.00617644,89272.9,38090.4,19961.3,406608,148792,90455.2,576839
0.976,0.00619819,80770.6,28475.9,18668.3,384042,142491,87914.9,554385
0.978,0.00621997,72453.7,19700.8,17830.3,364905,136171,85907.7,535424
0.98,0.00624199,71309,19303.5,18602.2,362321,133521,88069,536287
0.982,0.00626401,70365.3,19141,19419.1,360200,130973,90347.1,537704
0.984,0.00628604,69421.5,18978.4,20236.1,358080,128426,92625.2,539122
0.986,0.00630806,68477.8,18815.9,21053,355960,125879,94903.3,540540
0.988,0.00633009,67534.1,18653.3,21869.9,353840,123332,97181.4,541958
0.99,0.00635211,66590.4,18490.8,22686.9,351719,120784,99459.6,543376
0.992,0.00637414,65646.7,18328.2,23503.8,349599,118237,101738,544794
0.994,0.00639616,64702.9,18165.7,24320.7,347479,115690,104016,546211
0.996,0.00641819,63759.2,18003.1,25137.7,345359,113143,106294,547629
0.998,0.00644021,62815.5,17840.6,25954.6,343238,110595,108572,549047
1,0.00646224,61871.8,17678,26771.5,341118,108048,110850,550465
1.002,0.00648426,60928,17515.5,27588.5,338998,105501,113128,551883
1.004,0.00650628,59984.3,17353,28405.4,336878,102953,115406,553301
1.006,0.00652831,59040.6,17190.4,29222.4,334757,100406,117685,554718
1.008,0.00655034,58096.8,17027.9,30039.3,332637,97858.8,119963,556136
1.01,0.00657236,57153.1,16865.3,30856.2,330517,95311.6,122241,557554
1.012,0.00659439,56209.4,16702.8,31673.1,328397,92764.3,124519,558972
1.014,0.00661641,55265.7,16540.2,32490.1,326276,90216.9,126797,560390
1.016,0.00663844,54321.9,16377.7,33307,324156,87669.7,129075,561808
1.018,0.00666046,53378.2,16215.1,34124,322036,85122.5,131353,563226
1.02,0.00668249,52434.5,16052.6,34940.9,319916,82575.2,133631,564643
1.022,0.00670451,51490.8,15890,35757.8,317796,80028,135909,566061
1.024,0.00672655,50406.8,15799.5,36642.5,315690,77529.2,138156,567697
1.026,0.00674846,51126.7,14782.7,36656.1,313391,74405.2,140814,566534
1.028,0.00677072,48189.6,12672.4,36497.7,311001,71908.1,134159,571865
1.03,0.00679318,45074.7,10693.6,38755.2,309728,70982.4,125299,576015
1.032,0.00681563,41959.7,8714.85,41012.7,308454,70056.7,116440,580165
1.034,0.00683809,38844.5,6735.97,43270.4,307181,69130.9,107579,584315
1.036,0.00686055,35729.6,4757.2,45527.9,305907,68205.2,98719.9,588465
1.038,0.00688301,32614.6,2778.43,47785.4,304634,67279.5,89860.4,592615
1.04,0.00690547,29499.7,799.664,50042.9,303360,66353.8,81000.9,596765
1.042,0.00692793,26384.5,-1179.22,52300.6,302087,65428,72140.8,600916
1.044,0.00695041,24574.5,-2367.65,55563.4,298546,65378.8,65815.7,602243
1.046,0.00697315,24544.7,-1581.73,56795.3,301628,67183.4,62944.9,592564
1.048,0.00699591,24497.9,-776.307,57901.1,305063,68998.5,60041.2,582685
1.05,0.00701866,24451.2,29.1196,59006.9,308498,70813.6,57137.4,572805
1.052,0.00704142,24404.4,834.595,60112.7,311934,72628.8,54233.5,562925
1.054,0.00706417,24357.7,1640.02,61218.5,315369,74443.9,51329.7,553045
1.056,0.00708692,24310.9,2445.45,62324.3,318804,76259,48425.9,543166
1.058,0.00710968,24264.2,3250.88,63430.1,322239,78074.2,45522.2,533286
1.06,0.00713243,24217.4,4056.3,64535.8,325674,79889.3,42618.4,523406
1.062,0.00715519,24170.7,4861.78,65641.7,329109,81704.5,39714.4,513526
1.064,0.00717794,24123.9,5667.2,66747.5,332544,83519.6,36810.7,503646
1.066,0.0072007,24077.2,6472.63,67853.3,335979,85334.7,33906.9,493767
1.068,0.00722345,24030.4,7278.06,68959.1,339414,87149.8,31003.1,483887
1.07,0.00724621,23983.7,8083.53,70064.9,342849,88965.1,28099.2,474007
1.072,0.00726896,23936.9,8888.96,71170.7,346284,90780.2,25195.4,464127
1.074,0.00729176,24066.9,10490.9,71391.5,347681,91228.9,23299.9,451303
1.076,0.00731467,24698.2,14352.6,69101.8,343299,87801.4,24264.5,430125
1.078,0.00733758,25329.4,18214.2,66812.1,338917,84374,25229.1,408947
1.08,0.00736054,25182.8,21717.7,65213.3,333903,81116.1,25194.6,391580
1.082,0.00738372,23107.5,23104.1,65735.5,329151,79293.9,22118.4,391663
1.084,0.00740701,22433.5,22966,65732.8,328760,78958.2,19844.5,399017
1.086,0.0074303,21759.5,22828,65730,328369,78622.5,17570.7,406372
1.088,0.0074536,21085.4,22689.9,65727.2,327978,78286.7,15296.7,413726
1.09,0.00747689,20411.4,22551.9,65724.4,327588,77951,13022.8,421080
1.092,0.00750018,19737.4,22413.8,65721.6,327197,77615.3,10748.9,428435
1.094,0.00752347,19063.4,22275.7,65718.9,326806,77279.6,8475.06,435789
1.096,0.00754676,18389.4,22137.7,65716.1,326415,76943.9,6201.2,443143
1.098,0.00757006,17715.3,21999.6,65713.3,326024,76608.1,3927.2,450498
1.1,0.00759335,17041.3,21861.5,65710.5,325633,76272.4,1653.33,457852
1.102,0.00761664,16367.3,21723.5,65707.8,325243,75936.7,-620.535,465206
1.104,0.00763993,15693.2,21585.4,65705,324852,75601,-2894.4,472560
1.106,0.00766322,15019.2,21447.4,65702.2,324461,75265.3,-5168.27,479915
1.108,0.00768653,16114.8,21379.8,64072.3,322327,74608.3,-5907.2,483774
1.11,0.00770983,17943,21341.4,61768.8,319471,73818.4,-6010.48,486186
1.112,0.00773314,19771.2,21303,59465.2,316615,73028.4,-6113.76,488598
1.114,0.00775645,21599.4,21264.7,57161.7,313759,72238.5,-6217.05,491010
1.116,0.00777975,23427.7,21226.3,54858,310903,71448.5,-6320.33,493422
1.118,0.00780306,25255.9,21187.9,52554.5,308047,70658.6,-6423.61,495834
1.12,0.00782637,27084.1,21149.5,50251,305191,69868.7,-6526.89,498246
1.122,0.0078499,28664.5,23328.7,45219.2,303209,69866,-2201.46,494662
1.124,0.00787348,30195,25953.6,39639.1,301402,70021.6,3014.04,489874
1.126,0.00789705,31725.6,28578.6,34058.6,299594,70177.3,8229.85,485086
1.128,0.00792063,33256.2,31203.4,28478.5,297787,70332.9,13445.3,480298
1.13,0.00794421,34786.7,33828.3,22898.4,295980,70488.5,18660.8,475510
1.132,0.00796779,36317.2,36453.2,17318.3,294173,70644.1,23876.4,470722
1.134,0.00799145,37113,38330.8,13864.9,291932,71250.6,28209.1,466367
1.136,0.00801523,36819.4,39100.7,13564.4,289049,72525.7,31233.3,462654
1.138,0.00803902,36525.8,39870.6,13263.8,286165,73800.7,34257.4,458942
1.14,0.00806278,36437.6,39576.2,12690.6,283324,72871.7,34054.7,452203
1.142,0.00808653,36386,39091.3,12068.5,280490,71548.2,33274.4,444922
1.144,0.00811029,36334.5,38606.4,11446.4,277656,70224.6,32494.1,437642
1.146,0.00813404,36282.9,38121.5,10824.3,274822,68901,31713.8,430361
1.148,0.0081578,36231.4,37636.6,10202.2,271988,67577.5,30933.5,423081
1.15,0.00818155,36179.9,37151.6,9580.15,269154,66254,30153.2,415800
1.152,0.00820531,36128.3,36666.7,8958.07,266320,64930.5,29372.9,408520
1.154,0.00822907,36076.8,36181.8,8335.96,263486,63606.9,28592.6,401239
1.156,0.00825282,36025.2,35696.9,7713.88,260652,62283.3,27812.3,393959
1.158,0.00827658,35973.7,35211.9,7091.81,257818,60959.8,27032,386678
1.16,0.00830033,35922.2,34727,6469.73,254985,59636.3,26251.7,379398
1.162,0.00832409,35870.6,34242.1,5847.65,252151,58312.8,25471.4,372117
1.164,0.00834785,35819.1,33757.2,5225.54,249317,56989.1,24691,364837
1.166,0.0083716,35767.5,33272.3,4603.46,246483,55665.6,23910.8,357556
1.168,0.00839536,35431.2,32958.8,3860.17,244791,54231.7,23223.8,351197
1.17,0.00841914,34399.3,33064.1,2820.84,245887,52527.9,22764.8,347089
1.172,0.00844292,33367.3,33169.4,1781.45,246984,50824.1,22305.7,342981
1.174,0.00846669,32335.3,33274.6,742.116,248081,49120.4,21846.7,338873
1.176,0.00849047,31303.4,33379.9,-297.215,249178,47416.7,21387.7,334765
1.178,0.00851435,28940.8,32860.1,-1162.81,247397,45448.3,18826.4,330472
1.18,0.00853849,23488,30888.8,-1624.94,238935,42865.1,11383,325749
1.182,0.00856263,18034.8,28917.4,-2087.09,230473,40281.7,3939.08,321026
1.184,0.00858676,12582,26946,-2549.22,222012,37698.5,-3504.34,316303
1.186,0.0086109,7129.21,24974.7,-3011.35,213550,35115.3,-10947.8,311581
1.188,0.00863503,1676.4,23003.4,-3473.48,205088,32532.1,-18391.2,306858
1.19,0.00865926,1672.52,22775.2,-3329.77,206383,32788.9,-17877.8,305829
1.192,0.00868351,2912.23,22944.9,-3047.8,209905,33693.9,-15548.4,305643
1.194,0.00870777,4151.95,23114.6,-2765.83,213427,34598.8,-13219,305458
1.196,0.00873202,5391.67,23284.2,-2483.86,216949,35503.8,-10889.7,305272
1.198,0.00875627,6631.39,23453.9,-2201.9,220471,36408.7,-8560.28,305086
1.2,0.00878052,7871.18,23623.6,-1919.91,223993,37313.7,-6230.77,304901
1.202,0.00880477,9110.9,23793.3,-1637.94,227515,38218.6,-3901.41,304715
1.204,0.00882902,10350.6,23962.9,-1355.97,231037,39123.6,-1572.04,304529
1.206,0.00885327,11590.3,24132.6,-1074,234559,40028.5,757.333,304344
1.208,0.00887752,12830,24302.3,-792.034,238081,40933.5,3086.7,304158
1.21,0.00890178,14069.8,24472,-510.049,241603,41838.5,5416.21,303972
1.212,0.00892603,15309.6,24641.7,-228.08,245125,42743.4,7745.58,303787
1.214,0.00895028,16549.3,24811.3,53.8886,248646,43648.3,10074.9,303601
1.216,0.00897457,17716.7,25788,603.999,254396,44575.5,13913,305848
1.218,0.00899891,18796.7,27742.9,1479.16,262846,45529.6,19580,311044
1.22,0.00902325,24398.5,29948.7,2416.22,274382,47668.4,27139.1,316903
1.222,0.0090476,33238.6,32334.4,3397.63,288126,50655.6,36053.4,323239
1.224,0.00907195,42078.6,34720,4379.04,301871,53642.7,44967.7,329574
1.226,0.00909629,50918.6,37105.6,5360.45,315615,56629.9,53882,335909
1.228,0.00912064,59759.1,39491.3,6341.92,329361,59617.3,62796.8,342245
1.23,0.00914499,68599.1,41876.9,7323.33,343105,62604.5,71711.1,348580
1.232,0.00916945,76139,43286.6,7250.3,350846,65028.2,78142.7,350465
1.234,0.00919415,81240.6,42866,5199.78,347325,66395.3,79918.2,344006
1.236,0.00921882,83029.9,42181.6,3782.24,341909,67222.2,80620.5,341074
1.238,0.00924347,81177.3,41207.2,3060.61,334408,67455.1,80142.6,342019
1.24,0.00926812,79324.7,40232.9,2339.03,326908,67688.1,79664.8,342965
1.242,0.00929277,77472.2,39258.6,1617.45,319407,67921,79187,343910
1.244,0.00931743,75619.6,38284.3,895.872,311907,68153.9,78709.2,344855
1.246,0.00934208,73767,37310,174.249,304406,68386.8,78231.4,345801
1.248,0.00936673,71914.5,36335.7,-547.331,296905,68619.8,77753.6,346746
1.25,0.00939138,70061.9,35361.4,-1268.91,289405,68852.7,77275.8,347691
1.252,0.00941603,68209.4,34387.1,-1990.49,281904,69085.6,76798,348637
1.254,0.00944068,66356.9,33412.7,-2712.07,274404,69318.5,76320.2,349582
1.256,0.00946533,64504.2,32438.4,-3433.69,266903,69551.4,75842.3,350527
1.258,0.00948998,62651.7,31464.1,-4155.27,259402,69784.4,75364.5,351473
1.26,0.00951468,62138.8,30679.3,-4784.6,254329,69466.7,75374.7,357418
1.262,0.00953939,62067.1,29957,-5383.54,250056,68967.8,75545.6,365011
1.264,0.00956411,61995.4,29234.6,-5982.52,245783,68468.8,75716.5,372604
1.266,0.00958882,61923.7,28512.3,-6581.47,241509,67969.9,75887.4,380197
1.268,0.00961353,61852,27789.9,-7180.41,237236,67471,76058.3,387789
1.27,0.00963824,61780.3,27067.6,-7779.36,232963,66972,76229.2,395382
1.272,0.00966296,61708.6,26345.2,-8378.3,228690,66473.1,76400.1,402974
1.274,0.00968767,61636.9,25622.9,-8977.28,224416,65974.1,76571.1,410567
1.276,0.00971262,62405.9,24433.9,-9371.09,225117,62999,78038.6,417890
1.278,0.00973761,63313.8,23167.8,-9730.99,226639,59614.8,79720.3,425167
1.28,0.00976261,64221.6,21901.8,-10090.9,228162,56230.6,81402.1,432445
1.282,0.0097876,65129.5,20635.7,-10450.8,229684,52846.3,83083.8,439722
1.284,0.00981259,66037.4,19369.6,-10810.7,231207,49461.9,84765.7,447000
1.286,0.00983759,66945.3,18103.5,-11170.6,232729,46077.6,86447.4,454278
1.288,0.00986258,67853.2,16837.4,-11530.5,234252,42693.4,88129.2,461556
1.29,0.00988757,68761.1,15571.4,-11890.5,235774,39309.2,89810.9,468833
1.292,0.00991271,69406.3,15516.9,-12216.4,236675,37825.5,90221.5,468721
1.294,0.0099379,69974.2,15818.9,-12532.3,237393,36901.1,90257.9,466434
1.296,0.00996313,69479.5,16565.8,-11682.8,236101,35981.3,87944.1,464690
1.298,0.00998837,68896,17349.9,-10735.7,234640,35061.9,85433.7,462991
1.3,0.0100136,68312.4,18134,-9788.58,233180,34142.4,82923.2,461293
1.302,0.0100389,67728.8,18918.2,-8841.44,231720,33223,80412.6,459594
1.304,0.0100641,67145.2,19702.3,-7894.35,230259,32303.5,77902.2,457895
1.306,0.0100893,66561.6,20486.5,-6947.26,228799,31384.1,75391.8,456197
1.308,0.0101146,65978.1,21270.6,-6000.18,227339,30464.6,72881.3,454498
1.31,0.0101398,65394.5,22054.7,-5053.09,225878,29545.2,70370.9,452799
1.312,0.0101651,64810.9,22838.9,-4105.94,224418,28625.7,67860.3,451101
1.314,0.0101903,64227.3,23623,-3158.86,222957,27706.3,65349.8,449402
1.316,0.0102155,63643.7,24407.2,-2211.77,221497,26786.8,62839.4,447703
1.318,0.0102408,63060.2,25191.3,-1264.68,220037,25867.4,60329,446005
1.32,0.010266,62476.5,25975.5,-317.535,218576,24947.9,57818.4,444306
1.322,0.0102912,61994.5,26769,544.971,218311,24293.5,55774.6,440206
1.324,0.0103164,61816.7,27590.7,1153.95,221625,24433.3,55129.9,428907
1.326,0.0103416,61639,28412.4,1762.94,224940,24573.2,54485.1,417608
1.328,0.0103668,61461.2,29234,2371.92,228254,24713.1,53840.4,406309
1.33,0.010392,61283.4,30055.8,2980.94,231569,24852.9,53195.6,395010
1.332,0.0104172,61105.7,30877.5,3589.92,234883,24992.8,52550.8,383711
1.334,0.0104424,60927.9,31699.1,4198.9,238198,25132.7,51906,372412
1.336,0.0104676,60750.1,32520.8,4807.88,241512,25272.5,51261.3,361113
1.338,0.0104928,60572.3,33342.6,5416.9,244827,25412.4,50616.5,349813
1.34,0.010518,60394.6,34164.2,6025.89,248141,25552.2,49971.7,338514
1.342,0.0105433,59828.6,34333.2,6886.84,245416,26215.9,49285.2,328381
1.344,0.0105687,58655.1,33480.6,8142.06,233241,27699.2,48533.4,320071
1.346,0.0105941,57481.6,32628.1,9397.27,221066,29182.5,47781.6,311762
1.348,0.0106195,56308,31775.6,10652.6,208891,30665.9,47029.8,303452
1.35,0.0106449,55134.5,30923,11907.8,196715,32149.2,46278,295143
1.352,0.0106704,53961,30070.5,13163,184540,33632.5,45526.2,286833
1.354,0.0106958,52787.5,29218,14418.2,172365,35115.8,44774.4,278524
1.356,0.0107212,51613.9,28365.5,15673.4,160190,36599.1,44022.6,270215
1.358,0.0107466,50440.4,27512.9,16928.7,148014,38082.5,43270.7,261905
1.36,0.0107722,49640.1,26957.6,18277.4,141347,39863.1,44762.6,264324
1.362,0.0107978,49069.1,26584.9,19683.6,138065,41826.3,47633.1,273336
1.364,0.0108234,48498.2,26212.2,21089.7,134782,43789.6,50503.7,282349
1.366,0.010849,47917.1,25940.7,22075.1,132402,45485.4,52208.5,288027
1.368,0.0108747,47316,25869.1,22229.8,131802,46653.2,51612.3,287123
1.37,0.0109004,46714.9,25797.4,22384.5,131202,47821.1,51016,286220
1.372,0.0109261,46113.8,25725.8,22539.2,130602,48988.9,50419.8,285317
1.374,0.0109518,45512.7,25654.1,22693.9,130002,50156.7,49823.6,284414
1.376,0.0109775,44911.5,25582.5,22848.6,129403,51324.6,49227.4,283510
1.378,0.0110032,44310.4,25510.8,23003.3,128803,52492.4,48631.2,282607
1.38,0.0110289,43709.3,25439.2,23158,128203,53660.2,48035,281704
1.382,0.0110546,43108.2,25367.5,23312.7,127603,54828,47438.8,280801
1.384,0.0110803,42507.1,25295.9,23467.4,127003,55995.8,46842.6,279897
1.386,0.011106,41906,25224.2,23622.1,126404,57163.7,46246.3,278994
1.388,0.0111317,41304.9,25152.6,23776.8,125804,58331.5,45650.1,278091
1.39,0.0111574,40703.8,25080.9,23931.5,125204,59499.3,45053.9,277188
1.392,0.0111831,40102.7,25009.3,24086.2,124604,60667.2,44457.7,276284
1.394,0.0112088,39682.1,24919.7,24091.1,124431,61683.5,43791,274828
1.396,0.0112348,40764.2,24681.1,22848.4,127812,61438.4,42537.3,268764
1.398,0.0112607,41846.4,24442.6,21605.8,131193,61193.4,41283.7,262701
1.4,0.0112866,42928.5,24204,20363.2,134573,60948.4,40030.1,256637
1.402,0.0113126,44986.6,25083.8,17407.8,146376,60598.9,41793.5,264885
1.404,0.0113386,47176.3,26114.3,14221.3,159315,60235.3,43963.8,275063
1.406,0.0113646,49365.8,27144.8,11035.1,172253,59871.7,46133.9,285240
1.408,0.0113906,51555.4,28175.3,7848.86,185191,59508.1,48304,295417
1.41,0.0114166,53745,29205.8,4662.61,198129,59144.5,50474.1,305594
1.412,0.0114426,55934.5,30236.3,1476.37,211067,58780.9,52644.2,315770
1.414,0.0114686,58124.2,31266.9,-1710.07,224006,58417.3,54814.4,325948
1.416,0.0114947,58868.1,31663.9,-3549.63,228976,57755.9,55853.8,330579
1.418,0.0115209,58454.9,31554,-4311.37,227568,56856,55988.2,330772
1.42,0.0115471,58041.8,31444,-5073.11,226161,55956.1,56122.6,330965
1.422,0.0115733,57628.6,31334.1,-5834.89,224753,55056.2,56257,331158
1.424,0.0115995,57215.4,31224.2,-6596.63,223346,54156.4,56391.4,331350
1.426,0.0116257,56802.2,31114.2,-7358.37,221938,53256.5,56525.9,331543
1.428,0.0116519,56368.6,31104.8,-8108.43,219954,52121,56540.5,330853
1.43,0.0116781,55882.3,31354.8,-8828.32,216483,50377,56245.9,327883
1.432,0.0117043,55395.9,31604.9,-9548.25,213010,48633,55951.4,324912
1.434,0.0117304,54909.5,31855,-10268.1,209538,46889,55656.8,321942
1.436,0.0117566,54423.1,32105,-10988,206066,45145,55362.2,318972
1.438,0.0117827,53936.7,32355.1,-11707.9,202595,43401,55067.6,316001
1.44,0.0118089,53450.3,32605.2,-12427.9,199122,41657,54773.1,313031
1.442,0.0118351,52963.9,32855.2,-13147.7,195650,39913,54478.5,310061
1.444,0.0118612,52476.5,33103.9,-13828.6,192511,38233.7,54158.1,307201
1.446,0.0118874,51974.1,33333.8,-13974.7,193936,37440.8,53483.4,305859
1.448,0.0119135,51471.8,33563.7,-14120.7,195361,36648,52808.7,304517
1.45,0.0119397,50969.4,33793.6,-14266.7,196786,35855.1,52133.9,303174
1.452,0.0119659,50467.1,34023.5,-14412.7,198211,35062.2,51459.2,301832
1.454,0.011992,49964.7,34253.4,-14558.8,199636,34269.4,50784.5,300490
1.456,0.0120182,49462.4,34483.3,-14704.8,201061,33476.5,50109.8,299148
1.458,0.0120443,48960,34713.2,-14850.8,202486,32683.7,49435.1,297806
1.46,0.0120705,48457.7,34943.1,-14996.9,203911,31890.8,48760.4,296463
1.462,0.0120966,47955.3,35173,-15142.9,205336,31098,48085.7,295121
1.464,0.0121228,47453,35402.8,-15288.9,206761,30305.1,47411,293779
1.466,0.012149,46950.6,35632.7,-15434.9,208186,29512.3,46736.3,292437
1.468,0.0121751,46448.3,35862.6,-15581,209611,28719.4,46061.5,291094
1.47,0.0122013,45945.9,36092.5,-15727,211035,27926.5,45386.8,289752
1.472,0.0122274,45443.6,36322.4,-15873,212460,27133.7,44712.1,288410
1.474,0.0122536,44941.2,36552.3,-16019,213885,26340.8,44037.4,287068
1.476,0.0122797,44438.9,36782.2,-16165.1,215310,25548,43362.7,285726
1.478,0.0123059,43936.5,37012.1,-16311.1,216735,24755.1,42688,284383
1.48,0.0123322,43066,36510.6,-14910.8,213619,25629.5,40469.5,281584
1.482,0.0123586,41930.9,35483.6,-12399.3,207239,27702,37141.6,277738
1.484,0.012385,40795.8,34456.6,-9887.78,200858,29774.5,33813.6,273891
1.486,0.0124114,39660.7,33429.5,-7376.26,194478,31847,30485.7,270045
1.488,0.0124378,38525.5,32402.4,-4864.59,188098,33919.6,27157.6,266199
1.49,0.0124642,37390.3,31375.4,-2353.07,181717,35992.1,23829.7,262352
1.492,0.0124906,36255.2,30348.3,158.449,175337,38064.6,20501.7,258506
1.494,0.012517,35120.1,29321.3,2669.97,168957,40137.2,17173.8,254659
1.496,0.0125435,34609.7,29067.8,5216.13,167850,41131.6,14556.8,255486
1.498,0.01257,34495.1,29304.3,7783.99,170084,41442.9,12390.3,259272
1.5,0.0125965,34380.5,29540.8,10351.8,172317,41754.3,10223.8,263058
1.502,0.0126231,34266,29777.3,12919.7,174551,42065.7,8057.35,266844
1.504,0.0126496,34176.1,30042,15342.6,176825,42321.4,5991.41,270097
1.506,0.0126764,34552.7,30837.2,15033.8,179860,41528.1,5820.3,263308
1.508,0.0127031,34929.3,31632.3,14725,182896,40735,5649.21,256519
1.51,0.0127298,35305.9,32427.4,14416.1,185932,39941.8,5478.11,249729
1.512,0.0127566,35682.5,33222.6,14107.3,188967,39148.6,5307.02,242940
1.514,0.0127833,36059.1,34017.7,13798.4,192003,38355.3,5135.91,236151
1.516,0.01281,37262.1,34398,13232.2,191018,37706.7,6874.4,232307
1.518,0.0128367,38622.7,34699.2,12616.9,189265,37085.7,8977.33,229025
1.52,0.0128634,39983.4,35000.3,12001.6,187513,36464.7,11080.3,225744
1.522,0.01289,41344,35301.4,11386.3,185761,35843.8,13183.2,222462
1.524,0.0129167,42704.8,35602.6,10771,184008,35222.7,15286.2,219181
1.526,0.0129434,44065.4,35903.7,10155.7,182256,34601.7,17389.2,215899
1.528,0.0129701,45426.1,36204.8,9540.36,180504,33980.7,19492.1,212618
1.53,0.0129968,46786.8,36506,8925.05,178752,33359.7,21595,209336
1.532,0.0130234,48091.6,36817.6,8335.51,177185,32733.7,23504.9,206245
1.534,0.0130501,48525.1,37293.4,8148.08,178511,32029.1,22402.8,206124
1.536,0.0130767,48958.5,37769.2,7960.66,179837,31324.6,21300.8,206002
1.538,0.0131033,49392,38245,7773.24,181163,30620,20198.8,205881
1.54,0.01313,49825.5,38720.8,7585.82,182489,29915.5,19096.8,205759
1.542,0.0131566,50259,39196.6,7398.39,183815,29210.9,17994.7,205638
1.544,0.0131832,50692.5,39672.3,7210.97,185141,28506.3,16892.7,205516
1.546,0.0132099,51125.9,40148.1,7023.55,186467,27801.8,15790.6,205395
1.548,0.0132365,51559.4,40623.9,6836.14,187793,27097.2,14688.6,205274
1.55,0.0132631,51992.9,41099.7,6648.72,189119,26392.7,13586.6,205152
1.552,0.0132898,52426.4,41575.5,6461.29,190445,25688.1,12484.5,205031
1.554,0.0133166,52400.3,41648.7,6930.11,190309,25702.4,13092,205442
1.556,0.0133434,52104.2,41485.5,7784.36,189315,26138.9,14703.6,206165
1.558,0.0133703,51808.2,41322.4,8638.61,188321,26575.5,16315.2,206889
1.56,0.0133971,51512.2,41159.2,9492.86,187326,27012,17926.8,207613
1.562,0.013424,51216.1,40996,10347.2,186332,27448.6,19538.4,208336
1.564,0.0134508,50920.1,40832.8,11201.4,185338,27885.1,21150,209060
1.566,0.0134777,50624,40669.6,12055.7,184343,28321.6,22761.6,209784
1.568,0.0135046,50328,40506.4,12909.9,183349,28758.1,24373.1,210507
1.57,0.0135314,50031.9,40343.2,13764.2,182355,29194.7,25984.8,211231
1.572,0.0135583,49735.9,40180.1,14618.5,181360,29631.2,27596.4,211955
1.574,0.0135851,49439.8,40016.9,15472.7,180366,30067.7,29208,212678
1.576,0.0136121,50743.5,40275.1,17254,181259,30332.9,30238,214100
1.578,0.0136391,53404,40890.9,19821.8,183752,30452.8,30774.8,216113
1.58,0.0136661,56064.7,41506.7,22389.6,186245,30572.6,31311.6,218126
1.582,0.013693,58725.2,42122.4,24957.3,188738,30692.5,31848.4,220139
1.584,0.01372,61385.7,42738.2,27525.1,191232,30812.3,32385.2,222152
1.586,0.013747,64046.2,43353.9,30092.8,193725,30932.1,32922,224165
1.588,0.013774,66706.9,43969.7,32660.6,196218,31052,33458.8,226179
1.59,0.013801,69367.4,44585.4,35228.4,198711,31171.8,33995.6,228192
1.592,0.013828,72027.9,45201.2,37796.1,201205,31291.7,34532.4,230205
1.594,0.013855,72545.7,45104,37744.9,200545,31464.9,35267.5,231013
1.596,0.0138821,72604.9,44854.3,37133.2,199211,31649.5,36045.1,231564
1.598,0.0139091,72664,44604.5,36521.4,197877,31834.1,36822.7,232114
1.6,0.0139362,72723.2,44354.8,35909.8,196543,32018.7,37600.3,232665
1.602,0.0139632,72782.4,44105,35298.1,195209,32203.3,38377.8,233215
1.604,0.0139903,72841.5,43855.3,34686.4,193875,32387.9,39155.4,233766
1.606,0.0140174,72750.3,43994.5,33680.5,189310,31929.5,38937.5,230693
1.608,0.0140445,72559,44392.6,32412.1,182592,31043,38057,225207
1.61,0.0140717,72367.6,44790.7,31143.7,175875,30156.5,37176.6,219722
1.612,0.0140988,72176.3,45188.8,29875.4,169158,29270.1,36296.1,214237
1.614,0.014126,71985,45586.9,28607.1,162441,28383.7,35415.6,208752
1.616,0.0141531,71793.6,45985,27338.7,155724,27497.2,34535.1,203266
1.618,0.0141803,71602.3,46383.1,26070.4,149007,26610.7,33654.7,197781
1.62,0.0142074,71410.9,46781.1,24802,142290,25724.3,32774.2,192296
1.622,0.0142345,71609.1,46923.5,23783.7,138795,25304.3,32493.6,189076
1.624,0.0142617,72247.9,46776.4,23048.2,138945,25412,32891.7,188418
1.626,0.0142889,72886.7,46629.4,22312.7,139095,25519.7,33289.8,187760
1.628,0.014316,73525.5,46482.3,21577.3,139245,25627.4,33687.9,187102
1.63,0.0143432,74164.3,46335.3,20841.8,139395,25735.2,34086,186444
1.632,0.0143704,74803.1,46188.2,20106.3,139545,25842.9,34484.1,185786
1.634,0.0143975,75441.9,46041.2,19370.9,139695,25950.6,34882.3,185128
1.636,0.0144247,76080.7,45894.1,18635.3,139846,26058.3,35280.4,184470
1.638,0.0144519,76719.5,45747.1,17899.9,139996,26166.1,35678.5,183813
1.64,0.014479,77358.3,45600,17164.4,140146,26273.8,36076.6,183155
1.642,0.0145062,77997.1,45453,16429,140296,26381.5,36474.7,182497
1.644,0.0145334,78635.9,45305.9,15693.4,140446,26489.2,36872.8,181839
1.646,0.0145605,79274.7,45158.9,14958,140596,26597,37270.9,181181
1.648,0.0145877,79913.5,45011.9,14222.5,140746,26704.7,37669,180523
1.65,0.0146148,80552.3,44864.8,13487,140896,26812.4,38067.1,179865
1.652,0.014642,81191.1,44717.8,12751.6,141047,26920.1,38465.2,179208
1.654,0.0146692,81829.9,44570.7,12016.1,141197,27027.9,38863.4,178550
1.656,0.0146965,83317.1,44831.5,11130.5,142818,27232.6,39695.8,178432
1.658,0.0147239,85663.3,44595.9,9089.99,142340,27853,40403.4,177123
1.66,0.0147513,85716.6,43403.5,7302.95,138555,28293.8,39035.8,174182
1.662,0.0147787,85770,42211.2,5515.92,134770,28734.6,37668.3,171242
1.664,0.0148061,85823.4,41018.8,3728.78,130984,29175.4,36300.6,168302
1.666,0.0148334,85876.7,39826.4,1941.74,127199,29616.2,34933.1,165362
1.668,0.0148608,85930.1,38634.1,154.71,123414,30057,33565.5,162422
1.67,0.0148882,85983.4,37441.7,-1632.32,119629,30497.8,32198,159482
1.672,0.0149156,86036.8,36249.3,-3419.46,115844,30938.6,30830.3,156542
1.674,0.014943,86090.2,35057,-5206.5,112059,31379.4,29462.8,153601
1.676,0.0149704,82057.6,32159.7,-6541.86,102381,31500.2,24397.2,147755
1.678,0.0149978,81535.3,31356.7,-6953.77,99783.3,31877.8,24105.8,150892
1.68,0.0150251,81164.1,30629.6,-7355.53,97444.6,32266.8,23983.8,154268
1.682,0.0150525,80792.8,29902.4,-7757.31,95105.7,32655.9,23861.8,157645
1.684,0.0150799,80421.5,29175.3,-8159.07,92767,33044.9,23739.7,161021
1.686,0.0151073,80050.2,28448.3,-8560.83,90428.3,33433.9,23617.7,164398
1.688,0.0151347,79515.3,27644.3,-9001.17,88108.7,33734.1,23500.7,168041
1.69,0.0151621,78889.7,26797.8,-9462.89,85799.7,33985,23386.4,171833
1.692,0.0151894,78264.1,25951.3,-9924.58,83490.7,34235.8,23272.1,175624
1.694,0.0152168,77638.5,25104.8,-10386.3,81181.8,34486.7,23157.8,179415
1.696,0.0152442,77013,24258.3,-10848,78872.9,34737.6,23043.6,183207
1.698,0.0152716,76387.4,23411.8,-11309.7,76563.9,34988.5,22929.3,186998
1.7,0.015299,75761.8,22565.3,-11771.4,74254.9,35239.4,22815,190789
1.702,0.0153263,75136.2,21718.8,-12233.1,71945.9,35490.2,22700.8,194581
1.704,0.0153537,74510.7,20872.3,-12694.8,69637,35741.1,22586.5,198372
1.706,0.0153811,73885.1,20025.8,-13156.5,67328.1,35992,22472.2,202163
1.708,0.0154085,73743.4,19391.6,-13568.2,65720.8,36302.4,22304.9,205675
1.71,0.0154359,75982.6,19802,-13734,67566.5,36906,21876.5,207809
1.712,0.0154634,78496.4,20434.9,-13854.5,69655.2,37453.4,21673.1,210184
1.714,0.015491,82424.5,22212.8,-13741.8,72996.2,37712.4,22628.3,213801
1.716,0.0155186,86352.6,23990.8,-13629.1,76337.3,37971.3,23583.5,217418
1.718,0.0155462,90280.9,25768.9,-13516.4,79678.5,38230.3,24538.7,221036
1.72,0.0155738,94209,27546.9,-13403.7,83019.5,38489.3,25493.9,224653
1.722,0.0156014,98137.2,29324.9,-13291,86360.6,38748.2,26449.1,228270
1.724,0.015629,102065,31102.9,-13178.3,89701.6,39007.2,27404.3,231887
1.726,0.0156566,105573,32738.6,-13093,92855.5,39234.2,28190.7,234955
1.728,0.0156842,104540,32838,-13303.4,93988,39115.9,27154.3,232098
1.73,0.0157117,103507,32937.4,-13513.9,95120.5,38997.6,26117.9,229241
1.732,0.0157393,102473,33036.8,-13724.4,96253,38879.3,25081.5,226384
1.734,0.0157669,101440,33136.2,-13934.8,97385.5,38761.1,24045.1,223528
1.736,0.0157945,100407,33235.6,-14145.3,98518,38642.8,23008.7,220671
1.738,0.015822,99373.7,33335,-14355.8,99650.5,38524.5,21972.3,217814
1.74,0.0158496,98340.5,33434.4,-14566.2,100783,38406.3,20935.9,214957
1.742,0.0158772,97307.3,33533.8,-14776.7,101916,38288,19899.5,212100
1.744,0.0159048,96274.1,33633.2,-14987.2,103048,38169.7,18863.1,209243
1.746,0.0159323,95240.9,33732.6,-15197.7,104181,38051.4,17826.6,206386
1.748,0.0159599,94207.7,33832,-15408.1,105313,37933.2,16790.2,203529
1.75,0.0159875,93174.5,33931.4,-15618.6,106446,37814.9,15753.8,200673
1.752,0.0160151,92141.3,34030.8,-15829.1,107578,37696.6,14717.4,197816
1.754,0.0160426,91108.1,34130.2,-16039.5,108711,37578.3,13681,194959
1.756,0.0160702,90074.8,34229.6,-16250,109843,37460.1,12644.6,192102
1.758,0.0160978,89086.9,34318.4,-16445,110893,37330.7,11674.3,189267
1.76,0.0161253,89483.9,34081,-16165.6,109409,36862.6,12726.5,187109
1.762,0.0161529,89717.6,34034.6,-15745.9,107970,36144.1,13622.6,185283
1.764,0.0161806,89725.8,34251.8,-15132.5,106592,35079.9,14302.9,183914
1.766,0.0162083,89734,34469,-14519.1,105214,34015.8,14983.2,182545
1.768,0.016236,89742.2,34686.1,-13905.8,103836,32951.7,15663.4,181176
1.77,0.0162637,89750.3,34903.3,-13292.4,102458,31887.6,16343.7,179807
1.772,0.0162913,89758.5,35120.5,-12679,101080,30823.4,17024,178438
1.774,0.016319,89766.7,35337.7,-12065.6,99701.4,29759.3,17704.3,177069
1.776,0.0163467,91001.9,36417.9,-11639.7,100944,29142,18586.1,176103
1.778,0.0163744,92494.7,37679.4,-11253.1,102737,28618.5,19510.3,175222
1.78,0.0164021,93987.5,38940.9,-10866.5,104530,28095.1,20434.5,174340
1.782,0.0164297,95480.3,40202.4,-10479.9,106323,27571.6,21358.7,173459
1.784,0.0164574,96844.8,41302.4,-10063.5,108028,27017.6,22228.5,172426
1.786,0.0164851,97780.6,41863.8,-9547.5,109439,26361.9,22916.5,170891
1.788,0.0165128,98716.5,42425.1,-9031.53,110850,25706.2,23604.4,169355
1.79,0.0165405,99652.3,42986.5,-8515.56,112261,25050.4,24292.4,167819
1.792,0.0165683,100588,43547.9,-7999.56,113672,24394.7,24980.5,166283
1.794,0.016596,101524,44109.2,-7483.59,115083,23738.9,25668.4,164748
1.796,0.0166237,102460,44670.6,-6967.62,116494,23083.2,26356.4,163212
1.798,0.0166514,103396,45231.9,-6451.65,117905,22427.5,27044.4,161676
1.8,0.0166791,104332,45793.3,-5935.68,119316,21771.8,27732.4,160140
1.802,0.0167068,105267,46354.7,-5419.68,120727,21116,28420.4,158605
1.804,0.0167345,106203,46916,-4903.71,122138,20460.3,29108.4,157069
1.806,0.0167622,107139,47477.4,-4387.74,123549,19804.5,29796.4,155533
1.808,0.0167899,108627,47562.5,-4029.28,121982,19034.8,29714.8,154246
1.81,0.0168178,110744,47105.3,-3850.2,117025,18135.4,28757.1,153241
1.812,0.0168456,112861,46648.1,-3671.1,112067,17235.9,27799.2,152236
1.814,0.0168734,114977,46190.9,-3492.02,107109,16336.4,26841.4,151231
1.816,0.0169012,117094,45733.7,-3312.94,102152,15437,25883.6,150226
1.818,0.016929,119210,45276.5,-3133.85,97194.3,14537.5,24925.8,149221
1.82,0.0169568,121327,44819.3,-2954.76,92236.5,13638,23968,148216
1.822,0.0169846,123444,44362.1,-2775.68,87278.9,12738.6,23010.2,147212
1.824,0.0170124,125162,43928.5,-2595.95,83151.2,12057.3,22331,146464
1.826,0.0170402,124784,43618.6,-2412.83,83393,12524.7,23118.6,147074
1.828,0.017068,124405,43308.7,-2229.71,83634.7,12992.1,23906.3,147683
1.83,0.0170958,124026,42998.9,-2046.58,83876.5,13459.6,24694,148293
1.832,0.0171236,123648,42689,-1863.46,84118.3,13927,25481.7,148902
1.834,0.0171514,123269,42379.1,-1680.34,84360,14394.4,26269.4,149512
1.836,0.0171792,122891,42069.3,-1497.21,84601.8,14861.9,27057.1,150121
1.838,0.017207,122512,41759.4,-1314.08,84843.6,15329.3,27844.8,150731
1.84,0.0172348,122133,41449.6,-1130.96,85085.4,15796.8,28632.5,151340
1.842,0.0172626,121418,40919.5,-896.805,85720.1,16468.7,29472.2,152063
1.844,0.0172904,118968,39252.8,-399.256,88383.1,18196.1,30580.3,153374
1.846,0.0173182,116518,37586.1,98.294,91046,19923.4,31688.4,154685
1.848,0.0173459,114067,35919.4,595.873,93709.2,21650.9,32796.6,155996
1.85,0.0173737,111617,34252.7,1093.42,96372.1,23378.2,33904.8,157307
1.852,0.0174015,111236,33445.4,1000.33,95932.5,24059,34372.8,157087
1.854,0.0174293,112084,33148.8,556.327,93649.6,24118,34460.6,155958
1.856,0.0174571,112932,32852.1,112.319,91366.6,24177,34548.3,154829
1.858,0.0174848,113780,32555.4,-331.715,89083.5,24235.9,34636.1,153699
1.86,0.0175127,117014,33208.4,-1349.11,91819.9,24831.8,36250.8,155609
1.862,0.0175406,120453,33943,-2415.76,94987.4,25473.8,37996.7,157780
1.864,0.0175685,123891,34677.5,-3482.42,98154.9,26115.9,39742.6,159951
1.866,0.0175964,127330,35412.1,-4549.13,101323,26757.9,41488.5,162122
1.868,0.0176242,131142,35601.1,-4900.01,100521,26855.7,42501.5,163650
1.87,0.0176521,135073,35615.8,-5022.18,98452.1,26779.5,43280.3,164973
1.872,0.01768,139005,35630.4,-5144.35,96382.8,26703.3,44059,166295
1.874,0.0177079,142936,35645,-5266.52,94313.5,26627.2,44837.8,167618
1.876,0.0177358,146868,35659.7,-5388.69,92244,26551,45616.6,168941
1.878,0.0177638,146777,35337.9,-5530.75,91355.1,26428.5,45578.2,168438
1.88,0.0177917,146338,34986.9,-5674.54,90568.5,26301.9,45468.9,167776
1.882,0.0178197,145898,34635.9,-5818.32,89781.9,26175.4,45359.7,167115
1.884,0.0178477,145458,34285,-5962.11,88995.4,26048.8,45250.4,166454
1.886,0.0178757,145018,33934,-6105.9,88208.8,25922.3,45141.1,165792
1.888,0.0179036,144579,33583,-6249.68,87422.2,25795.7,45031.9,165131
1.89,0.0179316,144139,33232,-6393.47,86635.6,25669.2,44922.6,164469
1.892,0.0179596,143699,32881.1,-6537.25,85849,25542.7,44813.3,163808
1.894,0.0179876,143259,32530.1,-6681.05,85062.4,25416.1,44704.1,163146
1.896,0.0180156,142820,32179.1,-6824.83,84275.9,25289.6,44594.8,162485
1.898,0.0180435,142380,31828.1,-6968.61,83489.3,25163,44485.6,161823
1.9,0.0180715,141940,31477.1,-7112.4,82702.7,25036.5,44376.3,161162
1.902,0.0180995,141501,31126.2,-7256.18,81916.2,24909.9,44267,160501
1.904,0.0181275,141061,30775.2,-7399.98,81129.5,24783.4,44157.8,159839
1.906,0.0181555,140621,30424.2,-7543.76,80343,24656.8,44048.5,159178
1.908,0.0181834,140181,30073.2,-7687.55,79556.4,24530.3,43939.2,158516
1.91,0.0182114,139728,29702.7,-7826.27,78734.3,24411.5,43832.5,157841
1.912,0.0182394,139643,29860.5,-8101.57,78871.8,24082.5,43657,157528
1.914,0.0182674,139558,30018.3,-8376.88,79009.3,23753.5,43481.4,157215
1.916,0.0182954,139473,30176.2,-8652.17,79146.8,23424.5,43305.9,156901
1.918,0.0183233,139387,30334,-8927.46,79284.4,23095.6,43130.4,156588
1.92,0.0183513,139302,30491.8,-9202.75,79421.9,22766.6,42954.8,156274
1.922,0.0183793,139217,30649.6,-9478.06,79559.4,22437.6,42779.3,155961
1.924,0.0184073,139132,30807.4,-9753.35,79696.9,22108.6,42603.8,155648
1.926,0.0184353,139047,30965.3,-10028.6,79834.4,21779.6,42428.2,155334
1.928,0.0184633,138962,31123.1,-10303.9,79971.9,21450.6,42252.7,155021
1.93,0.0184912,138876,31280.9,-10579.2,80109.4,21121.6,42077.2,154707
1.932,0.0185192,138791,31438.7,-10854.5,80246.9,20792.6,41901.6,154394
1.934,0.0185472,139383,31649.6,-10575.7,80543.1,20945.5,41828.4,154815
1.936,0.018575,140387,31892.7,-9960.02,80935.6,21391.3,41817.5,155681
1.938,0.0186029,141391,32135.8,-9344.35,81328.2,21837.1,41806.6,156548
1.94,0.0186308,142395,32378.9,-8728.63,81720.8,22283,41795.6,157415
1.942,0.0186587,145962,33018.9,-7908.52,81164.8,22703,41604.1,160347
1.944,0.0186867,150790,33854.3,-6987.7,80141.5,23110.3,41323.7,164297
1.946,0.0187146,155619,34689.7,-6066.88,79118.2,23517.6,41043.2,168247
1.948,0.0187426,160447,35525.1,-5146.06,78094.9,23924.8,40762.8,172197
1.95,0.0187705,165276,36360.6,-4225.18,77071.5,24332.2,40482.3,176147
1.952,0.0187985,170105,37196,-3304.36,76048.2,24739.5,40201.8,180097
1.954,0.0188264,174933,38031.5,-2383.54,75024.9,25146.7,39921.4,184047
1.956,0.0188544,179762,38866.9,-1462.72,74001.6,25554,39640.9,187997
1.958,0.0188823,184590,39702.3,-541.902,72978.3,25961.3,39360.5,191947
1.96,0.0189103,189419,40537.8,378.973,71955,26368.6,39080,195897
1.962,0.0189383,193938,41330.2,1449.23,71201.1,26915.5,38803,199521
1.964,0.0189663,196830,41896.7,3304.82,71863.3,28195.8,38543.8,201432
1.966,0.0189944,199722,42463.1,5160.42,72525.4,29476.2,38284.6,203342
1.968,0.0190225,202614,43029.6,7016.13,73187.6,30756.6,38025.4,205253
1.97,0.0190506,205506,43596.1,8871.73,73849.8,32036.9,37766.3,207164
1.972,0.0190787,208398,44162.6,10727.3,74512,33317.2,37507.1,209074
1.974,0.0191067,211290,44729,12582.9,75174.1,34597.5,37247.9,210985
1.976,0.0191348,216137,45371.9,14315.1,77893.2,35007.4,37984.5,213910
1.978,0.0191628,221696,46042.7,16002.5,81361.3,35100.3,39083.8,217205
1.98,0.0191908,227255,46713.4,17689.8,84829.3,35193.2,40182.9,220500
1.982,0.0192188,232814,47384.2,19377.1,88297.2,35286.2,41282.1,223795
1.984,0.0192468,238373,48054.9,21064.4,91765.1,35379.1,42381.3,227090
1.986,0.0192749,243932,48725.7,22751.7,95233,35472,43480.4,230385
1.988,0.0193029,245549,48291.5,24122.2,96600.9,36856.7,43331.5,232330
1.99,0.0193308,237219,45068.2,24692.6,92667.7,41501.9,40032.4,230869
1.992,0.0193588,228888,41845,25263.1,88734.5,46147.1,36733.3,229407
1.994,0.0193868,220558,38621.8,25833.5,84801.3,50792.2,33434.1,227946
1.996,0.0194148,212227,35398.3,26404,80867.9,55437.7,30134.8,226485
1.998,0.0194428,203896,32175.1,26974.4,76934.7,60082.9,26835.7,225023
2,0.0194707,195565,28951.9,27544.9,73001.5,64728,23536.5,223562
