"arc_length","Displacement_Magnitude","Sxx","Sxy","Sxz","Syy","Syz","Szz","Von_Mises_Stress"
0,0,1.19295e+06,-68806.9,-6456.36,2.40098e+06,482312,1.02742e+06,1.55199e+06
0.002,1.83214e-06,1.13344e+06,-62884.6,-5619.29,2.31263e+06,452353,947935,1.51484e+06
0.004,2.97505e-06,1.1011e+06,-60394.7,-4615.86,2.25713e+06,435082,909801,1.48984e+06
0.006,3.93713e-06,1.07764e+06,-59026.1,-3558.08,2.21236e+06,421956,885174,1.46881e+06
0.008,4.92253e-06,1.05417e+06,-57657.6,-2500.3,2.16759e+06,408830,860548,1.44777e+06
0.01,5.91961e-06,1.0307e+06,-56289,-1442.52,2.12282e+06,395704,835922,1.42674e+06
0.012,6.92333e-06,1.00724e+06,-54920.4,-384.74,2.07805e+06,382578,811296,1.4057e+06
0.014,7.93116e-06,983772,-53551.8,673.039,2.03328e+06,369452,786670,1.38467e+06
0.016,8.9079e-06,960295,-51771.8,1875.74,1.98738e+06,357283,763446,1.36384e+06
0.018,9.80079e-06,936788,-48954.5,3443.78,1.93862e+06,347525,743755,1.34353e+06
0.02,1.06945e-05,913281,-46137.2,5011.82,1.88986e+06,337768,724065,1.32323e+06
0.022,1.15889e-05,889774,-43319.9,6579.86,1.84111e+06,328011,704375,1.30292e+06
0.024,1.24838e-05,866268,-40502.6,8147.9,1.79235e+06,318253,684684,1.28262e+06
0.026,1.33791e-05,842761,-37685.3,9715.95,1.74359e+06,308496,664994,1.26231e+06
0.028,1.42747e-05,819254,-34868,11284,1.69483e+06,298738,645304,1.242e+06
0.03,1.51706e-05,795747,-32050.7,12852,1.64607e+06,288981,625613,1.2217e+06
0.032,1.60667e-05,772240,-29233.4,14420.1,1.59732e+06,279223,605923,1.20139e+06
0.034,1.6963e-05,748733,-26416.1,15988.1,1.54856e+06,269466,586233,1.18109e+06
0.036,1.78594e-05,725227,-23598.8,17556.2,1.4998e+06,259709,566542,1.16078e+06
0.038,1.8756e-05,701720,-20781.5,19124.2,1.45104e+06,249951,546852,1.14048e+06
0.04,1.96527e-05,678213,-17964.2,20692.2,1.40228e+06,240194,527162,1.12017e+06
0.042,2.05496e-05,654706,-15146.9,22260.3,1.35353e+06,230436,507471,1.09986e+06
0.044,2.14465e-05,631199,-12329.6,23828.3,1.30477e+06,220679,487781,1.07956e+06
0.046,2.23435e-05,607692,-9512.31,25396.4,1.25601e+06,210921,468091,1.05925e+06
0.048,2.32405e-05,584186,-6695.01,26964.4,1.20725e+06,201164,448401,1.03895e+06
0.05,2.51464e-05,557085,-4562.06,29407.2,1.17249e+06,195727,416877,1.0384e+06
0.052,2.74178e-05,528688,-2675.92,32165.4,1.14278e+06,191849,381086,1.04498e+06
0.054,2.96905e-05,500291,-789.775,34923.6,1.11307e+06,187970,345295,1.05155e+06
0.056,3.19644e-05,471895,1096.37,37681.8,1.08336e+06,184091,309504,1.05813e+06
0.058,3.42392e-05,443498,2982.51,40440,1.05364e+06,180213,273713,1.06471e+06
0.06,3.65148e-05,415101,4868.65,43198.2,1.02393e+06,176334,237921,1.07128e+06
0.062,3.87909e-05,386704,6754.79,45956.4,994220,172455,202130,1.07786e+06
0.064,4.0989e-05,382725,6137.02,46001,988166,175852,199682,1.07986e+06
0.066,4.32139e-05,380522,5337.08,45848.3,983832,179779,199660,1.08153e+06
0.068,4.54674e-05,378319,4537.14,45695.5,979499,183705,199637,1.08319e+06
0.07,4.77457e-05,376116,3737.2,45542.7,975166,187631,199615,1.08486e+06
0.072,5.00403e-05,371204,1195.18,45708.2,966966,186548,189077,1.0847e+06
0.074,5.23452e-05,365856,-1627.89,45925,958141,184656,176843,1.08424e+06
0.076,5.46591e-05,360508,-4450.95,46141.9,949317,182764,164608,1.08378e+06
0.078,5.69809e-05,355160,-7274.03,46358.7,940493,180873,152374,1.08333e+06
0.08,5.93098e-05,349812,-10097.1,46575.5,931669,178981,140139,1.08287e+06
0.082,6.16449e-05,344463,-12920.2,46792.3,922845,177090,127905,1.08241e+06
0.084,6.39855e-05,339115,-15743.2,47009.2,914021,175198,115670,1.08196e+06
0.086,6.63311e-05,333767,-18566.3,47226,905197,173306,103436,1.0815e+06
0.088,6.86816e-05,329616,-21081,47199.8,897902,172138,92950.9,1.08242e+06
0.09,7.10411e-05,331917,-21934,45863.3,898847,174869,91895.3,1.09075e+06
0.092,7.34083e-05,334218,-22787,44526.8,899792,177600,90839.8,1.09908e+06
0.094,7.57825e-05,336518,-23640,43190.3,900737,180331,89784.3,1.10741e+06
0.096,7.81631e-05,338819,-24492.9,41853.8,901682,183062,88728.7,1.11574e+06
0.098,8.05494e-05,341120,-25345.9,40517.3,902628,185793,87673.2,1.12407e+06
0.1,8.32104e-05,347585,-26762.1,39702,914387,189004,87979.3,1.13998e+06
0.102,8.67425e-05,367470,-29993.8,40566.6,961003,193760,92674,1.18032e+06
0.104,9.02762e-05,387355,-33225.4,41431.1,1.00762e+06,198517,97368.7,1.22066e+06
0.106,9.38112e-05,407239,-36457.1,42295.7,1.05424e+06,203273,102063,1.261e+06
0.108,9.73475e-05,427124,-39688.7,43160.2,1.10085e+06,208029,106758,1.30133e+06
0.11,0.000100885,447009,-42920.4,44024.8,1.14747e+06,212786,111453,1.34167e+06
0.112,0.000104423,466894,-46152,44889.3,1.19408e+06,217542,116147,1.38201e+06
0.114,0.000107962,486779,-49383.7,45753.9,1.2407e+06,222298,120842,1.42234e+06
0.116,0.000111655,480497,-49662.3,44623.2,1.22317e+06,223674,118749,1.41064e+06
0.118,0.000115511,446381,-46799.6,41370,1.13741e+06,221453,109436,1.34357e+06
0.12,0.000119367,412264,-43936.9,38116.8,1.05165e+06,219233,100123,1.2765e+06
0.122,0.000123224,378147,-41074.1,34863.5,965887,217012,90809.6,1.20943e+06
0.124,0.000127081,344031,-38211.4,31610.3,880126,214792,81496.4,1.14236e+06
0.126,0.000130939,309914,-35348.7,28357.1,794364,212571,72183.1,1.07529e+06
0.128,0.000134796,275797,-32486,25103.9,708602,210351,62869.9,1.00822e+06
0.13,0.000138654,241681,-29623.3,21850.7,622841,208130,53556.7,941155
0.132,0.00014278,228672,-29428.5,19625.7,589116,206699,49878.7,917151
0.134,0.000147074,228151,-30812.1,18009.1,586176,205734,49534.7,918625
0.136,0.000151379,227630,-32195.6,16392.4,583236,204769,49190.7,920098
0.138,0.000155694,227109,-33579.2,14775.8,580297,203804,48846.7,921572
0.14,0.000160018,226588,-34962.8,13159.1,577357,202840,48502.7,923046
0.142,0.000164351,226067,-36346.3,11542.5,574417,201875,48158.7,924519
0.144,0.000168692,225546,-37729.9,9925.84,571477,200910,47814.7,925993
0.146,0.00017304,225025,-39113.5,8309.2,568538,199945,47470.7,927467
0.148,0.000177395,224504,-40497,6692.55,565598,198981,47126.7,928940
0.15,0.000181757,223983,-41880.6,5075.9,562658,198016,46782.7,930414
0.152,0.000186124,223462,-43264.2,3459.26,559718,197051,46438.7,931887
0.154,0.000190497,222941,-44647.7,1842.61,556779,196087,46094.7,933361
0.156,0.000194875,222420,-46031.3,225.964,553839,195122,45750.7,934835
0.158,0.000199257,221899,-47414.9,-1390.69,550899,194157,45406.7,936308
0.16,0.000203644,221378,-48798.4,-3007.32,547959,193192,45062.7,937782
0.162,0.000208036,220857,-50182,-4623.97,545020,192228,44718.7,939256
0.164,0.000212431,220336,-51565.6,-6240.62,542080,191263,44374.7,940729
0.166,0.00021683,219815,-52949.2,-7857.26,539140,190298,44030.7,942203
0.168,0.000221232,219294,-54332.7,-9473.91,536200,189333,43686.7,943676
0.17,0.000225638,218773,-55716.3,-11090.6,533261,188369,43342.7,945150
0.172,0.000230046,218252,-57099.9,-12707.2,530321,187404,42998.7,946624
0.174,0.000234367,219919,-58032.5,-11124.6,536006,186513,42409.7,945159
0.176,0.000238641,222781,-58718.7,-7793.92,546403,185662,41686.8,942088
0.178,0.000243406,223022,-58615,-9188.12,547816,184164,43102.7,930993
0.18,0.00024864,221838,-57921.5,-14626.9,543894,182058,46989.8,915413
0.182,0.000254167,231168,-58593,-17726.6,570986,179658,57035.4,930675
0.184,0.000259695,240499,-59264.5,-20826.3,598078,177257,67081.2,945937
0.186,0.000265223,249829,-59935.9,-23926,625170,174856,77126.9,961199
0.188,0.000270752,259159,-60607.4,-27025.6,652262,172455,87172.6,976461
0.19,0.000276282,268490,-61278.9,-30125.3,679354,170054,97218.3,991723
0.192,0.000281813,277820,-61950.3,-33225,706446,167653,107264,1.00698e+06
0.194,0.000287344,287151,-62621.8,-36324.7,733538,165253,117310,1.02225e+06
0.196,0.000292875,296481,-63293.3,-39424.4,760629,162852,127355,1.03751e+06
0.198,0.000298601,300340,-62209.2,-39729.1,768300,160439,130987,1.03552e+06
0.2,0.0003044,302210,-60487.2,-39018.3,768915,158021,132287,1.02727e+06
0.202,0.000310202,304081,-58765.2,-38307.5,769529,155603,133588,1.01902e+06
0.204,0.000316007,305951,-57043.2,-37596.8,770143,153185,134889,1.01076e+06
0.206,0.000321815,307822,-55321.3,-36886,770758,150768,136189,1.00251e+06
0.208,0.000327626,309693,-53599.3,-36175.2,771372,148350,137490,994257
0.21,0.000333439,311563,-51877.3,-35464.4,771987,145932,138791,986004
0.212,0.000339254,313434,-50155.3,-34753.6,772601,143514,140092,977751
0.214,0.000345072,315304,-48433.4,-34042.8,773216,141097,141392,969497
0.216,0.000350892,317175,-46711.4,-33332,773830,138679,142693,961244
0.218,0.000356714,319045,-44989.4,-32621.3,774445,136261,143994,952991
0.22,0.000362538,320916,-43267.4,-31910.5,775059,133843,145294,944738
0.222,0.000368364,322786,-41545.5,-31199.7,775674,131426,146595,936485
0.224,0.000374192,324657,-39823.5,-30488.9,776288,129008,147896,928232
0.226,0.00038043,313676,-37230.9,-23885.3,759053,126561,142566,917332
0.228,0.000386678,302394,-34617.9,-17143.3,741399,124113,137082,906371
0.23,0.000392926,291112,-32004.9,-10401.3,723745,121666,131597,895409
0.232,0.000399175,279830,-29391.9,-3659.36,706091,119218,126112,884447
0.234,0.000405424,268548,-26778.9,3082.62,688437,116770,120627,873486
0.236,0.000411673,257265,-24165.9,9824.6,670782,114323,115142,862524
0.238,0.000417923,245983,-21552.8,16566.6,653128,111875,109657,851562
0.24,0.000424397,243592,-21267.2,21247.6,647539,111054,108961,863081
0.242,0.000430922,243122,-21484.6,25483,644558,110584,109301,879459
0.244,0.000437448,242652,-21702.1,29718.5,641578,110114,109640,895837
0.246,0.000443977,242182,-21919.5,33953.9,638597,109645,109979,912215
0.248,0.000450507,241712,-22136.9,38189.3,635616,109175,110319,928593
0.25,0.000457038,241242,-22354.4,42424.8,632635,108705,110658,944972
0.252,0.000463571,240773,-22571.8,46660.3,629654,108236,110997,961350
0.254,0.000470106,240303,-22789.3,50895.7,626673,107766,111337,977728
0.256,0.000476642,239833,-23006.7,55131.2,623692,107296,111676,994106
0.258,0.000483179,239363,-23224.2,59366.5,620711,106827,112015,1.01048e+06
0.26,0.000489717,238893,-23441.6,63602,617731,106357,112355,1.02686e+06
0.262,0.000496611,233956,-21646.8,65818.7,613837,109903,112236,1.03456e+06
0.264,0.000503574,228143,-19457.7,67639.8,609766,114237,112028,1.04056e+06
0.266,0.000510537,222330,-17268.5,69460.9,605694,118570,111820,1.04656e+06
0.268,0.000517501,216517,-15079.4,71282,601622,122904,111612,1.05256e+06
0.27,0.000524465,210704,-12890.2,73103.1,597550,127237,111404,1.05856e+06
0.272,0.000531429,204891,-10701.1,74924.3,593478,131571,111196,1.06455e+06
0.274,0.000538466,200170,-8337.34,76263.6,589422,135426,111029,1.06884e+06
0.276,0.000545843,200510,-5163.79,75369.6,585440,137067,111049,1.06518e+06
0.278,0.000553221,200850,-1990.24,74475.6,581459,138708,111069,1.06152e+06
0.28,0.000560599,201191,1183.3,73581.6,577477,140349,111090,1.05786e+06
0.282,0.000568269,207181,3876.6,70950.6,585818,137962,109687,1.04129e+06
0.284,0.000576051,215358,6384.13,67647.8,598925,134017,107733,1.01971e+06
0.286,0.000583833,223534,8891.66,64344.9,612033,130072,105779,998140
0.288,0.000591616,231710,11399.1,61042.1,625140,126126,103826,976567
0.29,0.000599399,239887,13906.7,57739.3,638248,122181,101872,954993
0.292,0.000607182,248063,16414.2,54436.5,651355,118236,99918.3,933419
0.294,0.000615044,251843,16184.2,50863.5,664259,117670,99435.3,918080
0.296,0.00062292,254907,15508.6,47246.5,677129,117655,99191.7,903755
0.298,0.000630797,257971,14832.9,43629.5,689999,117640,98948.2,889430
0.3,0.000638675,261035,14157.3,40012.5,702870,117624,98704.6,875105
0.302,0.000646555,264099,13481.6,36395.6,715740,117609,98461,860781
0.304,0.000654436,267163,12806,32778.6,728610,117593,98217.4,846456
0.306,0.000662318,270227,12130.3,29161.6,741480,117578,97973.9,832131
0.308,0.000670201,273291,11454.7,25544.6,754350,117562,97730.3,817806
0.31,0.000678085,276355,10779,21927.6,767221,117547,97486.7,803481
0.312,0.000685983,279357,10032.2,18106.6,779516,117541,97369.6,789435
0.314,0.000694257,280656,7320.32,8658.2,775945,117790,100740,783076
0.316,0.000702531,281955,4608.49,-790.182,772374,118040,104110,776717
0.318,0.000710805,283254,1896.71,-10238.4,768803,118290,107480,770358
0.32,0.000719079,284553,-815.124,-19686.8,765233,118539,110850,763999
0.322,0.000727353,285851,-3526.95,-29135.2,761662,118789,114220,757640
0.324,0.000735628,287150,-6238.78,-38583.6,758091,119039,117591,751281
0.326,0.000743922,288016,-8743.4,-46975.7,753229,119113,120823,747071
0.328,0.000752395,285093,-9434.15,-46121.9,737059,117656,122847,761672
0.33,0.000760868,282169,-10124.9,-45268.1,720890,116198,124872,776272
0.332,0.000769342,279246,-10815.7,-44414.3,704721,114740,126896,790872
0.334,0.000777817,276322,-11506.4,-43560.5,688552,113283,128920,805473
0.336,0.000786293,273399,-12197.2,-42706.7,672383,111825,130945,820073
0.338,0.00079477,270475,-12887.9,-41852.9,656213,110367,132969,834674
0.34,0.000803247,267552,-13578.7,-40999.1,640044,108909,134993,849275
0.342,0.000811725,264629,-14269.4,-40145.3,623875,107452,137018,863875
0.344,0.000820204,261705,-14960.2,-39291.5,607706,105994,139042,878476
0.346,0.000828683,258782,-15650.9,-38437.7,591536,104536,141066,893076
0.348,0.000837321,253377,-15917.4,-36234.8,575061,103578,140395,896624
0.35,0.00084624,243508,-15420.4,-31603.9,558035,103518,134872,880282
0.352,0.000855161,233639,-14923.4,-26973,541009,103459,129349,863940
0.354,0.000864081,223770,-14426.4,-22342.2,523983,103399,123826,847598
0.356,0.000873001,213901,-13929.4,-17711.3,506957,103340,118303,831256
0.358,0.000881921,204032,-13432.4,-13080.4,489931,103280,112780,814914
0.36,0.000890841,194163,-12935.4,-8449.55,472905,103221,107257,798572
0.362,0.000899761,184294,-12438.4,-3818.75,455879,103161,101734,782231
0.364,0.000908841,183381,-12517.9,-2638.4,458547,101594,100080,775128
0.366,0.000917952,184114,-12703.6,-2092.8,464837,99748.7,99137.2,769726
0.368,0.000927064,184848,-12889.2,-1547.19,471128,97903.8,98194.9,764323
0.37,0.000936176,185582,-13074.8,-1001.59,477418,96059,97252.6,758920
0.372,0.000945289,186316,-13260.5,-455.988,483708,94214.1,96310.2,753517
0.374,0.000954403,187049,-13446.1,89.6151,489999,92369.2,95367.9,748115
0.376,0.000963518,187783,-13631.7,635.21,496289,90524.4,94425.6,742712
0.378,0.000972633,188517,-13817.3,1180.81,502580,88679.5,93483.3,737309
0.38,0.000981749,189250,-14003,1726.42,508870,86834.6,92541,731907
0.382,0.000990881,190667,-14288.3,2183.33,517790,85413.9,92166.5,724285
0.384,0.00100006,194333,-14902.1,2348.12,535371,85389.9,93662.3,709357
0.386,0.00100924,197998,-15516,2512.92,552952,85365.9,95158.1,694429
0.388,0.00101843,201664,-16129.8,2677.72,570533,85341.9,96653.8,679501
0.39,0.00102761,205330,-16743.6,2842.51,588114,85317.9,98149.6,664573
0.392,0.00103679,208995,-17357.5,3007.31,605695,85293.9,99645.4,649645
0.394,0.00104617,210960,-17698.6,3616.98,618392,85652.7,101635,637064
0.396,0.00105595,209430,-17479.4,5140.9,621054,86798.3,104639,629306
0.398,0.00106574,207900,-17260.1,6664.82,623716,87943.8,107643,621549
0.4,0.00107552,206370,-17040.9,8188.75,626378,89089.4,110647,613791
0.402,0.0010853,204840,-16821.6,9712.67,629040,90235,113651,606033
0.404,0.00109509,203309,-16602.3,11236.6,631702,91380.5,116655,598276
0.406,0.00110487,201779,-16383.1,12760.5,634363,92526.1,119659,590518
0.408,0.00111465,200249,-16163.8,14284.4,637025,93671.7,122663,582761
0.41,0.00112453,195425,-15078,15409.6,631822,94424.6,122882,583152
0.412,0.00113464,187095,-13525.9,14874.9,609550,93080.4,117948,596827
0.414,0.00114476,178765,-11973.8,14340.3,587279,91736.3,113015,610501
0.416,0.00115488,170434,-10421.8,13805.7,565008,90392.1,108081,624175
0.418,0.001165,162104,-8869.71,13271,542737,89047.9,103148,637850
0.42,0.00117512,153774,-7317.66,12736.4,520466,87703.8,98214.5,651524
0.422,0.00118523,145443,-5765.59,12201.7,498195,86359.6,93281.1,665198
0.424,0.00119535,137113,-4213.51,11667.1,475923,85015.5,88347.6,678873
0.426,0.00120547,128783,-2661.44,11132.5,453652,83671.3,83414.1,692547
0.428,0.00121559,120452,-1109.37,10597.8,431381,82327.1,78480.7,706221
0.43,0.00122572,112122,442.699,10063.2,409110,80983,73547.2,719896
0.432,0.00123581,105776,121.937,8977.56,386676,79046.6,70623.6,725384
0.434,0.00124589,101151,-1823.7,7413.92,364101,76596.5,69443.9,723769
0.436,0.00125597,96526.7,-3769.37,5850.25,341526,74146.4,68264.2,722154
0.438,0.00126605,91902.1,-5715.04,4286.58,318951,71696.3,67084.5,720539
0.44,0.00127612,87277.4,-7660.71,2722.92,296375,69246.2,65904.8,718924
0.442,0.0012862,82652.8,-9606.38,1159.25,273800,66796,64725,717309
0.444,0.0012965,83039.3,-15900.1,-163.994,262185,63330.8,65423,713191
0.446,0.00130698,87536.4,-25760.3,-1290.03,259559,59032.9,67661.1,707019
0.448,0.00131746,92033.4,-35620.4,-2416.07,256933,54735,69899.2,700847
0.45,0.00132794,96530.3,-45480.4,-3542.09,254308,50437.2,72137.3,694676
0.452,0.00133878,102345,-44882.9,-1884.87,272834,50453.7,76280,686364
0.454,0.00134965,108261,-43477.2,-12.5567,292996,50803.7,80569.9,677887
0.456,0.00136052,114177,-42071.5,1859.76,313157,51153.6,84859.8,669410
0.458,0.00137139,120093,-40665.8,3732.07,333319,51503.6,89149.7,660933
0.46,0.00138226,126009,-39260,5604.38,353480,51853.6,93439.6,652456
0.462,0.00139313,131925,-37854.3,7476.7,373642,52203.6,97729.5,643979
0.464,0.001404,137841,-36448.6,9348.98,393803,52553.5,102019,635502
0.466,0.00141487,143757,-35042.9,11221.3,413964,52903.5,106309,627026
0.468,0.00142574,149673,-33637.2,13093.6,434125,53253.5,110599,618549
0.47,0.00143662,155589,-32231.5,14965.9,454287,53603.4,114889,610072
0.472,0.00144749,161505,-30825.8,16838.2,474448,53953.4,119179,601595
0.474,0.00145836,167421,-29420,18710.6,494610,54303.4,123469,593118
0.476,0.00146923,173337,-28014.3,20582.9,514771,54653.4,127759,584641
0.478,0.00148008,178414,-24535.1,22625.6,532874,55313.7,132348,574176
0.48,0.00149087,182381,-18309.9,24894,548252,56385,137335,561079
0.482,0.00150167,186347,-12084.8,27162.4,563629,57456.4,142321,547982
0.484,0.00151248,190313,-5859.69,29430.8,579007,58527.7,147308,534884
0.486,0.00152328,194280,365.44,31699.2,594385,59599,152294,521787
0.488,0.00153418,194540,6710.51,33221.1,603788,59287.7,153789,513314
0.49,0.00154533,186307,13330.5,33031.8,599495,55807.3,147282,515441
0.492,0.00155647,178073,19950.5,32842.6,595203,52326.8,140775,517568
0.494,0.00156762,169840,26570.4,32653.3,590911,48846.4,134269,519696
0.496,0.00157877,161607,33190.4,32464,586619,45365.9,127762,521823
0.498,0.00158992,153373,39810.4,32274.8,582327,41885.5,121255,523950
0.5,0.00160122,146778,42779.4,31769.8,578247,39830.6,114451,526089
0.502,0.00161264,141783,42210.7,30608,574662,38523.7,107560,529174
0.504,0.00162403,138550,37913.7,26805.9,573191,34490.7,101681,538445
0.506,0.0016354,135520,33873.8,23215.5,571493,30742.7,96100.4,547075
0.508,0.00164672,134189,31986.9,21395.9,567901,29379.9,93013.6,550340
0.51,0.00165803,132859,30100,19576.3,564309,28017.1,89926.8,553604
0.512,0.00166935,131528,28213.1,17756.7,560717,26654.3,86839.9,556868
0.514,0.00168066,130197,26326.2,15937.2,557125,25291.5,83753.2,560133
0.516,0.00169198,128867,24439.3,14117.6,553533,23928.7,80666.4,563397
0.518,0.0017033,127536,22552.4,12298,549941,22565.9,77579.6,566661
0.52,0.00171461,126206,20665.5,10478.4,546349,21203.1,74492.8,569925
0.522,0.00172593,124875,18778.5,8658.84,542757,19840.3,71406,573190
0.524,0.00173724,123545,16891.7,6839.29,539165,18477.5,68319.2,576454
0.526,0.00174856,122214,15004.7,5019.68,535573,17114.7,65232.4,579718
0.528,0.00175994,121025,13820,4002.24,532706,16701.1,62785,583072
0.53,0.00177156,120431,15593.5,6363.72,532894,20286.2,63031,586803
0.532,0.00178318,119836,17367,8725.27,533081,23871.4,63277,590535
0.534,0.0017948,119242,19140.5,11086.7,533269,27456.5,63523,594266
0.536,0.00180642,118648,20914,13448.3,533457,31041.7,63768.9,597997
0.538,0.00181805,118053,22687.5,15809.8,533645,34626.8,64014.9,601728
0.54,0.00182967,117495,24350.5,18133.4,533324,38170.9,64275,604756
0.542,0.0018414,117594,23978.4,19757.7,523637,40958,64793.8,594835
0.544,0.00185334,117278,21909.2,19609.3,510833,43135.2,65063.6,585067
0.546,0.00186544,116639,18527.5,18089.7,495620,44840.5,65141,575418
0.548,0.00187755,116000,15145.7,16570.1,480406,46545.8,65218.4,565769
0.55,0.00188966,115361,11763.9,15050.5,465193,48251.1,65295.8,556119
0.552,0.00190176,114722,8382.22,13530.9,449979,49956.4,65373.2,546470
0.554,0.00191387,114084,5000.41,12011.3,434765,51661.8,65450.5,536821
0.556,0.00192611,114045,3696.57,13790.6,431288,52235.9,65110.8,553477
0.558,0.00193838,114149,2882.42,16347.4,430578,52543.3,64672.8,576333
0.56,0.00195065,114252,2068.3,18904.2,429867,52850.7,64234.9,599189
0.562,0.00196292,114356,1254.18,21460.9,429156,53158.1,63796.9,622044
0.564,0.0019752,114459,440.03,24017.8,428445,53465.6,63358.9,644901
0.566,0.00198747,114563,-374.092,26574.5,427734,53773,62920.9,667756
0.568,0.00199974,114666,-1188.24,29131.4,427023,54080.4,62482.9,690612
0.57,0.00201201,114770,-2002.36,31688.1,426313,54387.9,62044.9,713468
0.572,0.00202429,114873,-2816.51,34245,425602,54695.3,61606.9,736324
0.574,0.00203667,114030,-3211.8,37166.2,414952,54629.3,58510.5,744008
0.576,0.00204916,111389,-3933.86,40157,409858,54595.5,58211.3,741939
0.578,0.00206165,108597,-4731.03,43127.2,406268,54595.9,58479.8,739868
0.58,0.00207415,105806,-5528.18,46097.3,402678,54596.3,58748.2,737797
0.582,0.00208664,103015,-6325.35,49067.5,399088,54596.7,59016.7,735726
0.584,0.00209913,100223,-7122.5,52037.6,395498,54597.1,59285.2,733654
0.586,0.00211162,97431.7,-7919.67,55007.8,391908,54597.5,59553.7,731583
0.588,0.00212412,94640.3,-8716.82,57977.9,388318,54597.9,59822.2,729512
0.59,0.00213661,91848.9,-9513.97,60948,384728,54598.3,60090.7,727441
0.592,0.0021491,89057.4,-10311.1,63918.2,381138,54598.7,60359.2,725370
0.594,0.00216159,86266,-11108.3,66888.3,377549,54599.1,60627.7,723299
0.596,0.00217425,85662.4,-11563.1,68213,376889,56049.3,62579.1,719441
0.598,0.00218701,86487.8,-11794.2,68463,378144,58446.3,65629.5,714417
0.6,0.00219978,87313.1,-12025.4,68713,379398,60843.5,68680,709392
0.602,0.00221251,88394.2,-12097.5,68009.6,379010,63443.4,70973.2,699436
0.604,0.00222522,89597.2,-12093.9,66852.2,377840,66140.1,72905.9,687131
0.606,0.00223794,90800.1,-12090.2,65694.8,376670,68836.8,74838.7,674826
0.608,0.00225065,92003,-12086.6,64537.4,375499,71533.4,76771.3,662522
0.61,0.00226337,93206,-12083,63379.9,374329,74230.1,78704.1,650217
0.612,0.00227608,94408.9,-12079.4,62222.5,373159,76926.7,80636.8,637912
0.614,0.0022888,95611.9,-12075.7,61065.1,371989,79623.4,82569.5,625608
0.616,0.00230152,96814.8,-12072.1,59907.7,370819,82320,84502.2,613303
0.618,0.00231423,98017.7,-12068.5,58750.3,369649,85016.6,86434.9,600998
0.62,0.00232699,98241.2,-11598.7,56973.8,367140,87654.4,88027.3,593203
0.622,0.00233987,95120.2,-9537.05,53083.1,360061,90090.8,88457.4,600805
0.624,0.00235275,91999.2,-7475.37,49192.3,352981,92527.3,88887.5,608407
0.626,0.00236574,88961.2,-6004,45961,346798,92992,89340.8,609930
0.628,0.00237884,86007,-5129.18,43396.1,341521,91463.8,89817.5,605309
0.63,0.00239194,83052.8,-4254.39,40831.3,336243,89935.7,90294.2,600687
0.632,0.00240504,80098.6,-3379.57,38266.4,330966,88407.5,90770.8,596066
0.634,0.00241813,77144.4,-2504.78,35701.6,325688,86879.4,91247.5,591444
0.636,0.0024313,74723,-1969.98,34092.6,320643,85090.1,91533.1,587074
0.638,0.00244464,73619.6,-2276.3,34848.2,316171,82654.6,91345.9,583325
0.64,0.00245799,72516.1,-2582.61,35603.7,311699,80219.1,91158.7,579576
0.642,0.00247133,71412.7,-2888.93,36359.2,307227,77783.6,90971.5,575827
0.644,0.00248467,70309.3,-3195.24,37114.8,302755,75348.2,90784.4,572078
0.646,0.0024981,69513.8,-3140.84,37015,300647,73302.7,89874.1,568375
0.648,0.00251167,69198.4,-2524.01,35581.6,302224,71865.5,87836.6,564744
0.65,0.00252523,68883,-1907.18,34148.3,303801,70428.3,85799.1,561113
0.652,0.0025388,68567.6,-1290.34,32714.8,305378,68991,83761.6,557482
0.654,0.00255237,68252.2,-673.511,31281.5,306955,67553.7,81724.1,553851
0.656,0.00256594,67936.8,-56.6656,29848.1,308533,66116.5,79686.5,550221
0.658,0.00257951,67621.4,560.162,28414.7,310110,64679.2,77649,546590
0.66,0.00259307,67306,1177.01,26981.3,311687,63241.9,75611.4,542959
0.662,0.00260664,66990.6,1793.83,25548,313264,61804.7,73573.9,539328
0.664,0.00262021,66675.2,2410.66,24114.6,314841,60367.5,71536.4,535697
0.666,0.00263378,66359.8,3027.51,22681.2,316419,58930.2,69498.9,532067
0.668,0.00264735,66044.4,3644.33,21247.8,317996,57493,67461.4,528436
0.67,0.00266092,65729,4261.18,19814.4,319573,56055.7,65423.8,524805
0.672,0.00267449,65413.6,4878.01,18381.1,321150,54618.5,63386.3,521174
0.674,0.00268805,65098.2,5494.85,16947.7,322727,53181.2,61348.7,517543
0.676,0.00270162,64782.8,6111.68,15514.3,324305,51743.9,59311.2,513913
0.678,0.00271519,64467.4,6728.51,14080.9,325882,50306.7,57273.7,510282
0.68,0.00272877,64124.7,7374.92,12551.1,327002,49076.7,54965.3,506686
0.682,0.0027425,63221.5,8627.49,9043.7,318760,52095.9,47101.8,503807
0.684,0.00275624,62318.4,9880.1,5536.21,310517,55115.2,39238.2,500929
0.686,0.00276997,61415.3,11132.7,2028.83,302274,58134.4,31374.8,498050
0.688,0.00278371,60512.1,12385.3,-1478.66,294031,61153.7,23511.2,495172
0.69,0.00279744,59609,13637.9,-4986.04,285789,64172.9,15647.7,492293
0.692,0.00281118,58705.8,14890.4,-8493.42,277546,67192.1,7784.33,489415
0.694,0.00282491,57802.7,16143,-12000.9,269303,70211.4,-79.3102,486536
0.696,0.00283864,56899.5,17395.6,-15508.3,261061,73230.6,-7942.72,483658
0.698,0.00285246,56332.8,17902.8,-17344.9,255163,75667.7,-13965.4,478797
0.7,0.00286644,56467.5,16855.3,-15696.8,254155,76890.4,-16148.6,469803
0.702,0.00288041,56602.3,15807.8,-14048.7,253147,78113.1,-18331.8,460808
0.704,0.00289439,56737.1,14760.3,-12400.6,252139,79335.9,-20515,451814
0.706,0.00290837,56871.9,13712.9,-10752.5,251132,80558.6,-22698.2,442819
0.708,0.00292235,57006.7,12665.4,-9104.33,250124,81781.3,-24881.4,433825
0.71,0.00293633,57141.5,11617.9,-7456.23,249116,83004,-27064.5,424830
0.712,0.0029505,56763,12552.7,-8562.38,254483,82844.5,-29463.3,421732
0.714,0.00296485,55918.6,15286.2,-12167.6,265635,81430.6,-32057.5,423983
0.716,0.00297921,55074.2,18019.8,-15773,276787,80016.7,-34651.8,426234
0.718,0.00299356,54229.8,20753.3,-19378.3,287939,78602.9,-37246,428486
0.72,0.00300791,53385.4,23486.9,-22983.6,299091,77189,-39840.3,430737
0.722,0.00302226,52541,26220.4,-26588.9,310243,75775.2,-42434.5,432988
0.724,0.00303659,52191.2,29595.1,-28563.1,320310,75194.5,-44278.1,437389
0.726,0.00305086,52988.2,34456.9,-26754.9,327861,76546,-44381,446776
0.728,0.00306513,53785.2,39318.5,-24946.7,335412,77897.4,-44483.9,456162
0.73,0.00307939,54582.3,44180.2,-23138.5,342963,79248.9,-44586.7,465549
0.732,0.00309366,55379.3,49041.8,-21330.3,350514,80600.3,-44689.6,474935
0.734,0.00310793,56176.3,53903.6,-19522.1,358065,81951.8,-44792.5,484322
0.736,0.0031222,56973.4,58765.2,-17713.9,365616,83303.2,-44895.3,493708
0.738,0.00313647,57770.4,63626.8,-15905.7,373167,84654.6,-44998.2,503095
0.74,0.00315069,55680.6,60252.7,-19411.1,373963,83628.3,-49492.1,495474
0.742,0.00316492,53500.7,56621.4,-23082.4,374548,82527.8,-54123.1,487322
0.744,0.00317914,51320.7,52990,-26753.8,375133,81427.2,-58754.1,479170
0.746,0.00319337,49140.8,49358.7,-30425,375718,80326.7,-63385.1,471018
0.748,0.00320775,51644.3,48218.1,-28561.2,373409,80361.8,-58439.7,463657
0.75,0.00322214,54480.1,47254.2,-26304.5,370895,80477.5,-52814.7,456353
0.752,0.00323653,57315.9,46290.3,-24047.8,368380,80593.1,-47189.7,449049
0.754,0.00325092,60151.8,45326.4,-21791.1,365866,80708.8,-41564.6,441745
0.756,0.00326553,59367.5,41665.3,-21323.3,363397,80936.9,-36615.2,435698
0.758,0.00328015,58347.4,37828.4,-20972,360931,81172.3,-31709.7,429734
0.76,0.00329477,57327.4,33991.7,-20620.7,358464,81407.7,-26804.3,423769
0.762,0.00330946,55918.3,31384.6,-19986.1,355815,81466.8,-22853.9,421714
0.764,0.00332425,53805.6,31002.7,-18839.1,352834,81206.7,-20631.8,426733
0.766,0.00333903,51692.8,30620.8,-17692.1,349853,80946.6,-18409.7,431751
0.768,0.00335383,49580,30238.9,-16545,346872,80686.6,-16187.6,436770
0.77,0.00336861,47467.3,29857,-15398,343891,80426.5,-13965.5,441789
0.772,0.00338341,45354.5,29475.1,-14250.9,340910,80166.5,-11743.4,446807
0.774,0.00339817,43659,28531.6,-13183.6,336012,79748.6,-9029.8,451703
0.776,0.00341287,42799.3,26462.9,-12276,327275,79014.6,-5331.52,456352
0.778,0.00342757,41939.7,24394.3,-11368.4,318539,78280.6,-1633.35,461000
0.78,0.00344227,41080,22325.6,-10460.9,309803,77546.7,2064.82,465649
0.782,0.00345697,40220.4,20257,-9553.27,301066,76812.7,5763.1,470298
0.784,0.00347167,39360.7,18188.4,-8645.71,292329,76078.7,9461.28,474946
0.786,0.00348637,38501,16119.7,-7738.12,283593,75344.7,13159.6,479595
0.788,0.00350108,37641.4,14051.1,-6830.56,274856,74610.7,16857.7,484244
0.79,0.00351578,36781.7,11982.4,-5922.97,266120,73876.7,20556,488893
0.792,0.00353051,36173.2,9999.55,-5116.69,257260,73079.5,24266.5,492354
0.794,0.00354561,39386.3,9321.83,-5851.6,246530,71320.2,28165.3,477752
0.796,0.00356072,42599.3,8644.14,-6586.48,235800,69560.9,32063.9,463150
0.798,0.00357582,45812.3,7966.44,-7321.37,225070,67801.7,35962.5,448548
0.8,0.00359093,49025.4,7288.73,-8056.27,214339,66042.3,39861.3,433946
0.802,0.00360603,52238.4,6611.04,-8791.16,203609,64283.1,43759.9,419344
0.804,0.00362114,55451.5,5933.32,-9526.07,192879,62523.7,47658.7,404742
0.806,0.00363624,58664.5,5255.63,-10261,182149,60764.5,51557.3,390140
0.808,0.00365135,61877.6,4577.91,-10995.9,171419,59005.1,55456,375538
0.81,0.00366653,64505.1,4146.59,-11118.6,168496,58410.4,58411.6,368315
0.812,0.00368178,66657.4,3915.16,-10744.7,171908,58760.7,60602.1,367080
0.814,0.00369702,68809.7,3683.73,-10370.8,175321,59110.9,62792.6,365845
0.816,0.00371227,70962,3452.31,-9996.94,178733,59461.2,64983,364610
0.818,0.00372751,73114.3,3220.88,-9623.03,182146,59811.4,67173.5,363375
0.82,0.00374276,75266.6,2989.46,-9249.14,185558,60161.6,69364,362140
0.822,0.003758,77419,2758.03,-8875.23,188970,60511.9,71554.5,360905
0.824,0.00377325,79571.2,2526.61,-8501.34,192383,60862.1,73744.9,359670
0.826,0.0037885,81723.5,2295.19,-8127.44,195795,61212.3,75935.4,358435
0.828,0.00380374,83875.9,2063.76,-7753.54,199207,61562.6,78125.9,357200
0.83,0.00381899,86028.1,1832.34,-7379.64,202620,61912.8,80316.3,355965
0.832,0.00383423,88180.5,1600.91,-7005.74,206032,62263.1,82506.8,354730
0.834,0.00384948,90332.8,1369.49,-6631.84,209445,62613.3,84697.3,353495
0.836,0.00386472,92485.1,1138.06,-6257.94,212857,62963.5,86887.8,352260
0.838,0.00387997,94637.4,906.635,-5884.04,216269,63313.8,89078.2,351024
0.84,0.00389522,96789.7,675.212,-5510.15,219682,63664,91268.7,349789
0.842,0.00391041,98088.3,871.411,-4947.28,222783,64305.9,93281.1,349148
0.844,0.00392561,99315.4,1103.38,-4368.61,225859,64972.1,95278.6,348555
0.846,0.0039408,100543,1335.36,-3789.93,228935,65638.3,97276.2,347963
0.848,0.00395599,101770,1567.33,-3211.26,232010,66304.5,99273.7,347371
0.85,0.00397118,102997,1799.31,-2632.58,235086,66970.8,101271,346778
0.852,0.0039866,102784,1086.08,-1432.96,231847,67099.8,99502.5,346989
0.854,0.00400206,102278,179.996,-106.651,227320,67119.2,96965.3,347362
0.856,0.00401756,100032,-454.423,1116.89,222037,67093.2,92662.8,347389
0.858,0.0040331,95188.9,-683.574,2187.04,215627,66999.6,85727.3,346897
0.86,0.00404865,90345.9,-912.732,3257.22,209217,66905.9,78791.6,346406
0.862,0.0040642,85503.1,-1141.88,4327.37,202807,66812.3,71856.1,345914
0.864,0.00407974,80660.1,-1371.04,5397.55,196397,66718.7,64920.4,345422
0.866,0.00409542,77615.4,-1256.57,5995.14,194660,66675.3,60637.7,344725
0.868,0.00411118,75765,-913.887,6278.89,196027,66665.4,58116.9,343890
0.87,0.00412695,73914.6,-571.195,6562.65,197394,66655.5,55596,343056
0.872,0.00414271,72064.2,-228.514,6846.4,198761,66645.5,53075.2,342222
0.874,0.00415847,70213.8,114.178,7130.16,200128,66635.6,50554.3,341387
0.876,0.00417424,68363.4,456.859,7413.91,201495,66625.7,48033.5,340553
0.878,0.00418999,66994.2,1066.38,8003.5,203695,66544,45950.6,339329
0.88,0.00420575,65713.5,1724.93,8649.3,206048,66449.2,43948.3,338033
0.882,0.00422151,64432.7,2383.51,9295.12,208401,66354.4,41945.9,336736
0.884,0.00423727,63152,3042.07,9940.92,210754,66259.6,39943.6,335440
0.886,0.00425302,61871.3,3700.63,10586.7,213107,66164.8,37941.3,334144
0.888,0.00426878,60590.6,4359.21,11232.5,215460,66070,35938.9,332848
0.89,0.00428454,59309.9,5017.76,11878.4,217813,65975.2,33936.6,331552
0.892,0.00430029,58029.2,5676.34,12524.2,220167,65880.4,31934.2,330256
0.894,0.00431605,56748.5,6334.9,13170,222520,65785.6,29931.9,328960
0.896,0.00433181,55467.7,6993.48,13815.8,224873,65690.8,27929.5,327664
0.898,0.00434757,54187,7652.04,14461.6,227226,65596,25927.2,326367
0.9,0.00436332,52906.3,8310.59,15107.4,229579,65501.2,23924.9,325071
0.902,0.00437908,51625.6,8969.17,15753.2,231932,65406.3,21922.5,323775
0.904,0.00439501,48079.5,8318.78,15364.8,232201,66787.5,19354.2,326764
0.906,0.00441096,44343.3,7558.62,14889.7,232296,68292.4,16738.3,330113
0.908,0.00442691,40607.2,6798.48,14414.5,232391,69797.4,14122.5,333462
0.91,0.00444285,36871,6038.31,13939.4,232485,71302.3,11506.6,336810
0.912,0.0044588,33134.9,5278.17,13464.3,232580,72807.2,8890.76,340159
0.914,0.00447475,29398.8,4518.03,12989.2,232675,74312.1,6274.95,343507
0.916,0.00449069,25662.6,3757.87,12514,232769,75817,3659.06,346856
0.918,0.00450664,21926.5,2997.73,12038.9,232864,77321.9,1043.25,350204
0.92,0.00452273,19782.9,3008.59,11692.2,232565,78524.7,-531.088,352768
0.922,0.00453897,19351,3848.06,11483.6,231842,79402.8,-986.048,354489
0.924,0.00455521,18919,4687.56,11275,231120,80280.8,-1441.02,356209
0.926,0.00457146,18487.1,5527.03,11066.4,230397,81158.8,-1895.98,357929
0.928,0.0045877,18055.1,6366.5,10857.8,229675,82036.8,-2350.94,359650
0.93,0.00460391,18571.2,6937.16,10959.3,225217,82968.6,-2675.87,357132
0.932,0.00462012,19125.2,7497.06,11073.2,220611,83902.6,-2995.59,354445
0.934,0.00463633,19679.2,8056.98,11187.1,216004,84836.5,-3315.33,351758
0.936,0.00465254,20233.2,8616.88,11300.9,211398,85770.4,-3635.05,349071
0.938,0.00466875,20787.2,9176.79,11414.8,206791,86704.4,-3954.79,346384
0.94,0.00468495,21341.1,9736.69,11528.7,202185,87638.3,-4274.51,343697
0.942,0.00470116,21895.1,10296.6,11642.6,197578,88572.2,-4594.23,341010
0.944,0.00471737,22449.1,10856.5,11756.5,192971,89506.2,-4913.97,338323
0.946,0.00473358,23003.1,11416.4,11870.3,188365,90440.1,-5233.69,335637
0.948,0.00474979,23557.1,11976.3,11984.2,183758,91374,-5553.43,332950
0.95,0.004766,24111.1,12536.2,12098.1,179152,92308,-5873.15,330263
0.952,0.00478221,24665.1,13096.1,12212,174545,93241.9,-6192.88,327576
0.954,0.00479842,25219,13656,12325.9,169938,94175.8,-6512.61,324889
0.956,0.00481462,25773,14215.9,12439.7,165332,95109.7,-6832.33,322202
0.958,0.00483088,29415.3,16265.8,13019.5,167478,97063.8,-2963.19,322971
0.96,0.0048472,36973,20204.7,14190,178186,100311,6216.94,328123
0.962,0.00486362,48984,26891.2,15722.4,207595,104873,21327.7,348215
0.964,0.00488016,66306,36854.6,17686.3,259305,111001,43511.1,386127
0.966,0.00489665,78314.7,42871.7,18823.8,293943,114888,59801.8,410290
0.968,0.00491301,73305.7,36249.6,17314.3,273902,111598,57218,390419
0.97,0.00492938,68296.6,29627.3,15804.8,253859,108308,54634.1,370547
0.972,0.00494574,63287.6,23005.2,14295.3,233817,105017,52050.3,350676
0.974,0.0049621,58278.6,16383.2,12785.8,213775,101727,49466.5,330805
0.976,0.00497851,53571.8,11317.1,12186.4,200596,98371.4,47952.1,317796
0.978,0.00499494,48830.5,6527.12,11799.2,188897,94946.2,46646.7,306242
0.98,0.0050115,48316.3,6392.77,12218.5,187784,93527.6,47814.8,306249
0.982,0.00502805,47802,6258.42,12637.8,186671,92109.1,48982.8,306256
0.984,0.00504461,47287.8,6124.06,13057.1,185558,90690.5,50150.9,306264
0.986,0.00506117,46773.6,5989.71,13476.4,184445,89272,51318.9,306271
0.988,0.00507773,46259.3,5855.36,13895.7,183332,87853.5,52487,306279
0.99,0.00509429,45745.1,5721.01,14315,182219,86434.9,53655.1,306286
0.992,0.00511085,45230.8,5586.66,14734.3,181105,85016.4,54823.1,306293
0.994,0.00512741,44716.6,5452.3,15153.6,179992,83597.8,55991.2,306301
0.996,0.00514397,44202.4,5317.96,15572.9,178879,82179.3,57159.3,306308
0.998,0.00516053,43688.1,5183.6,15992.2,177766,80760.7,58327.3,306315
1,0.00517709,43173.9,5049.25,16411.5,176653,79342.2,59495.4,306323
1.002,0.00519365,42659.7,4914.9,16830.8,175540,77923.7,60663.4,306330
1.004,0.00521021,42145.4,4780.55,17250.1,174427,76505.1,61831.5,306338
1.006,0.00522677,41631.2,4646.19,17669.4,173313,75086.5,62999.6,306345
1.008,0.00524333,41116.9,4511.84,18088.7,172200,73668,64167.7,306352
1.01,0.00525989,40602.7,4377.49,18508,171087,72249.5,65335.7,306360
1.012,0.00527645,40088.5,4243.14,18927.3,169974,70831,66503.8,306367
1.014,0.00529301,39574.2,4108.79,19346.6,168861,69412.4,67671.9,306375
1.016,0.00530957,39060,3974.44,19765.9,167748,67993.8,68839.9,306382
1.018,0.00532613,38545.8,3840.09,20185.2,166635,66575.3,70008,306389
1.02,0.00534269,38031.5,3705.74,20604.5,165521,65156.8,71176,306397
1.022,0.00535925,37517.3,3571.39,21023.7,164408,63738.3,72344.1,306404
1.024,0.00537581,36926.5,3471.18,21478.4,163295,62344.3,73493.1,306520
1.026,0.00539232,37320.4,2931.62,21478.1,162186,60633.3,74888,305245
1.028,0.00540899,35642.1,1705.15,21307.3,160185,59196.9,71346.2,306871
1.03,0.00542578,33869.6,621.332,22281.5,158168,58529.6,66725.4,307682
1.032,0.00544256,32097.1,-462.483,23255.7,156151,57862.3,62104.6,308493
1.034,0.00545934,30324.6,-1546.36,24230,154134,57194.9,57483.5,309304
1.036,0.00547612,28552.1,-2630.18,25204.2,152117,56527.7,52862.7,310115
1.038,0.0054929,26779.6,-3713.99,26178.4,150100,55860.4,48241.9,310926
1.04,0.00550968,25007.1,-4797.8,27152.6,148083,55193.1,43621,311738
1.042,0.00552646,23234.6,-5881.68,28126.8,146066,54525.7,38999.9,312549
1.044,0.00554325,22173.9,-6478.63,29619.7,143162,54331.8,35733.4,312098
1.046,0.00556018,22228.3,-6046.45,30112.6,144716,55155.6,34419.3,307286
1.048,0.00557711,22278.2,-5608.47,30541.9,146469,55985.6,33091,302403
1.05,0.00559404,22328.1,-5170.48,30971.3,148222,56815.6,31762.7,297520
1.052,0.00561097,22378,-4732.47,31400.7,149976,57645.6,30434.4,292636
1.054,0.0056279,22427.9,-4294.48,31830.1,151729,58475.6,29106.1,287753
1.056,0.00564483,22477.9,-3856.5,32259.5,153482,59305.6,27777.8,282870
1.058,0.00566176,22527.8,-3418.51,32688.9,155235,60135.5,26449.5,277986
1.06,0.00567869,22577.7,-2980.53,33118.3,156989,60965.5,25121.3,273103
1.062,0.00569562,22627.6,-2542.52,33547.7,158742,61795.6,23792.9,268220
1.064,0.00571255,22677.5,-2104.53,33977.1,160495,62625.5,22464.6,263336
1.066,0.00572948,22727.5,-1666.54,34406.4,162248,63455.5,21136.4,258453
1.068,0.00574641,22777.4,-1228.56,34835.8,164002,64285.5,19808.1,253570
1.07,0.00576334,22827.3,-790.548,35265.2,165755,65115.5,18479.7,248686
1.072,0.00578027,22877.2,-352.562,35694.6,167508,65945.5,17151.5,243803
1.074,0.00579722,22944.4,420.202,35718.7,168038,66106.5,16280.3,237298
1.076,0.00581422,23060.4,2142.67,34593.1,165098,64369.6,16705.8,226192
1.078,0.00583123,23176.5,3865.13,33467.5,162157,62632.7,17131.4,215087
1.08,0.00584825,22953.5,5438.75,32660.3,158842,60962.4,17061.6,205739
1.082,0.00586539,21947.7,6112.31,32826.2,155762,59924,15480.4,204859
1.084,0.00588258,21654.8,6116.63,32742.1,155412,59589.6,14290.4,208069
1.086,0.00589976,21361.8,6120.94,32658.1,155061,59255.2,13100.3,211279
1.088,0.00591695,21068.8,6125.25,32574,154711,58920.8,11910.2,214490
1.09,0.00593414,20775.9,6129.57,32489.9,154361,58586.4,10720.2,217700
1.092,0.00595133,20482.9,6133.88,32405.8,154011,58252,9530.15,220911
1.094,0.00596852,20190,6138.2,32321.8,153661,57917.6,8340.11,224121
1.096,0.0059857,19897,6142.51,32237.7,153311,57583.2,7150.07,227331
1.098,0.00600289,19604.1,6146.83,32153.6,152961,57248.8,5959.96,230542
1.1,0.00602008,19311.1,6151.14,32069.5,152610,56914.4,4769.93,233752
1.102,0.00603727,19018.2,6155.46,31985.5,152260,56580,3579.89,236963
1.104,0.00605446,18725.2,6159.77,31901.4,151910,56245.6,2389.85,240173
1.106,0.00607164,18432.3,6164.08,31817.3,151560,55911.2,1199.82,243383
1.108,0.00608884,18866.9,6195.92,30983.7,150356,55441.1,705.564,244970
1.11,0.00610603,19602.7,6239.15,29839.7,148798,54914.9,499.47,245885
1.112,0.00612323,20338.5,6282.38,28695.8,147240,54388.6,293.377,246800
1.114,0.00614042,21074.3,6325.61,27551.8,145682,53862.4,87.2829,247714
1.116,0.00615762,21810.2,6368.84,26407.8,144125,53336.1,-118.823,248629
1.118,0.00617481,22546,6412.07,25263.9,142567,52809.8,-324.917,249544
1.12,0.006192,23281.9,6455.3,24119.9,141009,52283.6,-531.011,250458
1.122,0.0062093,23675.5,7355.76,21805.3,138844,52150.4,1240.85,247736
1.124,0.00622661,24000.3,8428.51,19255.3,136556,52096.3,3410.23,244283
1.126,0.00624392,24325.1,9501.33,16705.3,134268,52042.1,5579.75,240830
1.128,0.00626123,24649.9,10574.1,14155.3,131981,51987.9,7749.13,237377
1.13,0.00627855,24974.7,11646.8,11605.4,129693,51933.7,9918.51,233924
1.132,0.00629586,25299.5,12719.6,9055.48,127405,51879.5,12087.9,230471
1.134,0.00631321,25379.9,13459,7469.14,125099,52052.3,13963.2,227355
1.136,0.00633062,25097.8,13704.3,7311.33,122764,52561.4,15402.8,224738
1.138,0.00634802,24815.7,13949.5,7153.52,120430,53070.4,16842.2,222121
1.14,0.00636542,24691.8,13807.2,6874.58,118832,52613.2,16788.5,218755
1.142,0.00638281,24596.2,13595.5,6573.95,117365,51982.9,16467.6,215255
1.144,0.00640021,24500.6,13383.8,6273.31,115899,51352.6,16146.6,211755
1.146,0.0064176,24405,13172.1,5972.69,114433,50722.4,15825.7,208256
1.148,0.006435,24309.4,12960.4,5672.07,112966,50092.1,15504.8,204756
1.15,0.00645239,24213.8,12748.7,5371.44,111500,49461.9,15183.8,201256
1.152,0.00646979,24118.1,12537,5070.82,110034,48831.6,14862.9,197756
1.154,0.00648718,24022.5,12325.3,4770.18,108568,48201.3,14542,194256
1.156,0.00650458,23926.9,12113.6,4469.56,107101,47571,14221,190756
1.158,0.00652197,23831.3,11902,4168.93,105635,46940.8,13900.1,187257
1.16,0.00653937,23735.7,11690.3,3868.31,104169,46310.5,13579.2,183757
1.162,0.00655676,23640.1,11478.6,3567.69,102702,45680.3,13258.2,180257
1.164,0.00657416,23544.5,11266.9,3267.05,101236,45050,12937.3,176757
1.166,0.00659155,23448.9,11055.2,2966.42,99769.8,44419.7,12616.3,173257
1.168,0.00660895,23241.5,10915.4,2615.98,98876.8,43728,12337.7,170211
1.17,0.00662636,22761.1,10951.2,2143.84,99383.9,42886.4,12162.4,168275
1.172,0.00664376,22280.7,10987,1671.68,99891,42044.7,11987,166338
1.174,0.00666117,21800.3,11022.8,1199.55,100398,41203,11811.7,164402
1.176,0.00667857,21319.9,11058.7,727.415,100905,40361.4,11636.4,162465
1.178,0.00669602,20202,10747.3,364.812,99996.4,39411,10583,160312
1.18,0.00671358,17603.6,9629.6,256.565,95800.4,38208.1,7490.89,157654
1.182,0.00673113,15005,8511.85,148.311,91604,37005.2,4398.56,154997
1.184,0.00674869,12406.6,7394.17,40.0629,87407.9,35802.4,1306.4,152340
1.186,0.00676624,9808.17,6276.49,-68.1847,83211.8,34599.5,-1785.75,149682
1.188,0.0067838,7209.74,5158.81,-176.432,79015.7,33396.6,-4877.9,147025
1.19,0.00680139,7164.23,5039.25,-75.1583,79433.8,33382.5,-4652.32,146378
1.192,0.006819,7701.37,5147.48,73.9269,80904.9,33639.6,-3669.55,146190
1.194,0.0068366,8238.51,5255.72,223.012,82376,33896.7,-2686.78,146002
1.196,0.0068542,8775.65,5363.96,372.098,83847.1,34153.9,-1704.01,145814
1.198,0.00687181,9312.79,5472.19,521.183,85318.2,34411,-721.245,145626
1.2,0.00688941,9849.96,5580.44,670.277,86789.4,34668.2,261.582,145438
1.202,0.00690702,10387.1,5688.67,819.362,88260.5,34925.3,1244.35,145250
1.204,0.00692462,10924.2,5796.91,968.448,89731.6,35182.4,2227.12,145062
1.206,0.00694222,11461.4,5905.15,1117.53,91202.8,35439.6,3209.89,144874
1.208,0.00695983,11998.5,6013.38,1266.62,92673.9,35696.7,4192.65,144686
1.21,0.00697743,12535.7,6121.63,1415.71,94145.1,35953.9,5175.48,144498
1.212,0.00699504,13072.8,6229.86,1564.8,95616.2,36211,6158.25,144310
1.214,0.00701264,13610,6338.1,1713.88,97087.3,36468.1,7141.02,144122
1.216,0.00703026,14105.6,6784.09,1971.18,99255.5,36739.2,8714.99,144722
1.218,0.0070479,14550.8,7639.51,2359.67,102269,37027.3,11005.7,146275
1.22,0.00706554,16653.5,8469.29,2778.82,106163,37791.3,13955.9,148015
1.222,0.00708318,19943.1,9280.76,3219.95,110687,38896.3,17378.7,149888
1.224,0.00710082,23232.6,10092.2,3661.08,115212,40001.3,20801.4,151761
1.226,0.00711845,26522.2,10903.7,4102.21,119736,41106.3,24224.1,153634
1.228,0.00713609,29812,11715.2,4543.37,124261,42211.3,27647,155508
1.23,0.00715373,33101.6,12526.7,4984.49,128785,43316.3,31069.7,157381
1.232,0.00717141,35841.5,12962,4995.29,130914,44185,33483.1,157495
1.234,0.00718919,37550.7,12691.9,4199.06,128550,44610.6,34003.4,154311
1.236,0.00720695,38074.8,12391.6,3643.42,125809,44838.8,34163.5,152573
1.238,0.00722471,37295.9,12058.1,3352.3,122653,44849.9,33927.4,152425
1.24,0.00724247,36517,11724.6,3061.19,119497,44860.9,33691.4,152277
1.242,0.00726023,35738.2,11391.1,2770.08,116342,44872,33455.3,152129
1.244,0.00727799,34959.3,11057.6,2478.98,113186,44883.1,33219.3,151981
1.246,0.00729575,34180.4,10724.2,2187.86,110030,44894.2,32983.2,151832
1.248,0.00731351,33401.6,10390.7,1896.75,106875,44905.3,32747.1,151684
1.25,0.00733126,32622.7,10057.2,1605.65,103719,44916.4,32511,151536
1.252,0.00734902,31843.9,9723.73,1314.54,100563,44927.5,32275,151388
1.254,0.00736678,31065,9390.26,1023.44,97407.9,44938.6,32038.9,151240
1.256,0.00738454,30286.1,9056.77,732.314,94252.1,44949.7,31802.8,151091
1.258,0.0074023,29507.3,8723.3,441.209,91096.5,44960.8,31566.8,150943
1.26,0.00742008,29309.5,8448.49,195.348,89144.3,44780.3,31553.4,152578
1.262,0.00743786,29303.1,8193.01,-35.6132,87588.5,44536.8,31613.4,154800
1.264,0.00745564,29296.6,7937.51,-266.588,86032.5,44293.2,31673.4,157022
1.266,0.00747342,29290.2,7682.02,-497.549,84476.6,44049.7,31733.4,159245
1.268,0.0074912,29283.7,7426.54,-728.51,82920.8,43806.1,31793.3,161467
1.27,0.00750899,29277.3,7171.06,-959.471,81364.9,43562.5,31853.3,163689
1.272,0.00752677,29270.9,6915.57,-1190.43,79809,43319,31913.3,165911
1.274,0.00754455,29264.4,6660.07,-1421.41,78253,43075.4,31973.3,168133
1.276,0.00756242,29381.1,6036.46,-1617.98,78247,41897.4,32441.3,169782
1.278,0.00758031,29518.1,5352.01,-1808.88,78497,40564.9,32976.7,171336
1.28,0.00759819,29655.1,4667.57,-1999.77,78747,39232.4,33512.1,172890
1.282,0.00761608,29792.1,3983.12,-2190.66,78997,37900,34047.5,174445
1.284,0.00763397,29929.1,3298.64,-2381.57,79247,36567.4,34582.9,175999
1.286,0.00765185,30066.1,2614.19,-2572.46,79497,35235,35118.3,177553
1.288,0.00766974,30203.1,1929.75,-2763.36,79747,33902.5,35653.7,179108
1.29,0.00768763,30340.1,1245.31,-2954.25,79997,32570.1,36189.1,180662
1.292,0.00770557,30526.7,1173.38,-3110.23,80392.1,31959.6,36262.1,180153
1.294,0.00772352,30727.9,1281.7,-3255.91,80829.9,31561.6,36199.2,179038
1.296,0.00774149,30268.2,1482.41,-2963.67,79601.5,31163.4,35169.2,177696
1.298,0.00775946,29753.3,1690.85,-2634.77,78233.7,30765.2,34058.4,176335
1.3,0.00777743,29238.3,1899.28,-2305.88,76865.9,30367,32947.5,174974
1.302,0.0077954,28723.3,2107.74,-1976.97,75498,29968.7,31836.6,173613
1.304,0.00781337,28208.4,2316.17,-1648.07,74130.2,29570.5,30725.8,172252
1.306,0.00783135,27693.5,2524.61,-1319.18,72762.4,29172.3,29614.9,170890
1.308,0.00784932,27178.5,2733.05,-990.285,71394.6,28774.1,28504.1,169529
1.31,0.00786729,26663.6,2941.49,-661.391,70026.8,28375.9,27393.2,168168
1.312,0.00788526,26148.6,3149.94,-332.478,68658.9,27977.6,26282.3,166807
1.314,0.00790323,25633.7,3358.38,-3.5848,67291.1,27579.4,25171.5,165446
1.316,0.0079212,25118.7,3566.81,325.309,65923.3,27181.2,24060.6,164085
1.318,0.00793917,24603.8,3775.25,654.202,64555.5,26783,22949.8,162724
1.32,0.00795714,24088.8,3983.7,983.115,63187.6,26384.7,21838.9,161363
1.322,0.00797511,23690,4225.42,1286.38,62544,26084.2,20932.2,159436
1.324,0.00799307,23639.3,4566.91,1512.83,64071.1,26076.6,20637.7,155812
1.326,0.00801103,23588.5,4908.4,1739.28,65598.2,26069,20343.1,152188
1.328,0.00802898,23537.8,5249.89,1965.73,67125.4,26061.4,20048.5,148564
1.33,0.00804694,23487.1,5591.39,2192.2,68652.6,26053.8,19754,144940
1.332,0.0080649,23436.4,5932.88,2418.65,70179.7,26046.1,19459.4,141316
1.334,0.00808285,23385.6,6274.37,2645.1,71706.8,26038.5,19164.8,137692
1.336,0.00810081,23334.9,6615.86,2871.55,73234,26030.9,18870.2,134068
1.338,0.00811877,23284.2,6957.36,3098.01,74761.2,26023.3,18575.7,130444
1.34,0.00813673,23233.5,7298.85,3324.46,76288.3,26015.7,18281.1,126820
1.342,0.00815471,23020.8,7367.94,3614.25,75444.8,26178.3,17979.7,123413
1.344,0.00817274,22554.7,7010.78,4003.15,70891.9,26607.4,17667.6,120345
1.346,0.00819078,22088.5,6653.63,4392.05,66338.9,27036.4,17355.5,117278
1.348,0.00820881,21622.4,6296.46,4780.97,61785.7,27465.5,17043.3,114210
1.35,0.00822684,21156.3,5939.3,5169.87,57232.8,27894.5,16731.2,111143
1.352,0.00824487,20690.2,5582.15,5558.77,52679.8,28323.5,16419.1,108075
1.354,0.0082629,20224,5225,5947.67,48126.9,28752.6,16107,105007
1.356,0.00828093,19757.9,4867.85,6336.56,43573.9,29181.6,15794.9,101940
1.358,0.00829897,19291.8,4510.67,6725.49,39020.7,29610.7,15482.8,98872.2
1.36,0.00831703,19025.9,4324.65,7141.12,36758.7,30142.1,15940.4,99130.3
1.362,0.00833513,18883,4243.79,7573.19,35904.4,30736.4,16870.9,101432
1.364,0.00835322,18740.2,4162.92,8005.26,35050.1,31330.8,17801.5,103734
1.366,0.00837132,18561.9,4102.36,8317.34,34448.1,31808.4,18358.2,105190
1.368,0.00838944,18313.9,4081.86,8392.57,34344,32055.9,18177,104978
1.37,0.00840756,18065.8,4061.36,8467.81,34240,32303.3,17995.9,104766
1.372,0.00842568,17817.7,4040.86,8543.04,34135.9,32550.7,17814.7,104554
1.374,0.0084438,17569.6,4020.36,8618.27,34031.9,32798.1,17633.6,104341
1.376,0.00846192,17321.5,3999.86,8693.51,33927.8,33045.6,17452.4,104129
1.378,0.00848004,17073.5,3979.36,8768.74,33823.7,33293,17271.3,103917
1.38,0.00849816,16825.4,3958.87,8843.98,33719.7,33540.4,17090.1,103705
1.382,0.00851628,16577.3,3938.37,8919.21,33615.6,33787.9,16909,103493
1.384,0.0085344,16329.2,3917.87,8994.44,33511.5,34035.3,16727.8,103281
1.386,0.00855252,16081.1,3897.37,9069.68,33407.5,34282.7,16546.7,103068
1.388,0.00857064,15833,3876.87,9144.91,33303.4,34530.2,16365.5,102856
1.39,0.00858876,15585,3856.37,9220.15,33199.3,34777.6,16184.4,102644
1.392,0.00860688,15336.9,3835.87,9295.38,33095.3,35025,16003.2,102432
1.394,0.00862501,15150.2,3813.87,9323.88,33119.4,35225.2,15799.8,102066
1.396,0.00864319,15474.4,3779.4,8963.41,34210.9,35031.7,15411.2,100420
1.398,0.00866137,15798.6,3744.93,8602.93,35302.4,34838.3,15022.6,98774.1
1.4,0.00867956,16122.8,3710.46,8242.45,36393.9,34644.8,14634,97128.1
1.402,0.00869776,16419.2,3912.8,7374.9,39270.7,34408.3,15071.2,98915.1
1.404,0.00871597,16711.9,4147.08,6438.96,42388.2,34166,15619.7,101165
1.406,0.00873418,17004.6,4381.35,5503.06,45505.5,33923.7,16168.2,103415
1.408,0.00875238,17297.3,4615.62,4567.17,48622.8,33681.4,16716.7,105664
1.41,0.00877059,17590,4849.88,3631.28,51740.2,33439.1,17265.2,107914
1.412,0.0087888,17882.7,5084.15,2695.38,54857.5,33196.8,17813.7,110163
1.414,0.008807,18175.4,5318.43,1759.44,57975,32954.5,18362.2,112413
1.416,0.00882524,18279.8,5445.08,1200.08,59196.7,32664,18578.7,113229
1.418,0.0088435,18233.7,5485.6,942.081,58901.2,32334.9,18529.4,112898
1.42,0.00886176,18187.5,5526.12,684.083,58605.6,32005.7,18480.1,112566
1.422,0.00888002,18141.3,5566.64,426.07,58310.1,31676.6,18430.8,112235
1.424,0.00889828,18095.2,5607.16,168.073,58014.5,31347.5,18381.6,111903
1.426,0.00891654,18049,5647.68,-89.9249,57719,31018.3,18332.3,111572
1.428,0.0089348,17833.9,5637.74,-349.932,56940.9,30628.1,18192.5,110862
1.43,0.00895305,17182.3,5497.46,-615.129,54916.4,30080.1,17819.1,109178
1.432,0.00897129,16530.6,5357.18,-880.342,52891.8,29532.1,17445.7,107493
1.434,0.00898954,15879,5216.91,-1145.54,50867.4,28984.1,17072.3,105808
1.436,0.00900779,15227.4,5076.63,-1410.74,48842.9,28436.1,16698.9,104123
1.438,0.00902604,14575.8,4936.36,-1675.93,46818.5,27888.1,16325.6,102439
1.44,0.00904429,13924.1,4796.08,-1941.15,44793.9,27340.1,15952.1,100754
1.442,0.00906253,13272.5,4655.8,-2206.34,42769.4,26792.1,15578.8,99069.2
1.444,0.00908078,12652.2,4532.43,-2458.74,40915,26258.6,15216.4,97454.8
1.446,0.00909903,12461.2,4640.85,-2535.66,41392.1,25925.1,15005.2,96805.3
1.448,0.00911728,12270.2,4749.27,-2612.58,41869.3,25591.5,14794.1,96155.7
1.45,0.00913553,12079.2,4857.7,-2689.5,42346.5,25257.9,14582.9,95506.1
1.452,0.00915377,11888.2,4966.12,-2766.42,42823.6,24924.3,14371.8,94856.6
1.454,0.00917202,11697.2,5074.54,-2843.33,43300.8,24590.8,14160.6,94207
1.456,0.00919027,11506.2,5182.96,-2920.25,43777.9,24257.2,13949.5,93557.5
1.458,0.00920852,11315.2,5291.38,-2997.17,44255,23923.6,13738.3,92907.9
1.46,0.00922677,11124.1,5399.81,-3074.09,44732.2,23590.1,13527.1,92258.3
1.462,0.00924501,10933.1,5508.23,-3151.01,45209.4,23256.5,13316,91608.8
1.464,0.00926326,10742.1,5616.65,-3227.93,45686.5,22922.9,13104.8,90959.2
1.466,0.00928151,10551.1,5725.07,-3304.84,46163.6,22589.4,12893.7,90309.7
1.468,0.00929976,10360.1,5833.5,-3381.76,46640.8,22255.8,12682.5,89660.1
1.47,0.00931801,10169.1,5941.92,-3458.68,47118,21922.2,12471.4,89010.5
1.472,0.00933626,9978.08,6050.34,-3535.6,47595.1,21588.6,12260.2,88361
1.474,0.0093545,9787.08,6158.76,-3612.52,48072.2,21255.1,12049.1,87711.4
1.476,0.00937275,9596.07,6267.18,-3689.43,48549.4,20921.5,11837.9,87061.9
1.478,0.009391,9405.05,6375.6,-3766.36,49026.6,20587.9,11626.8,86412.3
1.48,0.00940928,9184.81,6211.28,-3389.03,47983.5,20668.8,11060.3,85299.7
1.482,0.00942758,8943.57,5850.95,-2685.26,45848,21047.4,10238.4,83854.3
1.484,0.00944589,8702.32,5490.62,-1981.49,43712.4,21426.1,9416.55,82408.9
1.486,0.00946419,8461.08,5130.29,-1277.72,41576.9,21804.8,8594.69,80963.5
1.488,0.0094825,8219.82,4769.94,-573.913,39441.2,22183.5,7772.79,79518
1.49,0.0095008,7978.57,4409.62,129.855,37305.7,22562.1,6950.93,78072.6
1.492,0.0095191,7737.33,4049.29,833.623,35170.2,22940.8,6129.08,76627.2
1.494,0.00953741,7496.08,3688.96,1537.39,33034.6,23319.5,5307.22,75181.9
1.496,0.00955573,7316.72,3571.76,2221.07,32591.2,23412.6,4759.13,74967.3
1.498,0.00957407,7176.58,3608.59,2891.97,33219.8,23324.9,4384.53,75532.4
1.5,0.0095924,7036.44,3645.43,3562.86,33848.3,23237.2,4009.92,76097.6
1.502,0.00961074,6896.3,3682.26,4233.75,34476.9,23149.4,3635.31,76662.7
1.504,0.00962908,6763.47,3727.73,4865.38,35105.2,23052.2,3278.46,77119.2
1.506,0.00964747,6768.47,3935.99,4757.01,35729.7,22776.8,3256.17,75528.1
1.508,0.00966585,6773.47,4144.25,4648.64,36354.2,22501.3,3233.89,73937
1.51,0.00968424,6778.48,4352.5,4540.28,36978.7,22225.8,3211.6,72345.9
1.512,0.00970263,6783.48,4560.75,4431.91,37603.1,21950.3,3189.32,70754.9
1.514,0.00972101,6788.49,4769.02,4323.54,38227.6,21674.9,3167.03,69163.7
1.516,0.00973939,6750.42,4776.54,4132.39,37410,21458.3,3503.05,67841.2
1.518,0.00975775,6704.12,4745.75,3925.44,36317.2,21253,3907.45,66569.9
1.52,0.00977612,6657.83,4714.96,3718.49,35224.4,21047.7,4311.85,65298.6
1.522,0.00979449,6611.54,4684.17,3511.53,34131.6,20842.3,4716.25,64027.3
1.524,0.00981286,6565.25,4653.38,3304.57,33038.8,20637,5120.67,62755.9
1.526,0.00983123,6518.96,4622.59,3097.62,31945.9,20431.7,5525.07,61484.6
1.528,0.0098496,6472.67,4591.8,2890.67,30853.1,20226.4,5929.46,60213.3
1.53,0.00986797,6426.38,4561.01,2683.72,29760.3,20021,6333.86,58942
1.532,0.00988634,6386.25,4539.15,2487.18,28750.7,19815.2,6699.8,57724
1.534,0.0099047,6442.25,4656.68,2453.07,29038.9,19600.7,6465.72,57337.2
1.536,0.00992306,6498.24,4774.21,2418.96,29327.1,19386.3,6231.65,56950.5
1.538,0.00994142,6554.24,4891.73,2384.86,29615.3,19171.9,5997.59,56563.7
1.54,0.00995978,6610.24,5009.25,2350.75,29903.6,18957.4,5763.52,56177
1.542,0.00997814,6666.24,5126.79,2316.64,30191.8,18743,5529.44,55790.2
1.544,0.0099965,6722.24,5244.31,2282.53,30480,18528.6,5295.37,55403.4
1.546,0.0100149,6778.23,5361.83,2248.42,30768.2,18314.1,5061.3,55016.7
1.548,0.0100332,6834.23,5479.36,2214.31,31056.4,18099.7,4827.23,54630
1.55,0.0100516,6890.23,5596.88,2180.21,31344.6,17885.3,4593.17,54243.2
1.552,0.0100699,6946.23,5714.42,2146.1,31632.8,17670.8,4359.08,53856.4
1.554,0.0100883,6946.31,5732.43,2232.41,31629.2,17589.9,4499.79,53795.5
1.556,0.0101067,6913.55,5692,2389.45,31454.1,17587.5,4860.61,53926
1.558,0.0101252,6880.79,5651.57,2546.48,31279.1,17585.1,5221.42,54056.4
1.56,0.0101436,6848.03,5611.15,2703.52,31104,17582.6,5582.24,54186.9
1.562,0.010162,6815.27,5570.72,2860.57,30928.9,17580.2,5943.08,54317.3
1.564,0.0101804,6782.51,5530.29,3017.6,30753.8,17577.7,6303.89,54447.8
1.566,0.0101988,6749.75,5489.86,3174.64,30578.8,17575.3,6664.71,54578.2
1.568,0.0102172,6716.99,5449.43,3331.68,30403.7,17572.8,7025.53,54708.6
1.57,0.0102356,6684.23,5409,3488.72,30228.6,17570.4,7386.37,54839.1
1.572,0.010254,6651.47,5368.57,3645.76,30053.6,17568,7747.18,54969.5
1.574,0.0102724,6618.71,5328.14,3802.8,29878.5,17565.5,8108,55100
1.576,0.0102909,6718.8,5271.31,4140.11,29745.8,17497.6,8287.43,55049.5
1.578,0.0103093,6931.56,5200.56,4630.32,29649.2,17374.3,8313,54845.5
1.58,0.0103277,7144.34,5129.8,5120.57,29552.5,17250.9,8338.58,54641.5
1.582,0.0103462,7357.1,5059.05,5610.79,29455.8,17127.5,8364.15,54437.6
1.584,0.0103646,7569.86,4988.3,6101.01,29359.2,17004.1,8389.73,54233.6
1.586,0.010383,7782.62,4917.54,6591.23,29262.5,16880.7,8415.3,54029.6
1.588,0.0104014,7995.4,4846.79,7081.48,29165.8,16757.3,8440.87,53825.6
1.59,0.0104199,8208.16,4776.03,7571.7,29069.1,16633.9,8466.45,53621.6
1.592,0.0104383,8420.93,4705.28,8061.92,28972.5,16510.6,8492.02,53417.7
1.594,0.0104567,8468.35,4653.31,8057.69,28775.4,16478.3,8637.86,53433.7
1.596,0.0104752,8480.39,4605.37,7947.64,28556.9,16465.6,8809.44,53496.9
1.598,0.0104936,8492.43,4557.42,7837.58,28338.3,16452.9,8981.04,53560.1
1.6,0.0105121,8504.47,4509.47,7727.52,28119.8,16440.2,9152.62,53623.3
1.602,0.0105305,8516.51,4461.52,7617.47,27901.3,16427.5,9324.2,53686.5
1.604,0.0105489,8528.55,4413.58,7507.42,27682.7,16414.7,9495.78,53749.6
1.606,0.0105674,8296.23,4377.73,7311.22,26496.9,16289,9323.3,52893.5
1.608,0.0105858,7901.22,4349.92,7057.65,24666.9,16088,8921.75,51425.3
1.61,0.0106043,7506.22,4322.13,6804.1,22837,15887,8520.22,49957.2
1.612,0.0106228,7111.23,4294.33,6550.55,21007.1,15686,8118.7,48489
1.614,0.0106412,6716.24,4266.53,6297,19177.3,15485,7717.17,47020.9
1.616,0.0106597,6321.22,4238.73,6043.43,17347.3,15284,7315.62,45552.7
1.618,0.0106781,5926.23,4210.93,5789.88,15517.4,15083.1,6914.09,44084.5
1.62,0.0106966,5531.24,4183.13,5536.33,13687.5,14882.1,6512.57,42616.4
1.622,0.010715,5398.24,4166.38,5346.71,12770.3,14762.4,6337.27,41771.7
1.624,0.0107335,5561.67,4162.14,5229.42,12885.6,14734.6,6417.95,41632.5
1.626,0.010752,5725.12,4157.9,5112.13,13000.9,14706.9,6498.64,41493.3
1.628,0.0107704,5888.56,4153.65,4994.84,13116.2,14679.2,6579.32,41354.1
1.63,0.0107889,6052,4149.41,4877.56,13231.5,14651.5,6660.01,41214.9
1.632,0.0108074,6215.44,4145.17,4760.27,13346.9,14623.7,6740.69,41075.7
1.634,0.0108258,6378.88,4140.92,4642.98,13462.2,14596,6821.37,40936.5
1.636,0.0108443,6542.32,4136.68,4525.69,13577.5,14568.3,6902.06,40797.3
1.638,0.0108627,6705.76,4132.44,4408.4,13692.8,14540.5,6982.74,40658.1
1.64,0.0108812,6869.2,4128.19,4291.11,13808.2,14512.8,7063.43,40518.9
1.642,0.0108997,7032.64,4123.95,4173.82,13923.5,14485.1,7144.11,40379.7
1.644,0.0109181,7196.08,4119.71,4056.53,14038.8,14457.3,7224.8,40240.4
1.646,0.0109366,7359.52,4115.46,3939.24,14154.1,14429.6,7305.48,40101.2
1.648,0.0109551,7522.96,4111.22,3821.95,14269.4,14401.9,7386.16,39962
1.65,0.0109735,7686.4,4106.98,3704.67,14384.8,14374.1,7466.84,39822.8
1.652,0.010992,7849.84,4102.73,3587.38,14500.1,14346.4,7547.53,39683.6
1.654,0.0110105,8013.29,4098.49,3470.09,14615.4,14318.7,7628.22,39544.4
1.656,0.0110289,8095.47,4138.83,3320.22,14745.3,14278.9,7722.4,39288.3
1.658,0.0110474,8120.94,3993.82,2979.61,14206.5,14296.1,7802.13,38728.6
1.66,0.0110659,7993.01,3755.55,2709.07,13374.5,14305.9,7638.08,38033.9
1.662,0.0110844,7865.08,3517.29,2438.54,12542.5,14315.6,7474.04,37339.1
1.664,0.0111029,7737.15,3279,2167.98,11710.4,14325.4,7309.98,36644.3
1.666,0.0111214,7609.22,3040.74,1897.44,10878.4,14335.1,7145.94,35949.5
1.668,0.0111399,7481.29,2802.47,1626.91,10046.4,14344.9,6981.9,35254.7
1.67,0.0111584,7353.36,2564.2,1356.37,9214.37,14354.6,6817.85,34560
1.672,0.0111769,7225.42,2325.92,1085.82,8382.3,14364.4,6653.8,33865.1
1.674,0.0111954,7097.49,2087.65,815.278,7550.29,14374.1,6489.75,33170.4
1.676,0.0112139,6696.19,1683.19,669.611,6195.77,14370.6,5891.29,32234.9
1.678,0.0112324,6778.15,1561.25,571.921,5935.45,14344,5816.96,32454.1
1.68,0.0112508,6875.3,1448.31,472.793,5707.64,14317.2,5761.78,32701.7
1.682,0.0112693,6972.46,1335.36,373.659,5479.82,14290.4,5706.59,32949.2
1.684,0.0112878,7069.61,1222.42,274.531,5252.01,14263.6,5651.41,33196.7
1.686,0.0113063,7166.76,1109.48,175.402,5024.21,14236.8,5596.23,33444.2
1.688,0.0113248,7263.89,988.247,72.363,4840.69,14188,5541.72,33726.2
1.69,0.0113433,7361.01,862.414,-32.8491,4681.7,14126.8,5487.58,34027.3
1.692,0.0113618,7458.13,736.589,-138.055,4522.71,14065.7,5433.44,34328.3
1.694,0.0113803,7555.25,610.763,-243.261,4363.73,14004.6,5379.3,34629.3
1.696,0.0113988,7652.36,484.938,-348.466,4204.75,13943.5,5325.16,34930.4
1.698,0.0114173,7749.48,359.112,-453.672,4045.76,13882.4,5271.03,35231.4
1.7,0.0114358,7846.6,233.279,-558.884,3886.77,13821.3,5216.89,35532.4
1.702,0.0114543,7943.72,107.453,-664.09,3727.79,13760.2,5162.75,35833.5
1.704,0.0114727,8040.83,-18.3723,-769.296,3568.8,13699.1,5108.61,36134.5
1.706,0.0114912,8137.95,-144.198,-874.502,3409.82,13637.9,5054.48,36435.5
1.708,0.0115097,8217.74,-246.969,-968.427,3258.31,13591,4987.64,36682.2
1.71,0.0115282,8212.28,-236.296,-1006.85,3143.57,13614,4858.31,36661
1.712,0.0115467,8222.75,-207.001,-1045.79,3069.98,13623.7,4759.22,36655.7
1.714,0.0115652,8315.24,-81.8062,-1087.38,3208.24,13565.3,4815.77,36732.6
1.716,0.0115838,8407.74,43.3884,-1128.98,3346.5,13506.9,4872.33,36809.4
1.718,0.0116023,8500.24,168.59,-1170.58,3484.76,13448.5,4928.89,36886.3
1.72,0.0116208,8592.74,293.785,-1212.18,3623.02,13390.1,4985.45,36963.2
1.722,0.0116393,8685.24,418.979,-1253.78,3761.28,13331.7,5042.01,37040
1.724,0.0116578,8777.74,544.174,-1295.38,3899.54,13273.2,5098.56,37116.9
1.726,0.0116763,8851.68,665.891,-1335.13,4048.09,13211.5,5142.38,37145.5
1.728,0.0116949,8725.24,750.047,-1354.97,4307.89,13113.8,5048.53,36653.4
1.73,0.0117134,8598.8,834.198,-1374.81,4567.67,13016.1,4954.69,36161.3
1.732,0.0117319,8472.36,918.349,-1394.65,4827.45,12918.4,4860.85,35669.2
1.734,0.0117504,8345.92,1002.5,-1414.49,5087.24,12820.8,4767,35177.1
1.736,0.0117689,8219.48,1086.65,-1434.33,5347.02,12723.1,4673.16,34685
1.738,0.0117874,8093.03,1170.81,-1454.17,5606.82,12625.4,4579.31,34192.8
1.74,0.011806,7966.59,1254.96,-1474.01,5866.6,12527.7,4485.47,33700.7
1.742,0.0118245,7840.15,1339.11,-1493.84,6126.38,12430,4391.63,33208.6
1.744,0.011843,7713.71,1423.26,-1513.68,6386.16,12332.3,4297.79,32716.5
1.746,0.0118615,7587.26,1507.42,-1533.52,6645.96,12234.6,4203.94,32224.4
1.748,0.01188,7460.82,1591.57,-1553.36,6905.74,12137,4110.1,31732.2
1.75,0.0118985,7334.38,1675.72,-1573.2,7165.53,12039.3,4016.26,31240.1
1.752,0.0119171,7207.95,1759.87,-1593.04,7425.31,11941.6,3922.42,30748
1.754,0.0119356,7081.51,1844.02,-1612.88,7685.09,11843.9,3828.57,30255.9
1.756,0.0119541,6955.06,1928.18,-1632.72,7944.89,11746.2,3734.73,29763.8
1.758,0.0119726,6822.59,2008.1,-1654,8183.15,11648.1,3643.57,29278.3
1.76,0.0119911,6505.51,1958.53,-1719.66,7762.68,11538.5,3634.58,28997.2
1.762,0.0120096,6164.11,1902.92,-1756.76,7312.77,11374.3,3554.07,28667.2
1.764,0.0120282,5789.1,1838.96,-1754.43,6822.17,11134.7,3374.78,28269.7
1.766,0.0120467,5414.11,1775,-1752.1,6331.6,10895.1,3195.5,27872.2
1.768,0.0120652,5039.13,1711.05,-1749.78,5841.03,10655.5,3016.22,27474.7
1.77,0.0120837,4664.14,1647.09,-1747.45,5350.45,10415.9,2836.94,27077.2
1.772,0.0121023,4289.16,1583.13,-1745.12,4859.88,10176.3,2657.66,26679.7
1.774,0.0121208,3914.15,1519.17,-1742.79,4369.28,9936.69,2478.37,26282.2
1.776,0.0121393,3785.82,1577.96,-1731.79,4348.93,9790.69,2498.39,25927.5
1.778,0.0121578,3709.28,1662.51,-1718.97,4427.31,9664.34,2560.26,25581.7
1.78,0.0121764,3632.75,1747.06,-1706.15,4505.69,9538,2622.13,25235.9
1.782,0.0121949,3556.21,1831.62,-1693.33,4584.07,9411.66,2683.99,24890.2
1.784,0.0122134,3476.86,1911.12,-1672.1,4675.5,9282.31,2747.91,24551.6
1.786,0.0122319,3388.12,1973.76,-1622.85,4810.39,9142.97,2818.64,24237.2
1.788,0.0122504,3299.39,2036.41,-1573.59,4945.28,9003.64,2889.37,23922.8
1.79,0.012269,3210.66,2099.05,-1524.33,5080.18,8864.3,2960.1,23608.3
1.792,0.0122875,3121.92,2161.7,-1475.07,5215.08,8724.96,3030.84,23293.9
1.794,0.012306,3033.19,2224.34,-1425.82,5349.98,8585.62,3101.57,22979.5
1.796,0.0123245,2944.45,2286.98,-1376.56,5484.87,8446.29,3172.3,22665
1.798,0.0123431,2855.72,2349.63,-1327.3,5619.77,8306.95,3243.03,22350.6
1.8,0.0123616,2766.98,2412.27,-1278.05,5754.66,8167.62,3313.76,22036.2
1.802,0.0123801,2678.25,2474.92,-1228.79,5889.56,8028.27,3384.5,21721.7
1.804,0.0123986,2589.51,2537.56,-1179.53,6024.46,7888.94,3455.23,21407.3
1.806,0.0124172,2500.78,2600.2,-1130.27,6159.35,7749.6,3525.96,21092.9
1.808,0.0124357,2408.58,2615.94,-1085.27,5877.91,7634.99,3425.37,20712.8
1.81,0.0124542,2312.43,2578.27,-1045.13,5122.36,7548.52,3129.68,20258.1
1.812,0.0124728,2216.28,2540.6,-1004.98,4366.76,7462.05,2833.97,19803.4
1.814,0.0124913,2120.13,2502.93,-964.831,3611.21,7375.59,2538.27,19348.7
1.816,0.0125098,2023.99,2465.26,-924.684,2855.66,7289.13,2242.58,18894
1.818,0.0125284,1927.84,2427.59,-884.537,2100.11,7202.66,1946.89,18439.3
1.82,0.0125469,1831.69,2389.92,-844.388,1344.52,7116.2,1651.17,17984.5
1.822,0.0125655,1735.54,2352.25,-804.241,588.964,7029.73,1355.48,17529.8
1.824,0.012584,1650.16,2323.82,-776.268,-35.4573,6949.67,1100.88,17127.2
1.826,0.0126025,1621.43,2343.98,-812.398,30.576,6903.32,1062.65,16998.7
1.828,0.0126211,1592.69,2364.15,-848.527,96.6093,6856.96,1024.41,16870.2
1.83,0.0126396,1563.96,2384.32,-884.659,162.647,6810.61,986.178,16741.6
1.832,0.0126582,1535.23,2404.49,-920.789,228.68,6764.25,947.945,16613.1
1.834,0.0126767,1506.5,2424.65,-956.918,294.713,6717.9,909.711,16484.6
1.836,0.0126952,1477.77,2444.82,-993.048,360.747,6671.55,871.478,16356.1
1.838,0.0127138,1449.04,2464.99,-1029.18,426.784,6625.19,833.242,16227.6
1.84,0.0127323,1420.31,2485.16,-1065.31,492.817,6578.84,795.009,16099.1
1.842,0.0127508,1408.61,2505.09,-1091.77,645.036,6540.49,777.422,16036.6
1.844,0.0127694,1484.8,2523.83,-1068.34,1242.04,6543.43,866.389,16314.5
1.846,0.0127879,1560.99,2542.57,-1044.91,1839.04,6546.38,955.357,16592.4
1.848,0.0128065,1637.18,2561.3,-1021.48,2436.08,6549.32,1044.33,16870.3
1.85,0.012825,1713.37,2580.04,-998.044,3033.08,6552.27,1133.3,17148.1
1.852,0.0128435,1832.8,2468.47,-1038.67,3044.24,6536.94,1179.91,16959.1
1.854,0.0128621,1977.92,2279.49,-1117.36,2707.33,6510.75,1201.36,16492.7
1.856,0.0128806,2123.03,2090.5,-1196.04,2370.41,6484.55,1222.8,16026.3
1.858,0.0128991,2268.16,1901.5,-1274.74,2033.48,6458.36,1244.25,15559.9
1.86,0.0129177,2501.87,1821.25,-1292.24,2352.86,6367.4,1569.14,15417.8
1.862,0.0129362,2743.19,1750.35,-1304.5,2728.61,6270.87,1920.09,15303.6
1.864,0.0129548,2984.51,1679.44,-1316.75,3104.37,6174.34,2271.04,15189.3
1.866,0.0129733,3225.85,1608.53,-1329,3480.15,6077.8,2622.01,15075.1
1.868,0.0129918,3291.26,1556.19,-1257.29,3438.56,5956.81,2702.2,14831.8
1.87,0.0130104,3300.46,1509.78,-1158.74,3263.61,5827.99,2695.86,14547.3
1.872,0.0130289,3309.65,1463.38,-1060.2,3088.66,5699.18,2689.53,14262.8
1.874,0.0130475,3318.85,1416.97,-961.656,2913.71,5570.37,2683.19,13978.4
1.876,0.013066,3328.05,1370.56,-863.106,2738.75,5441.55,2676.86,13693.8
1.878,0.0130845,3399.36,1325.57,-812.524,2743.39,5376.26,2681.08,13575.7
1.88,0.0131031,3476.04,1280.69,-766.101,2763.6,5316.48,2686.22,13472
1.882,0.0131216,3552.73,1235.82,-719.677,2783.81,5256.69,2691.36,13368.3
1.884,0.0131402,3629.42,1190.95,-673.254,2804.03,5196.91,2696.5,13264.5
1.886,0.0131587,3706.11,1146.07,-626.828,2824.24,5137.13,2701.64,13160.8
1.888,0.0131773,3782.8,1101.2,-580.404,2844.45,5077.34,2706.78,13057.1
1.89,0.0131958,3859.48,1056.33,-533.981,2864.66,5017.56,2711.92,12953.4
1.892,0.0132144,3936.17,1011.46,-487.558,2884.88,4957.78,2717.06,12849.6
1.894,0.0132329,4012.86,966.58,-441.132,2905.09,4897.99,2722.21,12745.9
1.896,0.0132515,4089.55,921.708,-394.708,2925.3,4838.21,2727.35,12642.2
1.898,0.01327,4166.23,876.836,-348.285,2945.51,4778.43,2732.49,12538.5
1.9,0.0132885,4242.92,831.963,-301.862,2965.72,4718.64,2737.63,12434.8
1.902,0.0133071,4319.61,787.091,-255.438,2985.94,4658.86,2742.77,12331
1.904,0.0133256,4396.3,742.216,-209.012,3006.15,4599.08,2747.91,12227.3
1.906,0.0133442,4472.99,697.343,-162.589,3026.36,4539.29,2753.05,12123.6
1.908,0.0133627,4549.67,652.471,-116.166,3046.57,4479.51,2758.19,12019.9
1.91,0.0133813,4626.5,606.276,-69.2065,3065.11,4420.48,2762.71,11915.6
1.912,0.0133998,4699.67,595.791,-36.7204,3128.79,4341.03,2784.01,11827.4
1.914,0.0134184,4772.84,585.304,-4.2324,3192.47,4261.57,2805.31,11739.3
1.916,0.0134369,4846.01,574.818,28.2537,3256.14,4182.11,2826.61,11651.2
1.918,0.0134555,4919.18,564.333,60.7398,3319.82,4102.65,2847.91,11563.1
1.92,0.013474,4992.35,553.847,93.2259,3383.49,4023.2,2869.21,11475
1.922,0.0134925,5065.52,543.36,125.714,3447.17,3943.74,2890.51,11386.9
1.924,0.0135111,5138.69,532.875,158.2,3510.85,3864.28,2911.82,11298.7
1.926,0.0135296,5211.86,522.389,190.686,3574.52,3784.82,2933.12,11210.6
1.928,0.0135482,5285.03,511.903,223.172,3638.19,3705.37,2954.42,11122.5
1.93,0.0135667,5358.2,501.417,255.658,3701.87,3625.91,2975.72,11034.4
1.932,0.0135853,5431.38,490.931,288.146,3765.55,3546.45,2997.02,10946.3
1.934,0.0136038,5467.46,497.688,328.298,3821.09,3484.88,3006.61,10865.5
1.936,0.0136224,5481.01,514.928,373.11,3871.69,3434.17,3009.07,10789.1
1.938,0.0136409,5494.56,532.167,417.921,3922.29,3383.47,3011.54,10712.8
1.94,0.0136594,5508.1,549.407,462.736,3972.9,3332.77,3014,10636.4
1.942,0.013678,5527.82,613.782,522.026,3898.22,3264.7,2993.03,10560.5
1.944,0.0136965,5550.58,701.374,588.447,3761.83,3188.09,2960.5,10484.7
1.946,0.0137151,5573.34,788.967,654.869,3625.44,3111.48,2927.98,10409
1.948,0.0137336,5596.1,876.559,721.29,3489.05,3034.87,2895.46,10333.2
1.95,0.0137522,5618.86,964.157,787.716,3352.65,2958.25,2862.93,10257.5
1.952,0.0137707,5641.62,1051.75,854.138,3216.26,2881.64,2830.41,10181.7
1.954,0.0137893,5664.38,1139.34,920.559,3079.87,2805.03,2797.89,10106
1.956,0.0138078,5687.14,1226.93,986.981,2943.48,2728.41,2765.36,10030.2
1.958,0.0138264,5709.9,1314.53,1053.4,2807.09,2651.8,2732.84,9954.45
1.96,0.0138449,5732.66,1402.12,1119.83,2670.69,2575.18,2700.32,9878.69
1.962,0.0138634,5753.16,1488.72,1187.66,2562.38,2499.37,2670.9,9800.15
1.964,0.013882,5761.76,1570.07,1262.92,2601.64,2427.75,2657.8,9706.96
1.966,0.0139005,5770.35,1651.43,1338.17,2640.89,2356.14,2644.7,9613.77
1.968,0.0139191,5778.95,1732.78,1413.44,2680.15,2284.52,2631.59,9520.57
1.97,0.0139376,5787.55,1814.14,1488.69,2719.4,2212.9,2618.49,9427.38
1.972,0.0139562,5796.15,1895.49,1563.95,2758.66,2141.28,2605.39,9334.19
1.974,0.0139747,5804.75,1976.84,1639.2,2797.91,2069.67,2592.29,9241
1.976,0.0139933,5799.68,1992.07,1646.69,2709.53,2045.76,2564.99,9145.92
1.978,0.0140118,5789.64,1983.21,1629.5,2574.67,2039.21,2532.52,9050.15
1.98,0.0140304,5779.6,1974.36,1612.3,2439.82,2032.67,2500.05,8954.39
1.982,0.0140489,5769.55,1965.51,1595.11,2304.97,2026.13,2467.59,8858.63
1.984,0.0140675,5759.51,1956.65,1577.92,2170.12,2019.59,2435.12,8762.87
1.986,0.014086,5749.47,1947.8,1560.73,2035.27,2013.05,2402.65,8667.1
1.988,0.0141046,5786.48,1899.14,1569.18,1943.5,1999.04,2382.86,8579.09
1.99,0.0141231,5942.27,1750.02,1642.35,1960.48,1966.16,2395.08,8510.66
1.992,0.0141417,6098.05,1600.89,1715.52,1977.47,1933.28,2407.3,8442.22
1.994,0.0141602,6253.84,1451.77,1788.69,1994.45,1900.41,2419.52,8373.79
1.996,0.0141788,6409.63,1302.64,1861.87,2011.44,1867.53,2431.74,8305.35
1.998,0.0141973,6565.42,1153.51,1935.04,2028.42,1834.65,2443.96,8236.92
2,0.0142159,6721.2,1004.39,2008.21,2045.41,1801.77,2456.18,8168.49
