"arc_length","Displacement_Magnitude","Sxx","Sxy","Sxz","Syy","Syz","Szz","Von_Mises_Stress"
0,0,1.20706e+06,-69301.1,-6495.67,2.4294e+06,487988,1.03954e+06,1.57031e+06
0.002,1.85411e-06,1.14684e+06,-63301.6,-5643.26,2.33999e+06,457669,959101,1.53272e+06
0.004,3.0107e-06,1.11411e+06,-60777.6,-4624.46,2.28383e+06,440189,920510,1.50742e+06
0.006,3.98428e-06,1.09037e+06,-59389,-3551.31,2.23852e+06,426903,895589,1.48614e+06
0.008,4.98147e-06,1.06662e+06,-58000.3,-2478.15,2.19322e+06,413617,870669,1.46485e+06
0.01,5.9905e-06,1.04287e+06,-56611.6,-1405,2.14791e+06,400331,845748,1.44356e+06
0.012,7.00624e-06,1.01912e+06,-55223,-331.844,2.1026e+06,387046,820828,1.42228e+06
0.014,8.02615e-06,995373,-53834.3,741.31,2.0573e+06,373760,795907,1.40099e+06
0.016,9.01454e-06,971614,-52029.1,1961.1,2.01085e+06,361443,772408,1.37992e+06
0.018,9.91799e-06,947830,-49173.7,3550.58,1.96151e+06,351568,752490,1.35939e+06
0.02,1.08223e-05,924045,-46318.3,5140.05,1.91218e+06,341692,732572,1.33886e+06
0.022,1.17272e-05,900260,-43462.8,6729.53,1.86284e+06,331817,712654,1.31834e+06
0.024,1.26327e-05,876475,-40607.4,8319.01,1.81351e+06,321942,692736,1.29781e+06
0.026,1.35386e-05,852690,-37752,9908.48,1.76417e+06,312067,672818,1.27728e+06
0.028,1.44448e-05,828906,-34896.6,11498,1.71484e+06,302192,652901,1.25675e+06
0.03,1.53513e-05,805121,-32041.1,13087.4,1.6655e+06,292317,632983,1.23622e+06
0.032,1.6258e-05,781336,-29185.7,14676.9,1.61617e+06,282442,613065,1.2157e+06
0.034,1.71649e-05,757551,-26330.3,16266.4,1.56683e+06,272567,593147,1.19517e+06
0.036,1.80719e-05,733767,-23474.9,17855.9,1.51749e+06,262692,573229,1.17464e+06
0.038,1.89791e-05,709982,-20619.5,19445.3,1.46816e+06,252816,553311,1.15411e+06
0.04,1.98865e-05,686197,-17764,21034.8,1.41882e+06,242941,533394,1.13359e+06
0.042,2.07939e-05,662412,-14908.6,22624.3,1.36949e+06,233066,513476,1.11306e+06
0.044,2.17014e-05,638628,-12053.2,24213.8,1.32015e+06,223191,493558,1.09253e+06
0.046,2.2609e-05,614843,-9197.76,25803.2,1.27082e+06,213316,473640,1.072e+06
0.048,2.35167e-05,591058,-6342.34,27392.7,1.22148e+06,203441,453722,1.05147e+06
0.05,2.54457e-05,563638,-4177.77,29866.9,1.18632e+06,197941,421825,1.05095e+06
0.052,2.77447e-05,534908,-2262.35,32660.2,1.15627e+06,194020,385607,1.05764e+06
0.054,3.00451e-05,506178,-346.941,35453.5,1.12621e+06,190098,349390,1.06433e+06
0.056,3.23467e-05,477447,1568.47,38246.8,1.09616e+06,186177,313172,1.07102e+06
0.058,3.46492e-05,448717,3483.88,41040.1,1.06611e+06,182255,276955,1.0777e+06
0.06,3.69524e-05,419986,5399.29,43833.4,1.03605e+06,178334,240738,1.08439e+06
0.062,3.92563e-05,391256,7314.71,46626.6,1.006e+06,174412,204520,1.09108e+06
0.064,4.14811e-05,387231,6697.6,46671.6,999879,177853,202044,1.0931e+06
0.066,4.3733e-05,385003,5896.24,46516.6,995501,181829,202023,1.09478e+06
0.068,4.6014e-05,382776,5094.88,46361.6,991123,185805,202002,1.09647e+06
0.07,4.832e-05,380548,4293.52,46206.6,986745,189781,201981,1.09815e+06
0.072,5.06424e-05,375576,1731.6,46374.4,978452,188686,191317,1.09795e+06
0.074,5.2975e-05,370162,-1114.37,46594.3,969527,186774,178935,1.09746e+06
0.076,5.53168e-05,364748,-3960.32,46814.2,960601,184861,166554,1.09696e+06
0.078,5.76667e-05,359334,-6806.28,47034.1,951676,182949,154173,1.09646e+06
0.08,6.00236e-05,353920,-9652.23,47253.9,942751,181036,141792,1.09597e+06
0.082,6.23869e-05,348506,-12498.2,47473.8,933826,179124,129410,1.09547e+06
0.084,6.47557e-05,343092,-15344.2,47693.7,924901,177211,117029,1.09498e+06
0.086,6.71296e-05,337678,-18190.1,47913.6,915976,175299,104648,1.09448e+06
0.088,6.95084e-05,333476,-20724.8,47887.4,908599,174118,94037.5,1.09538e+06
0.09,7.18965e-05,335806,-21582.1,46535.3,909568,176885,92972.7,1.1038e+06
0.092,7.42923e-05,338135,-22439.4,45183.2,910537,179652,91907.9,1.11222e+06
0.094,7.66951e-05,340465,-23296.6,43831.1,911506,182418,90843,1.12064e+06
0.096,7.91044e-05,342795,-24153.9,42479,912476,185185,89778.2,1.12906e+06
0.098,8.15195e-05,345125,-25011.1,41126.9,913445,187952,88713.4,1.13748e+06
0.1,8.42127e-05,351671,-26440,40301.8,925362,191204,89026.7,1.15358e+06
0.102,8.77875e-05,371809,-29711.2,41175.1,972566,196023,93782,1.19443e+06
0.104,9.1364e-05,391947,-32982.3,42048.4,1.01977e+06,200842,98537.3,1.23527e+06
0.106,9.49418e-05,412085,-36253.5,42921.7,1.06697e+06,205661,103293,1.27612e+06
0.108,9.85209e-05,432223,-39524.7,43795,1.11418e+06,210479,108048,1.31696e+06
0.11,0.000102101,452361,-42795.8,44668.3,1.16138e+06,215298,112803,1.35781e+06
0.112,0.000105682,472499,-46067,45541.7,1.20859e+06,220117,117558,1.39865e+06
0.114,0.000109264,492637,-49338.2,46415,1.25579e+06,224935,122314,1.4395e+06
0.116,0.000113002,486288,-49619,45268.1,1.23807e+06,226329,120200,1.42766e+06
0.118,0.000116905,451761,-46718.8,41972.1,1.15127e+06,224080,110780,1.35978e+06
0.12,0.000120808,417235,-43818.6,38676.1,1.06448e+06,221830,101360,1.29191e+06
0.122,0.000124712,382708,-40918.3,35380.2,977688,219581,91939.2,1.22403e+06
0.124,0.000128616,348182,-38018.1,32084.2,890896,217331,82518.9,1.15615e+06
0.126,0.00013252,313655,-35117.9,28788.2,804103,215082,73098.5,1.08827e+06
0.128,0.000136425,279129,-32217.7,25492.2,717310,212832,63678.2,1.02039e+06
0.13,0.00014033,244602,-29317.5,22196.3,630518,210583,54257.9,952517
0.132,0.000144506,231436,-29119.5,19941.7,596390,209133,50538.1,928217
0.134,0.000148852,230906,-30520.3,18303.2,593419,208157,50190.9,929699
0.136,0.000153209,230376,-31921,16664.8,590449,207181,49843.7,931181
0.138,0.000157577,229847,-33321.8,15026.3,587478,206205,49496.5,932663
0.14,0.000161954,229317,-34722.5,13387.9,584507,205229,49149.3,934145
0.142,0.000166339,228787,-36123.3,11749.4,581536,204253,48802.1,935628
0.144,0.000170733,228258,-37524,10111,578565,203277,48454.8,937110
0.146,0.000175134,227728,-38924.8,8472.49,575595,202301,48107.6,938592
0.148,0.000179542,227198,-40325.5,6834.03,572624,201325,47760.4,940074
0.15,0.000183957,226669,-41726.3,5195.56,569653,200349,47413.2,941556
0.152,0.000188377,226139,-43127,3557.11,566682,199373,47066,943038
0.154,0.000192803,225610,-44527.8,1918.65,563711,198397,46718.8,944520
0.156,0.000197234,225080,-45928.5,280.188,560741,197421,46371.6,946002
0.158,0.00020167,224550,-47329.3,-1358.28,557770,196445,46024.3,947484
0.16,0.000206111,224021,-48730,-2996.73,554799,195469,45677.1,948966
0.162,0.000210555,223491,-50130.8,-4635.19,551828,194493,45329.9,950449
0.164,0.000215004,222961,-51531.5,-6273.65,548857,193517,44982.7,951931
0.166,0.000219457,222432,-52932.3,-7912.1,545886,192541,44635.5,953413
0.168,0.000223912,221902,-54333,-9550.57,542916,191565,44288.3,954895
0.17,0.000228372,221372,-55733.8,-11189,539945,190589,43941.1,956377
0.172,0.000232834,220843,-57134.5,-12827.5,536974,189613,43593.8,957859
0.174,0.000237207,222530,-58079.8,-11229.4,542732,188711,42998.8,956366
0.176,0.000241533,225429,-58776.2,-7862.88,553259,187851,42268.4,953248
0.178,0.000246356,225679,-58675.8,-9279.61,554695,186338,43706.5,942020
0.18,0.000251654,224490,-57980.9,-14790.8,550733,184210,47649.3,926261
0.182,0.000257248,233949,-58670,-17933.7,578165,181780,57827.8,941709
0.184,0.000262843,243409,-59359.1,-21076.7,605597,179350,68006.3,957157
0.186,0.000268439,252868,-60048.1,-24219.6,633029,176919,78184.9,972606
0.188,0.000274035,262328,-60737.2,-27362.5,660461,174489,88363.3,988054
0.19,0.000279632,271787,-61426.3,-30505.4,687893,172059,98541.9,1.0035e+06
0.192,0.00028523,281247,-62115.4,-33648.3,715325,169629,108720,1.01895e+06
0.194,0.000290828,290706,-62804.5,-36791.3,742757,167199,118899,1.0344e+06
0.196,0.000296427,300166,-63493.6,-39934.2,770189,164769,129077,1.04985e+06
0.198,0.000302222,304079,-62405.5,-40247.6,777955,162330,132757,1.04785e+06
0.2,0.000308092,305977,-60671.8,-39533,778575,159888,134076,1.03951e+06
0.202,0.000313965,307875,-58938,-38818.3,779196,157446,135395,1.03117e+06
0.204,0.000319841,309773,-57204.3,-38103.7,779817,155004,136714,1.02283e+06
0.206,0.00032572,311670,-55470.6,-37389.1,780438,152562,138033,1.01449e+06
0.208,0.000331602,313568,-53736.8,-36674.5,781059,150120,139352,1.00616e+06
0.21,0.000337486,315466,-52003.1,-35959.9,781680,147678,140671,997819
0.212,0.000343373,317364,-50269.4,-35245.3,782301,145236,141990,989480
0.214,0.000349262,319262,-48535.6,-34530.7,782921,142794,143309,981142
0.216,0.000355153,321160,-46801.9,-33816.1,783542,140352,144628,972804
0.218,0.000361046,323058,-45068.2,-33101.5,784163,137910,145947,964466
0.22,0.000366941,324956,-43334.4,-32386.9,784784,135468,147266,956128
0.222,0.000372838,326854,-41600.7,-31672.3,785405,133026,148585,947790
0.224,0.000378737,328752,-39867,-30957.6,786026,130584,149904,939452
0.226,0.000385051,317645,-37249.8,-24278.4,768558,128112,144506,928398
0.228,0.000391375,306233,-34611.8,-17459.1,750666,125639,138951,917280
0.23,0.000397699,294820,-31973.9,-10639.8,732774,123167,133397,906162
0.232,0.000404024,283408,-29335.9,-3820.56,714882,120694,127842,895044
0.234,0.000410349,271996,-26698,2998.73,696989,118221,122287,883926
0.236,0.000416674,260584,-24060,9818.03,679097,115749,116732,872808
0.238,0.000423,249172,-21422.1,16637.3,661205,113276,111177,861690
0.24,0.000429553,246750,-21140.8,21375.6,655538,112449,110469,873348
0.242,0.000436157,246273,-21369.1,25663.9,652515,111979,110808,889930
0.244,0.000442763,245795,-21597.3,29952.3,649491,111508,111148,906511
0.246,0.000449371,245317,-21825.5,34240.7,646468,111038,111487,923093
0.248,0.00045598,244839,-22053.8,38529.1,643444,110567,111827,939675
0.25,0.000462591,244362,-22282,42817.4,640421,110097,112166,956257
0.252,0.000469204,243884,-22510.3,47105.8,637397,109626,112506,972839
0.254,0.000475818,243406,-22738.5,51394.2,634374,109156,112845,989421
0.256,0.000482433,242928,-22966.7,55682.6,631351,108685,113185,1.006e+06
0.258,0.00048905,242451,-23195,59970.9,628327,108215,113524,1.02258e+06
0.26,0.000495668,241973,-23423.2,64259.3,625304,107744,113864,1.03917e+06
0.262,0.000502646,236966,-21615.6,66506.1,621355,111343,113738,1.04698e+06
0.264,0.000509694,231072,-19409.2,68352.9,617225,115739,113521,1.05307e+06
0.266,0.000516743,225178,-17202.7,70199.8,613095,120135,113303,1.05916e+06
0.268,0.000523792,219284,-14996.3,72046.6,608965,124531,113086,1.06525e+06
0.27,0.00053084,213390,-12789.8,73893.4,604835,128927,112869,1.07134e+06
0.272,0.00053789,207496,-10583.3,75740.2,600705,133323,112652,1.07743e+06
0.274,0.000545013,202708,-8199.68,77100,596591,137236,112475,1.08179e+06
0.276,0.00055248,203046,-4994.35,76202.5,592551,138906,112487,1.07809e+06
0.278,0.000559948,203384,-1789.01,75304.9,588511,140577,112499,1.07439e+06
0.28,0.000567416,203721,1416.32,74407.3,584471,142248,112511,1.07069e+06
0.282,0.000575179,209783,4138.02,71748.9,592913,139838,111082,1.05391e+06
0.284,0.000583057,218059,6672.63,68409.4,606183,135849,109096,1.03208e+06
0.286,0.000590934,226334,9207.25,65069.8,619453,131860,107110,1.01025e+06
0.288,0.000598812,234610,11741.8,61730.3,632723,127871,105123,988421
0.29,0.00060669,242886,14276.4,58390.7,645993,123882,103137,966590
0.292,0.000614568,251161,16811.1,55051.2,659263,119893,101151,944760
0.294,0.000622525,254987,16577.2,51436,672327,119325,100656,929241
0.296,0.000630497,258087,15892.8,47775.9,685357,119314,100404,914750
0.298,0.000638471,261188,15208.3,44115.9,698388,119303,100152,900259
0.3,0.000646445,264289,14523.8,40455.8,711419,119292,99900.3,885769
0.302,0.000654421,267389,13839.3,36795.8,724449,119281,99648.3,871278
0.304,0.000662398,270490,13154.8,33135.8,737480,119270,99396.3,856787
0.306,0.000670376,273590,12470.3,29475.7,750510,119259,99144.3,842296
0.308,0.000678355,276691,11785.8,25815.7,763541,119248,98892.3,827805
0.31,0.000686335,279792,11101.3,22155.6,776572,119237,98640.4,813314
0.312,0.000694331,282829,10344.9,18289.4,789019,119235,98516.3,799105
0.314,0.000702705,284123,7604.88,8735.7,785382,119490,101921,792656
0.316,0.00071108,285418,4864.84,-817.948,781745,119744,105325,786208
0.318,0.000719454,286712,2124.85,-10371.5,778108,119999,108730,779760
0.32,0.000727829,288006,-615.188,-19925.1,774471,120253,112134,773311
0.322,0.000736204,289300,-3355.22,-29478.8,770834,120508,115539,766863
0.324,0.00074458,290594,-6095.26,-39032.4,767197,120762,118943,760414
0.326,0.000752976,291452,-8625.7,-47517.7,762256,120839,122209,756138
0.328,0.000761551,288482,-9321.4,-46651.1,745896,119360,124265,770881
0.33,0.000770128,285513,-10017.1,-45784.5,729536,117880,126320,785625
0.332,0.000778705,282544,-10712.8,-44918,713177,116401,128375,800368
0.334,0.000787283,279575,-11408.5,-44051.4,696817,114922,130431,815111
0.336,0.000795862,276606,-12104.2,-43184.8,680457,113443,132486,829854
0.338,0.000804442,273637,-12799.9,-42318.2,664097,111963,134542,844597
0.34,0.000813023,270668,-13495.6,-41451.7,647738,110484,136597,859340
0.342,0.000821605,267699,-14191.3,-40585.1,631378,109005,138652,874083
0.344,0.000830187,264730,-14887.1,-39718.5,615018,107525,140708,888826
0.346,0.000838769,261761,-15582.8,-38851.9,598659,106046,142763,903569
0.348,0.000847512,256286,-15845.6,-36621.3,581980,105073,142088,907134
0.35,0.00085654,246303,-15329.3,-31936.1,564729,105010,136499,890584
0.352,0.000865568,236321,-14813.1,-27250.8,547477,104947,130910,874034
0.354,0.000874597,226338,-14296.9,-22565.5,530225,104885,125321,857484
0.356,0.000883625,216355,-13780.6,-17880.3,512974,104822,119733,840934
0.358,0.000892653,206373,-13264.4,-13195,495722,104759,114144,824384
0.36,0.000901682,196390,-12748.2,-8509.73,478470,104697,108555,807834
0.362,0.00091071,186407,-12232,-3824.53,461219,104634,102966,791284
0.364,0.000919901,185501,-12304.6,-2631.24,463911,103044,101298,784081
0.366,0.000929122,186264,-12485.5,-2080.31,470272,101174,100350,778598
0.368,0.000938344,187027,-12666.4,-1529.39,476634,99303.2,99403,773115
0.37,0.000947567,187790,-12847.3,-978.46,482995,97432.7,98455.7,767632
0.372,0.000956791,188554,-13028.2,-427.534,489356,95562.2,97508.4,762148
0.374,0.000966015,189317,-13209.1,123.392,495717,93691.7,96561.1,756665
0.376,0.000975241,190080,-13390,674.31,502078,91821.2,95613.8,751182
0.378,0.000984467,190843,-13570.9,1225.24,508439,89950.7,94666.5,745698
0.38,0.000993693,191606,-13751.8,1776.16,514800,88080.2,93719.2,740215
0.382,0.00100294,193061,-14034.1,2237.34,523823,86639,93344.4,732489
0.384,0.00101223,196791,-14650.2,2402.94,541611,86611.5,94855.1,717378
0.386,0.00102152,200522,-15266.3,2568.54,559399,86584.1,96365.9,702267
0.388,0.00103081,204252,-15882.4,2734.13,577186,86556.6,97876.7,687156
0.39,0.00104011,207983,-16498.4,2899.72,594974,86529.1,99387.4,672045
0.392,0.0010494,211713,-17114.5,3065.32,612762,86501.6,100898,656934
0.394,0.0010589,213722,-17456.3,3679.68,625602,86860.7,102910,644198
0.396,0.0010688,212191,-17234.1,5216.28,628272,88014.2,105951,636342
0.398,0.0010787,210661,-17011.9,6752.88,630943,89167.6,108992,628486
0.4,0.0010886,209130,-16789.7,8289.49,633614,90321.1,112033,620630
0.402,0.0010985,207599,-16567.5,9826.09,636284,91474.6,115074,612774
0.404,0.0011084,206069,-16345.4,11362.7,638955,92628,118116,604918
0.406,0.0011183,204538,-16123.2,12899.3,641626,93781.5,121157,597062
0.408,0.0011282,203007,-15901,14435.9,644296,94934.9,124198,589207
0.41,0.0011382,198150,-14801.1,15570.1,639022,95689.5,124428,589584
0.412,0.00114844,189742,-13229.4,15027.1,616505,94319.5,119453,603402
0.414,0.00115868,181333,-11657.7,14484.1,593989,92949.4,114478,617220
0.416,0.00116892,172925,-10086,13941.2,571472,91579.4,109503,631039
0.418,0.00117916,164516,-8514.26,13398.2,548956,90209.4,104528,644857
0.42,0.0011894,156108,-6942.59,12855.3,526440,88839.3,99553.4,658675
0.422,0.00119964,147699,-5370.89,12312.3,503924,87469.3,94578.5,672494
0.424,0.00120988,139291,-3799.19,11769.3,481407,86099.2,89603.5,686312
0.426,0.00122012,130882,-2227.49,11226.4,458891,84729.2,84628.6,700130
0.428,0.00123036,122473,-655.789,10683.4,436375,83359.1,79653.7,713949
0.43,0.00124061,114065,915.91,10140.4,413858,81989.1,74678.8,727767
0.432,0.00125082,107650,591.986,9041.54,391170,80017.8,71725.4,733308
0.434,0.00126102,102966,-1376.59,7460.35,368332,77524.8,70526.1,731666
0.436,0.00127122,98281.7,-3345.19,5879.14,345494,75031.9,69326.7,730025
0.438,0.00128142,93597.3,-5313.79,4297.92,322656,72538.9,68127.3,728384
0.44,0.00129162,88912.9,-7282.4,2716.71,299818,70046,66927.9,726743
0.442,0.00130182,84228.6,-9251,1135.49,276980,67553,65728.5,725101
0.444,0.00131224,84609.7,-15616.7,-203.024,265213,64033.2,66418.4,720920
0.446,0.00132285,89145.9,-25589,-1342.47,262527,59671.1,68658,714655
0.448,0.00133345,93682.1,-35561.3,-2481.92,259841,55309,70897.6,708390
0.45,0.00134405,98218.1,-45533.5,-3621.34,257156,50947,73137.1,702125
0.452,0.00135502,104103,-44931.4,-1947.57,275877,50958.7,77319.1,693717
0.454,0.00136602,110093,-43512,-56.3757,296253,51308.3,81651.1,685143
0.456,0.00137702,116082,-42092.7,1834.81,316630,51658,85983.1,676569
0.458,0.00138802,122071,-40673.3,3726,337006,52007.7,90315.2,667995
0.46,0.00139902,128061,-39253.9,5617.19,357382,52357.4,94647.2,659421
0.462,0.00141003,134050,-37834.6,7508.38,377758,52707.1,98979.2,650847
0.464,0.00142103,140039,-36415.2,9399.55,398134,53056.7,103311,642273
0.466,0.00143203,146029,-34995.8,11290.7,418510,53406.4,107643,633699
0.468,0.00144303,152018,-33576.5,13181.9,438886,53756.1,111975,625125
0.47,0.00145403,158008,-32157.1,15073.1,459262,54105.8,116307,616551
0.472,0.00146503,163997,-30737.8,16964.3,479638,54455.5,120639,607977
0.474,0.00147604,169986,-29318.4,18855.5,500014,54805.2,124971,599403
0.476,0.00148704,175976,-27899,20746.7,520390,55154.8,129303,590829
0.478,0.00149801,181115,-24383.7,22809.7,538686,55818.6,133939,580247
0.48,0.00150894,185130,-18092.9,25100.3,554227,56898.3,138978,567006
0.482,0.00151987,189144,-11802.1,27391,569768,57978,144017,553765
0.484,0.0015308,193158,-5511.23,29681.6,585309,59057.7,149056,540524
0.486,0.00154172,197172,779.602,31972.2,600851,60137.4,154094,527283
0.488,0.00155276,197438,7190.56,33507.6,610349,59822.9,155604,518715
0.49,0.00156404,189112,13876.9,33312,605996,56312.7,149025,520857
0.492,0.00157532,180786,20563.2,33116.3,601643,52802.5,142445,523000
0.494,0.0015866,172460,27249.4,32920.7,597290,49292.4,135866,525142
0.496,0.00159788,164133,33935.7,32725.1,592937,45782.1,129286,527285
0.498,0.00160916,155807,40622,32529.4,588584,42271.9,122707,529427
0.5,0.0016206,149149,43616,32016,584449,40198.4,115829,531575
0.502,0.00163216,144116,43033.3,30840.9,580816,38878.8,108863,534678
0.504,0.00164368,140837,38686.4,27006.1,579329,34813.8,102916,544057
0.506,0.00165519,137763,34599.5,23385,577614,31036.4,97271.6,552788
0.508,0.00166664,136411,32687.4,21552.3,573987,29667,94151.2,556103
0.51,0.00167809,135058,30775.4,19719.7,570360,28297.7,91030.9,559418
0.512,0.00168954,133706,28863.4,17887.1,566733,26928.3,87910.5,562733
0.514,0.00170099,132353,26951.4,16054.5,563106,25559,84790.2,566048
0.516,0.00171244,131001,25039.4,14221.9,559479,24189.6,81669.9,569363
0.518,0.00172389,129648,23127.4,12389.3,555852,22820.3,78549.4,572678
0.52,0.00173534,128296,21215.4,10556.7,552225,21450.9,75429.1,575993
0.522,0.00174679,126943,19303.3,8724.02,548598,20081.6,72308.7,579309
0.524,0.00175824,125591,17391.4,6891.43,544971,18712.2,69188.4,582624
0.526,0.0017697,124238,15479.3,5058.78,541344,17342.9,66068,585939
0.528,0.00178121,123032,14276.5,4036.96,538449,16931.2,63595.6,589337
0.53,0.00179297,122441,16061.2,6430.49,538638,20554.1,63852.5,593086
0.532,0.00180473,121850,17845.9,8824.1,538828,24177,64109.4,596834
0.534,0.00181649,121258,19630.6,11217.6,539017,27799.8,64366.3,600583
0.536,0.00182825,120667,21415.3,13611.3,539207,31422.7,64623.2,604332
0.538,0.00184001,120076,23200,16004.8,539396,35045.5,64880.1,608080
0.54,0.00185177,119520,24873,18360.1,539071,38626.9,65150.5,611120
0.542,0.00186364,119609,24487.7,20008.8,529263,41442.5,65668.8,601084
0.544,0.00187572,119270,22389,19864.9,516304,43642.8,65930.2,591215
0.546,0.00188797,118598,18965.4,18334.6,500909,45367.2,65992.9,581477
0.548,0.00190022,117927,15541.7,16804.3,485514,47091.5,66055.7,571739
0.55,0.00191247,117256,12118,15273.9,470119,48815.9,66118.4,562000
0.552,0.00192472,116585,8694.31,13743.5,454724,50540.3,66181.1,552262
0.554,0.00193697,115914,5270.56,12213.1,439328,52264.7,66243.9,542523
0.556,0.00194935,115864,3950.87,14015.9,435803,52844.4,65895.4,559357
0.558,0.00196177,115960,3127.04,16604.2,435076,53154.2,65450.1,582455
0.56,0.00197418,116056,2303.24,19192.5,434348,53464,65004.7,605551
0.562,0.0019866,116152,1479.44,21780.8,433620,53773.8,64559.3,628648
0.564,0.00199902,116248,655.606,24369.2,432893,54083.7,64113.9,651746
0.566,0.00201144,116344,-168.199,26957.5,432165,54393.5,63668.5,674842
0.568,0.00202385,116440,-992.029,29545.8,431438,54703.3,63223.2,697940
0.57,0.00203627,116537,-1815.83,32134.1,430710,55013.1,62777.8,721037
0.572,0.00204869,116633,-2639.66,34722.5,429983,55323,62332.4,744134
0.574,0.00206122,115780,-3039.16,37680.1,419211,55256.1,59208.8,751886
0.576,0.00207386,113128,-3776.56,40706.1,414062,55222.7,58919.5,749778
0.578,0.0020865,110325,-4590.92,43710.8,410436,55224,59204.2,747669
0.58,0.00209914,107523,-5405.25,46715.4,406809,55225.3,59488.9,745560
0.582,0.00211178,104721,-6219.61,49720.2,403182,55226.5,59773.7,743451
0.584,0.00212442,101919,-7033.94,52724.8,399555,55227.8,60058.4,741341
0.586,0.00213706,99117,-7848.3,55729.6,395928,55229,60343.1,739232
0.588,0.0021497,96314.9,-8662.64,58734.2,392301,55230.3,60627.8,737123
0.59,0.00216234,93512.8,-9476.97,61738.9,388674,55231.6,60912.6,735014
0.592,0.00217498,90710.7,-10291.3,64743.6,385047,55232.8,61197.3,732905
0.594,0.00218762,87908.6,-11105.7,67748.2,381421,55234.1,61482,730796
0.596,0.00220042,87302.5,-11571.6,69089.4,380755,56700.1,63457.1,726894
0.598,0.00221333,88130.5,-11810.1,69344.1,382022,59122.6,66536.1,721822
0.6,0.00222625,88958.6,-12048.5,69598.8,383290,61545.1,69615.3,716750
0.602,0.00223913,90044.8,-12124.4,68890.4,382899,64173.2,71928.9,706694
0.604,0.00225199,91253.9,-12122.9,67723.4,381717,66899.2,73877.9,694264
0.606,0.00226486,92463.1,-12121.3,66556.5,380536,69625.3,75827.1,681834
0.608,0.00227773,93672.3,-12119.8,65389.5,379355,72351.3,77776.2,669404
0.61,0.00229059,94881.5,-12118.2,64222.5,378174,75077.4,79725.3,656974
0.612,0.00230346,96090.6,-12116.7,63055.6,376993,77803.4,81674.4,644544
0.614,0.00231632,97299.8,-12115.1,61888.6,375812,80529.4,83623.6,632114
0.616,0.00232919,98508.9,-12113.6,60721.7,374630,83255.4,85572.7,619685
0.618,0.00234206,99718.1,-12112,59554.7,373449,85981.4,87521.8,607255
0.62,0.00235496,99936.5,-11640.9,57762.5,370917,88647.5,89129.2,599386
0.622,0.00236799,96771.8,-9566.29,53835.6,363769,91108.4,89569.6,607089
0.624,0.00238102,93607,-7491.62,49908.5,356622,93569.4,90010,614792
0.626,0.00239417,90522.9,-6013.26,46648.3,350366,94040.9,90466,616335
0.628,0.00240742,87520.2,-5137.49,44061.9,345010,92501.7,90937.6,611651
0.63,0.00242067,84517.6,-4261.74,41475.5,339655,90962.6,91409.2,606967
0.632,0.00243392,81515,-3385.97,38889.1,334299,89423.4,91880.8,602283
0.634,0.00244718,78512.4,-2510.23,36302.8,328944,87884.2,92352.4,597598
0.636,0.0024605,76049.9,-1975.99,34680.9,323824,86080.7,92630.5,593166
0.638,0.002474,74923.3,-2286.61,35444.9,319288,83623.1,92429.9,589357
0.64,0.0024875,73796.8,-2597.23,36208.8,314753,81165.6,92229.2,585548
0.642,0.00250099,72670.3,-2907.86,36972.8,310217,78707.9,92028.6,581739
0.644,0.00251449,71543.8,-3218.47,37736.7,305681,76250.4,91828,577930
0.646,0.00252808,70733.6,-3165.44,37635.5,303542,74186.8,90899.7,574175
0.648,0.00254181,70416.6,-2545.4,36185.2,305140,72737.5,88836.8,570504
0.65,0.00255553,70099.7,-1925.36,34735,306739,71288.3,86773.9,566833
0.652,0.00256926,69782.8,-1305.3,33284.7,308337,69839,84711,563162
0.654,0.00258298,69465.8,-685.262,31834.4,309935,68389.7,82648.1,559491
0.656,0.00259671,69148.9,-65.2045,30384.1,311533,66940.4,80585.2,555820
0.658,0.00261044,68832,554.835,28933.9,313132,65491.2,78522.4,552149
0.66,0.00262416,68515,1174.89,27483.6,314730,64041.9,76459.4,548478
0.662,0.00263789,68198.1,1794.93,26033.3,316328,62592.7,74396.6,544807
0.664,0.00265162,67881.2,2414.97,24583.1,317926,61143.4,72333.7,541137
0.666,0.00266534,67564.2,3035.03,23132.8,319524,59694.1,70270.8,537466
0.668,0.00267907,67247.3,3655.07,21682.5,321123,58244.9,68207.9,533795
0.67,0.0026928,66930.4,4275.12,20232.2,322721,56795.6,66145,530124
0.672,0.00270653,66613.4,4895.16,18781.9,324319,55346.3,64082.1,526453
0.674,0.00272025,66296.5,5515.22,17331.6,325917,53897,62019.2,522782
0.676,0.00273398,65979.5,6135.26,15881.4,327516,52447.8,59956.3,519111
0.678,0.00274771,65662.6,6755.3,14431.1,329114,50998.5,57893.4,515440
0.68,0.00276145,65317.3,7404.63,12883.4,330250,49758.5,55556.5,511804
0.682,0.00277534,64389.7,8654.26,9338.31,321914,52809,47600.7,508904
0.684,0.00278924,63462.1,9903.93,5793.1,313579,55859.5,39644.8,506004
0.686,0.00280313,62534.5,11153.6,2248,305243,58910,31689,503103
0.688,0.00281702,61606.8,12403.2,-1297.21,296907,61960.5,23733,500203
0.69,0.00283092,60679.2,13652.9,-4842.32,288571,65011,15777.3,497302
0.692,0.00284481,59751.6,14902.5,-8387.42,280236,68061.5,7821.57,494402
0.694,0.00285871,58824,16152.2,-11932.6,271900,71112,-134.403,491501
0.696,0.0028726,57896.4,17401.8,-15477.7,263564,74162.5,-8090.14,488601
0.698,0.00288658,57314.3,17903.7,-17336.2,257599,76625.8,-14183.6,483699
0.7,0.00290072,57453,16846.1,-15676.8,256578,77864.3,-16392.3,474623
0.702,0.00291486,57591.6,15788.5,-14017.4,255557,79102.9,-18601.1,465547
0.704,0.002929,57730.3,14730.9,-12358,254536,80341.4,-20809.8,456471
0.706,0.00294314,57868.9,13673.4,-10698.6,253515,81579.9,-23018.6,447396
0.708,0.00295729,58007.5,12615.8,-9039.21,252494,82818.5,-25227.3,438320
0.71,0.00297143,58146.2,11558.2,-7379.82,251473,84057,-27436.1,429244
0.712,0.00298577,57769.3,12498.7,-8499.8,256894,83897.3,-29858.7,426109
0.714,0.00300028,56924.7,15252.3,-12141.7,268161,82468.8,-32475.3,428366
0.716,0.0030148,56080,18005.9,-15783.6,279428,81040.3,-35092,430623
0.718,0.00302932,55235.3,20759.5,-19425.5,290695,79611.9,-37708.6,432879
0.72,0.00304384,54390.7,23513.1,-23067.5,301962,78183.4,-40325.3,435136
0.722,0.00305836,53546,26266.7,-26709.3,313228,76754.9,-42942,437393
0.724,0.00307285,53198.3,29666.8,-28707.2,323391,76167.9,-44801.1,441816
0.726,0.00308729,54002.9,34566.6,-26892.6,330994,77532.4,-44903.7,451263
0.728,0.00310172,54807.5,39466.3,-25078,338596,78896.8,-45006.2,460710
0.73,0.00311615,55612.1,44366.1,-23263.3,346199,80261.3,-45108.8,470157
0.732,0.00313059,56416.7,49265.8,-21448.8,353801,81625.7,-45211.4,479604
0.734,0.00314502,57221.3,54165.6,-19634.1,361404,82990.1,-45313.9,489051
0.736,0.00315945,58025.8,59065.2,-17819.5,369006,84354.6,-45416.5,498497
0.738,0.00317389,58830.4,63964.9,-16005,376609,85719,-45519.1,507944
0.74,0.00318828,56732.5,60567.8,-19545.5,377421,84681.5,-50050.3,500249
0.742,0.00320267,54544,56911.7,-23253.3,378022,83569.1,-54719.7,492019
0.744,0.00321706,52355.4,53255.4,-26961.2,378622,82456.6,-59389.3,483789
0.746,0.00323145,50166.9,49599.3,-30668.9,379222,81344.1,-64058.7,475559
0.748,0.00324599,52674.6,48449.2,-28788.2,376878,81375.8,-59069.7,468125
0.75,0.00326055,55515.6,47477,-26510.9,374325,81488.7,-53395.3,460747
0.752,0.00327511,58356.6,46504.9,-24233.6,371773,81601.6,-47720.9,453370
0.754,0.00328967,61197.6,45532.7,-21956.3,369220,81714.5,-42046.3,445993
0.756,0.00330444,60411.3,41839.9,-21485.8,366726,81947.5,-37040,439884
0.758,0.00331923,59388.7,37969.8,-21132.9,364237,82188.4,-32077.1,433859
0.76,0.00333403,58366.1,34099.8,-20780,361747,82429.2,-27114.3,427833
0.762,0.00334888,56950.7,31470.9,-20142.9,359072,82491.9,-23117.8,425753
0.764,0.00336384,54824.5,31088.1,-18991.2,356062,82232.5,-20869.9,430810
0.766,0.0033788,52698.3,30705.3,-17839.6,353051,81973,-18622.1,435868
0.768,0.00339376,50572,30322.5,-16688,350040,81713.5,-16374.1,440925
0.77,0.00340872,48445.8,29939.6,-15536.4,347030,81454,-14126.3,445983
0.772,0.00342368,46319.6,29556.8,-14384.7,344019,81194.5,-11878.4,451040
0.774,0.00343861,44610,28609.5,-13313.2,339073,80774.4,-9137.16,455976
0.776,0.00345348,43735.1,26531.2,-12402,330247,80032.3,-5407.57,460668
0.778,0.00346835,42860.2,24453,-11490.9,321421,79290.3,-1678.09,465360
0.78,0.00348323,41985.4,22374.8,-10579.8,312596,78548.2,2051.39,470052
0.782,0.0034981,41110.5,20296.6,-9668.65,303770,77806.1,5780.98,474745
0.784,0.00351297,40235.6,18218.4,-8757.53,294944,77064.1,9510.45,479437
0.786,0.00352784,39360.7,16140.2,-7846.39,286119,76322,13240,484129
0.788,0.00354271,38485.8,14062,-6935.27,277293,75580,16969.5,488821
0.79,0.00355759,37610.9,11983.7,-6024.13,268467,74837.9,20699.1,493513
0.792,0.00357248,36988.8,9991.87,-5214.68,259517,74031.8,24440.5,497007
0.794,0.00358776,40212.5,9313.81,-5952.29,248668,72250.4,28363.1,482264
0.796,0.00360304,43436.1,8635.77,-6689.87,237820,70469,32285.5,467522
0.798,0.00361832,46659.7,7957.73,-7427.45,226971,68687.7,36207.9,452779
0.8,0.0036336,49883.4,7279.67,-8165.05,216122,66906.3,40130.5,438036
0.802,0.00364888,53107.1,6601.64,-8902.63,205274,65125,44053,423294
0.804,0.00366416,56330.8,5923.58,-9640.23,194425,63343.6,47975.5,408551
0.806,0.00367944,59554.4,5245.54,-10377.8,183576,61562.3,51898,393809
0.808,0.00369472,62778.1,4567.48,-11115.4,172727,59780.9,55820.5,379066
0.81,0.00371007,65424.9,4135.6,-11237.1,169766,59178.5,58798.4,371778
0.812,0.00372549,67603.6,3903.44,-10859.2,173205,59532.8,61009.8,370538
0.814,0.00374091,69782.3,3671.28,-10481.2,176643,59887,63221.3,369298
0.816,0.00375633,71961.1,3439.12,-10103.2,180081,60241.2,65432.7,368058
0.818,0.00377175,74139.8,3206.96,-9725.24,183520,60595.5,67644.2,366818
0.82,0.00378718,76318.5,2974.8,-9347.27,186958,60949.7,69855.6,365578
0.822,0.0038026,78497.3,2742.64,-8969.29,190397,61304,72067.1,364338
0.824,0.00381802,80676,2510.48,-8591.32,193835,61658.2,74278.5,363098
0.826,0.00383344,82854.7,2278.33,-8213.35,197274,62012.4,76490,361858
0.828,0.00384886,85033.5,2046.16,-7835.37,200712,62366.7,78701.4,360618
0.83,0.00386428,87212.2,1814.01,-7457.4,204150,62720.9,80912.9,359378
0.832,0.0038797,89391,1581.84,-7079.42,207589,63075.1,83124.3,358138
0.834,0.00389512,91569.7,1349.69,-6701.45,211027,63429.4,85335.8,356898
0.836,0.00391054,93748.5,1117.52,-6323.47,214466,63783.6,87547.3,355658
0.838,0.00392596,95927.2,885.367,-5945.5,217904,64137.8,89758.7,354418
0.84,0.00394138,98105.9,653.211,-5567.53,221343,64492.1,91970.1,353178
0.842,0.00395675,99427.8,852.549,-5001.01,224469,65138,94005.1,352536
0.844,0.00397212,100678,1087.98,-4418.73,227569,65808.3,96025.4,351944
0.846,0.00398749,101928,1323.42,-3836.44,230669,66478.7,98045.6,351352
0.848,0.00400285,103178,1558.86,-3254.16,233769,67149,100066,350760
0.85,0.00401822,104429,1794.3,-2671.87,236869,67819.4,102086,350168
0.852,0.00403381,104211,1079.64,-1459.79,233575,67944.6,100295,350363
0.854,0.00404945,103693,171.138,-119.219,228976,67958.6,97725.5,350719
0.856,0.00406513,101424,-464.246,1115.66,223617,67928.2,93380.6,350723
0.858,0.00408085,96540.3,-692.183,2192.79,217124,67831.9,86387.3,350202
0.86,0.00409657,91656.7,-920.127,3269.96,210630,67735.5,79393.7,349680
0.862,0.0041123,86773.2,-1148.06,4347.09,204137,67639.1,72400.4,349159
0.864,0.00412802,81889.6,-1376.01,5424.26,197644,67542.7,65406.9,348637
0.866,0.00414388,78826.5,-1257.25,6023.22,195882,67498.3,61093.4,347916
0.868,0.00415982,76972.2,-908.232,6304.61,197262,67488.2,58559.6,347063
0.87,0.00417576,75118,-559.208,6586.01,198642,67478.2,56025.8,346209
0.872,0.00419171,73263.7,-210.194,6867.4,200022,67468.2,53492.1,345356
0.874,0.00420765,71409.5,138.83,7148.81,201401,67458.2,50958.2,344502
0.876,0.00422359,69555.2,487.844,7430.2,202781,67448.1,48424.5,343649
0.878,0.00423953,68183.2,1106.03,8020.67,205005,67364.1,46331.2,342403
0.88,0.00425547,66899.9,1773.7,8667.94,207384,67266.4,44319,341086
0.882,0.0042714,65616.5,2441.38,9315.23,209763,67168.7,42306.7,339769
0.884,0.00428734,64333.2,3109.04,9962.51,212141,67071,40294.5,338451
0.886,0.00430328,63049.9,3776.7,10609.8,214520,66973.3,38282.2,337134
0.888,0.00431922,61766.5,4444.38,11257.1,216899,66875.6,36270,335816
0.89,0.00433515,60483.2,5112.04,11904.4,219278,66778,34257.7,334499
0.892,0.00435109,59199.8,5779.72,12551.6,221657,66680.3,32245.5,333181
0.894,0.00436703,57916.5,6447.39,13198.9,224035,66582.6,30233.2,331864
0.896,0.00438296,56633.2,7115.07,13846.2,226414,66484.9,28221,330547
0.898,0.0043989,55349.9,7782.73,14493.5,228793,66387.2,26208.7,329229
0.9,0.00441484,54066.5,8450.39,15140.8,231172,66289.6,24196.5,327912
0.902,0.00443078,52783.2,9118.07,15788.1,233550,66191.9,22184.2,326594
0.904,0.00444689,49202.1,8467.6,15394.9,233814,67583.9,19593.1,329607
0.906,0.00446302,45428.2,7706.58,14914.5,233900,69100.8,16953.3,332982
0.908,0.00447915,41654.4,6945.58,14434.1,233985,70617.8,14313.6,336358
0.91,0.00449527,37880.5,6184.56,13953.7,234071,72134.7,11673.9,339733
0.912,0.0045114,34106.7,5423.57,13473.3,234157,73651.6,9034.16,343109
0.914,0.00452753,30332.9,4662.57,12992.9,234243,75168.6,6394.47,346484
0.916,0.00454366,26559.1,3901.56,12512.5,234329,76685.5,3754.7,349859
0.918,0.00455978,22785.3,3140.56,12032.1,234414,78202.4,1115.01,353235
0.92,0.00457606,20619.8,3156.31,11681.5,234109,79414.1,-473.419,355821
0.922,0.00459248,20182.9,4006.82,11470.4,233384,80297.6,-931.942,357559
0.924,0.00460891,19745.9,4857.36,11259.3,232659,81181.2,-1390.48,359297
0.926,0.00462534,19309,5707.88,11048.2,231933,82064.7,-1849,361035
0.928,0.00464177,18872.1,6558.39,10837.1,231208,82948.2,-2307.53,362773
0.93,0.00465816,19389.7,7139.82,10938.5,226720,83885.3,-2633.3,360240
0.932,0.00467455,19945.4,7710.48,11052.4,222082,84824.5,-2953.76,357537
0.934,0.00469095,20501.2,8281.15,11166.3,217444,85763.7,-3274.23,354833
0.936,0.00470734,21056.9,8851.81,11280.2,212806,86702.9,-3594.69,352129
0.938,0.00472373,21612.6,9422.48,11394.1,208168,87642.2,-3915.16,349426
0.94,0.00474012,22168.4,9993.14,11508,203530,88581.4,-4235.63,346722
0.942,0.00475651,22724.1,10563.8,11621.9,198892,89520.6,-4556.09,344018
0.944,0.00477291,23279.8,11134.5,11735.8,194254,90459.8,-4876.56,341315
0.946,0.0047893,23835.6,11705.1,11849.7,189616,91399,-5197.02,338611
0.948,0.00480569,24391.3,12275.8,11963.6,184978,92338.2,-5517.49,335907
0.95,0.00482208,24947,12846.5,12077.5,180340,93277.4,-5837.95,333204
0.952,0.00483848,25502.8,13417.1,12191.4,175702,94216.7,-6158.42,330500
0.954,0.00485487,26058.5,13987.8,12305.3,171064,95155.9,-6478.88,327796
0.956,0.00487126,26614.2,14558.4,12419.2,166426,96095.1,-6799.34,325093
0.958,0.0048877,30280.5,16630.5,13000.3,168601,98063.5,-2891.9,325876
0.96,0.00490421,37890.5,20606.1,14173.6,179413,101337,6376.02,331081
0.962,0.00492082,49985.4,27343.3,15708.1,209090,105936,21630.8,351346
0.964,0.00493754,67428.8,37374.1,17673.2,261267,112116,44025.3,389573
0.966,0.00495422,79518.4,43432.4,18809.6,296214,116038,60468.3,413938
0.968,0.00497076,74459.9,36767.5,17292.1,275979,112728,57848.3,393903
0.97,0.00498731,69401.2,30102.3,15774.4,255743,109419,55228.3,373868
0.972,0.00500386,64342.7,23437.4,14256.9,235507,106110,52608.4,353833
0.974,0.0050204,59284.2,16772.4,12739.3,215272,102800,49988.5,333798
0.976,0.005037,54522,11670.1,12136,201962,99419,48451.5,320677
0.978,0.00505361,49722.7,6844.65,11745.9,190146,95965.8,47126.2,309023
0.98,0.00507036,49195.9,6708.99,12167.7,189024,94530.4,48303.5,309025
0.982,0.0050871,48669.1,6573.34,12589.6,187903,93095,49480.8,309026
0.984,0.00510385,48142.2,6437.68,13011.5,186781,91659.6,50658.1,309028
0.986,0.00512059,47615.4,6302.03,13433.3,185659,90224.2,51835.4,309030
0.988,0.00513734,47088.6,6166.38,13855.2,184538,88788.9,53012.7,309032
0.99,0.00515409,46561.8,6030.73,14277.1,183416,87353.5,54190,309034
0.992,0.00517083,46035,5895.08,14699,182295,85918.1,55367.3,309036
0.994,0.00518758,45508.2,5759.42,15120.8,181173,84482.7,56544.6,309038
0.996,0.00520433,44981.4,5623.77,15542.7,180051,83047.3,57721.9,309040
0.998,0.00522107,44454.6,5488.12,15964.6,178930,81611.9,58899.3,309041
1,0.00523782,43927.8,5352.47,16386.5,177808,80176.5,60076.5,309043
1.002,0.00525457,43401,5216.82,16808.3,176687,78741.2,61253.8,309045
1.004,0.00527131,42874.2,5081.17,17230.2,175565,77305.8,62431.1,309047
1.006,0.00528806,42347.3,4945.51,17652.1,174444,75870.4,63608.5,309049
1.008,0.00530481,41820.5,4809.85,18073.9,173322,74435,64785.8,309051
1.01,0.00532155,41293.7,4674.2,18495.8,172200,72999.6,65963.1,309053
1.012,0.0053383,40766.9,4538.55,18917.7,171079,71564.3,67140.4,309055
1.014,0.00535505,40240.1,4402.9,19339.6,169957,70128.8,68317.7,309056
1.016,0.00537179,39713.3,4267.24,19761.4,168836,68693.5,69495,309058
1.018,0.00538854,39186.5,4131.59,20183.3,167714,67258.1,70672.3,309060
1.02,0.00540529,38659.7,3995.94,20605.2,166593,65822.7,71849.6,309062
1.022,0.00542203,38132.9,3860.29,21027,165471,64387.4,73026.9,309064
1.024,0.00543879,37528.8,3759.1,21484.5,164349,62976.8,74185.1,309175
1.026,0.00545547,37918.8,3214.45,21484.6,163233,61246.2,75590,307879
1.028,0.00547234,36216.6,1981.01,21315.8,161212,59791.5,72013.3,309524
1.03,0.00548931,34413.1,890.81,22304,159177,59109.7,67346.3,310349
1.032,0.00550628,32609.7,-199.386,23292.2,157142,58428,62679.3,311173
1.034,0.00552325,30806.2,-1289.65,24280.5,155107,57746.2,58012.1,311998
1.036,0.00554022,29002.8,-2379.84,25268.7,153072,57064.4,53345.1,312823
1.038,0.00555719,27199.3,-3470.04,26256.9,151037,56382.6,48678.1,313647
1.04,0.00557416,25395.9,-4560.24,27245.1,149002,55700.8,44011.1,314472
1.042,0.00559113,23592.4,-5650.5,28233.3,146966,55019,39343.8,315297
1.044,0.00560811,22506.8,-6250.2,29744.7,144041,54813.7,36042.4,314844
1.046,0.00562522,22549.3,-5815.42,30243.6,145626,55631.4,34714.2,309964
1.048,0.00564234,22587.4,-5374.87,30678.3,147413,56455.4,33372,305011
1.05,0.00565946,22625.5,-4934.32,31113.1,149200,57279.3,32029.7,300058
1.052,0.00567658,22663.6,-4493.74,31547.9,150987,58103.3,30687.4,295105
1.054,0.0056937,22701.7,-4053.19,31982.6,152773,58927.2,29345.1,290152
1.056,0.00571082,22739.8,-3612.64,32417.4,154560,59751.1,28002.9,285200
1.058,0.00572794,22777.9,-3172.09,32852.1,156347,60575,26660.6,280247
1.06,0.00574506,22816,-2731.54,33286.9,158134,61398.9,25318.4,275294
1.062,0.00576218,22854.2,-2290.96,33721.7,159921,62222.9,23976,270341
1.064,0.0057793,22892.3,-1850.41,34156.4,161708,63046.8,22633.8,265389
1.066,0.00579642,22930.4,-1409.86,34591.2,163495,63870.8,21291.5,260436
1.068,0.00581354,22968.5,-969.306,35025.9,165282,64694.7,19949.3,255483
1.07,0.00583066,23006.6,-528.729,35460.7,167069,65518.7,18606.9,250530
1.072,0.00584778,23044.7,-88.1776,35895.5,168856,66342.6,17264.7,245578
1.074,0.00586492,23101.5,689.09,35921,169409,66492.9,16383.8,238997
1.076,0.00588211,23211.2,2421.56,34785.8,166462,64732.3,16811.9,227801
1.078,0.00589931,23320.8,4154.02,33650.5,163515,62971.7,17239.9,216604
1.08,0.00591653,23088.1,5736.54,32837,160189,61278.9,17169.5,207182
1.082,0.00593385,22065.4,6411.68,33006.4,157095,60228,15578.2,206303
1.084,0.00595123,21764.5,6411.45,32923.2,156752,59891.2,14381.9,209541
1.086,0.00596861,21463.6,6411.22,32840,156409,59554.4,13185.6,212778
1.088,0.00598599,21162.6,6410.99,32756.8,156065,59217.5,11989.2,216016
1.09,0.00600337,20861.7,6410.76,32673.5,155722,58880.7,10792.9,219254
1.092,0.00602075,20560.8,6410.53,32590.3,155379,58543.8,9596.61,222492
1.094,0.00603813,20259.8,6410.3,32507.1,155036,58207,8400.29,225730
1.096,0.00605551,19958.9,6410.07,32423.9,154692,57870.1,7203.98,228967
1.098,0.00607289,19658,6409.84,32340.7,154349,57533.3,6007.6,232205
1.1,0.00609027,19357,6409.61,32257.5,154006,57196.4,4811.28,235443
1.102,0.00610765,19056.1,6409.38,32174.3,153662,56859.6,3614.97,238681
1.104,0.00612503,18755.2,6409.15,32091,153319,56522.8,2418.66,241919
1.106,0.00614241,18454.2,6408.91,32007.8,152976,56185.9,1222.34,245156
1.108,0.00615979,18891,6436.78,31167.6,151773,55713.1,726.661,246757
1.11,0.00617718,19633.2,6476.28,30013.9,150213,55184.1,521.143,247680
1.112,0.00619457,20375.5,6515.77,28860.3,148654,54655,315.626,248603
1.114,0.00621195,21117.7,6555.27,27706.6,147095,54125.9,110.109,249526
1.116,0.00622934,21860,6594.77,26552.9,145535,53596.8,-95.4211,250449
1.118,0.00624672,22602.2,6634.27,25399.2,143976,53067.8,-300.938,251372
1.12,0.00626411,23344.4,6673.76,24245.6,142417,52538.7,-506.456,252294
1.122,0.0062816,23749.3,7580.01,21905.1,140254,52409,1286.85,249562
1.124,0.0062991,24086.3,8660.45,19326.1,137969,52359.7,3481.87,246094
1.126,0.00631661,24423.4,9740.96,16747,135684,52310.3,5677.02,242626
1.128,0.00633411,24760.5,10821.4,14168,133400,52260.9,7872.04,239159
1.13,0.00635162,25097.6,11901.8,11589,131115,52211.5,10067.1,235691
1.132,0.00636912,25434.6,12982.3,9009.99,128830,52162.1,12262.1,232223
1.134,0.00638667,25522,13726.7,7404.92,126524,52339.3,14159.1,229093
1.136,0.00640427,25239.2,13972.8,7243.7,124185,52852.2,15614.5,226464
1.138,0.00642187,24956.4,14218.9,7082.49,121846,53365.2,17069.8,223835
1.14,0.00643946,24833.2,14074.1,6798.32,120244,52903.6,17016.5,220440
1.142,0.00645704,24738.6,13859.3,6492.13,118775,52267.5,16693.2,216908
1.144,0.00647463,24643.9,13644.5,6185.92,117305,51631.3,16369.8,213376
1.146,0.00649222,24549.3,13429.7,5879.74,115836,50995.2,16046.4,209845
1.148,0.00650981,24454.6,13214.9,5573.55,114366,50359.1,15723.1,206313
1.15,0.0065274,24360,13000.1,5267.36,112897,49723,15399.7,202781
1.152,0.00654499,24265.3,12785.3,4961.17,111427,49086.9,15076.4,199249
1.154,0.00656258,24170.6,12570.5,4654.97,109957,48450.8,14753,195717
1.156,0.00658017,24076,12355.7,4348.78,108488,47814.7,14429.6,192185
1.158,0.00659775,23981.3,12140.9,4042.59,107018,47178.6,14106.3,188653
1.16,0.00661534,23886.7,11926.1,3736.41,105549,46542.5,13782.9,185121
1.162,0.00663293,23792,11711.3,3430.22,104079,45906.4,13459.5,181590
1.164,0.00665052,23697.4,11496.5,3124.02,102610,45270.3,13136.2,178058
1.166,0.00666811,23602.7,11281.7,2817.83,101140,44634.2,12812.8,174526
1.168,0.0066857,23394.2,11139.5,2461.29,100248,43936.4,12532.3,171451
1.17,0.0067033,22907.7,11174.6,1981.79,100766,43088.2,12356.3,169494
1.172,0.0067209,22421.1,11209.7,1502.26,101284,42239.9,12180.3,167537
1.174,0.0067385,21934.6,11244.8,1022.76,101802,41391.6,12004.3,165580
1.176,0.0067561,21448,11279.9,543.255,102319,40543.3,11828.3,163623
1.178,0.00677374,20313.7,10965.3,174.042,101407,39583.3,10762.2,161452
1.18,0.00679149,17675,9838.56,60.9428,97174,38363.6,7628.93,158787
1.182,0.00680924,15036.2,8711.72,-52.1626,92940.6,37143.9,4495.51,156121
1.184,0.00682699,12397.5,7584.96,-165.261,88707.4,35924.2,1362.28,153455
1.186,0.00684474,9758.79,6458.19,-278.36,84474.2,34704.5,-1770.95,150789
1.188,0.00686249,7120.12,5331.42,-391.459,80241,33484.8,-4904.19,148124
1.19,0.00688028,7073.86,5204.34,-291.741,80665.1,33462.5,-4680.26,147468
1.192,0.00689808,7619.27,5305.42,-143.461,82152,33713.5,-3690.16,147271
1.194,0.00691588,8164.67,5406.5,4.82013,83638.9,33964.5,-2700.05,147075
1.196,0.00693368,8710.08,5507.58,153.101,85125.9,34215.5,-1709.94,146878
1.198,0.00695148,9255.49,5608.66,301.382,86612.8,34466.4,-719.839,146681
1.2,0.00696928,9800.93,5709.75,449.671,88099.9,34717.4,270.325,146485
1.202,0.00698708,10346.3,5810.83,597.952,89586.8,34968.4,1260.43,146288
1.204,0.00700488,10891.7,5911.91,746.233,91073.8,35219.4,2250.54,146091
1.206,0.00702268,11437.2,6012.99,894.513,92560.7,35470.4,3240.64,145894
1.208,0.00704048,11982.6,6114.07,1042.79,94047.6,35721.3,4230.75,145698
1.21,0.00705828,12528,6215.16,1191.08,95534.7,35972.3,5220.91,145501
1.212,0.00707608,13073.4,6316.24,1339.36,97021.6,36223.3,6211.02,145304
1.214,0.00709388,13618.8,6417.32,1487.65,98508.6,36474.3,7201.12,145108
1.216,0.00711169,14128.4,6857.79,1747.28,100700,36738.8,8789.41,145702
1.218,0.00712953,14594.7,7709.66,2141.89,103745,37019.8,11102.9,147254
1.22,0.00714736,16723.3,8531.52,2570.12,107678,37783,14077.5,148998
1.222,0.0071652,20042.3,9331.92,3022.44,112248,38891.5,17525.6,150878
1.224,0.00718303,23361.3,10132.3,3474.76,116818,40000,20973.7,152758
1.226,0.00720086,26680.3,10932.7,3927.08,121388,41108.5,24421.8,154639
1.228,0.0072187,29999.4,11733.2,4379.42,125958,42217.1,27870.1,156519
1.23,0.00723653,33318.4,12533.6,4831.74,130528,43325.6,31318.2,158399
1.232,0.00725441,36086.1,12960.2,4849.86,132682,44197.9,33749.9,158508
1.234,0.00727238,37820,12686,4053.69,130305,44627.2,34275.3,155295
1.236,0.00729035,38358.9,12384,3501.12,127546,44857,34439.8,153537
1.238,0.0073083,37583.8,12051.7,3216.38,124366,44867.5,34207.5,153380
1.24,0.00732626,36808.8,11719.3,2931.66,121186,44877.9,33975.2,153223
1.242,0.00734421,36033.7,11386.9,2646.94,118006,44888.3,33742.8,153067
1.244,0.00736217,35258.7,11054.6,2362.21,114826,44898.8,33510.5,152910
1.246,0.00738012,34483.6,10722.2,2077.47,111645,44909.2,33278.1,152753
1.248,0.00739808,33708.5,10389.9,1792.75,108465,44919.7,33045.8,152596
1.25,0.00741603,32933.5,10057.5,1508.03,105285,44930.1,32813.4,152440
1.252,0.00743399,32158.4,9725.15,1223.3,102105,44940.6,32581.1,152283
1.254,0.00745194,31383.4,9392.8,938.581,98925.3,44951,32348.8,152126
1.256,0.0074699,30608.3,9060.42,653.841,95745.1,44961.5,32116.4,151969
1.258,0.00748786,29833.2,8728.07,369.118,92565.1,44971.9,31884.1,151813
1.26,0.00750583,29632.5,8451.52,127.038,90597.1,44790.8,31870.3,153461
1.262,0.00752381,29621,8193.35,-101,89028.1,44546.5,31928.6,155705
1.264,0.00754179,29609.4,7935.16,-329.051,87459.1,44302.3,31986.9,157948
1.266,0.00755977,29597.9,7676.99,-557.089,85890.2,44058,32045.2,160192
1.268,0.00757775,29586.3,7418.82,-785.127,84321.3,43813.8,32103.5,162435
1.27,0.00759573,29574.7,7160.64,-1013.16,82752.3,43569.5,32161.8,164678
1.272,0.00761371,29563.2,6902.47,-1241.2,81183.4,43325.3,32220.1,166922
1.274,0.00763169,29551.6,6644.28,-1469.25,79614.4,43081,32278.3,169165
1.276,0.00764976,29659.4,6004.52,-1665.68,79610.9,41897,32746.7,170842
1.278,0.00766784,29786.8,5301.71,-1856.89,79866,40557.6,33282.8,172426
1.28,0.00768592,29914.3,4598.9,-2048.1,80121.2,39218.3,33818.9,174010
1.282,0.00770401,30041.8,3896.09,-2239.3,80376.4,37879,34355.1,175593
1.284,0.00772209,30169.2,3193.23,-2430.52,80631.6,36539.6,34891.2,177177
1.286,0.00774018,30296.7,2490.42,-2621.73,80886.7,35200.2,35427.3,178761
1.288,0.00775826,30424.2,1787.61,-2812.94,81141.9,33860.9,35963.5,180344
1.29,0.00777634,30551.6,1084.8,-3004.14,81397.1,32521.6,36499.6,181928
1.292,0.00779448,30738.5,1007.85,-3159.55,81793.2,31908.5,36569.8,181422
1.294,0.00781264,30942.8,1115.08,-3304.42,82230.7,31509.2,36503,180301
1.296,0.00783081,30483.5,1319.45,-3013.13,80996.6,31109.4,35465.4,178952
1.298,0.00784897,29968.6,1531.96,-2685.34,79622.6,30709.4,34346.7,177584
1.3,0.00786715,29453.7,1744.47,-2357.56,78248.6,30309.5,33227.9,176216
1.302,0.00788532,28938.8,1956.99,-2029.75,76874.5,29909.6,32109.1,174848
1.304,0.00790349,28424,2169.5,-1701.97,75500.5,29509.6,30990.4,173479
1.306,0.00792166,27909.1,2382.01,-1374.18,74126.5,29109.7,29871.6,172111
1.308,0.00793983,27394.2,2594.52,-1046.4,72752.5,28709.8,28752.9,170743
1.31,0.007958,26879.4,2807.02,-718.613,71378.5,28309.8,27634.1,169375
1.312,0.00797617,26364.5,3019.54,-390.808,70004.4,27909.9,26515.3,168007
1.314,0.00799434,25849.6,3232.05,-63.0227,68630.4,27509.9,25396.6,166639
1.316,0.00801251,25334.8,3444.56,264.763,67256.4,27110,24277.8,165271
1.318,0.00803068,24819.9,3657.07,592.548,65882.4,26710.1,23159.1,163903
1.32,0.00804885,24305,3869.59,920.353,64508.3,26310.1,22040.3,162535
1.322,0.00806702,23906.9,4114.71,1224.57,63862.1,26008.6,21126.9,160594
1.324,0.00808517,23858.8,4457.56,1458.16,65397.1,26001.8,20829.2,156937
1.326,0.00810333,23810.6,4800.42,1691.75,66932.2,25995,20531.5,153280
1.328,0.00812148,23762.5,5143.27,1925.34,68467.3,25988.2,20233.8,149623
1.33,0.00813964,23714.4,5486.15,2158.94,70002.5,25981.4,19936,145965
1.332,0.0081578,23666.3,5829,2392.53,71537.5,25974.6,19638.3,142308
1.334,0.00817595,23618.1,6171.86,2626.12,73072.6,25967.8,19340.6,138651
1.336,0.00819411,23570,6514.71,2859.71,74607.7,25961,19042.9,134993
1.338,0.00821226,23521.9,6857.59,3093.31,76142.9,25954.2,18745.1,131336
1.34,0.00823042,23473.7,7200.45,3326.9,77677.9,25947.4,18447.4,127679
1.342,0.0082486,23263.5,7269.89,3622.88,76817.1,26113.2,18142.4,124232
1.344,0.00826684,22799.5,6911.52,4016.5,72207.4,26549.1,17825.8,121115
1.346,0.00828507,22335.5,6553.16,4410.12,67597.6,26985,17509.3,117999
1.348,0.0083033,21871.5,6194.77,4803.77,62987.6,27420.9,17192.7,114882
1.35,0.00832153,21407.5,5836.4,5197.39,58377.8,27856.8,16876.2,111765
1.352,0.00833976,20943.6,5478.03,5591.01,53768.1,28292.7,16559.6,108648
1.354,0.00835799,20479.6,5119.67,5984.63,49158.3,28728.6,16243.1,105531
1.356,0.00837622,20015.6,4761.3,6378.25,44548.6,29164.5,15926.5,102415
1.358,0.00839446,19551.6,4402.91,6771.89,39938.5,29600.4,15610,99297.6
1.36,0.00841272,19287.8,4214.49,7194.49,37641.4,30138.7,16071.9,99557.9
1.362,0.00843102,19146.9,4130.49,7634.89,36765.3,30740,17012.1,101893
1.364,0.00844931,19006,4046.49,8075.29,35889.2,31341.2,17952.4,104229
1.366,0.00846761,18827.9,3984.25,8392.89,35267.9,31826.4,18515.6,105712
1.368,0.00848593,18576.3,3964.95,8468.09,35149.5,32082.4,18334.8,105514
1.37,0.00850425,18324.7,3945.65,8543.29,35031.1,32338.3,18154.1,105315
1.372,0.00852257,18073.2,3926.36,8618.48,34912.6,32594.3,17973.3,105116
1.374,0.00854089,17821.6,3907.06,8693.68,34794.2,32850.2,17792.5,104918
1.376,0.00855922,17570,3887.76,8768.88,34675.8,33106.2,17611.7,104719
1.378,0.00857754,17318.5,3868.46,8844.08,34557.4,33362.2,17430.9,104521
1.38,0.00859586,17066.9,3849.16,8919.28,34438.9,33618.1,17250.2,104322
1.382,0.00861418,16815.3,3829.86,8994.47,34320.5,33874.1,17069.4,104123
1.384,0.0086325,16563.8,3810.56,9069.67,34202.1,34130,16888.6,103925
1.386,0.00865082,16312.2,3791.26,9144.87,34083.7,34386,16707.8,103726
1.388,0.00866914,16060.6,3771.97,9220.07,33965.3,34642,16527,103528
1.39,0.00868746,15809.1,3752.67,9295.27,33846.8,34897.9,16346.2,103329
1.392,0.00870578,15557.5,3733.37,9370.46,33728.4,35153.9,16165.5,103130
1.394,0.00872411,15369.1,3711.92,9399.07,33740.8,35362.3,15962.3,102776
1.396,0.00874249,15706.3,3672.63,9039.84,34842.3,35175.2,15573,101128
1.398,0.00876088,16043.5,3633.34,8680.61,35943.8,34988,15183.7,99479.5
1.4,0.00877926,16380.7,3594.05,8321.38,37045.3,34800.9,14794.3,97831.1
1.402,0.00879767,16708.7,3784.32,7456.52,39956.1,34570.5,15241.3,99630
1.404,0.00881608,17035.5,4005.56,6523.47,43110.8,34334.3,15801,101894
1.406,0.00883448,17362.3,4226.77,5590.47,46265.4,34098.1,16360.7,104157
1.408,0.00885289,17689.1,4447.99,4657.47,49420,33861.8,16920.4,106421
1.41,0.0088713,18015.8,4669.21,3724.47,52574.6,33625.6,17480.1,108685
1.412,0.00888971,18342.6,4890.43,2791.48,55729.2,33389.4,18039.8,110948
1.414,0.00890812,18669.4,5111.66,1858.42,58883.9,33153.2,18599.5,113212
1.416,0.00892656,18786.1,5231.26,1298.06,60120.8,32865.5,18820.9,114034
1.418,0.00894502,18734.7,5269.53,1035.94,59823,32536.5,18771.5,113703
1.42,0.00896348,18683.3,5307.8,773.823,59525.1,32207.5,18722.2,113372
1.422,0.00898194,18631.9,5346.07,511.688,59227.2,31878.5,18672.8,113041
1.424,0.00900041,18580.5,5384.34,249.568,58929.3,31549.6,18623.4,112710
1.426,0.00901887,18529.1,5422.62,-12.5508,58631.4,31220.6,18574.1,112379
1.428,0.00903733,18305,5410.93,-277.702,57841.9,30829.7,18432.3,111664
1.43,0.00905578,17634.7,5270.25,-550.682,55782.8,30278.7,18052,109955
1.432,0.00907423,16964.4,5129.55,-823.678,53723.6,29727.6,17671.6,108247
1.434,0.00909268,16294.2,4988.87,-1096.66,51664.6,29176.6,17291.3,106538
1.436,0.00911113,15623.9,4848.18,-1369.64,49605.5,28625.6,16910.9,104830
1.438,0.00912958,14953.6,4707.5,-1642.62,47546.4,28074.6,16530.6,103121
1.44,0.00914803,14283.3,4566.8,-1915.61,45487.2,27523.5,16150.2,101413
1.442,0.00916648,13613.1,4426.12,-2188.59,43428.1,26972.5,15769.8,99704.3
1.444,0.00918493,12975.5,4302.21,-2448.34,41541.9,26436.2,15401,98067.7
1.446,0.00920338,12787.1,4408.42,-2526.58,42025.5,26102.1,15190,97416.7
1.448,0.00922183,12598.6,4514.63,-2604.82,42509.1,25767.9,14979.1,96765.6
1.45,0.00924028,12410.1,4620.85,-2683.06,42992.7,25433.8,14768.1,96114.6
1.452,0.00925873,12221.6,4727.05,-2761.31,43476.3,25099.6,14557.1,95463.6
1.454,0.00927718,12033.1,4833.26,-2839.55,43959.9,24765.5,14346.2,94812.5
1.456,0.00929563,11844.6,4939.47,-2917.79,44443.5,24431.4,14135.2,94161.5
1.458,0.00931408,11656.1,5045.68,-2996.03,44927.1,24097.2,13924.2,93510.5
1.46,0.00933254,11467.6,5151.9,-3074.27,45410.8,23763.1,13713.3,92859.5
1.462,0.00935099,11279.1,5258.1,-3152.52,45894.4,23428.9,13502.3,92208.4
1.464,0.00936944,11090.6,5364.31,-3230.76,46378,23094.8,13291.3,91557.4
1.466,0.00938789,10902.1,5470.52,-3309,46861.6,22760.6,13080.4,90906.4
1.468,0.00940634,10713.6,5576.74,-3387.24,47345.2,22426.5,12869.4,90255.3
1.47,0.00942479,10525.1,5682.94,-3465.48,47828.8,22092.3,12658.4,89604.3
1.472,0.00944324,10336.6,5789.15,-3543.72,48312.4,21758.2,12447.5,88953.3
1.474,0.00946169,10148.1,5895.36,-3621.97,48796,21424.1,12236.5,88302.3
1.476,0.00948014,9959.6,6001.57,-3700.21,49279.6,21089.9,12025.5,87651.3
1.478,0.0094986,9771.1,6107.78,-3778.45,49763.3,20755.8,11814.5,87000.2
1.48,0.00951708,9549.26,5941.34,-3400.47,48710.3,20836.8,11243.7,85880.3
1.482,0.00953558,9303.46,5578.95,-2694.64,46553.1,21216.3,10414.3,84423.5
1.484,0.00955409,9057.66,5216.56,-1988.8,44395.9,21595.7,9584.84,82966.6
1.486,0.0095726,8811.87,4854.18,-1282.97,42238.7,21975.1,8755.4,81509.8
1.488,0.00959111,8566.05,4491.77,-577.09,40081.3,22354.6,7925.91,80052.9
1.49,0.00960961,8320.25,4129.38,128.746,37924.1,22734,7096.47,78596
1.492,0.00962812,8074.46,3767,834.581,35766.9,23113.5,6267.03,77139.2
1.494,0.00964662,7828.66,3404.61,1540.42,33609.7,23492.9,5437.6,75682.4
1.496,0.00966515,7644.48,3283.13,2227.73,33161.7,23584.4,4883.51,75462.7
1.498,0.00968369,7499.36,3314.27,2903.24,33796.5,23493.4,4503.91,76026.8
1.5,0.00970223,7354.24,3345.41,3578.75,34431.3,23402.5,4124.31,76590.9
1.502,0.00972077,7209.12,3376.55,4254.27,35066.1,23311.5,3744.7,77155
1.504,0.00973931,7071.9,3416.69,4890.37,35701.3,23211.3,3383.34,77610.3
1.506,0.0097579,7083.57,3626.27,4783.75,36343.7,22936.1,3365.81,76014.7
1.508,0.00977649,7095.23,3835.84,4677.14,36985.9,22660.9,3348.27,74419.2
1.51,0.00979508,7106.9,4045.42,4570.53,37628.2,22385.6,3330.74,72823.7
1.512,0.00981367,7118.57,4254.99,4463.92,38270.5,22110.4,3313.21,71228.2
1.514,0.00983226,7130.24,4464.58,4357.3,38912.8,21835.2,3295.67,69632.6
1.516,0.00985084,7089.92,4476.48,4166.11,38083.6,21618.4,3637.9,68293.4
1.518,0.00986941,7039.67,4450.65,3958.78,36973.7,21412.7,4048.79,67003.1
1.52,0.00988798,6989.42,4424.82,3751.45,35863.8,21207,4459.69,65712.8
1.522,0.00990655,6939.17,4399,3544.12,34753.8,21001.3,4870.58,64422.5
1.524,0.00992513,6888.92,4373.17,3336.78,33643.8,20795.7,5281.49,63132.2
1.526,0.0099437,6838.68,4347.34,3129.45,32533.9,20590,5692.38,61841.9
1.528,0.00996227,6788.43,4321.52,2922.12,31423.9,20384.3,6103.27,60551.6
1.53,0.00998084,6738.18,4295.69,2714.79,30314,20178.6,6514.16,59261.3
1.532,0.00999942,6694.45,4278.48,2517.84,29288.8,19972.5,6886.35,58025.4
1.534,0.010018,6752.34,4395.64,2482.82,29585.3,19758.8,6654.6,57637.9
1.536,0.0100365,6810.22,4512.8,2447.8,29881.8,19545.2,6422.86,57250.3
1.538,0.0100551,6868.1,4629.96,2412.78,30178.3,19331.5,6191.12,56862.8
1.54,0.0100737,6925.99,4747.12,2377.76,30474.8,19117.9,5959.38,56475.3
1.542,0.0100922,6983.87,4864.28,2342.74,30771.3,18904.2,5727.63,56087.7
1.544,0.0101108,7041.76,4981.44,2307.73,31067.8,18690.6,5495.89,55700.2
1.546,0.0101294,7099.64,5098.6,2272.71,31364.3,18476.9,5264.16,55312.6
1.548,0.0101479,7157.52,5215.76,2237.69,31660.8,18263.3,5032.42,54925.1
1.55,0.0101665,7215.41,5332.92,2202.67,31957.3,18049.6,4800.68,54537.6
1.552,0.0101851,7273.29,5450.08,2167.65,32253.8,17836,4568.93,54150
1.554,0.0102037,7274.52,5468.11,2251.77,32249.5,17753.6,4710.77,54085.4
1.556,0.0102223,7242.47,5427.92,2405.86,32068.7,17748.3,5072.02,54210.5
1.558,0.0102409,7210.43,5387.73,2559.95,31887.8,17743,5433.26,54335.6
1.56,0.0102595,7178.38,5347.53,2714.04,31706.9,17737.8,5794.51,54460.7
1.562,0.0102781,7146.33,5307.34,2868.14,31526,17732.5,6155.78,54585.8
1.564,0.0102967,7114.28,5267.15,3022.22,31345.1,17727.2,6517.03,54710.8
1.566,0.0103153,7082.23,5226.95,3176.31,31164.2,17721.9,6878.27,54835.9
1.568,0.010334,7050.19,5186.76,3330.4,30983.3,17716.6,7239.52,54961
1.57,0.0103526,7018.14,5146.57,3484.5,30802.4,17711.3,7600.79,55086.1
1.572,0.0103712,6986.09,5106.37,3638.59,30621.5,17706,7962.04,55211.2
1.574,0.0103898,6954.04,5066.18,3792.68,30440.6,17700.8,8323.28,55336.3
1.576,0.0104084,7051.87,5009.11,4127.46,30292.2,17631.5,8499.33,55274.3
1.578,0.0104271,7259.87,4937.71,4615.51,30171.5,17508,8518.3,55053.8
1.58,0.0104457,7467.87,4866.31,5103.59,30050.7,17384.5,8537.26,54833.2
1.582,0.0104643,7675.87,4794.92,5591.64,29930,17261,8556.23,54612.6
1.584,0.010483,7883.86,4723.52,6079.69,29809.2,17137.5,8575.19,54392
1.586,0.0105016,8091.86,4652.13,6567.74,29688.4,17014,8594.16,54171.5
1.588,0.0105202,8299.87,4580.73,7055.82,29567.7,16890.5,8613.12,53950.9
1.59,0.0105389,8507.86,4509.34,7543.87,29446.9,16767,8632.09,53730.3
1.592,0.0105575,8715.86,4437.94,8031.92,29326.2,16643.5,8651.05,53509.8
1.594,0.0105761,8761.6,4387.15,8024.9,29125.2,16609.4,8795.71,53515.8
1.596,0.0105948,8772.61,4340.77,7911.91,28907,16594.4,8967.26,53570.4
1.598,0.0106134,8783.63,4294.39,7798.93,28688.7,16579.3,9138.82,53625
1.6,0.0106321,8794.64,4248.01,7685.94,28470.5,16564.3,9310.38,53679.6
1.602,0.0106507,8805.66,4201.63,7572.96,28252.3,16549.3,9481.93,53734.1
1.604,0.0106693,8816.68,4155.25,7459.98,28034.1,16534.3,9653.48,53788.7
1.606,0.010688,8584.55,4115.77,7261.5,26844.9,16406.3,9477.95,52921.4
1.608,0.0107067,8190.53,4080.87,7006.1,25009.2,16203.1,9071.32,51440.2
1.61,0.0107253,7796.54,4045.98,6750.7,23173.6,15999.8,8664.72,49959
1.612,0.010744,7402.55,4011.08,6495.31,21338,15796.6,8258.12,48477.9
1.614,0.0107626,7008.56,3976.19,6239.92,19502.4,15593.4,7851.52,46996.8
1.616,0.0107813,6614.55,3941.29,5984.51,17666.6,15390.2,7444.9,45515.6
1.618,0.0108,6220.56,3906.39,5729.12,15831,15187,7038.3,44034.5
1.62,0.0108186,5826.57,3871.5,5473.73,13995.4,14983.8,6631.7,42553.4
1.622,0.0108373,5692.05,3850.86,5282.89,13076.9,14863.2,6453.88,41701.6
1.624,0.010856,5851.14,3846.36,5165.08,13196.1,14836.2,6534.93,41561.9
1.626,0.0108746,6010.23,3841.86,5047.26,13315.3,14809.1,6615.99,41422.1
1.628,0.0108933,6169.31,3837.35,4929.46,13434.4,14782.1,6697.04,41282.4
1.63,0.010912,6328.4,3832.85,4811.65,13553.6,14755.1,6778.08,41142.7
1.632,0.0109306,6487.48,3828.35,4693.84,13672.8,14728.1,6859.13,41002.9
1.634,0.0109493,6646.57,3823.84,4576.03,13792,14701,6940.18,40863.2
1.636,0.010968,6805.66,3819.34,4458.22,13911.1,14674,7021.24,40723.4
1.638,0.0109866,6964.75,3814.84,4340.41,14030.3,14647,7102.29,40583.7
1.64,0.0110053,7123.83,3810.34,4222.6,14149.5,14620,7183.34,40444
1.642,0.011024,7282.92,3805.83,4104.8,14268.7,14592.9,7264.39,40304.2
1.644,0.0110426,7442.01,3801.33,3986.98,14387.9,14565.9,7345.44,40164.5
1.646,0.0110613,7601.09,3796.83,3869.17,14507,14538.9,7426.49,40024.8
1.648,0.01108,7760.18,3792.33,3751.37,14626.2,14511.9,7507.54,39885
1.65,0.0110986,7919.26,3787.82,3633.56,14745.4,14484.8,7588.59,39745.3
1.652,0.0111173,8078.35,3783.32,3515.75,14864.6,14457.8,7669.64,39605.6
1.654,0.011136,8237.44,3778.82,3397.94,14983.7,14430.8,7750.69,39465.8
1.656,0.0111547,8323.21,3817.86,3248.21,15113.9,14390,7844.89,39209.2
1.658,0.0111734,8346.83,3673.7,2911.18,14565.3,14401.8,7920.55,38643.6
1.66,0.011192,8210.75,3437.18,2642.01,13724.4,14406.2,7755.13,37946.1
1.662,0.0112107,8074.67,3200.67,2372.85,12883.4,14410.7,7589.71,37248.7
1.664,0.0112294,7938.59,2964.14,2103.67,12042.5,14415.1,7424.29,36551.2
1.666,0.0112481,7802.51,2727.62,1834.5,11201.5,14419.5,7258.87,35853.7
1.668,0.0112668,7666.43,2491.11,1565.34,10360.6,14424,7093.45,35156.3
1.67,0.0112855,7530.35,2254.59,1296.17,9519.68,14428.4,6928.03,34458.8
1.672,0.0113042,7394.27,2018.06,1026.99,8678.71,14432.9,6762.6,33761.3
1.674,0.0113229,7258.19,1781.54,757.826,7837.78,14437.3,6597.18,33063.9
1.676,0.0113416,6837.53,1380.46,609.606,6475.99,14428.6,6002.15,32131.5
1.678,0.0113603,6909.73,1266.02,511.803,6214.75,14400.2,5931.12,32338.6
1.68,0.011379,6997.52,1160.64,412.688,5986.12,14371.6,5879.15,32573.5
1.682,0.0113977,7085.33,1055.25,313.567,5757.48,14343,5827.17,32808.4
1.684,0.0114164,7173.12,949.867,214.452,5528.86,14314.4,5775.2,33043.3
1.686,0.0114351,7260.92,844.485,115.337,5300.23,14285.8,5723.23,33278.2
1.688,0.0114538,7347.49,731.408,11.9494,5116.49,14235.5,5672.14,33547.4
1.69,0.0114725,7433.37,614.062,-93.811,4957.6,14173,5621.53,33835.8
1.692,0.0114912,7519.25,496.723,-199.565,4798.72,14110.6,5570.93,34124.1
1.694,0.0115099,7605.13,379.384,-305.319,4639.83,14048.2,5520.33,34412.4
1.696,0.0115286,7691.01,262.044,-411.073,4480.95,13985.7,5469.73,34700.7
1.698,0.0115473,7776.89,144.705,-516.827,4322.07,13923.3,5419.13,34989
1.7,0.011566,7862.78,27.3589,-622.588,4163.18,13860.9,5368.52,35277.3
1.702,0.0115847,7948.66,-89.9802,-728.342,4004.3,13798.4,5317.92,35565.6
1.704,0.0116034,8034.54,-207.319,-834.096,3845.42,13736,5267.32,35853.9
1.706,0.0116221,8120.42,-324.659,-939.85,3686.53,13673.6,5216.72,36142.2
1.708,0.0116407,8190.83,-421.162,-1033.95,3534.09,13624.8,5152.54,36376.4
1.71,0.0116594,8185.12,-415.137,-1070.7,3413.36,13643.1,5021.52,36344.3
1.712,0.0116782,8194.25,-390.416,-1108.31,3331.77,13648.8,4919.97,36327.3
1.714,0.0116969,8279.85,-269.424,-1150.39,3451.8,13589.4,4970.1,36388.2
1.716,0.0117156,8365.45,-148.432,-1192.47,3571.83,13530,5020.24,36449.2
1.718,0.0117343,8451.05,-27.4326,-1234.56,3691.86,13470.6,5070.38,36510.2
1.72,0.011753,8536.65,93.5595,-1276.64,3811.89,13411.2,5120.51,36571.2
1.722,0.0117718,8622.25,214.552,-1318.72,3931.91,13351.8,5170.65,36632.1
1.724,0.0117905,8707.85,335.544,-1360.81,4051.94,13292.4,5220.78,36693.1
1.726,0.0118092,8776.28,453.365,-1400.78,4184.47,13229.7,5258.51,36707.5
1.728,0.0118279,8659.29,536.945,-1417.93,4452.13,13130.7,5162.25,36218.4
1.73,0.0118466,8542.29,620.519,-1435.07,4719.76,13031.7,5066,35729.4
1.732,0.0118654,8425.3,704.094,-1452.22,4987.39,12932.7,4969.74,35240.4
1.734,0.0118841,8308.31,787.669,-1469.37,5255.03,12833.7,4873.49,34751.4
1.736,0.0119028,8191.31,871.243,-1486.52,5522.66,12734.7,4777.23,34262.4
1.738,0.0119215,8074.32,954.823,-1503.66,5790.31,12635.7,4680.97,33773.4
1.74,0.0119402,7957.32,1038.4,-1520.81,6057.95,12536.7,4584.72,33284.4
1.742,0.011959,7840.33,1121.97,-1537.96,6325.58,12437.8,4488.46,32795.4
1.744,0.0119777,7723.34,1205.55,-1555.11,6593.22,12338.8,4392.21,32306.4
1.746,0.0119964,7606.34,1289.13,-1572.25,6860.87,12239.8,4295.94,31817.4
1.748,0.0120151,7489.35,1372.7,-1589.4,7128.5,12140.8,4199.69,31328.4
1.75,0.0120338,7372.35,1456.28,-1606.55,7396.14,12041.8,4103.43,30839.4
1.752,0.0120526,7255.36,1539.85,-1623.7,7663.77,11942.8,4007.18,30350.4
1.754,0.0120713,7138.37,1623.42,-1640.84,7931.4,11843.8,3910.92,29861.4
1.756,0.01209,7021.37,1707,-1657.99,8199.05,11744.8,3814.66,29372.4
1.758,0.0121087,6897.99,1786.28,-1676.61,8444.53,11645.6,3720.92,28889.6
1.76,0.0121274,6579.2,1733.87,-1740.2,8011.65,11538.8,3704.17,28599
1.762,0.0121461,6237.79,1672.63,-1774.83,7554.73,11376.8,3622.27,28257.2
1.764,0.0121649,5865.1,1599.2,-1769.46,7064.56,11138.4,3450.4,27844.6
1.766,0.0121836,5492.44,1525.77,-1764.09,6574.43,10900.1,3278.53,27431.9
1.768,0.0122023,5119.78,1452.34,-1758.72,6084.29,10661.8,3106.67,27019.3
1.77,0.0122211,4747.12,1378.91,-1753.35,5594.15,10423.4,2934.8,26606.7
1.772,0.0122398,4374.46,1305.48,-1747.98,5104.02,10185.1,2762.94,26194.1
1.774,0.0122585,4001.78,1232.05,-1742.61,4613.85,9946.77,2591.06,25781.5
1.776,0.0122772,3874.91,1283.79,-1731.46,4592.99,9799.99,2614.67,25421.6
1.778,0.012296,3799.65,1361.82,-1719.11,4670.67,9672.43,2679.33,25072.7
1.78,0.0123147,3724.4,1439.85,-1706.75,4748.34,9544.87,2743.99,24723.9
1.782,0.0123334,3649.14,1517.87,-1694.4,4826.02,9417.31,2808.65,24375.1
1.784,0.0123522,3570.79,1591.49,-1674.15,4918.01,9286.8,2874.87,24033.8
1.786,0.0123709,3482.16,1650.37,-1627.59,5057.72,9146.47,2946.27,23717.9
1.788,0.0123896,3393.53,1709.26,-1581.03,5197.43,9006.15,3017.67,23401.9
1.79,0.0124083,3304.9,1768.14,-1534.47,5337.13,8865.83,3089.08,23086
1.792,0.0124271,3216.26,1827.02,-1487.91,5476.85,8725.5,3160.48,22770
1.794,0.0124458,3127.63,1885.91,-1441.34,5616.55,8585.17,3231.88,22454.1
1.796,0.0124645,3039,1944.79,-1394.78,5756.26,8444.85,3303.29,22138.2
1.798,0.0124833,2950.36,2003.67,-1348.22,5895.97,8304.53,3374.69,21822.2
1.8,0.012502,2861.73,2062.56,-1301.66,6035.68,8164.2,3446.09,21506.3
1.802,0.0125207,2773.1,2121.44,-1255.1,6175.39,8023.87,3517.5,21190.3
1.804,0.0125394,2684.46,2180.33,-1208.54,6315.1,7883.55,3588.9,20874.4
1.806,0.0125582,2595.83,2239.21,-1161.98,6454.8,7743.22,3660.3,20558.5
1.808,0.0125769,2503.87,2249.65,-1120.54,6187.9,7628.79,3565.84,20174.5
1.81,0.0125956,2408.13,2204.94,-1084.95,5457.95,7543.85,3282.52,19713.2
1.812,0.0126144,2312.38,2160.22,-1049.36,4727.96,7458.9,2999.18,19251.7
1.814,0.0126331,2216.63,2115.51,-1013.77,3998.01,7373.96,2715.85,18790.4
1.816,0.0126519,2120.89,2070.79,-978.178,3268.06,7289.02,2432.53,18329
1.818,0.0126706,2025.14,2026.08,-942.587,2538.11,7204.07,2149.21,17867.6
1.82,0.0126893,1929.39,1981.36,-906.994,1808.12,7119.13,1865.86,17406.2
1.822,0.0127081,1833.65,1936.65,-871.403,1078.17,7034.18,1582.54,16944.8
1.824,0.0127268,1749.54,1902.08,-847.82,475.433,6954.33,1337.73,16535.9
1.826,0.0127456,1726.7,1920.93,-887.471,542.531,6901.3,1295.75,16403.6
1.828,0.0127643,1703.86,1939.79,-927.121,609.629,6848.27,1253.77,16271.3
1.83,0.012783,1681.02,1958.64,-966.774,676.731,6795.24,1211.78,16138.9
1.832,0.0128018,1658.19,1977.5,-1006.42,743.83,6742.21,1169.8,16006.6
1.834,0.0128205,1635.35,1996.35,-1046.07,810.928,6689.18,1127.81,15874.3
1.836,0.0128393,1612.51,2015.21,-1085.72,878.026,6636.15,1085.83,15741.9
1.838,0.012858,1589.67,2034.06,-1125.38,945.128,6583.11,1043.84,15609.6
1.84,0.0128768,1566.83,2052.92,-1165.03,1012.23,6530.08,1001.86,15477.3
1.842,0.0128955,1562.14,2071.87,-1195.41,1166.48,6483.48,979.822,15409.7
1.844,0.0129142,1651.07,2091.3,-1177.97,1770.55,6470.06,1060.71,15676.4
1.846,0.012933,1740,2110.73,-1160.52,2374.62,6456.65,1141.6,15943.2
1.848,0.0129517,1828.94,2130.17,-1143.08,2978.72,6443.23,1222.5,16209.9
1.85,0.0129705,1917.87,2149.6,-1125.63,3582.79,6429.81,1303.39,16476.7
1.852,0.0129892,2014.58,2039.78,-1166.62,3570.23,6410.56,1335.47,16287.1
1.854,0.0130079,2115.91,1853.17,-1242.33,3191.32,6387.85,1338.55,15826.4
1.856,0.0130267,2217.24,1666.55,-1318.03,2812.41,6365.13,1341.63,15365.8
1.858,0.0130454,2318.57,1479.93,-1393.74,2433.47,6342.42,1344.71,14905
1.86,0.0130642,2532.23,1391.91,-1410.64,2698.25,6251.59,1637.65,14740.6
1.862,0.0130829,2755.53,1312.36,-1422.49,3018.33,6154.92,1955.49,14601.6
1.864,0.0131016,2978.83,1232.81,-1434.34,3338.4,6058.24,2273.33,14462.6
1.866,0.0131204,3202.14,1153.26,-1446.18,3658.49,5961.57,2591.19,14323.6
1.868,0.0131391,3255.82,1100.37,-1382.73,3607.79,5841.2,2661.82,14075.5
1.87,0.0131579,3255.31,1056,-1295.21,3438.61,5713.27,2653.45,13792.5
1.872,0.0131766,3254.8,1011.63,-1207.69,3269.43,5585.33,2645.09,13509.6
1.874,0.0131954,3254.28,967.252,-1120.18,3100.26,5457.4,2636.72,13226.6
1.876,0.0132141,3253.77,922.876,-1032.66,2931.07,5329.46,2628.35,12943.7
1.878,0.0132328,3314.52,884.95,-989.088,2930.8,5263.23,2631.58,12830.2
1.88,0.0132516,3380.58,847.583,-949.331,2945.17,5202.35,2635.82,12731.4
1.882,0.0132703,3446.63,810.216,-909.575,2959.55,5141.47,2640.05,12632.6
1.884,0.0132891,3512.69,772.849,-869.818,2973.93,5080.6,2644.28,12533.8
1.886,0.0133078,3578.75,735.48,-830.06,2988.3,5019.71,2648.52,12435
1.888,0.0133266,3644.81,698.112,-790.303,3002.68,4958.84,2652.75,12336.2
1.89,0.0133453,3710.87,660.745,-750.547,3017.06,4897.96,2656.99,12237.5
1.892,0.0133641,3776.93,623.378,-710.79,3031.43,4837.08,2661.22,12138.7
1.894,0.0133828,3842.99,586.009,-671.032,3045.81,4776.2,2665.45,12039.9
1.896,0.0134016,3909.05,548.642,-631.275,3060.19,4715.32,2669.69,11941.1
1.898,0.0134203,3975.11,511.275,-591.519,3074.56,4654.44,2673.92,11842.3
1.9,0.0134391,4041.16,473.908,-551.762,3088.94,4593.56,2678.16,11743.5
1.902,0.0134578,4107.22,436.541,-512.006,3103.32,4532.69,2682.39,11644.7
1.904,0.0134766,4173.28,399.171,-472.247,3117.69,4471.8,2686.62,11545.9
1.906,0.0134953,4239.34,361.804,-432.491,3132.07,4410.93,2690.86,11447.1
1.908,0.0135141,4305.4,324.437,-392.734,3146.45,4350.05,2695.09,11348.3
1.91,0.0135328,4371.53,285.841,-352.523,3159.34,4289.86,2698.78,11249.3
1.912,0.0135516,4435.65,280.453,-324.6,3212.22,4211.09,2717.19,11157.8
1.914,0.0135703,4499.77,275.064,-296.675,3265.11,4132.31,2735.61,11066.4
1.916,0.0135891,4563.88,269.676,-268.752,3317.99,4053.54,2754.02,10975
1.918,0.0136078,4628,264.288,-240.829,3370.87,3974.78,2772.44,10883.6
1.92,0.0136266,4692.12,258.9,-212.906,3423.75,3896.01,2790.85,10792.1
1.922,0.0136453,4756.24,253.511,-184.982,3476.63,3817.23,2809.26,10700.7
1.924,0.013664,4820.35,248.123,-157.059,3529.51,3738.46,2827.68,10609.3
1.926,0.0136828,4884.47,242.735,-129.136,3582.39,3659.69,2846.09,10517.9
1.928,0.0137015,4948.58,237.347,-101.213,3635.27,3580.92,2864.51,10426.5
1.93,0.0137203,5012.7,231.959,-73.2898,3688.15,3502.16,2882.92,10335
1.932,0.013739,5076.82,226.57,-45.3652,3741.03,3423.38,2901.33,10243.6
1.934,0.0137578,5112.67,235.643,-11.9486,3790.92,3359.57,2913.44,10155.5
1.936,0.0137765,5131.35,253.507,24.8073,3838.98,3304.85,2921.72,10069.4
1.938,0.0137953,5150.02,271.371,61.5633,3887.05,3250.13,2929.99,9983.38
1.94,0.013814,5168.7,289.236,98.3214,3935.11,3195.41,2938.26,9897.3
1.942,0.0138328,5196.34,348.928,145.533,3866.28,3123.5,2928.55,9791.56
1.944,0.0138515,5228.39,429.223,197.896,3739.86,3043.13,2909.97,9676.13
1.946,0.0138703,5260.45,509.519,250.258,3613.45,2962.75,2891.39,9560.71
1.948,0.013889,5292.51,589.814,302.621,3487.03,2882.38,2872.81,9445.28
1.95,0.0139078,5324.57,670.114,354.987,3360.61,2802,2854.24,9329.84
1.952,0.0139265,5356.62,750.41,407.349,3234.19,2721.63,2835.66,9214.42
1.954,0.0139453,5388.68,830.705,459.712,3107.77,2641.25,2817.08,9098.99
1.956,0.013964,5420.74,911.001,512.074,2981.36,2560.88,2798.5,8983.56
1.958,0.0139828,5452.8,991.296,564.437,2854.94,2480.51,2779.92,8868.13
1.96,0.0140015,5484.85,1071.6,616.802,2728.52,2400.13,2761.35,8752.7
1.962,0.0140202,5511.9,1151.75,670.877,2628.56,2320.58,2745.37,8636.9
1.964,0.014039,5512.63,1231.14,733.948,2667.66,2245.33,2743.1,8519.14
1.966,0.0140577,5513.36,1310.53,797.019,2706.75,2170.08,2740.83,8401.39
1.968,0.0140765,5514.09,1389.93,860.094,2745.85,2094.83,2738.56,8283.62
1.97,0.0140953,5514.82,1469.32,923.165,2784.95,2019.58,2736.29,8165.86
1.972,0.014114,5515.55,1548.71,986.236,2824.04,1944.33,2734.01,8048.11
1.974,0.0141328,5516.27,1628.1,1049.31,2863.14,1869.08,2731.74,7930.35
1.976,0.0141515,5517.34,1646.45,1052.85,2789.58,1839.56,2712.32,7832.65
1.978,0.0141703,5518.52,1642.58,1034.71,2675.01,1826.69,2686.65,7742.24
1.98,0.014189,5519.7,1638.71,1016.57,2560.44,1813.81,2660.99,7651.84
1.982,0.0142078,5520.88,1634.85,998.437,2445.87,1800.94,2635.32,7561.43
1.984,0.0142265,5522.06,1630.98,980.301,2331.3,1788.07,2609.65,7471.03
1.986,0.0142453,5523.25,1627.11,962.165,2216.73,1775.19,2583.99,7380.63
1.988,0.014264,5569.19,1587.73,965.956,2142.9,1756.53,2573.71,7295.39
1.99,0.0142827,5728.1,1458.71,1025.09,2171.88,1723.28,2602.26,7223.21
1.992,0.0143015,5887.01,1329.7,1084.22,2200.86,1690.02,2630.82,7151.03
1.994,0.0143202,6045.92,1200.68,1143.36,2229.84,1656.77,2659.37,7078.85
1.996,0.014339,6204.84,1071.66,1202.5,2258.83,1623.51,2687.93,7006.67
1.998,0.0143577,6363.75,942.644,1261.63,2287.81,1590.26,2716.48,6934.48
2,0.0143765,6522.66,813.629,1320.76,2316.8,1557,2745.04,6862.3
