"arc_length","Displacement_Magnitude","Sxx","Sxy","Sxz","Syy","Syz","Szz","Von_Mises_Stress"
0,0,1.26061e+06,-74406.8,-7700.07,2.52549e+06,444825,1.09675e+06,1.56741e+06
0.002,1.88249e-06,1.19897e+06,-68173,-6794.88,2.43412e+06,415086,1.01462e+06,1.53085e+06
0.004,3.03328e-06,1.16512e+06,-65506.2,-5735.48,2.37612e+06,398520,974532,1.50679e+06
0.006,3.99037e-06,1.14034e+06,-64004.7,-4625.72,2.32902e+06,386256,948177,1.48681e+06
0.008,4.97173e-06,1.11557e+06,-62503.3,-3515.96,2.28192e+06,373993,921822,1.46682e+06
0.01,5.9654e-06,1.09079e+06,-61001.8,-2406.2,2.23482e+06,361730,895467,1.44684e+06
0.012,6.9661e-06,1.06602e+06,-59500.3,-1296.44,2.18772e+06,349467,869113,1.42685e+06
0.014,7.9712e-06,1.04124e+06,-57998.8,-186.683,2.14061e+06,337204,842758,1.40687e+06
0.016,8.94306e-06,1.01646e+06,-56045.3,1132.4,2.09236e+06,325995,817907,1.38708e+06
0.018,9.82524e-06,991653,-52952.4,2979.21,2.04121e+06,317443,796848,1.36777e+06
0.02,1.07082e-05,966845,-49859.4,4826.02,1.99005e+06,308892,775788,1.34846e+06
0.022,1.15919e-05,942037,-46766.4,6672.82,1.9389e+06,300341,754729,1.32916e+06
0.024,1.2476e-05,917229,-43673.4,8519.63,1.88774e+06,291790,733669,1.30985e+06
0.026,1.33605e-05,892421,-40580.4,10366.4,1.83658e+06,283238,712610,1.29054e+06
0.028,1.42454e-05,867613,-37487.4,12213.2,1.78543e+06,274687,691550,1.27123e+06
0.03,1.51305e-05,842805,-34394.5,14060,1.73427e+06,266136,670491,1.25193e+06
0.032,1.60158e-05,817997,-31301.5,15906.9,1.68312e+06,257584,649431,1.23262e+06
0.034,1.69013e-05,793189,-28208.5,17753.7,1.63196e+06,249033,628372,1.21331e+06
0.036,1.7787e-05,768382,-25115.5,19600.5,1.58081e+06,240482,607312,1.194e+06
0.038,1.86728e-05,743574,-22022.5,21447.3,1.52965e+06,231931,586253,1.1747e+06
0.04,1.95588e-05,718766,-18929.6,23294.1,1.4785e+06,223379,565193,1.15539e+06
0.042,2.04448e-05,693958,-15836.6,25140.9,1.42734e+06,214828,544134,1.13608e+06
0.044,2.1331e-05,669150,-12743.6,26987.7,1.37618e+06,206277,523074,1.11677e+06
0.046,2.22172e-05,644342,-9650.6,28834.5,1.32503e+06,197725,502015,1.09747e+06
0.048,2.31034e-05,619534,-6557.62,30681.3,1.27387e+06,189174,480955,1.07816e+06
0.05,2.51181e-05,590396,-4171.14,33456.3,1.23781e+06,185599,446577,1.08021e+06
0.052,2.75407e-05,559695,-2039.47,36565.9,1.20719e+06,183819,407396,1.08996e+06
0.054,2.99642e-05,528995,92.1972,39675.6,1.17657e+06,182038,368215,1.09971e+06
0.056,3.23884e-05,498295,2223.87,42785.3,1.14595e+06,180258,329033,1.10946e+06
0.058,3.48131e-05,467595,4355.53,45894.9,1.11532e+06,178478,289852,1.11922e+06
0.06,3.72382e-05,436894,6487.2,49004.6,1.0847e+06,176697,250670,1.12897e+06
0.062,3.96637e-05,406194,8618.87,52114.3,1.05408e+06,174917,211489,1.13872e+06
0.064,4.19717e-05,401836,7972.8,52244.1,1.04764e+06,179019,208730,1.14137e+06
0.066,4.43086e-05,399395,7124.63,52157.2,1.04295e+06,183550,208620,1.14351e+06
0.068,4.66788e-05,396954,6276.46,52070.3,1.03826e+06,188080,208511,1.14565e+06
0.07,4.90774e-05,394512,5428.29,51983.3,1.03358e+06,192611,208402,1.14779e+06
0.072,5.14968e-05,389078,2590.64,52093,1.02457e+06,191611,196969,1.14781e+06
0.074,5.39283e-05,383161,-567.978,52234.5,1.01487e+06,189718,183710,1.14749e+06
0.076,5.63702e-05,377244,-3726.59,52375.9,1.00516e+06,187826,170450,1.14717e+06
0.078,5.88212e-05,371327,-6885.21,52517.4,995457,185934,157191,1.14685e+06
0.08,6.12802e-05,365410,-10043.8,52658.8,985752,184042,143932,1.14653e+06
0.082,6.37464e-05,359493,-13202.4,52800.3,976047,182150,130672,1.14621e+06
0.084,6.62188e-05,353576,-16361.1,52941.7,966343,180257,117413,1.14589e+06
0.086,6.86969e-05,347659,-19519.7,53083.1,956638,178365,104153,1.14557e+06
0.088,7.11795e-05,343051,-22326.2,52968.5,948587,177256,92804.8,1.14673e+06
0.09,7.36669e-05,345495,-23235.2,51473.9,949446,180366,91756.4,1.15586e+06
0.092,7.61628e-05,347938,-24144.1,49979.3,950305,183476,90708,1.16499e+06
0.094,7.86665e-05,350382,-25053.1,48484.7,951164,186586,89659.6,1.17413e+06
0.096,8.11773e-05,352826,-25962,46990,952023,189696,88611.2,1.18326e+06
0.098,8.36944e-05,355270,-26871,45495.4,952882,192807,87562.8,1.19239e+06
0.1,8.65039e-05,362222,-28386.6,44548.7,965484,196280,88091,1.20959e+06
0.102,9.02399e-05,383704,-31857.8,45367.9,1.01593e+06,200926,93700.9,1.25279e+06
0.104,9.39776e-05,405186,-35328.9,46187.1,1.06638e+06,205572,99310.9,1.29598e+06
0.106,9.77167e-05,426668,-38800,47006.3,1.11682e+06,210218,104921,1.33918e+06
0.108,0.000101457,448150,-42271.1,47825.5,1.16727e+06,214864,110531,1.38238e+06
0.11,0.000105199,469632,-45742.3,48644.7,1.21772e+06,219510,116141,1.42558e+06
0.112,0.000108941,491115,-49213.4,49463.9,1.26816e+06,224156,121751,1.46877e+06
0.114,0.000112685,512597,-52684.5,50283.1,1.31861e+06,228802,127361,1.51197e+06
0.116,0.000116595,506067,-52947.9,48984.4,1.30049e+06,230044,125477,1.49971e+06
0.118,0.000120682,469738,-49799.1,45432.7,1.20942e+06,227666,115623,1.42846e+06
0.12,0.000124769,433409,-46650.3,41881,1.11836e+06,225287,105769,1.35721e+06
0.122,0.000128856,397080,-43501.4,38329.3,1.02729e+06,222908,95915.2,1.28596e+06
0.124,0.000132944,360751,-40352.6,34777.6,936227,220530,86061.1,1.21471e+06
0.126,0.000137033,324422,-37203.8,31225.9,845161,218151,76207.1,1.14345e+06
0.128,0.000141121,288093,-34055,27674.2,754096,215773,66353,1.0722e+06
0.13,0.00014521,251764,-30906.2,24122.5,663031,213394,56499,1.00095e+06
0.132,0.000149582,237947,-30678.3,21682.2,627173,211830,52608.2,975500
0.134,0.000154131,237448,-32178.5,19899.4,623977,210747,52245.3,977147
0.136,0.000158693,236949,-33678.8,18116.6,620781,209664,51882.5,978794
0.138,0.000163266,236450,-35179,16333.8,617584,208581,51519.6,980442
0.14,0.00016785,235951,-36679.2,14551,614388,207498,51156.8,982089
0.142,0.000172443,235452,-38179.5,12768.2,611192,206415,50794,983736
0.144,0.000177044,234953,-39679.7,10985.4,607996,205333,50431.1,985383
0.146,0.000181654,234455,-41179.9,9202.58,604800,204250,50068.3,987030
0.148,0.000186271,233956,-42680.2,7419.78,601604,203167,49705.4,988677
0.15,0.000190896,233457,-44180.4,5636.97,598407,202084,49342.6,990324
0.152,0.000195526,232958,-45680.6,3854.18,595211,201001,48979.7,991971
0.154,0.000200163,232459,-47180.9,2071.38,592015,199918,48616.9,993618
0.156,0.000204805,231960,-48681.1,288.571,588819,198836,48254,995266
0.158,0.000209452,231461,-50181.3,-1494.23,585623,197753,47891.2,996913
0.16,0.000214104,230962,-51681.5,-3277.03,582427,196670,47528.3,998560
0.162,0.000218761,230464,-53181.8,-5059.83,579230,195587,47165.5,1.00021e+06
0.164,0.000223422,229965,-54682,-6842.64,576034,194504,46802.6,1.00185e+06
0.166,0.000228088,229466,-56182.2,-8625.43,572838,193421,46439.8,1.0035e+06
0.168,0.000232756,228967,-57682.5,-10408.2,569642,192339,46077,1.00515e+06
0.17,0.000237429,228468,-59182.7,-12191,566446,191256,45714.1,1.0068e+06
0.172,0.000242105,227969,-60682.9,-13973.8,563250,190173,45351.3,1.00844e+06
0.174,0.000246682,229732,-61707.3,-12307.5,569323,189141,44744.3,1.00679e+06
0.176,0.000251207,232730,-62471.7,-8756.57,580461,188136,44004,1.00333e+06
0.178,0.000256264,232984,-62367.3,-10337.5,582021,186521,45553,991211
0.18,0.000261828,231747,-61620.6,-16312.4,577964,184324,49741.3,974340
0.182,0.000267709,241538,-62448.7,-19758.8,607741,181781,60456.7,991632
0.184,0.000273592,251329,-63276.8,-23205.2,637520,179239,71172.1,1.00892e+06
0.186,0.000279476,261121,-64104.8,-26651.7,667298,176696,81887.6,1.02622e+06
0.188,0.00028536,270912,-64932.9,-30098.1,697076,174154,92603,1.04351e+06
0.19,0.000291245,280703,-65761,-33544.5,726854,171611,103318,1.0608e+06
0.192,0.000297131,290494,-66589.1,-36990.9,756632,169069,114034,1.07809e+06
0.194,0.000303018,300285,-67417.2,-40437.3,786410,166526,124749,1.09538e+06
0.196,0.000308905,310076,-68245.3,-43883.7,816188,163984,135465,1.11267e+06
0.198,0.000315002,314106,-67147,-44264.7,824600,161394,139356,1.11076e+06
0.2,0.000321177,316042,-65349,-43531.8,825250,158787,140767,1.10188e+06
0.202,0.000327356,317977,-63550.9,-42799,825900,156180,142178,1.093e+06
0.204,0.000333539,319913,-61752.9,-42066.2,826549,153574,143589,1.08411e+06
0.206,0.000339724,321849,-59954.8,-41333.4,827199,150967,145000,1.07523e+06
0.208,0.000345912,323785,-58156.7,-40600.6,827848,148360,146412,1.06634e+06
0.21,0.000352103,325721,-56358.7,-39867.7,828498,145753,147823,1.05746e+06
0.212,0.000358297,327657,-54560.6,-39134.9,829147,143146,149234,1.04857e+06
0.214,0.000364493,329593,-52762.5,-38402.1,829797,140539,150645,1.03969e+06
0.216,0.000370691,331528,-50964.5,-37669.3,830446,137933,152056,1.0308e+06
0.218,0.000376892,333464,-49166.4,-36936.5,831096,135326,153467,1.02192e+06
0.22,0.000383095,335400,-47368.3,-36203.6,831745,132719,154879,1.01303e+06
0.222,0.0003893,337336,-45570.3,-35470.8,832395,130112,156290,1.00415e+06
0.224,0.000395506,339272,-43772.2,-34738,833044,127505,157701,995262
0.226,0.000402163,327680,-40974.1,-27426.6,815409,124780,152118,984268
0.228,0.000408831,315770,-38152.4,-19960.8,797345,122051,146372,973224
0.23,0.000415498,303860,-35330.8,-12494.9,779281,119323,140625,962179
0.232,0.000422166,291951,-32509.2,-5029.12,761216,116594,134878,951135
0.234,0.000428835,280041,-29687.5,2436.73,743152,113866,129131,940091
0.236,0.000435504,268131,-26865.9,9902.57,725087,111137,123384,929047
0.238,0.000442173,256221,-24044.2,17368.4,707023,108409,117638,918002
0.24,0.000449084,253736,-23727.1,22503.6,701111,107464,116852,931115
0.242,0.00045605,253287,-23951.4,27135,697827,106905,117139,949449
0.244,0.000463018,252838,-24175.7,31766.3,694543,106345,117425,967784
0.246,0.000469988,252390,-24399.9,36397.7,691258,105786,117712,986119
0.248,0.00047696,251941,-24624.2,41029,687974,105226,117999,1.00445e+06
0.25,0.000483933,251493,-24848.5,45660.4,684689,104667,118285,1.02279e+06
0.252,0.000490909,251044,-25072.8,50291.8,681405,104108,118572,1.04112e+06
0.254,0.000497885,250596,-25297.1,54923.1,678120,103548,118858,1.05946e+06
0.256,0.000504864,250147,-25521.3,59554.5,674836,102989,119145,1.07779e+06
0.258,0.000511843,249698,-25745.6,64185.8,671552,102429,119432,1.09613e+06
0.26,0.000518824,249250,-25969.9,68817.1,668267,101870,119718,1.11446e+06
0.262,0.000526194,244132,-23833.4,71236.8,664279,105672,119499,1.12336e+06
0.264,0.000533639,238099,-21234.4,73223,660152,110329,119180,1.1304e+06
0.266,0.000541085,232066,-18635.3,75209.2,656025,114986,118860,1.13744e+06
0.268,0.000548532,226033,-16036.2,77195.4,651899,119642,118541,1.14449e+06
0.27,0.000555978,220000,-13437.2,79181.6,647772,124299,118222,1.15153e+06
0.272,0.000563425,213967,-10838.1,81167.9,643646,128956,117903,1.15858e+06
0.274,0.000570951,209057,-8071.49,82619.6,639611,133091,117649,1.16378e+06
0.276,0.00057885,209357,-4527.95,81593.6,636002,134811,117696,1.16042e+06
0.278,0.000586748,209657,-984.405,80567.5,632392,136531,117743,1.15706e+06
0.28,0.000594647,209957,2559.14,79541.5,628783,138251,117791,1.1537e+06
0.282,0.000602866,216111,5421.68,76612.5,638337,135600,116367,1.13542e+06
0.284,0.000611209,224531,8020.8,72947.4,652982,131258,114375,1.11136e+06
0.286,0.000619552,232950,10619.9,69282.2,667628,126916,112383,1.0873e+06
0.288,0.000627895,241369,13219,65617.1,682274,122574,110391,1.06324e+06
0.29,0.000636239,249789,15818.1,61952,696919,118232,108399,1.03918e+06
0.292,0.000644582,258208,18417.2,58286.8,711565,113890,106406,1.01511e+06
0.294,0.000653009,262090,18113.1,54366.5,725680,113323,105953,997837
0.296,0.000661451,265233,17336.4,50404.5,739708,113370,105750,981664
0.298,0.000669895,268376,16559.8,46442.6,753736,113417,105548,965490
0.3,0.000678339,271519,15783.1,42480.7,767765,113465,105345,949317
0.302,0.000686785,274662,15006.4,38518.8,781793,113512,105143,933144
0.304,0.000695233,277805,14229.7,34556.9,795821,113559,104940,916971
0.306,0.000703682,280948,13453,30595,809850,113607,104737,900798
0.308,0.000712131,284091,12676.3,26633.1,823878,113654,104535,884624
0.31,0.000720583,287234,11899.6,22671.1,837906,113701,104332,868451
0.312,0.00072905,290336,11047.6,18479.7,851343,113763,104275,852625
0.314,0.000737941,292306,8118.69,7957.97,848458,114224,108237,846378
0.316,0.000746833,294276,5189.77,-2563.74,845572,114684,112199,840132
0.318,0.000755724,296246,2260.88,-13085.3,842687,115144,116160,833885
0.32,0.000764616,298216,-668.043,-23607,839802,115605,120122,827638
0.322,0.000773508,300186,-3596.97,-34128.7,836917,116065,124084,821391
0.324,0.000782401,302156,-6525.9,-44650.4,834032,116525,128046,815144
0.326,0.000791315,303617,-9231.28,-53990.9,829607,116782,131827,811292
0.328,0.000800425,300619,-9979.88,-52992,811701,115258,134029,828396
0.33,0.000809535,297621,-10728.5,-51993.1,793796,113733,136231,845500
0.332,0.000818647,294623,-11477.1,-50994.2,775890,112209,138433,862604
0.334,0.000827759,291624,-12225.7,-49995.2,757985,110685,140635,879708
0.336,0.000836872,288626,-12974.3,-48996.3,740079,109161,142836,896812
0.338,0.000845987,285628,-13722.9,-47997.4,722174,107636,145038,913916
0.34,0.000855102,282630,-14471.5,-46998.5,704268,106112,147240,931020
0.342,0.000864217,279632,-15220.1,-45999.5,686362,104588,149442,948124
0.344,0.000873334,276634,-15968.7,-45000.6,668457,103063,151644,965228
0.346,0.000882451,273636,-16717.3,-44001.7,650551,101539,153846,982332
0.348,0.000891745,267849,-16969.6,-41479.8,632573,100514,153115,987019
0.35,0.000901354,257043,-16328.7,-36217.1,614465,100388,147108,969362
0.352,0.000910963,246237,-15687.9,-30954.5,596356,100262,141101,951705
0.354,0.000920572,235431,-15047.1,-25691.8,578248,100136,135094,934048
0.356,0.000930181,224625,-14406.3,-20429.2,560140,100010,129086,916391
0.358,0.00093979,213819,-13765.4,-15166.5,542031,99883.6,123079,898734
0.36,0.0009494,203013,-13124.6,-9903.84,523923,99757.5,117072,881076
0.362,0.000959009,192207,-12483.8,-4641.27,505814,99631.3,111065,863420
0.364,0.000968793,191116,-12559.6,-3316.97,508953,97872.9,109267,855553
0.366,0.00097861,191812,-12767.2,-2717.16,515999,95814.1,108245,849488
0.368,0.000988428,192507,-12974.9,-2117.35,523046,93755.3,107222,843423
0.37,0.000998247,193203,-13182.5,-1517.54,530093,91696.6,106199,837357
0.372,0.00100807,193899,-13390.2,-917.734,537140,89637.8,105176,831292
0.374,0.00101789,194595,-13597.8,-317.926,544186,87579,104153,825226
0.376,0.00102771,195291,-13805.5,281.875,551233,85520.3,103130,819161
0.378,0.00103753,195987,-14013.1,881.684,558280,83461.5,102108,813096
0.38,0.00104735,196682,-14220.8,1481.49,565327,81402.8,101085,807031
0.382,0.00105719,198087,-14541.9,1967.72,575244,79830.8,100693,798410
0.384,0.00106708,201825,-15236.7,2079.88,594619,79862.2,102382,781373
0.386,0.00107698,205564,-15931.6,2192.03,613993,79893.7,104071,764336
0.388,0.00108687,209302,-16626.4,2304.18,633368,79925.1,105760,747299
0.39,0.00109676,213040,-17321.2,2416.33,652742,79956.5,107449,730262
0.392,0.00110666,216779,-18016,2528.48,672117,79987.9,109138,713225
0.394,0.00111677,218859,-18357.4,3130.58,686404,80441.1,111450,699050
0.396,0.00112735,217531,-17972.2,4739.57,690237,81761.1,115040,690756
0.398,0.00113792,216203,-17586.9,6348.56,694070,83081.1,118630,682463
0.4,0.0011485,214876,-17201.7,7957.55,697904,84401.1,122220,674169
0.402,0.00115907,213548,-16816.5,9566.54,701737,85721.1,125810,665875
0.404,0.00116965,212220,-16431.3,11175.5,705570,87041.1,129400,657581
0.406,0.00118022,210893,-16046.1,12784.5,709403,88361.1,132991,649287
0.408,0.0011908,209565,-15660.9,14393.5,713236,89681.1,136581,640993
0.41,0.00120147,204124,-14420.1,15554,707804,90545.8,136881,642068
0.412,0.00121242,194459,-12830.5,14897,682405,89028,131172,658395
0.414,0.00122336,184795,-11240.9,14240,657006,87510.3,125463,674722
0.416,0.00123431,175130,-9651.31,13583,631607,85992.5,119755,691049
0.418,0.00124526,165465,-8061.72,12926,606208,84474.8,114046,707375
0.42,0.00125621,155800,-6472.16,12269.1,580810,82957,108337,723702
0.422,0.00126715,146135,-4882.57,11612.1,555411,81439.2,102629,740029
0.424,0.0012781,136470,-3292.99,10955.1,530012,79921.5,96920,756355
0.426,0.00128905,126805,-1703.4,10298.1,504613,78403.7,91211.3,772682
0.428,0.0013,117140,-113.812,9641.16,479214,76885.9,85502.6,789009
0.43,0.00131095,107475,1475.77,8984.18,453815,75368.2,79794,805336
0.432,0.00132187,100618,1064.71,7736.94,428654,73242.1,76544.2,812348
0.434,0.00133277,96196.2,-1082.12,5977.59,403700,70588.2,75427.9,811279
0.436,0.00134367,91774.7,-3228.98,4218.22,378745,67934.3,74311.6,810209
0.438,0.00135458,87353.3,-5375.84,2458.85,353790,65280.4,73195.3,809140
0.44,0.00136548,82931.8,-7522.7,699.478,328835,62626.4,72079,808071
0.442,0.00137638,78510.4,-9669.56,-1059.89,303880,59972.5,70962.7,807002
0.444,0.00138753,79698.5,-16721.1,-2559.76,291596,56199.3,72056.6,803064
0.446,0.00139889,85488,-27795.6,-3846.77,289704,51507.9,74963.4,796774
0.448,0.00141025,91277.4,-38870.1,-5133.79,287813,46816.5,77870.1,790483
0.45,0.0014216,97066.7,-49944.4,-6420.78,285922,42125.2,80776.9,784193
0.452,0.00143337,103428,-49259.9,-4536.42,306931,42203.3,85508.4,774651
0.454,0.00144518,109833,-47666.6,-2406.97,329709,42650,90381,764857
0.456,0.00145698,116239,-46073.3,-277.521,352487,43096.7,95253.6,755063
0.458,0.00146878,122644,-44480,1851.93,375265,43543.4,100126,745268
0.46,0.00148058,129049,-42886.7,3981.38,398043,43990.1,104999,735474
0.462,0.00149239,135454,-41293.4,6110.83,420821,44436.9,109871,725680
0.464,0.00150419,141860,-39700.1,8240.24,443598,44883.6,114744,715887
0.466,0.00151599,148265,-38106.8,10369.7,466376,45330.3,119616,706093
0.468,0.0015278,154670,-36513.5,12499.1,489154,45777,124489,696299
0.47,0.0015396,161076,-34920.2,14628.6,511933,46223.7,129361,686505
0.472,0.00155141,167481,-33326.9,16758,534711,46670.4,134234,676711
0.474,0.00156321,173886,-31733.6,18887.5,557489,47117.1,139107,666917
0.476,0.00157502,180292,-30140.3,21016.9,580267,47563.8,143979,657123
0.478,0.00158679,185913,-26161.9,23361.8,600769,48362.4,149222,645052
0.48,0.00159851,190495,-19025.1,25991.9,618259,49626.9,154954,629965
0.482,0.00161023,195077,-11888.3,28622,635748,50891.5,160686,614878
0.484,0.00162195,199659,-4751.47,31252.1,653238,52156.1,166419,599791
0.486,0.00163367,204242,2385.35,33882.2,670728,53420.6,172151,584704
0.488,0.00164552,204711,9665.98,35675.5,681699,53096,173886,575209
0.49,0.00165764,195753,17276.2,35550.7,677728,49128.7,166457,578531
0.492,0.00166976,186795,24886.5,35426,673757,45161.4,159029,581852
0.494,0.00168188,177837,32496.6,35301.2,669786,41194.1,151600,585174
0.496,0.00169401,168879,40106.8,35176.4,665815,37226.8,144172,588495
0.498,0.00170613,159922,47717.1,35051.6,661844,33259.5,136743,591817
0.5,0.00171843,152628,51150.6,34551.6,657982,30942.5,128985,595028
0.502,0.00173087,146958,50529.5,33271.6,654470,29487.7,121124,599168
0.504,0.00174326,143066,45592.3,28859.4,652688,24852.6,114353,610044
0.506,0.00175564,139439,40955,24697.7,650669,20544.4,107931,620183
0.508,0.00176794,138029,38828.3,22631.8,646660,18972.8,104434,624148
0.51,0.00178025,136619,36701.7,20566,642650,17401.3,100936,628113
0.512,0.00179256,135209,34575,18500.1,638641,15829.7,97439.1,632077
0.514,0.00180486,133800,32448.4,16434.3,634632,14258.2,93941.8,636042
0.516,0.00181717,132390,30321.8,14368.4,630622,12686.6,90444.5,640007
0.518,0.00182948,130980,28195.1,12302.5,626613,11115.1,86947.1,643971
0.52,0.00184179,129570,26068.5,10236.7,622603,9543.54,83449.8,647936
0.522,0.0018541,128161,23941.8,8170.83,618594,7971.96,79952.4,651901
0.524,0.00186641,126751,21815.2,6105.01,614584,6400.43,76455.1,655865
0.526,0.00187871,125341,19688.5,4039.12,610575,4828.85,72957.6,659830
0.528,0.00189109,124053,18365.8,2904.7,607455,4354.28,70175.4,663924
0.53,0.00190375,123279,20429.5,5693.86,608083,8500.71,70405.4,668562
0.532,0.00191642,122505,22493.3,8483.09,608712,12647.3,70635.3,673201
0.534,0.00192908,121731,24557,11272.2,609340,16793.7,70865.3,677839
0.536,0.00194175,120957,26620.8,14061.5,609968,20940.3,71095.3,682478
0.538,0.00195441,120183,28684.6,16850.6,610596,25086.7,71325.2,687116
0.54,0.00196708,119480,30623.8,19594.6,610663,29184.7,71583.5,690951
0.542,0.00197986,120088,30266.8,21503.8,600383,32388.3,72364.6,679981
0.544,0.00199289,120284,27935.9,21325.1,586284,34907.9,72870.9,668889
0.546,0.00200612,120162,24078.4,19531.5,569232,36898.2,73164.8,657704
0.548,0.00201934,120040,20220.9,17738,552180,38888.5,73458.8,646518
0.55,0.00203256,119917,16363.3,15944.3,535128,40878.8,73752.7,635332
0.552,0.00204579,119795,12505.8,14150.8,518076,42869.1,74046.6,624147
0.554,0.00205901,119673,8648.2,12357.2,501023,44859.5,74340.5,612961
0.556,0.00207239,119656,7117.38,14451.1,496995,45573.5,73985.8,632889
0.558,0.0020858,119665,6134.89,17461.3,496036,45986.8,73478.2,660151
0.56,0.00209922,119673,5152.44,20471.4,495077,46400,72970.7,687412
0.562,0.00211263,119682,4169.98,23481.5,494118,46813.3,72463.1,714672
0.564,0.00212605,119690,3187.5,26491.8,493159,47226.5,71955.6,741934
0.566,0.00213947,119698,2205.04,29501.9,492200,47639.8,71448,769195
0.568,0.00215288,119707,1222.55,32512.1,491241,48053,70940.4,796456
0.57,0.0021663,119715,240.098,35522.2,490282,48466.3,70432.9,823717
0.572,0.00217972,119724,-742.388,38532.5,489323,48879.5,69925.3,850979
0.574,0.00219327,118686,-1219.1,41982,477104,48851.7,66280.7,860773
0.576,0.00220694,115701,-2021.19,45543,471819,48836.4,65929.8,859080
0.578,0.00222061,112555,-2905.24,49082.6,468320,48858.4,66247.9,857353
0.58,0.00223429,109409,-3789.27,52622.2,464820,48880.3,66566.1,855626
0.582,0.00224796,106262,-4673.32,56161.8,461321,48902.3,66884.2,853899
0.584,0.00226164,103116,-5557.35,59701.4,457821,48924.3,67202.4,852172
0.586,0.00227531,99969.6,-6441.4,63241,454322,48946.2,67520.5,850445
0.588,0.00228899,96823.3,-7325.43,66780.6,450822,48968.2,67838.7,848718
0.59,0.00230266,93677,-8209.46,70320.1,447323,48990.1,68156.8,846990
0.592,0.00231633,90530.7,-9093.51,73859.7,443823,49012.1,68475,845263
0.594,0.00233001,87384.4,-9977.54,77399.3,440323,49034,68793.1,843536
0.596,0.00234387,86809.1,-10463.5,79009.5,439780,50813.1,71108.4,839206
0.598,0.00235786,87913,-10689.5,79359.7,441167,53739.6,74728,833177
0.6,0.00237185,89017,-10915.6,79709.8,442554,56666.1,78347.6,827147
0.602,0.00238581,90398.1,-10966.1,78942.8,441937,59831.4,81077.4,815174
0.604,0.00239974,91911.3,-10933.1,77643.8,440364,63110.3,83383.4,800372
0.606,0.00241367,93424.5,-10900.1,76344.8,438792,66389.3,85689.5,785569
0.608,0.0024276,94937.6,-10867.2,75045.8,437220,69668.1,87995.6,770766
0.61,0.00244153,96450.8,-10834.2,73746.8,435648,72947.1,90301.7,755963
0.612,0.00245547,97964,-10801.2,72447.8,434075,76226,92607.7,741160
0.614,0.0024694,99477.2,-10768.2,71148.8,432503,79505,94913.8,726357
0.616,0.00248333,100990,-10735.2,69849.8,430931,82783.9,97219.9,711555
0.618,0.00249726,102503,-10702.2,68550.8,429359,86062.8,99525.9,696752
0.62,0.00251124,102909,-10091.4,66517,426346,89281.3,101414,687464
0.622,0.00252537,99533.3,-7507.5,61974.2,418417,92292.8,101873,697010
0.624,0.0025395,96157.4,-4923.52,57431.3,410488,95304.4,102332,706555
0.626,0.00255376,92865.1,-3093.95,53655.9,403834,95927.4,102903,709043
0.628,0.00256815,89657.3,-2026.74,50655.8,398470,94136.3,103586,704397
0.63,0.00258255,86449.6,-959.561,47655.9,393105,92345.2,104270,699750
0.632,0.00259694,83241.7,107.647,44655.8,387740,90554.1,104953,695104
0.634,0.00261133,80034,1174.82,41655.8,382376,88763.1,105636,690458
0.636,0.0026258,77394.1,1809.25,39776,377117,86660.5,106076,686045
0.638,0.00264048,76158.7,1373.07,40667.5,372119,83787.1,105913,682206
0.64,0.00265515,74923.4,936.907,41558.9,367121,80913.8,105750,678368
0.642,0.00266983,73688,500.73,42450.3,362123,78040.4,105587,674529
0.644,0.00268451,72452.6,64.5654,43341.7,357125,75167.1,105423,670691
0.646,0.00269929,71503.7,72.1865,43216.2,354753,72761.9,104380,666710
0.648,0.00271423,71001.3,771.751,41505.1,356475,71086.5,101966,662506
0.65,0.00272917,70499,1471.32,39794,358197,69411.2,99551.4,658303
0.652,0.00274411,69996.6,2170.9,38082.9,359920,67735.8,97136.8,654099
0.654,0.00275905,69494.3,2870.47,36371.8,361642,66060.5,94722.3,649896
0.656,0.002774,68991.9,3570.05,34660.7,363365,64385.1,92307.7,645692
0.658,0.00278894,68489.5,4269.62,32949.6,365087,62709.8,89893.2,641489
0.66,0.00280388,67987.2,4969.2,31238.5,366809,61034.4,87478.6,637285
0.662,0.00281882,67484.8,5668.77,29527.4,368532,59359.1,85064.1,633081
0.664,0.00283377,66982.5,6368.33,27816.4,370254,57683.8,82649.6,628878
0.666,0.00284871,66480.1,7067.92,26105.2,371977,56008.4,80235,624674
0.668,0.00286365,65977.7,7767.48,24394.2,373699,54333.1,77820.5,620471
0.67,0.0028786,65475.4,8467.07,22683,375421,52657.7,75405.9,616267
0.672,0.00289354,64973,9166.63,20972,377144,50982.4,72991.4,612064
0.674,0.00290848,64470.6,9866.22,19260.8,378866,49307,70576.8,607860
0.676,0.00292343,63968.3,10565.8,17549.8,380589,47631.7,68162.3,603657
0.678,0.00293837,63465.9,11265.3,15838.7,382311,45956.3,65747.8,599453
0.68,0.00295333,62939.4,12005.5,14010.4,383522,44528.9,63013.9,595296
0.682,0.00296847,61917,13576.5,9779,374240,48185.2,53733.5,592098
0.684,0.00298361,60894.5,15147.6,5547.5,364959,51841.7,44452.7,588900
0.686,0.00299875,59872.1,16718.7,1316.12,355677,55498,35172.3,585701
0.688,0.00301389,58849.7,18289.8,-2915.38,346396,59154.5,25891.6,582503
0.69,0.00302903,57827.3,19860.8,-7146.76,337114,62810.8,16611.1,579305
0.692,0.00304417,56804.9,21431.9,-11378.1,327833,66467.2,7330.69,576106
0.694,0.00305931,55782.4,23003,-15609.6,318551,70123.6,-1950.03,572908
0.696,0.00307445,54760,24574.1,-19841,309270,73780,-11230.5,569709
0.698,0.00308969,54197.9,25232.7,-22050.1,302663,76749.6,-18312,564015
0.7,0.00310512,54595.9,23988.2,-20041.3,301635,78286.9,-20806.6,553114
0.702,0.00312056,54993.8,22743.7,-18032.5,300606,79824.2,-23301.3,542214
0.704,0.00313599,55391.8,21499.3,-16023.7,299578,81361.4,-25796,531313
0.706,0.00315143,55789.8,20254.8,-14014.9,298550,82898.6,-28290.6,520413
0.708,0.00316686,56187.8,19010.3,-12006,297521,84435.9,-30785.4,509512
0.71,0.0031823,56585.7,17765.8,-9997.24,296493,85973.2,-33280,498611
0.712,0.00319797,55984,18908.5,-11354.6,302878,85840.1,-36210.7,494966
0.714,0.00321385,54475.2,22217,-15766.2,315988,84191.5,-39536.9,497904
0.716,0.00322974,52966.3,25525.6,-20178,329099,82542.9,-42863.1,500842
0.718,0.00324563,51457.5,28834.2,-24589.6,342209,80894.3,-46189.3,503780
0.72,0.00326152,49948.6,32142.8,-29001.3,355320,79245.6,-49515.5,506718
0.722,0.0032774,48439.8,35451.3,-33413,368430,77597,-52841.7,509656
0.724,0.00329326,47680.3,39529,-35825.6,380601,76977.6,-55163.8,515361
0.726,0.00330905,48658.3,45390.4,-33602.6,390593,78744.9,-55157.4,527484
0.728,0.00332483,49636.4,51251.7,-31379.5,400584,80512.1,-55151,539606
0.73,0.00334062,50614.4,57113.2,-29156.4,410576,82279.4,-55144.6,551728
0.732,0.0033564,51592.5,62974.5,-26933.4,420568,84046.7,-55138.2,563850
0.734,0.00337219,52570.5,68835.9,-24710.3,430560,85814,-55131.9,575972
0.736,0.00338798,53548.6,74697.2,-22487.3,440551,87581.2,-55125.5,588095
0.738,0.00340376,54526.6,80558.5,-20264.3,450543,89348.5,-55119.1,600217
0.74,0.0034195,51961.2,76433.4,-24559.7,451190,88146.6,-60760.9,590961
0.742,0.00343523,49285.2,71996.4,-29058.6,451545,86852.1,-66579,581037
0.744,0.00345096,46609.1,67559.3,-33557.6,451900,85557.5,-72397.2,571113
0.746,0.00346669,43933.1,63122.4,-38056.5,452255,84263,-78215.3,561190
0.748,0.00348262,47309.8,61757.5,-35803.1,450284,84316.9,-72078.3,552879
0.75,0.00349855,51116,60610.7,-33070.6,448147,84466.6,-65092.9,544683
0.752,0.00351449,54922.3,59464,-30338,446011,84616.3,-58107.5,536488
0.754,0.00353043,58728.6,58317.1,-27605.4,443874,84766,-51121.9,528291
0.756,0.00354664,58244.4,53961,-27055.1,441912,85043.8,-45030.8,521802
0.758,0.00356286,57480.7,49395.7,-26646.9,439961,85329.9,-38997.7,515423
0.76,0.00357909,56717.1,44830.5,-26238.7,438009,85616,-32964.8,509045
0.762,0.00359539,55381.9,41743.8,-25490.4,435568,85690,-28120.1,507301
0.764,0.00361181,53012.5,41332.3,-24126.6,432241,85380.2,-25425.8,513942
0.766,0.00362823,50643.1,40920.8,-22762.9,428914,85070.3,-22731.5,520584
0.768,0.00364466,48273.7,40509.3,-21399.1,425587,84760.5,-20037.2,527226
0.77,0.00366108,45904.4,40097.8,-20035.4,422260,84450.6,-17342.8,533867
0.772,0.00367751,43534.9,39686.3,-18671.6,418932,84140.8,-14648.5,540509
0.774,0.0036939,41660.8,38562.6,-17394.1,413179,83633.9,-11370.9,546941
0.776,0.00371021,40778.8,36012.5,-16289.3,402564,82732.2,-6924.98,552955
0.778,0.00372652,39896.9,33462.4,-15184.5,391949,81830.6,-2479.15,558968
0.78,0.00374283,39014.9,30912.3,-14079.7,381334,80928.9,1966.68,564981
0.782,0.00375914,38132.9,28362.2,-12974.8,370720,80027.2,6412.65,570995
0.784,0.00377545,37250.9,25812.1,-11870,360105,79125.6,10858.5,577008
0.786,0.00379176,36368.9,23261.9,-10765.2,349490,78223.9,15304.4,583022
0.788,0.00380807,35487,20711.8,-9660.38,338875,77322.3,19750.3,589035
0.79,0.00382438,34605,18161.7,-8555.54,328261,76420.6,24196.2,595049
0.792,0.00384073,34048.7,15721.9,-7577.55,317534,75440.1,28672.3,599615
0.794,0.00385754,38447.8,14960.9,-8529.13,305100,73259.6,33609.5,582171
0.796,0.00387436,42846.7,14199.8,-9480.68,292666,71079.2,38546.5,564727
0.798,0.00389117,47245.7,13438.8,-10432.2,280232,68898.8,43483.5,547283
0.8,0.00390799,51644.8,12677.7,-11383.8,267798,66718.4,48420.6,529839
0.802,0.00392481,56043.8,11916.7,-12335.4,255365,64538,53357.6,512395
0.804,0.00394162,60442.9,11155.6,-13286.9,242931,62357.5,58294.7,494951
0.806,0.00395844,64841.8,10394.6,-14238.5,230497,60177.1,63231.7,477507
0.808,0.00397526,69240.9,9633.54,-15190.1,218063,57996.7,68168.8,460062
0.81,0.00399217,72706.8,9119,-15357.3,214756,57286.1,71900.9,451411
0.812,0.00400916,75415.5,8804.46,-14888,218854,57768.2,74655.3,449895
0.814,0.00402615,78124.3,8489.91,-14418.8,222953,58250.2,77409.8,448378
0.816,0.00404314,80833,8175.36,-13949.5,227051,58732.3,80164.2,446862
0.818,0.00406013,83541.7,7860.81,-13480.3,231150,59214.4,82918.6,445345
0.82,0.00407712,86250.4,7546.27,-13011,235248,59696.4,85673,443829
0.822,0.00409411,88959.2,7231.72,-12541.8,239346,60178.5,88427.5,442312
0.824,0.0041111,91667.9,6917.18,-12072.5,243445,60660.6,91181.9,440796
0.826,0.00412808,94376.6,6602.64,-11603.3,247543,61142.6,93936.3,439279
0.828,0.00414508,97085.4,6288.08,-11134,251642,61624.7,96690.7,437763
0.83,0.00416206,99794.1,5973.54,-10664.8,255740,62106.8,99445.1,436246
0.832,0.00417906,102503,5658.99,-10195.5,259839,62588.9,102200,434730
0.834,0.00419605,105212,5344.45,-9726.26,263937,63070.9,104954,433213
0.836,0.00421304,107920,5029.9,-9257,268035,63553,107708,431697
0.838,0.00423003,110629,4715.35,-8787.75,272134,64035.1,110463,430180
0.84,0.00424702,113338,4400.81,-8318.51,276232,64517.1,113217,428664
0.842,0.00426394,114926,4637.15,-7595.31,279932,65371.9,115720,427826
0.844,0.00428086,116420,4919.56,-6850.88,283599,66257.9,118202,427045
0.846,0.00429778,117915,5201.98,-6106.43,287266,67143.8,120684,426264
0.848,0.0043147,119409,5484.4,-5362.01,290932,68029.8,123166,425483
0.85,0.00433162,120904,5766.82,-4617.56,294599,68915.8,125648,424702
0.852,0.00434883,120677,4805.63,-3107.41,290872,69102,123365,425367
0.854,0.00436609,120098,3590.71,-1441.03,285637,69145.5,120111,426327
0.856,0.0043834,117343,2793.88,122.806,279465,69147.5,114612,426859
0.858,0.00440077,111341,2620.76,1533.55,271896,69087.4,105765,426751
0.86,0.00441814,105339,2447.63,2944.35,264326,69027.3,96917.5,426643
0.862,0.00443551,99337.2,2274.51,4355.09,256756,68967.3,88070.5,426536
0.864,0.00445287,93335,2101.39,5765.89,249187,68907.2,79223.2,426428
0.866,0.00447041,89550.4,2323.03,6567.56,247226,68915.8,73763.7,425763
0.868,0.00448806,87238.5,2806.84,6964.73,248990,68970,70554,424728
0.87,0.0045057,84926.6,3290.67,7361.91,250754,69024.1,67344.1,423693
0.872,0.00452335,82614.7,3774.48,7759.07,252518,69078.3,64134.4,422658
0.874,0.004541,80302.8,4258.31,8156.25,254282,69132.5,60924.6,421623
0.876,0.00455864,77990.9,4742.12,8553.42,256046,69186.6,57714.9,420588
0.878,0.00457628,76224,5526.85,9318.83,258809,69160.5,55060.8,419015
0.88,0.00459391,74557.4,6366.89,10151.9,261755,69119.6,52509,417343
0.882,0.00461155,72890.8,7206.96,10985,264701,69078.8,49957.1,415671
0.884,0.00462918,71224.2,8047,11818.1,267647,69037.9,47405.2,413999
0.886,0.00464682,69557.6,8887.04,12651.2,270593,68997,44853.4,412328
0.888,0.00466446,67890.9,9727.1,13484.3,273539,68956.2,42301.5,410656
0.89,0.00468209,66224.4,10567.1,14317.4,276485,68915.3,39749.7,408984
0.892,0.00469973,64557.7,11407.2,15150.5,279431,68874.5,37197.8,407312
0.894,0.00471736,62891.1,12247.2,15983.6,282377,68833.6,34645.9,405641
0.896,0.004735,61224.5,13087.3,16816.8,285324,68792.7,32094,403969
0.898,0.00475263,59557.9,13927.3,17649.8,288270,68751.9,29542.2,402297
0.9,0.00477027,57891.3,14767.4,18482.9,291216,68711,26990.4,400625
0.902,0.00478791,56224.7,15607.5,19316.1,294162,68670.1,24438.5,398953
0.904,0.00480577,51656.6,14821.9,18801.7,295156,70643,21244.9,403393
0.906,0.00482365,46845.2,13900.1,18174.3,295987,72784.8,17997.4,408344
0.908,0.00484154,42033.8,12978.3,17546.9,296817,74926.6,14750.1,413296
0.91,0.00485942,37222.4,12056.4,16919.5,297648,77068.4,11502.6,418247
0.912,0.0048773,32411.1,11134.6,16292.2,298479,79210.1,8255.22,423199
0.914,0.00489518,27599.8,10212.8,15664.8,299309,81351.8,5007.85,428150
0.916,0.00491307,22788.3,9290.92,15037.4,300140,83493.6,1760.37,433102
0.918,0.00493095,17977,8369.09,14410,300970,85635.4,-1487,438054
0.92,0.00494902,15202.5,8420.66,13963.2,300870,87356.7,-3449.03,441843
0.922,0.00496729,14617.1,9518.33,13710.5,299768,88626.2,-4029.56,444384
0.924,0.00498556,14031.7,10616,13457.7,298666,89895.8,-4610.1,446925
0.926,0.00500383,13446.3,11713.7,13204.9,297564,91165.2,-5190.63,449465
0.928,0.0050221,12860.9,12811.4,12952.2,296462,92434.7,-5771.16,452006
0.93,0.00504033,13660.5,13540.4,13092.3,290843,93744,-6113.24,449035
0.932,0.00505855,14515.5,14254.6,13248.1,285043,95054.9,-6445.78,445844
0.934,0.00507678,15370.5,14968.9,13404,279243,96365.8,-6778.33,442653
0.936,0.005095,16225.4,15683.1,13559.8,273444,97676.7,-7110.86,439461
0.938,0.00511323,17080.4,16397.4,13715.6,267644,98987.6,-7443.41,436270
0.94,0.00513145,17935.4,17111.7,13871.4,261844,100298,-7775.95,433079
0.942,0.00514968,18790.4,17825.9,14027.3,256044,101609,-8108.48,429888
0.944,0.0051679,19645.4,18540.2,14183.1,250244,102920,-8441.03,426696
0.946,0.00518613,20500.3,19254.4,14338.9,244445,104231,-8773.57,423505
0.948,0.00520435,21355.3,19968.7,14494.7,238645,105542,-9106.11,420314
0.95,0.00522258,22210.3,20682.9,14650.5,232845,106853,-9438.65,417123
0.952,0.0052408,23065.3,21397.2,14806.4,227045,108164,-9771.2,413931
0.954,0.00525903,23920.2,22111.5,14962.2,221246,109475,-10103.7,410740
0.956,0.00527725,24775.2,22825.7,15118,215446,110786,-10436.3,407549
0.958,0.00529554,29822.8,25597.1,15907.5,218900,113468,-5210.21,409140
0.96,0.00531392,40185.9,30976.6,17500.3,234088,117891,7063.47,416793
0.962,0.00533243,56452.8,40195.3,19630,274113,124138,27159.8,444604
0.964,0.00535109,79760.1,53992.6,22399.9,343761,132561,56585.5,496456
0.966,0.00536969,95950.9,62348.6,24007.8,390641,137931,78218.9,529754
0.968,0.00538812,89347.6,53276.7,21893.9,364603,133519,74893.9,503621
0.97,0.00540655,82744.2,44204.6,19779.9,338564,129108,71568.7,477488
0.972,0.00542498,76141,35132.7,17666.1,312525,124696,68243.7,451355
0.974,0.00544341,69537.8,26060.9,15552.2,286487,120285,64918.6,425223
0.976,0.00546191,63368,19230.9,14688.9,269739,115807,63026.8,408543
0.978,0.00548043,57163.3,12810.1,14116.1,255027,111240,61418,393888
0.98,0.00549912,56476.1,12666.5,14695.3,253523,109392,63006.4,394394
0.982,0.00551781,55788.9,12522.9,15274.4,252020,107545,64594.6,394900
0.984,0.00553651,55101.7,12379.3,15853.6,250516,105697,66183,395406
0.986,0.0055552,54414.5,12235.8,16432.7,249013,103849,67771.3,395912
0.988,0.0055739,53727.3,12092.2,17011.9,247509,102001,69359.6,396418
0.99,0.00559259,53040.1,11948.6,17591,246005,100153,70947.9,396924
0.992,0.00561129,52353,11805,18170.2,244502,98305.3,72536.2,397430
0.994,0.00562998,51665.8,11661.4,18749.3,242998,96457.3,74124.5,397936
0.996,0.00564867,50978.6,11517.8,19328.5,241495,94609.5,75712.8,398442
0.998,0.00566737,50291.4,11374.2,19907.6,239991,92761.6,77301.2,398948
1,0.00568606,49604.2,11230.6,20486.8,238488,90913.7,78889.4,399454
1.002,0.00570476,48917,11087,21065.9,236984,89065.9,80477.7,399960
1.004,0.00572345,48229.8,10943.5,21645.1,235481,87218,82066,400466
1.006,0.00574215,47542.6,10799.9,22224.2,233977,85370.1,83654.4,400972
1.008,0.00576084,46855.4,10656.3,22803.4,232474,83522.2,85242.7,401478
1.01,0.00577953,46168.2,10512.7,23382.5,230970,81674.4,86831,401984
1.012,0.00579823,45481,10369.1,23961.7,229467,79826.5,88419.3,402490
1.014,0.00581692,44793.8,10225.5,24540.8,227963,77978.5,90007.7,402996
1.016,0.00583562,44106.6,10081.9,25120,226460,76130.7,91596,403502
1.018,0.00585431,43419.4,9938.32,25699.1,224956,74282.8,93184.2,404008
1.02,0.00587301,42732.2,9794.74,26278.3,223453,72435,94772.5,404514
1.022,0.0058917,42045,9651.15,26857.4,221949,70587.1,96360.8,405020
1.024,0.0059104,41357.8,9507.55,27436.6,220445,68739.2,97949.2,405526
1.026,0.00592902,41773.2,8827.47,27497.4,218895,66520.9,99801.6,404382
1.028,0.00594787,39594.3,7261,27317.6,216764,64673.7,95071.6,407413
1.03,0.00596687,37267.1,5840.59,28765,215040,63903.4,88815.9,409508
1.032,0.00598587,34939.9,4420.18,30212.4,213316,63133,82560.2,411603
1.034,0.00600486,32612.6,2999.69,31659.9,211592,62362.6,76304.2,413699
1.036,0.00602386,30285.4,1579.28,33107.3,209868,61592.3,70048.5,415794
1.038,0.00604286,27958.2,158.869,34554.8,208144,60821.9,63792.8,417889
1.04,0.00606185,25630.9,-1261.54,36002.2,206420,60051.6,57537.1,419984
1.042,0.00608085,23303.6,-2682.03,37449.7,204696,59281.2,51281,422080
1.044,0.00609986,21922.7,-3506.46,39605.5,201554,59140.4,46823.7,422312
1.046,0.00611905,21950.8,-2943.54,40371.8,203709,60332.6,44917.6,415630
1.048,0.00613825,21970.5,-2369.27,41050.7,206122,61532.4,42991.5,408826
1.05,0.00615745,21990.2,-1795,41729.6,208536,62732.2,41065.4,402022
1.052,0.00617666,22009.9,-1220.7,42408.5,210950,63932.1,39139.1,395218
1.054,0.00619586,22029.6,-646.427,43087.4,213363,65131.9,37213,388415
1.056,0.00621506,22049.3,-72.1582,43766.2,215777,66331.7,35286.9,381611
1.058,0.00623426,22069,502.111,44445.1,218191,67531.5,33360.7,374807
1.06,0.00625346,22088.7,1076.38,45124,220604,68731.4,31434.6,368003
1.062,0.00627267,22108.4,1650.68,45802.9,223018,69931.2,29508.4,361199
1.064,0.00629187,22128.1,2224.95,46481.8,225432,71131,27582.2,354395
1.066,0.00631107,22147.8,2799.22,47160.6,227846,72330.9,25656.1,347592
1.068,0.00633027,22167.5,3373.49,47839.5,230259,73530.7,23730,340788
1.07,0.00634947,22187.2,3947.79,48518.4,232673,74730.5,21803.7,333984
1.072,0.00636868,22206.9,4522.06,49197.3,235087,75930.4,19877.6,327180
1.074,0.00638791,22316.7,5605.56,49283.5,235971,76194,18627.1,318259
1.076,0.00640721,22682.1,8133.67,47688.8,232514,73801.9,19293.5,303333
1.078,0.00642652,23047.4,10661.8,46094,229057,71409.8,19959.9,288407
1.08,0.00644585,22896,12962.5,44964.7,225129,69123.3,19934.4,276026
1.082,0.00646535,21480.5,13906.6,45265.3,221438,67777.4,17791.9,275560
1.084,0.00648491,21026.1,13860.6,45213.5,221082,67440.6,16185.9,280410
1.086,0.00650448,20571.7,13814.5,45161.7,220726,67103.8,14579.9,285261
1.088,0.00652404,20117.3,13768.5,45109.9,220369,66766.9,12973.8,290112
1.09,0.00654361,19662.9,13722.5,45058.1,220013,66430,11367.8,294962
1.092,0.00656317,19208.5,13676.4,45006.3,219657,66093.2,9761.77,299813
1.094,0.00658274,18754.1,13630.4,44954.4,219301,65756.3,8155.76,304664
1.096,0.0066023,18299.7,13584.3,44902.6,218945,65419.5,6549.76,309514
1.098,0.00662187,17845.3,13538.3,44850.8,218589,65082.6,4943.65,314365
1.1,0.00664144,17390.9,13492.3,44799,218233,64745.8,3337.65,319216
1.102,0.006661,16936.6,13446.2,44747.2,217877,64408.9,1731.64,324066
1.104,0.00668057,16482.2,13400.2,44695.4,217521,64072.1,125.637,328917
1.106,0.00670013,16027.8,13354.1,44643.6,217165,63735.3,-1480.37,333768
1.108,0.00671971,16716.3,13344.3,43505.2,215613,63191.7,-2067.01,336268
1.11,0.00673928,17878.1,13349.4,41917,213566,62562.5,-2231.49,337795
1.112,0.00675886,19039.9,13354.5,40328.8,211519,61933.3,-2395.97,339321
1.114,0.00677843,20201.7,13359.7,38740.6,209473,61304.1,-2560.46,340848
1.116,0.00679801,21363.5,13364.8,37152.4,207426,60674.9,-2724.95,342375
1.118,0.00681759,22525.3,13369.9,35564.2,205379,60045.8,-2889.43,343901
1.12,0.00683716,23687.1,13375.1,33976,203332,59416.6,-3053.91,345428
1.122,0.00685688,24545.7,14748.3,30624.7,201238,59332.6,-318.927,342409
1.124,0.00687663,25343.4,16396.6,26919.1,199134,59358.2,2998.79,338477
1.126,0.00689639,26141.2,18044.9,23213.2,197030,59383.8,6316.7,334545
1.128,0.00691614,26938.9,19693.1,19507.6,194927,59409.4,9634.41,330613
1.13,0.00693589,27736.6,21341.3,15802,192823,59435,12952.1,326681
1.132,0.00695564,28534.2,22989.5,12096.4,190719,59460.6,16269.8,322749
1.134,0.00697545,28894.5,24153.3,9795.71,188434,59799,19067,319184
1.136,0.00699534,28606.2,24598.9,9577.88,185879,60601.2,21092.6,316161
1.138,0.00701522,28317.9,25044.4,9360.06,183324,61403.4,23118.2,313139
1.14,0.0070351,28216.5,24838.8,8978.02,181254,60753.5,23014.5,308425
1.142,0.00705497,28148.6,24516.6,8566.57,179270,59843.8,22529.7,303409
1.144,0.00707484,28080.7,24194.4,8155.1,177286,58933.9,22044.9,298393
1.146,0.00709471,28012.8,23872.3,7743.66,175303,58024.2,21560,293376
1.148,0.00711458,27944.8,23550.1,7332.21,173319,57114.4,21075.2,288360
1.15,0.00713445,27876.9,23227.9,6920.77,171335,56204.6,20590.4,283344
1.152,0.00715432,27809,22905.8,6509.32,169352,55294.9,20105.6,278328
1.154,0.00717419,27741.1,22583.6,6097.85,167368,54385.1,19620.8,273311
1.156,0.00719406,27673.1,22261.4,5686.41,165385,53475.3,19136,268295
1.158,0.00721393,27605.2,21939.2,5274.96,163401,52565.5,18651.1,263279
1.16,0.0072338,27537.3,21617.1,4863.52,161417,51655.8,18166.3,258263
1.162,0.00725367,27469.4,21294.9,4452.07,159434,50746,17681.5,253247
1.164,0.00727355,27401.5,20972.7,4040.6,157450,49836.2,17196.7,248230
1.166,0.00729342,27333.5,20650.5,3629.15,155466,48926.4,16711.9,243214
1.168,0.00731329,27084.6,20438.7,3140.11,154275,47936.4,16287.5,238840
1.17,0.00733318,26393.4,20496.5,2461.55,155020,46750.3,16010.6,236037
1.172,0.00735306,25702.3,20554.2,1782.94,155764,45564.1,15733.7,233233
1.174,0.00737295,25011.2,20611.9,1104.37,156508,44378,15456.9,230430
1.176,0.00739283,24320,20669.7,425.81,157252,43191.9,15180,227626
1.178,0.00741278,22737.8,20267.6,-124.329,156029,41838.6,13554.2,224645
1.18,0.0074329,19086.1,18797.8,-376.234,150235,40097.1,8795.63,221250
1.182,0.00745301,15434.3,17327.9,-628.154,144441,38355.5,4036.81,217856
1.184,0.00747313,11782.7,15858.1,-880.06,138647,36614,-721.733,214462
1.186,0.00749324,8131.01,14388.3,-1131.96,132853,34872.5,-5480.27,211067
1.188,0.00751336,4479.37,12918.5,-1383.87,127060,33131,-10238.8,207673
1.19,0.00753353,4455.29,12757.8,-1270.45,127821,33220,-9908.53,206917
1.192,0.00755372,5259.11,12895.7,-1073.66,130078,33726.6,-8416.85,206762
1.194,0.00757391,6062.93,13033.7,-876.872,132335,34233.3,-6925.17,206608
1.196,0.0075941,6866.76,13171.7,-680.083,134592,34740,-5433.49,206454
1.198,0.00761428,7670.58,13309.6,-483.294,136850,35246.7,-3941.81,206300
1.2,0.00763447,8474.45,13447.6,-286.493,139107,35753.4,-2450.05,206145
1.202,0.00765466,9278.27,13585.6,-89.7035,141364,36260.1,-958.367,205991
1.204,0.00767485,10082.1,13723.5,107.086,143621,36766.8,533.312,205837
1.206,0.00769504,10885.9,13861.5,303.875,145879,37273.5,2024.99,205683
1.208,0.00771523,11689.7,13999.5,500.664,148136,37780.2,3516.67,205528
1.21,0.00773542,12493.6,14137.5,697.465,150393,38286.9,5008.44,205374
1.212,0.00775561,13297.4,14275.4,894.254,152650,38793.6,6500.12,205220
1.214,0.00777579,14101.3,14413.4,1091.04,154907,39300.3,7991.79,205066
1.216,0.00779601,14844,15075.7,1457.22,158444,39826.9,10431,206320
1.218,0.00781625,15512.7,16373.5,2028.74,163533,40377.5,14019,209282
1.22,0.0078365,18966.1,17742.5,2638.49,170364,41672.7,18748.3,212615
1.222,0.00785674,24413.7,19162.4,3275.65,178443,43501,24294.9,216214
1.224,0.00787699,29861.3,20582.4,3912.8,186521,45329.4,29841.6,219812
1.226,0.00789723,35308.9,22002.3,4549.96,194600,47157.8,35388.2,223411
1.228,0.00791748,40756.8,23422.4,5187.15,202679,48986.3,40935.2,227010
1.23,0.00793772,46204.4,24842.3,5824.31,210757,50814.6,46481.8,230609
1.232,0.00795804,50811.8,25642.8,5795.22,215061,52279.4,50452.8,231410
1.234,0.00797851,53843.6,25281.6,4516.65,212284,53062.1,51468.7,226963
1.236,0.00799896,54857.7,24807.4,3626.62,208535,53518.7,51841.8,224752
1.238,0.00801939,53653.3,24209.1,3163.73,203717,53616.8,51508.1,224999
1.24,0.00803983,52448.9,23610.8,2700.88,198898,53714.8,51174.4,225247
1.242,0.00806027,51244.6,23012.6,2238.02,194080,53812.8,50840.6,225494
1.244,0.0080807,50040.2,22414.3,1775.16,189261,53910.9,50506.9,225742
1.246,0.00810114,48835.8,21816,1312.28,184443,54008.9,50173.2,225989
1.248,0.00812158,47631.4,21217.7,849.423,179624,54106.9,49839.4,226236
1.25,0.00814201,46427.1,20619.5,386.567,174806,54205,49505.7,226484
1.252,0.00816245,45222.7,20021.2,-76.2895,169987,54303,49172,226731
1.254,0.00818288,44018.4,19422.9,-539.146,165169,54401,48838.2,226979
1.256,0.00820332,42814,18824.6,-1002.03,160350,54499.1,48504.5,227226
1.258,0.00822376,41609.6,18226.4,-1464.89,155531,54597.1,48170.8,227473
1.26,0.00824422,41287.8,17740.5,-1858.18,152387,54363.1,48164.3,230721
1.262,0.0082647,41256.5,17291.6,-2228.56,149793,54019.8,48265.7,234956
1.264,0.00828517,41225.3,16842.7,-2598.97,147200,53676.5,48367.1,239192
1.266,0.00830565,41194.1,16393.8,-2969.35,144606,53333.2,48468.4,243428
1.268,0.00832612,41162.8,15945,-3339.73,142013,52989.9,48569.8,247663
1.27,0.0083466,41131.6,15496.1,-3710.11,139419,52646.6,48671.2,251899
1.272,0.00836707,41100.4,15047.3,-4080.5,136825,52303.3,48772.5,256134
1.274,0.00838755,41069.1,14598.4,-4450.9,134232,51960,48873.9,260370
1.276,0.00840817,41444.7,13756.4,-4709.87,134491,50083.6,49722.3,264142
1.278,0.00842881,41887.5,12849.5,-4950.43,135221,47953.8,50694.2,267837
1.28,0.00844946,42330.3,11942.5,-5190.99,135951,45824,51666.1,271532
1.282,0.0084701,42773.2,11035.6,-5431.55,136681,43694.2,52638,275227
1.284,0.00849075,43216,10128.6,-5672.12,137412,41564.3,53609.9,278922
1.286,0.0085114,43658.8,9221.68,-5912.68,138142,39434.5,54581.8,282617
1.288,0.00853204,44101.6,8314.75,-6153.24,138872,37304.8,55553.7,286313
1.29,0.00855269,44544.5,7407.82,-6393.8,139602,35175,56525.6,290008
1.292,0.00857342,44913.9,7340.93,-6609.59,140186,34231.1,56731.1,289622
1.294,0.00859418,45261.8,7521.22,-6818.08,140726,33636.2,56711.1,288036
1.296,0.00861497,44798.3,7929.56,-6295.76,139463,33035,55187,286529
1.298,0.00863576,44267,8356.97,-5712.28,138049,32433.3,53537.1,285029
1.3,0.00865655,43735.7,8784.39,-5128.81,136635,31831.7,51887.1,283529
1.302,0.00867735,43204.3,9211.83,-4545.3,135221,31230,50237.1,282028
1.304,0.00869814,42673,9639.24,-3961.82,133807,30628.3,48587.2,280528
1.306,0.00871893,42141.7,10066.7,-3378.35,132393,30026.7,46937.2,279028
1.308,0.00873972,41610.4,10494.1,-2794.87,130979,29425,45287.3,277528
1.31,0.00876052,41079,10921.5,-2211.39,129566,28823.3,43637.4,276027
1.312,0.00878131,40547.7,11348.9,-1627.88,128151,28221.6,41987.3,274527
1.314,0.0088021,40016.3,11776.3,-1044.41,126738,27620,40337.4,273027
1.316,0.00882289,39485,12203.8,-460.932,125324,27018.3,38687.5,271527
1.318,0.00884368,38953.7,12631.2,122.544,123910,26416.6,37037.5,270026
1.32,0.00886448,38422.3,13058.6,706.054,122496,25814.9,35387.5,268526
1.322,0.00888526,37999.8,13512,1235.22,121987,25377.3,34045.2,265763
1.324,0.00890603,37903.5,14043,1601.58,124194,25431.2,33625.1,259213
1.326,0.0089268,37807.2,14574,1967.94,126401,25485.1,33204.9,252664
1.328,0.00894756,37710.9,15105,2334.31,128608,25539.1,32784.8,246115
1.33,0.00896833,37614.6,15636.1,2700.69,130815,25593,32364.6,239565
1.332,0.00898909,37518.3,16167.1,3067.06,133022,25646.9,31944.4,233016
1.334,0.00900986,37422,16698.1,3433.42,135228,25700.8,31524.3,226466
1.336,0.00903062,37325.7,17229.2,3799.78,137435,25754.8,31104.1,219917
1.338,0.00905139,37229.4,17760.2,4166.17,139642,25808.7,30683.9,213367
1.34,0.00907216,37133.1,18291.2,4532.53,141849,25862.6,30263.8,206818
1.342,0.00909297,36794.3,18394.9,5032.31,140292,26226,29827.1,200834
1.344,0.00911387,36076,17829.9,5740.87,132845,27073.6,29364.5,195736
1.346,0.00913477,35357.7,17264.9,6449.42,125397,27921.1,28902,190637
1.348,0.00915567,34639.3,16699.8,7158.01,117950,28768.7,28439.4,185538
1.35,0.00917657,33921,16134.8,7866.56,110503,29616.2,27976.8,180440
1.352,0.00919747,33202.7,15569.8,8575.11,103056,30463.8,27514.2,175341
1.354,0.00921837,32484.4,15004.8,9283.66,95608.8,31311.3,27051.7,170242
1.356,0.00923927,31766.1,14439.7,9992.21,88161.7,32158.9,26589.1,165144
1.358,0.00926017,31047.8,13874.7,10700.8,80714.2,33006.5,26126.5,160045
1.36,0.00928114,30583.3,13536.9,11464.7,76772.6,34028.8,26978.8,161110
1.362,0.00930214,30274.9,13338.8,12262.7,74984.9,35158.6,28638.9,165961
1.364,0.00932315,29966.5,13140.7,13060.6,73197.3,36288.4,30299.1,170813
1.366,0.00934418,29634.3,12995.9,13625,71912.6,37240.9,31285.8,173894
1.368,0.00936524,29255.4,12956.2,13728.6,71620.6,37843.2,30943.4,173481
1.37,0.0093863,28876.5,12916.5,13832.1,71328.7,38445.5,30600.9,173068
1.372,0.00940736,28497.5,12876.8,13935.7,71036.7,39047.9,30258.5,172654
1.374,0.00942842,28118.6,12837.1,14039.2,70744.7,39650.2,29916,172241
1.376,0.00944948,27739.7,12797.4,14142.8,70452.8,40252.6,29573.6,171828
1.378,0.00947054,27360.7,12757.7,14246.4,70160.8,40854.9,29231.1,171415
1.38,0.0094916,26981.8,12718,14349.9,69868.8,41457.3,28888.7,171001
1.382,0.00951265,26602.9,12678.3,14453.5,69576.9,42059.6,28546.2,170588
1.384,0.00953371,26223.9,12638.6,14557,69284.9,42661.9,28203.8,170175
1.386,0.00955477,25845,12598.9,14660.6,68992.9,43264.3,27861.3,169761
1.388,0.00957583,25466,12559.2,14764.2,68700.9,43866.6,27518.9,169348
1.39,0.00959689,25087.1,12519.5,14867.7,68409,44469,27176.4,168935
1.392,0.00961795,24708.2,12479.8,14971.3,68117,45071.3,26834,168522
1.394,0.00963902,24436.7,12432.2,14988.8,68068.1,45585.6,26451.4,167800
1.396,0.00966021,25059.5,12318.6,14290.7,70042.2,45366.6,25734.7,164517
1.398,0.00968139,25682.3,12205,13592.6,72016.3,45147.7,25018.1,161234
1.4,0.00970257,26305.2,12091.4,12894.6,73990.4,44928.8,24301.4,157951
1.402,0.00972379,27245.1,12574.5,11208.3,80241.8,44640.6,25239.6,162216
1.404,0.00974503,28227.9,13138,9388.71,87070.1,44343.1,26400.8,167500
1.406,0.00976625,29210.5,13701.5,7569.24,93898,44045.7,27562,172783
1.408,0.00978748,30193.2,14265,5749.78,100726,43748.2,28723.2,178065
1.41,0.00980871,31175.9,14828.5,3930.32,107554,43450.7,29884.5,183348
1.412,0.00982994,32158.6,15392,2110.85,114382,43153.2,31045.7,188631
1.414,0.00985117,33141.3,15955.6,291.28,121210,42855.7,32206.9,193915
1.416,0.00987246,33476.7,16193.8,-766.666,123843,42418.1,32737.2,196160
1.418,0.0098938,33294.2,16171.7,-1215.13,123118,41868.2,32762.5,195973
1.42,0.00991514,33111.6,16149.6,-1663.6,122393,41318.4,32787.8,195787
1.422,0.00993648,32929.1,16127.4,-2112.09,121668,40768.5,32813.1,195601
1.424,0.00995782,32746.5,16105.3,-2560.56,120944,40218.6,32838.4,195415
1.426,0.00997916,32564,16083.2,-3009.03,120219,39668.8,32863.7,195228
1.428,0.0100005,32279,16067.5,-3450.13,118978,38991.4,32788.5,194478
1.43,0.0100218,31729.5,16068.2,-3872.22,116402,37984.6,32453.9,192272
1.432,0.0100431,31179.9,16068.9,-4294.34,113826,36977.8,32119.2,190065
1.434,0.0100644,30630.4,16069.6,-4716.43,111250,35971,31784.6,187859
1.436,0.0100857,30080.8,16070.3,-5138.52,108675,34964.2,31450,185652
1.438,0.0101071,29531.3,16071.1,-5560.61,106099,33957.4,31115.4,183446
1.44,0.0101284,28981.7,16071.8,-5982.72,103523,32950.5,30780.7,181239
1.442,0.0101497,28432.2,16072.5,-6404.81,100947,31943.7,30446.1,179033
1.444,0.010171,27898.4,16084.2,-6804.98,98602.9,30970.5,30107.8,176914
1.446,0.0101923,27580.4,16246.6,-6904.56,99431.7,30457.9,29718.7,175998
1.448,0.0102136,27262.3,16409,-7004.15,100260,29945.2,29329.7,175082
1.45,0.0102349,26944.3,16571.4,-7103.74,101089,29432.5,28940.7,174166
1.452,0.0102563,26626.3,16733.8,-7203.32,101918,28919.9,28551.6,173251
1.454,0.0102776,26308.3,16896.1,-7302.9,102747,28407.3,28162.6,172335
1.456,0.0102989,25990.2,17058.5,-7402.49,103575,27894.6,27773.6,171419
1.458,0.0103202,25672.2,17220.9,-7502.07,104404,27382,27384.5,170503
1.46,0.0103415,25354.2,17383.3,-7601.66,105233,26869.3,26995.5,169587
1.462,0.0103628,25036.1,17545.7,-7701.24,106062,26356.7,26606.4,168671
1.464,0.0103841,24718.1,17708.1,-7800.83,106890,25844,26217.4,167756
1.466,0.0104054,24400.1,17870.5,-7900.41,107719,25331.4,25828.4,166840
1.468,0.0104268,24082,18032.9,-8000,108548,24818.7,25439.3,165924
1.47,0.0104481,23764,18195.2,-8099.58,109377,24306.1,25050.3,165008
1.472,0.0104694,23446,18357.6,-8199.17,110205,23793.4,24661.2,164092
1.474,0.0104907,23128,18520,-8298.75,111034,23280.8,24272.2,163176
1.476,0.010512,22809.9,18682.4,-8398.33,111863,22768.1,23883.2,162260
1.478,0.0105333,22491.9,18844.8,-8497.92,112692,22255.5,23494.1,161345
1.48,0.0105547,22022.2,18548.4,-7726.73,110858,22640.9,22294.2,159584
1.482,0.0105761,21443.4,17922.3,-6329.76,107111,23671.7,20511.6,157217
1.484,0.0105976,20864.7,17296.2,-4932.8,103365,24702.5,18729,154850
1.486,0.010619,20286,16670.1,-3535.84,99617.8,25733.3,16946.4,152482
1.488,0.0106405,19707.2,16044,-2138.79,95870.8,26764.2,15163.7,150115
1.49,0.0106619,19128.5,15417.9,-741.824,92124,27795,13381.1,147748
1.492,0.0106833,18549.7,14791.8,655.14,88377.2,28825.8,11598.5,145380
1.494,0.0107048,17971,14165.8,2052.1,84630.4,29856.6,9815.87,143013
1.496,0.0107263,17661.1,13996.8,3456.26,83935.7,30300.7,8468.08,143238
1.498,0.0107478,17521.7,14117.5,4864.84,85174.6,30373,7395.88,145106
1.5,0.0107693,17382.2,14238.2,6273.41,86413.5,30445.4,6323.68,146973
1.502,0.0107908,17242.7,14358.8,7681.99,87652.3,30517.8,5251.48,148840
1.504,0.0108123,17117.4,14495.7,9010,88906.1,30562.1,4229.56,150432
1.506,0.0108339,17258.7,14938.7,8819.39,90441.1,30078.9,4155.29,146822
1.508,0.0108556,17400,15381.7,8628.8,91975.9,29595.6,4081.03,143213
1.51,0.0108772,17541.3,15824.7,8438.21,93510.8,29112.4,4006.77,139604
1.512,0.0108988,17682.6,16267.7,8247.61,95045.7,28629.2,3932.51,135995
1.514,0.0109204,17823.9,16710.7,8057.01,96580.6,28145.9,3858.25,132385
1.516,0.010942,18264.2,16858.5,7722.99,95686,27758.1,4722.59,130069
1.518,0.0109636,18761.5,16949.9,7361.6,94327.8,27388.6,5766.06,127999
1.52,0.0109852,19258.9,17041.3,7000.21,92969.6,27019,6809.52,125929
1.522,0.0110068,19756.2,17132.8,6638.82,91611.4,26649.4,7852.99,123859
1.524,0.0110284,20253.6,17224.2,6277.41,90253.1,26279.9,8896.52,121789
1.526,0.0110499,20750.9,17315.6,5916.02,88894.9,25910.3,9939.98,119719
1.528,0.0110715,21248.2,17407,5554.63,87536.7,25540.8,10983.5,117649
1.53,0.0110931,21745.5,17498.4,5193.24,86178.5,25171.2,12026.9,115579
1.532,0.0111147,22225.7,17599.6,4847.8,84943.7,24799.5,12973.9,113607
1.534,0.0111363,22437.1,17853.4,4751.12,85634.3,24395.1,12414.9,113158
1.536,0.0111578,22648.4,18107.1,4654.45,86324.9,23990.7,11856,112709
1.538,0.0111794,22859.8,18360.8,4557.78,87015.4,23586.3,11297.1,112260
1.54,0.011201,23071.2,18614.6,4461.11,87706,23182,10738.2,111811
1.542,0.0112225,23282.6,18868.3,4364.44,88396.6,22777.5,10179.2,111362
1.544,0.0112441,23494,19122.1,4267.77,89087.2,22373.2,9620.28,110913
1.546,0.0112656,23705.4,19375.8,4171.1,89777.8,21968.8,9061.36,110464
1.548,0.0112872,23916.8,19629.5,4074.43,90468.4,21564.4,8502.43,110015
1.55,0.0113088,24128.2,19883.3,3977.76,91159,21160,7943.51,109566
1.552,0.0113303,24339.6,20137,3881.09,91849.6,20755.6,7384.56,109117
1.554,0.011352,24333.8,20174.1,4112.86,91798.6,20713.1,7705.02,109252
1.556,0.0113737,24200.4,20083.8,4537.53,91312.2,20883.2,8541.95,109730
1.558,0.0113953,24067,19993.6,4962.21,90825.7,21053.3,9378.88,110208
1.56,0.011417,23933.7,19903.4,5386.88,90339.3,21223.4,10215.8,110686
1.562,0.0114387,23800.3,19813.2,5811.58,89852.8,21393.5,11052.8,111164
1.564,0.0114604,23666.9,19723,6236.25,89366.4,21563.6,11889.7,111641
1.566,0.011482,23533.5,19632.8,6660.92,88879.9,21733.7,12726.7,112119
1.568,0.0115037,23400.2,19542.6,7085.6,88393.5,21903.8,13563.6,112597
1.57,0.0115254,23266.8,19452.4,7510.3,87907,22073.9,14400.6,113075
1.572,0.0115471,23133.4,19362.2,7934.97,87420.5,22243.9,15237.5,113553
1.574,0.0115688,23000,19272,8359.64,86934.1,22414,16074.4,114030
1.576,0.0115905,23562.5,19343.1,9248.36,87188.5,22480.2,16582.7,114598
1.578,0.0116122,24715.3,19550.9,10530.7,88071.4,22458.1,16812.3,115242
1.58,0.011634,25868.2,19758.8,11813.1,88954.3,22436.1,17041.8,115885
1.582,0.0116557,27021,19966.6,13095.4,89837.1,22414.1,17271.3,116529
1.584,0.0116775,28173.8,20174.4,14377.8,90720,22392,17500.8,117173
1.586,0.0116992,29326.6,20382.3,15660.1,91602.8,22370,17730.4,117816
1.588,0.0117209,30479.4,20590.1,16942.5,92485.7,22348,17959.9,118460
1.59,0.0117427,31632.2,20798,18224.9,93368.6,22325.9,18189.4,119104
1.592,0.0117644,32785,21005.8,19507.2,94251.4,22303.9,18419,119748
1.594,0.0117862,33014.7,20936.2,19481.3,93887.2,22356.6,18793.4,120089
1.596,0.011808,33046.9,20807.3,19175.5,93256,22425.3,19198.8,120366
1.598,0.0118297,33079.1,20678.3,18869.6,92624.8,22494,19604.2,120643
1.6,0.0118515,33111.2,20549.4,18563.7,91993.6,22562.7,20009.6,120920
1.602,0.0118733,33143.4,20420.4,18257.9,91362.4,22631.4,20415,121197
1.604,0.011895,33175.5,20291.4,17952,90731.3,22700.1,20820.4,121474
1.606,0.0119168,32991.7,20315,17443.5,88256,22442.5,20631.1,119763
1.608,0.0119387,32664.1,20440.1,16800.1,84552.7,21967.7,20045.8,116730
1.61,0.0119605,32336.5,20565.2,16156.7,80849.7,21492.9,19460.7,113697
1.612,0.0119823,32008.8,20690.3,15513.3,77146.7,21018.1,18875.5,110663
1.614,0.0120041,31681.2,20815.5,14870,73443.7,20543.4,18290.3,107630
1.616,0.0120259,31353.6,20940.6,14226.5,69740.5,20068.5,17705,104597
1.618,0.0120477,31026,21065.7,13583.1,66037.4,19593.8,17119.8,101563
1.62,0.0120696,30698.4,21190.8,12939.8,62334.4,19119,16534.7,98530.2
1.622,0.0120914,30685.7,21227.5,12429.6,60428,18875,16315.6,96772.3
1.624,0.0121132,31029.3,21164.1,12070.1,60554.3,18892.2,16510.9,96457.4
1.626,0.012135,31373,21100.7,11710.5,60680.7,18909.4,16706.2,96142.5
1.628,0.0121569,31716.6,21037.4,11351,60807,18926.6,16901.5,95827.6
1.63,0.0121787,32060.2,20974,10991.5,60933.4,18943.9,17096.8,95512.7
1.632,0.0122005,32403.8,20910.6,10632,61059.7,18961.1,17292.1,95197.8
1.634,0.0122223,32747.5,20847.3,10272.5,61186.1,18978.3,17487.3,94882.9
1.636,0.0122442,33091.1,20783.9,9913,61312.4,18995.5,17682.6,94568
1.638,0.012266,33434.8,20720.5,9553.5,61438.8,19012.7,17877.9,94253
1.64,0.0122878,33778.4,20657.1,9193.99,61565.1,19029.9,18073.2,93938.1
1.642,0.0123097,34122,20593.8,8834.49,61691.5,19047.1,18268.5,93623.3
1.644,0.0123315,34465.7,20530.4,8474.97,61817.9,19064.4,18463.8,93308.3
1.646,0.0123533,34809.3,20467,8115.47,61944.2,19081.6,18659.1,92993.4
1.648,0.0123751,35152.9,20403.7,7755.97,62070.6,19098.8,18854.4,92678.5
1.65,0.012397,35496.6,20340.3,7396.46,62196.9,19116,19049.6,92363.6
1.652,0.0124188,35840.2,20276.9,7036.96,62323.3,19133.2,19244.9,92048.7
1.654,0.0124406,36183.8,20213.5,6677.44,62449.6,19150.4,19440.2,91733.8
1.656,0.0124625,36800.4,20335.8,6241.41,63128.8,19197.7,19812.7,91505.9
1.658,0.0124845,37714.7,20141,5237.8,62599.1,19448.4,20130.3,90580.2
1.66,0.0125064,37658.7,19520.8,4376.07,60633.6,19624.6,19500.6,88951.4
1.662,0.0125283,37602.6,18900.5,3514.34,58668.1,19800.9,18870.9,87322.6
1.664,0.0125503,37546.6,18280.3,2652.56,56702.5,19977.1,18241.1,85693.6
1.666,0.0125722,37490.6,17660,1790.83,54736.9,20153.3,17611.4,84064.8
1.668,0.0125941,37434.6,17039.8,929.096,52771.4,20329.6,16981.7,82436
1.67,0.012616,37378.6,16419.5,67.3655,50805.9,20505.8,16352,80807.1
1.672,0.012638,37322.6,15799.2,-794.416,48840.3,20682,15722.2,79178.2
1.674,0.0126599,37266.6,15179,-1656.15,46874.8,20858.3,15092.5,77549.3
1.676,0.0126818,35481.5,13800.6,-2265.04,42350.5,20901.8,12774.6,74667.4
1.678,0.0127038,35338.3,13412.3,-2481.17,41214.8,21033.3,12620.3,75957.9
1.68,0.0127257,35262.1,13059,-2694.16,40198,21169.2,12543,77358.2
1.682,0.0127476,35186,12705.7,-2907.17,39181.2,21305,12465.7,78758.5
1.684,0.0127696,35109.8,12352.4,-3120.16,38164.4,21440.9,12388.4,80158.7
1.686,0.0127915,35033.7,11999.1,-3333.16,37147.6,21576.7,12311.1,81558.9
1.688,0.0128134,34895.7,11611.7,-3563.06,36167.9,21666.8,12237.3,83085.7
1.69,0.0128353,34723.4,11205.2,-3802.35,35208.7,21731.4,12165.6,84682.8
1.692,0.0128573,34551.2,10798.9,-4041.62,34249.4,21796.1,12093.9,86279.7
1.694,0.0128792,34378.9,10392.5,-4280.89,33290.2,21860.7,12022.2,87876.7
1.696,0.0129011,34206.6,9986.07,-4520.17,32331,21925.4,11950.5,89473.6
1.698,0.0129231,34034.4,9579.68,-4759.44,31371.8,21990,11878.8,91070.6
1.7,0.012945,33862.1,9173.26,-4998.73,30412.6,22054.7,11807,92667.6
1.702,0.0129669,33689.8,8766.87,-5238,29453.4,22119.3,11735.3,94264.5
1.704,0.0129888,33517.5,8360.48,-5477.27,28494.2,22184,11663.6,95861.5
1.706,0.0130108,33345.3,7954.09,-5716.54,27534.9,22248.6,11591.9,97458.4
1.708,0.0130327,33344.5,7645.43,-5930.73,26840.9,22343.3,11490.8,98918.7
1.71,0.0130546,34187.4,7817.69,-6021.45,27451.7,22585.7,11244.8,99706.2
1.712,0.0130766,35146.6,8084.1,-6093.68,28181.8,22797.6,11101.4,100598
1.714,0.0130986,36705.1,8835.29,-6070.67,29525.7,22853.3,11485.7,102025
1.716,0.0131207,38263.6,9586.48,-6047.66,30869.7,22909,11870,103452
1.718,0.0131427,39822.1,10337.7,-6024.65,32213.7,22964.6,12254.4,104879
1.72,0.0131647,41380.6,11088.9,-6001.64,33557.7,23020.3,12638.7,106306
1.722,0.0131867,42939,11840.1,-5978.64,34901.7,23076,13023,107733
1.724,0.0132088,44497.5,12591.3,-5955.63,36245.6,23131.6,13407.3,109160
1.726,0.0132308,45882.9,13286.6,-5942.34,37525.3,23173.3,13720.7,110350
1.728,0.0132528,45398.6,13378.7,-6034,38111.3,23063.6,13267.7,108980
1.73,0.0132748,44914.3,13470.7,-6125.66,38697.2,22954,12814.7,107610
1.732,0.0132968,44430,13562.8,-6217.33,39283.1,22844.3,12361.8,106240
1.734,0.0133188,43945.7,13654.8,-6308.99,39869,22734.6,11908.8,104870
1.736,0.0133409,43461.4,13746.9,-6400.65,40454.9,22624.9,11455.9,103500
1.738,0.0133629,42977.1,13838.9,-6492.31,41040.8,22515.3,11002.9,102129
1.74,0.0133849,42492.8,13931,-6583.98,41626.7,22405.6,10549.9,100759
1.742,0.0134069,42008.5,14023,-6675.64,42212.6,22295.9,10097,99389.3
1.744,0.0134289,41524.2,14115.1,-6767.3,42798.6,22186.3,9644.03,98019.2
1.746,0.0134509,41039.9,14207.1,-6858.97,43384.5,22076.6,9191.04,96649
1.748,0.013473,40555.6,14299.2,-6950.63,43970.4,21966.9,8738.09,95279
1.75,0.013495,40071.3,14391.2,-7042.29,44556.3,21857.2,8285.14,93908.9
1.752,0.013517,39587,14483.3,-7133.95,45142.2,21747.6,7832.18,92538.8
1.754,0.013539,39102.7,14575.3,-7225.61,45728.1,21637.9,7379.23,91168.7
1.756,0.013561,38618.4,14667.4,-7317.28,46314,21528.2,6926.25,89798.6
1.758,0.013583,38147.7,14752.4,-7403.62,46855.1,21414.1,6499.98,88437.8
1.76,0.013605,38093.2,14621.4,-7327.11,46024.1,21162.6,6890.74,87361.6
1.762,0.013627,37960.6,14564.2,-7179.23,45190.8,20788.7,7187.08,86405.3
1.764,0.0136491,37720.3,14609,-6932.75,44354.4,20245.5,7353.02,85614.5
1.766,0.0136712,37480,14653.9,-6686.29,43518,19702.4,7518.95,84823.7
1.768,0.0136932,37239.7,14698.7,-6439.82,42681.7,19159.3,7684.89,84032.9
1.77,0.0137153,36999.4,14743.6,-6193.36,41845.3,18616.1,7850.82,83242.2
1.772,0.0137374,36759,14788.4,-5946.9,41008.9,18073,8016.75,82451.4
1.774,0.0137594,36518.7,14833.2,-5700.42,40172.5,17529.8,8182.7,81660.6
1.776,0.0137815,36903.4,15286.9,-5524.57,40616.4,17203.3,8535.34,81081.3
1.778,0.0138035,37419.4,15826.3,-5363.54,41329,16922.3,8927.19,80546.3
1.78,0.0138256,37935.3,16365.8,-5202.52,42041.7,16641.2,9319.05,80011.4
1.782,0.0138477,38451.3,16905.3,-5041.5,42754.4,16360.2,9710.9,79476.5
1.784,0.0138697,38916.5,17380.3,-4863.96,43442.6,16065.1,10082.9,78887.2
1.786,0.0138918,39212.2,17640.2,-4631.37,44049.1,15722.9,10388.7,78116.8
1.788,0.0139139,39508,17900,-4398.79,44655.6,15380.7,10694.5,77346.4
1.79,0.0139359,39803.8,18159.9,-4166.21,45262.1,15038.4,11000.3,76576
1.792,0.013958,40099.5,18419.8,-3933.62,45868.6,14696.2,11306.1,75805.6
1.794,0.0139801,40395.3,18679.7,-3701.03,46475.1,14354,11611.9,75035.2
1.796,0.0140021,40691.1,18939.5,-3468.45,47081.6,14011.8,11917.7,74264.8
1.798,0.0140242,40986.8,19199.4,-3235.87,47688.1,13669.6,12223.6,73494.4
1.8,0.0140463,41282.6,19459.3,-3003.29,48294.5,13327.4,12529.4,72724
1.802,0.0140683,41578.3,19719.2,-2770.69,48901.1,12985.2,12835.2,71953.6
1.804,0.0140904,41874.1,19979,-2538.11,49507.6,12643,13141,71183.2
1.806,0.0141125,42169.9,20238.9,-2305.53,50114,12300.7,13446.8,70412.8
1.808,0.0141346,42694.9,20275.6,-2138.38,49354.8,11929.8,13367.7,69691.9
1.81,0.0141567,43480.9,20058.2,-2045.74,47040.3,11526.2,12850.3,69027.3
1.812,0.0141788,44267,19840.8,-1953.09,44725.6,11122.6,12332.9,68362.7
1.814,0.0142009,45053.1,19623.5,-1860.45,42411.1,10718.9,11815.6,67698.2
1.816,0.014223,45839.1,19406.1,-1767.8,40096.6,10315.3,11298.2,67033.6
1.818,0.0142452,46625.2,19188.7,-1675.16,37782.1,9911.7,10780.8,66369.1
1.82,0.0142673,47411.3,18971.3,-1582.51,35467.5,9508.05,10263.4,65704.5
1.822,0.0142894,48197.3,18753.9,-1489.87,33153,9104.44,9746.04,65039.9
1.824,0.0143115,48831.1,18554.4,-1405.05,31229.5,8789.24,9355.32,64502.1
1.826,0.0143336,48663.3,18449.6,-1361.42,31364.9,8939.65,9631.5,64631.7
1.828,0.0143557,48495.4,18344.7,-1317.79,31500.4,9090.05,9907.68,64761.3
1.83,0.0143778,48327.6,18239.9,-1274.15,31635.8,9240.46,10183.9,64890.9
1.832,0.0143999,48159.8,18135,-1230.52,31771.3,9390.87,10460.1,65020.5
1.834,0.0144221,47991.9,18030.2,-1186.88,31906.7,9541.27,10736.2,65150.1
1.836,0.0144442,47824.1,17925.3,-1143.25,32042.2,9691.68,11012.4,65279.7
1.838,0.0144663,47656.2,17820.5,-1099.62,32177.6,9842.09,11288.6,65409.3
1.84,0.0144884,47488.4,17715.6,-1055.98,32313.1,9992.5,11564.8,65538.8
1.842,0.0145105,47197,17529.2,-988.07,32646.2,10227.3,11869.9,65749.1
1.844,0.0145326,46268.4,16921.8,-794.848,33999.3,10897.6,12324.5,66375.5
1.846,0.0145547,45339.7,16314.4,-601.626,35352.5,11567.9,12779.1,67001.9
1.848,0.0145768,44411,15707,-408.393,36705.7,12238.2,13233.7,67628.3
1.85,0.0145989,43482.4,15099.6,-215.171,38058.8,12908.6,13688.3,68254.8
1.852,0.014621,43406.3,14708.7,-280.53,37924.5,13161.1,13892.5,68047.1
1.854,0.0146431,43836.6,14446.6,-499.52,36906.5,13165.4,13948,67343.9
1.856,0.0146652,44267,14184.5,-718.511,35888.5,13169.6,14003.6,66640.7
1.858,0.0146873,44697.4,13922.3,-937.515,34870.4,13173.9,14059.1,65937.5
1.86,0.0147095,46046.5,14115.6,-1347.49,36080,13347.3,14843.1,66574.8
1.862,0.0147316,47474.5,14348.1,-1773.87,37480.9,13535.2,15689.6,67327.3
1.864,0.0147538,48902.5,14580.5,-2200.25,38881.8,13723.1,16536.1,68079.8
1.866,0.0147759,50330.7,14813,-2626.66,40282.8,13911.1,17382.7,68832.3
1.868,0.0147981,51811.4,14850.8,-2719.59,39936.6,13875.4,17800.5,69265
1.87,0.0148202,53309,14826.4,-2705.98,39032.1,13768.3,18081.3,69595.4
1.872,0.0148424,54806.5,14802.1,-2692.37,38127.7,13661.2,18362.1,69925.8
1.874,0.0148645,56304.1,14777.7,-2678.76,37223.2,13554.2,18642.9,70256.2
1.876,0.0148867,57801.8,14753.3,-2665.15,36318.7,13447.1,18923.7,70586.6
1.878,0.0149088,57805.5,14600.9,-2691.95,35991.5,13362.1,18914.2,70280.9
1.88,0.014931,57679.7,14437.5,-2722.25,35714.3,13279,18879.6,69919.9
1.882,0.0149532,57553.9,14274,-2752.55,35437.2,13195.9,18844.9,69559
1.884,0.0149754,57428.1,14110.6,-2782.85,35160,13112.8,18810.3,69198.1
1.886,0.0149976,57302.4,13947.1,-2813.16,34882.8,13029.7,18775.6,68837.1
1.888,0.0150198,57176.6,13783.7,-2843.46,34605.7,12946.6,18741,68476.2
1.89,0.0150419,57050.8,13620.2,-2873.76,34328.5,12863.6,18706.3,68115.3
1.892,0.0150641,56925,13456.8,-2904.06,34051.3,12780.5,18671.7,67754.4
1.894,0.0150863,56799.2,13293.3,-2934.37,33774.1,12697.4,18637,67393.4
1.896,0.0151085,56673.4,13129.9,-2964.67,33497,12614.3,18602.4,67032.5
1.898,0.0151307,56547.6,12966.4,-2994.97,33219.8,12531.2,18567.7,66671.6
1.9,0.0151529,56421.8,12803,-3025.27,32942.7,12448.2,18533.1,66310.6
1.902,0.0151751,56296,12639.5,-3055.57,32665.5,12365.1,18498.4,65949.7
1.904,0.0151972,56170.2,12476.1,-3085.88,32388.3,12282,18463.8,65588.8
1.906,0.0152194,56044.4,12312.6,-3116.18,32111.1,12198.9,18429.1,65227.8
1.908,0.0152416,55918.7,12149.2,-3146.48,31834,12115.8,18394.5,64866.9
1.91,0.0152638,55787.8,11977.4,-3174.5,31542.6,12036.3,18360.5,64500.5
1.912,0.015286,55793.2,12031.1,-3263.99,31636.1,11861.3,18308.8,64283
1.914,0.0153082,55798.5,12084.7,-3353.49,31729.7,11686.4,18257.1,64065.5
1.916,0.0153304,55803.9,12138.4,-3442.98,31823.3,11511.5,18205.4,63848
1.918,0.0153525,55809.2,12192.1,-3532.47,31916.9,11336.5,18153.7,63630.5
1.92,0.0153747,55814.6,12245.8,-3621.96,32010.5,11161.6,18102,63413
1.922,0.0153969,55819.9,12299.4,-3711.45,32104.1,10986.7,18050.3,63195.5
1.924,0.0154191,55825.3,12353.1,-3800.94,32197.6,10811.7,17998.6,62978
1.926,0.0154413,55830.6,12406.8,-3890.43,32291.2,10636.8,17947,62760.5
1.928,0.0154635,55836,12460.5,-3979.92,32384.8,10461.9,17895.3,62543
1.93,0.0154857,55841.3,12514.1,-4069.41,32478.4,10286.9,17843.6,62325.5
1.932,0.0155078,55846.6,12567.8,-4158.91,32572,10112,17791.9,62107.9
1.934,0.01553,56090.5,12654.2,-4028.25,32720.3,10124.9,17769.4,62202.9
1.936,0.0155521,56479.4,12760.5,-3763.78,32901.8,10252,17764.8,62487.8
1.938,0.0155743,56868.3,12866.7,-3499.3,33083.3,10379.1,17760.1,62772.7
1.94,0.0155964,57257.2,12973,-3234.81,33264.8,10506.2,17755.5,63057.7
1.942,0.0156186,58633.6,13251.6,-2887.88,32999,10612.1,17672.2,64179.6
1.944,0.0156408,60496.4,13615.2,-2500.33,32512.8,10707.5,17550.2,65713.7
1.946,0.015663,62359.2,13978.8,-2112.78,32026.6,10802.9,17428.2,67247.9
1.948,0.0156851,64222,14342.4,-1725.23,31540.4,10898.2,17306.2,68782.1
1.95,0.0157073,66084.9,14706,-1337.66,31054.1,10993.6,17184.2,70316.4
1.952,0.0157295,67947.7,15069.5,-950.105,30567.9,11089,17062.2,71850.5
1.954,0.0157516,69810.5,15433.1,-562.554,30081.7,11184.4,16940.2,73384.7
1.956,0.0157738,71673.3,15796.7,-175.004,29595.5,11279.8,16818.2,74918.9
1.958,0.015796,73536.1,16160.3,212.547,29109.3,11375.2,16696.2,76453.1
1.96,0.0158182,75399,16523.9,600.12,28623.1,11470.6,16574.2,77987.3
1.962,0.0158403,77138.1,16873.2,1047,28258.4,11618.3,16450.9,79397.5
1.964,0.0158626,78226.9,17147.6,1805.66,28532.4,12041.2,16321,80156.1
1.966,0.0158848,79315.7,17422.1,2564.32,28806.5,12464.1,16191,80914.7
1.968,0.015907,80404.7,17696.5,3323.03,29080.6,12887,16061,81673.3
1.97,0.0159292,81493.5,17970.9,4081.7,29354.6,13309.9,15931,82431.9
1.972,0.0159515,82582.3,18245.4,4840.36,29628.7,13732.8,15801.1,83190.4
1.974,0.0159737,83671.2,18519.8,5599.02,29902.7,14155.7,15671.1,83949
1.976,0.0159959,85503.5,18775.5,6270.88,30892.6,14280.4,15929.5,85075
1.978,0.0160181,87606.7,19024.5,6911.18,32143.2,14296.7,16329.3,86334.9
1.98,0.0160403,89709.8,19273.4,7551.43,33393.7,14312.9,16729,87594.7
1.982,0.0160625,91812.8,19522.4,8191.69,34644.1,14329.1,17128.8,88854.5
1.984,0.0160847,93915.8,19771.3,8831.94,35894.6,14345.4,17528.5,90114.3
1.986,0.0161069,96018.9,20020.3,9472.2,37145.1,14361.6,17928.3,91374.1
1.988,0.0161291,96654.7,19820.5,10005.3,37638.2,14861.4,17871.5,92089.4
1.99,0.0161513,93587,18488.4,10267.8,36219.4,16581.8,16662.5,91430.1
1.992,0.0161734,90519.3,17156.3,10530.3,34800.7,18302.2,15453.5,90770.7
1.994,0.0161956,87451.7,15824.1,10792.7,33381.9,20022.6,14244.5,90111.4
1.996,0.0162178,84383.8,14491.9,11055.2,31963,21743.1,13035.4,89452
1.998,0.01624,81316.1,13159.7,11317.7,30544.2,23463.5,11826.4,88792.7
2,0.0162622,78248.4,11827.6,11580.2,29125.4,25183.9,10617.4,88133.3
