"arc_length","Displacement_Magnitude","Sxx","Sxy","Sxz","Syy","Syz","Szz","Von_Mises_Stress"
0,0,1.27483e+06,-74504,-8047.58,2.55292e+06,445028,1.11034e+06,1.5794e+06
0.002,1.89909e-06,1.21262e+06,-68217.6,-7157.05,2.46072e+06,415132,1.02748e+06,1.54266e+06
0.004,3.0582e-06,1.17842e+06,-65533.7,-6103.26,2.40213e+06,398535,986962,1.51852e+06
0.006,4.02127e-06,1.15337e+06,-64026.6,-4996.15,2.35453e+06,386282,960285,1.4985e+06
0.008,5.00884e-06,1.12832e+06,-62519.4,-3889.03,2.30692e+06,374030,933607,1.47848e+06
0.01,6.00883e-06,1.10327e+06,-61012.3,-2781.91,2.25932e+06,361777,906929,1.45846e+06
0.012,7.01594e-06,1.07822e+06,-59505.2,-1674.79,2.21171e+06,349524,880252,1.43844e+06
0.014,8.02748e-06,1.05317e+06,-57998.1,-567.669,2.16411e+06,337271,853574,1.41842e+06
0.016,9.00553e-06,1.0281e+06,-56033.1,755.771,2.11533e+06,326086,828413,1.39859e+06
0.018,9.89318e-06,1.00301e+06,-52913.6,2624.57,2.06361e+06,317592,807079,1.37923e+06
0.02,1.07817e-05,977907,-49794.2,4493.37,2.01189e+06,309099,785744,1.35987e+06
0.022,1.16708e-05,952809,-46674.8,6362.17,1.96017e+06,300605,764409,1.34052e+06
0.024,1.25604e-05,927711,-43555.3,8230.97,1.90844e+06,292111,743074,1.32116e+06
0.026,1.34504e-05,902612,-40435.9,10099.8,1.85672e+06,283618,721739,1.30181e+06
0.028,1.43407e-05,877514,-37316.5,11968.6,1.805e+06,275124,700404,1.28245e+06
0.03,1.52313e-05,852416,-34197,13837.4,1.75328e+06,266631,679069,1.2631e+06
0.032,1.61222e-05,827318,-31077.6,15706.2,1.70155e+06,258137,657735,1.24374e+06
0.034,1.70132e-05,802219,-27958.2,17575,1.64983e+06,249644,636400,1.22439e+06
0.036,1.79044e-05,777121,-24838.7,19443.8,1.59811e+06,241150,615065,1.20503e+06
0.038,1.87957e-05,752023,-21719.3,21312.6,1.54639e+06,232657,593730,1.18568e+06
0.04,1.96871e-05,726925,-18599.9,23181.4,1.49466e+06,224163,572395,1.16632e+06
0.042,2.05787e-05,701827,-15480.4,25050.2,1.44294e+06,215670,551060,1.14697e+06
0.044,2.14703e-05,676728,-12361,26919,1.39122e+06,207176,529725,1.12761e+06
0.046,2.2362e-05,651630,-9241.56,28787.8,1.3395e+06,198683,508390,1.10826e+06
0.048,2.32538e-05,626532,-6122.12,30656.6,1.28778e+06,190189,487056,1.0889e+06
0.05,2.52911e-05,596984,-3686.03,33459.9,1.25128e+06,186763,452166,1.09116e+06
0.052,2.77425e-05,565832,-1496.38,36600.2,1.22028e+06,185165,412388,1.10121e+06
0.054,3.01946e-05,534679,693.272,39740.5,1.18929e+06,183567,372610,1.11126e+06
0.056,3.26475e-05,503527,2882.92,42880.8,1.15829e+06,181969,332833,1.12131e+06
0.058,3.51008e-05,472374,5072.57,46021.1,1.12729e+06,180372,293055,1.13136e+06
0.06,3.75546e-05,441222,7262.21,49161.4,1.09629e+06,178774,253277,1.14141e+06
0.062,4.00087e-05,410070,9451.86,52301.8,1.06529e+06,177176,213499,1.15146e+06
0.064,4.23414e-05,405645,8802.33,52433.7,1.05877e+06,181364,210693,1.15419e+06
0.066,4.47036e-05,403166,7946.25,52346.9,1.05403e+06,185974,210578,1.1564e+06
0.068,4.70995e-05,400687,7090.16,52260,1.04929e+06,190583,210462,1.1586e+06
0.07,4.95243e-05,398207,6234.07,52173.1,1.04454e+06,195193,210346,1.1608e+06
0.072,5.19714e-05,392713,3345.37,52270.4,1.03547e+06,194191,198776,1.16087e+06
0.074,5.44309e-05,386733,128.726,52397.3,1.0257e+06,192284,185358,1.16059e+06
0.076,5.69009e-05,380752,-3087.9,52524.3,1.01593e+06,190376,171940,1.16032e+06
0.078,5.93802e-05,374772,-6304.54,52651.3,1.00616e+06,188469,158523,1.16004e+06
0.08,6.18677e-05,368792,-9521.17,52778.3,996389,186562,145105,1.15976e+06
0.082,6.43623e-05,362812,-12737.8,52905.3,986618,184655,131687,1.15948e+06
0.084,6.68633e-05,356831,-15954.4,53032.3,976847,182748,118269,1.15921e+06
0.086,6.937e-05,350851,-19171.1,53159.2,967077,180841,104852,1.15893e+06
0.088,7.18813e-05,346193,-22028,53027.4,958969,179726,93368.1,1.16014e+06
0.09,7.43973e-05,348661,-22946.1,51500.8,959827,182884,92310.1,1.16941e+06
0.092,7.69219e-05,351130,-23864.2,49974.2,960684,186042,91252.1,1.17867e+06
0.094,7.94544e-05,353598,-24782.3,48447.6,961542,189200,90194.1,1.18794e+06
0.096,8.19941e-05,356067,-25700.4,46920.9,962400,192358,89136.1,1.1972e+06
0.098,8.45403e-05,358536,-26618.5,45394.3,963257,195516,88078.2,1.20646e+06
0.1,8.73819e-05,365556,-28137.6,44423.2,975983,199028,88623,1.22386e+06
0.102,9.11598e-05,387248,-31593.7,45242.5,1.02696e+06,203683,94333.9,1.26748e+06
0.104,9.49394e-05,408941,-35049.8,46061.7,1.07793e+06,208337,100045,1.3111e+06
0.106,9.87205e-05,430633,-38505.9,46881,1.12891e+06,212991,105756,1.35473e+06
0.108,0.000102503,452325,-41962,47700.2,1.17988e+06,217646,111466,1.39835e+06
0.11,0.000106287,474017,-45418.1,48519.5,1.23086e+06,222300,117177,1.44197e+06
0.112,0.000110071,495710,-48874.2,49338.7,1.28184e+06,226954,122888,1.48559e+06
0.114,0.000113857,517402,-52330.3,50158,1.33281e+06,231609,128599,1.52921e+06
0.116,0.000117811,510785,-52575.1,48840.9,1.31447e+06,232848,126720,1.51679e+06
0.118,0.000121943,474053,-49403.8,45251.2,1.2224e+06,230455,116768,1.44475e+06
0.12,0.000126077,437321,-46232.5,41661.5,1.13032e+06,228062,106816,1.37272e+06
0.122,0.00013021,400590,-43061.3,38071.8,1.03825e+06,225669,96863.1,1.30069e+06
0.124,0.000134344,363858,-39890,34482.1,946177,223276,86910.7,1.22865e+06
0.126,0.000138479,327126,-36718.7,30892.4,854104,220883,76958.3,1.15662e+06
0.128,0.000142614,290394,-33547.5,27302.7,762030,218490,67005.9,1.08458e+06
0.13,0.000146749,253663,-30376.2,23713.1,669957,216097,57053.5,1.01255e+06
0.132,0.000151169,239694,-30153.3,21244.9,633700,214518,53123.8,986828
0.134,0.00015577,239192,-31674.7,19440.3,630464,213422,52757.2,988505
0.136,0.000160383,238690,-33196.1,17635.8,627229,212326,52390.7,990182
0.138,0.000165007,238189,-34717.5,15831.2,623994,211230,52024.1,991859
0.14,0.000169642,237687,-36238.9,14026.6,620759,210133,51657.5,993535
0.142,0.000174286,237185,-37760.3,12222,617523,209037,51290.9,995212
0.144,0.000178939,236683,-39281.7,10417.4,614288,207941,50924.3,996889
0.146,0.000183601,236181,-40803.1,8612.81,611053,206844,50557.8,998566
0.148,0.000188269,235679,-42324.5,6808.21,607818,205748,50191.2,1.00024e+06
0.15,0.000192945,235178,-43845.9,5003.62,604582,204652,49824.6,1.00192e+06
0.152,0.000197628,234676,-45367.3,3199.04,601347,203556,49458,1.0036e+06
0.154,0.000202316,234174,-46888.7,1394.45,598112,202459,49091.5,1.00527e+06
0.156,0.000207011,233672,-48410.1,-410.149,594877,201363,48724.9,1.00695e+06
0.158,0.00021171,233170,-49931.5,-2214.74,591641,200267,48358.3,1.00863e+06
0.16,0.000216414,232668,-51452.9,-4019.32,588406,199171,47991.7,1.0103e+06
0.162,0.000221123,232167,-52974.3,-5823.92,585171,198074,47625.1,1.01198e+06
0.164,0.000225837,231665,-54495.6,-7628.51,581936,196978,47258.6,1.01366e+06
0.166,0.000230554,231163,-56017,-9433.09,578700,195882,46892,1.01533e+06
0.168,0.000235275,230661,-57538.4,-11237.7,575465,194785,46525.4,1.01701e+06
0.17,0.00024,230159,-59059.8,-13042.3,572230,193689,46158.8,1.01869e+06
0.172,0.000244729,229657,-60581.2,-14846.9,568995,192593,45792.3,1.02036e+06
0.174,0.000249358,231439,-61615.1,-13157.8,575141,191547,45177.3,1.01868e+06
0.176,0.000253934,234468,-62382.5,-9559.75,586414,190529,44426.5,1.01515e+06
0.178,0.000259049,234727,-62277.2,-11153.8,587996,188888,45993.6,1.00289e+06
0.18,0.000264678,233478,-61523.9,-17193.8,583895,186654,50230.8,985835
0.182,0.000270627,243348,-62318.6,-20681.1,614042,184070,61054.5,1.00337e+06
0.184,0.000276577,253219,-63113.3,-24168.4,644189,181487,71878.4,1.02091e+06
0.186,0.000282528,263089,-63907.9,-27655.6,674336,178903,82702.2,1.03844e+06
0.188,0.00028848,272960,-64702.6,-31142.9,704483,176320,93525.9,1.05598e+06
0.19,0.000294432,282830,-65497.3,-34630.2,734630,173736,104350,1.07351e+06
0.192,0.000300385,292701,-66292,-38117.4,764777,171153,115174,1.09105e+06
0.194,0.000306339,302571,-67086.7,-41604.7,794924,168569,125997,1.10858e+06
0.196,0.000312294,312442,-67881.4,-45092,825071,165986,136821,1.12612e+06
0.198,0.000318459,316512,-66759.6,-45469.3,833587,163357,140750,1.12419e+06
0.2,0.000324703,318474,-64941.4,-44716.6,834245,160711,142174,1.11518e+06
0.202,0.000330951,320437,-63123.3,-43964,834902,158066,143597,1.10618e+06
0.204,0.000337203,322400,-61305.2,-43211.4,835560,155420,145021,1.09717e+06
0.206,0.000343457,324363,-59487,-42458.8,836217,152775,146445,1.08817e+06
0.208,0.000349715,326325,-57668.9,-41706.1,836875,150129,147868,1.07917e+06
0.21,0.000355975,328288,-55850.8,-40953.5,837532,147484,149292,1.07016e+06
0.212,0.000362238,330251,-54032.6,-40200.9,838189,144838,150716,1.06116e+06
0.214,0.000368503,332213,-52214.5,-39448.2,838847,142193,152139,1.05215e+06
0.216,0.000374771,334176,-50396.4,-38695.6,839504,139547,153563,1.04315e+06
0.218,0.000381041,336139,-48578.2,-37943,840162,136902,154986,1.03415e+06
0.22,0.000387313,338102,-46760.1,-37190.4,840819,134256,156410,1.02514e+06
0.222,0.000393587,340064,-44942,-36437.7,841477,131610,157834,1.01614e+06
0.224,0.000399863,342027,-43123.8,-35685.1,842134,128965,159257,1.00713e+06
0.226,0.000406596,330322,-40302.6,-28265.7,824342,126222,153617,996058
0.228,0.00041334,318297,-37457.7,-20689.8,806117,123476,147812,984933
0.23,0.000420085,306271,-34612.9,-13113.9,787892,120730,142006,973808
0.232,0.000426829,294246,-31768.1,-5537.98,769667,117985,136200,962683
0.234,0.000433574,282220,-28923.3,2037.94,751441,115239,130394,951559
0.236,0.00044032,270195,-26078.5,9613.87,733216,112494,124589,940434
0.238,0.000447065,258169,-23233.7,17189.8,714991,109748,118783,929309
0.24,0.000454057,255666,-22918.6,22398.1,709015,108804,117986,942609
0.242,0.000461104,255221,-23150.4,27094.6,705686,108250,118271,961189
0.244,0.000468154,254775,-23382.2,31791,702358,107696,118557,979769
0.246,0.000475205,254330,-23613.9,36487.5,699029,107142,118843,998350
0.248,0.000482258,253885,-23845.7,41184,695701,106588,119129,1.01693e+06
0.25,0.000489312,253440,-24077.5,45880.5,692372,106035,119414,1.03551e+06
0.252,0.000496369,252995,-24309.3,50576.9,689044,105481,119700,1.05409e+06
0.254,0.000503427,252550,-24541.1,55273.4,685715,104927,119986,1.07267e+06
0.256,0.000510486,252105,-24772.9,59969.9,682387,104373,120272,1.09125e+06
0.258,0.000517547,251659,-25004.7,64666.3,679059,103819,120557,1.10983e+06
0.26,0.000524609,251214,-25236.5,69362.8,675730,103265,120843,1.12841e+06
0.262,0.000532063,246050,-23074,71823.3,671707,107112,120615,1.13746e+06
0.264,0.000539594,239962,-20442.4,73845.7,667548,111823,120287,1.14465e+06
0.266,0.000547126,233873,-17810.8,75868,663388,116533,119958,1.15183e+06
0.268,0.000554657,227784,-15179.2,77890.4,659229,121243,119629,1.15902e+06
0.27,0.000562189,221696,-12547.6,79912.8,655070,125954,119301,1.16621e+06
0.272,0.000569721,215607,-9916,81935.1,650911,130664,118972,1.17339e+06
0.274,0.000577334,210649,-7106.62,83414.9,646850,134847,118712,1.17871e+06
0.276,0.000585324,210927,-3472.94,82379.7,643242,136585,118767,1.17538e+06
0.278,0.000593315,211206,160.753,81344.5,639635,138322,118822,1.17205e+06
0.28,0.000601307,211484,3794.44,80309.3,636028,140060,118877,1.16872e+06
0.282,0.000609622,217666,6746.89,77350.4,645730,137373,117456,1.15022e+06
0.284,0.000618062,226131,9435.81,73647.4,660581,132973,115463,1.12584e+06
0.286,0.000626502,234596,12124.7,69944.4,675432,128574,113471,1.10146e+06
0.288,0.000634942,243061,14813.6,66241.5,690283,124175,111478,1.07708e+06
0.29,0.000643383,251527,17502.5,62538.5,705134,119776,109486,1.0527e+06
0.292,0.000651824,259992,20191.4,58835.5,719986,115376,107493,1.02832e+06
0.294,0.00066035,263882,19912.3,54867.2,734270,114788,107047,1.01079e+06
0.296,0.000668891,267027,19150,50855.8,748463,114821,106853,994379
0.298,0.000677434,270173,18387.6,46844.5,762655,114853,106658,977965
0.3,0.000685978,273318,17625.3,42833.1,776848,114886,106464,961550
0.302,0.000694524,276463,16863,38821.7,791040,114918,106269,945136
0.304,0.00070307,279608,16100.6,34810.3,805232,114950,106074,928722
0.306,0.000711619,282754,15338.3,30798.9,819425,114983,105880,912308
0.308,0.000720168,285899,14576,26787.6,833617,115015,105685,895894
0.31,0.000728719,289044,13813.6,22776.2,847810,115048,105491,879479
0.312,0.000737286,292150,12974.5,18531.8,861405,115095,105443,863419
0.314,0.000746282,294163,10017.1,7861.7,858542,115547,109456,857129
0.316,0.000755279,296176,7059.76,-2808.37,855679,115999,113470,850838
0.318,0.000764275,298188,4102.44,-13478.3,852815,116451,117483,844547
0.32,0.000773272,300201,1145.07,-24148.4,849952,116903,121496,838256
0.322,0.000782269,302214,-1812.29,-34818.4,847089,117355,125509,831966
0.324,0.000791267,304227,-4769.65,-45488.5,844225,117807,129522,825675
0.326,0.000800286,305725,-7505.14,-54961.1,839796,118055,133352,821811
0.328,0.000809502,302714,-8298.42,-53951.7,821658,116520,135584,839193
0.33,0.000818719,299703,-9091.69,-52942.2,803519,114985,137815,856575
0.332,0.000827937,296692,-9884.96,-51932.8,785381,113450,140047,873957
0.334,0.000837155,293681,-10678.2,-50923.3,767243,111915,142278,891338
0.336,0.000846375,290670,-11471.5,-49913.9,749104,110380,144510,908720
0.338,0.000855596,287659,-12264.8,-48904.5,730966,108846,146741,926102
0.34,0.000864817,284648,-13058.1,-47895,712827,107311,148973,943484
0.342,0.000874039,281637,-13851.3,-46885.6,694689,105776,151204,960866
0.344,0.000883262,278627,-14644.6,-45876.1,676550,104241,153436,978247
0.346,0.000892486,275616,-15437.9,-44866.7,658412,102706,155667,995629
0.348,0.000901889,269775,-15714.6,-42307,640224,101675,154928,1.00043e+06
0.35,0.000911612,258841,-15061.8,-36957.7,621945,101551,148845,982604
0.352,0.000921336,247908,-14409,-31608.3,603667,101426,142761,964774
0.354,0.00093106,236975,-13756.1,-26259,585389,101301,136677,946945
0.356,0.000940784,226041,-13103.3,-20909.6,567111,101177,130593,929116
0.358,0.000950507,215108,-12450.5,-15560.2,548832,101052,124509,911286
0.36,0.000960231,204175,-11797.7,-10210.9,530554,100928,118425,893457
0.362,0.000969955,193241,-11144.9,-4861.59,512276,100803,112342,875628
0.364,0.000979857,192130,-11209.6,-3512.81,515476,99027.2,110528,867642
0.366,0.000989793,192826,-11406.4,-2899.96,522627,96947.5,109501,861468
0.368,0.00099973,193522,-11603.2,-2287.1,529778,94867.8,108474,855294
0.37,0.00100967,194218,-11799.9,-1674.25,536929,92788.1,107446,849119
0.372,0.00101961,194914,-11996.7,-1061.4,544080,90708.4,106419,842945
0.374,0.00102955,195609,-12193.4,-448.543,551231,88628.8,105391,836771
0.376,0.00103949,196305,-12390.2,164.301,558382,86549.1,104364,830597
0.378,0.00104943,197001,-12586.9,777.155,565533,84469.4,103336,824422
0.38,0.00105937,197697,-12783.7,1390.01,572684,82389.7,102309,818248
0.382,0.00106933,199103,-13090.4,1886.79,582738,80800.6,101920,809478
0.384,0.00107933,202851,-13759.2,2001.3,602356,80827,103631,792159
0.386,0.00108934,206599,-14427.9,2115.8,621973,80853.4,105343,774841
0.388,0.00109935,210346,-15096.7,2230.3,641591,80879.8,107054,757522
0.39,0.00110936,214094,-15765.5,2344.8,661208,80906.2,108766,740203
0.392,0.00111937,217842,-16434.2,2459.31,680826,80932.6,110477,722884
0.394,0.00112961,219932,-16744.9,3067.76,695302,81387.2,112826,708481
0.396,0.00114031,218614,-16319.6,4691.35,699213,82721.9,116482,700071
0.398,0.00115102,217297,-15894.3,6314.93,703123,84056.5,120139,691661
0.4,0.00116172,215980,-15469.1,7938.51,707033,85391.2,123795,683251
0.402,0.00117242,214662,-15043.8,9562.09,710943,86725.9,127452,674840
0.404,0.00118312,213345,-14618.5,11185.7,714854,88060.5,131108,666430
0.406,0.00119382,212028,-14193.2,12809.2,718764,89395.1,134765,658020
0.408,0.00120453,210710,-13768,14432.8,722674,90729.8,138421,649610
0.41,0.00121533,205192,-12501.1,15603.2,717201,91600.7,138743,650755
0.412,0.00122641,195380,-10945.9,14932.2,691482,90050.6,132963,667425
0.414,0.00123749,185569,-9390.68,14261.2,665763,88500.5,127183,684096
0.416,0.00124857,175757,-7835.46,13590.2,640043,86950.4,121403,700766
0.418,0.00125965,165945,-6280.23,12919.2,614324,85400.3,115623,717436
0.42,0.00127073,156134,-4725.02,12248.2,588605,83850.2,109844,734106
0.422,0.00128182,146322,-3169.79,11577.2,562886,82300.1,104064,750777
0.424,0.0012929,136510,-1614.56,10906.2,537167,80750,98283.8,767447
0.426,0.00130398,126698,-59.3351,10235.2,511448,79199.9,92503.9,784117
0.428,0.00131506,116887,1495.89,9564.26,485728,77649.9,86724,800788
0.43,0.00132615,107075,3051.12,8893.27,460009,76099.8,80944,817458
0.432,0.00133721,100140,2572.03,7621.47,434501,73930.1,77652.6,824614
0.434,0.00134824,95699.6,327.952,5828.44,409177,71223,76520.4,823514
0.436,0.00135927,91259.7,-1916.16,4035.38,383853,68515.9,75388.1,822415
0.438,0.00137031,86819.8,-4160.27,2242.31,358528,65808.8,74255.8,821316
0.44,0.00138134,82379.8,-6404.38,449.253,333204,63101.6,73123.5,820216
0.442,0.00139238,77939.9,-8648.49,-1343.81,307879,60394.5,71991.2,819117
0.444,0.00140367,79115.9,-15835.3,-2883.91,295377,56560.7,73105.2,815040
0.446,0.00141516,84898.3,-27076.3,-4216.53,293391,51802.7,76061.8,808521
0.448,0.00142666,90680.7,-38317.3,-5549.14,291406,47044.7,79018.4,802002
0.45,0.00143816,96463,-49558.1,-6881.74,289421,42286.8,81975,795482
0.452,0.00145007,102881,-48817.2,-4975.72,310724,42385.5,86793.8,785800
0.454,0.00146202,109349,-47150.2,-2819.41,333828,42859.6,91756.6,775872
0.456,0.00147397,115816,-45483.3,-663.101,356932,43333.6,96719.3,765945
0.458,0.00148592,122284,-43816.4,1493.21,380035,43807.7,101682,756018
0.46,0.00149786,128751,-42149.4,3649.51,403139,44281.7,106645,746090
0.462,0.00150981,135219,-40482.5,5805.82,426243,44755.8,111608,736163
0.464,0.00152176,141686,-38815.6,7962.1,449346,45229.8,116570,726236
0.466,0.00153371,148153,-37148.7,10118.4,472450,45703.9,121533,716309
0.468,0.00154566,154621,-35481.7,12274.7,495553,46177.9,126496,706381
0.47,0.00155761,161088,-33814.8,14431,518657,46652,131459,696454
0.472,0.00156957,167556,-32147.9,16587.3,541761,47126,136421,686527
0.474,0.00158152,174023,-30481,18743.6,564864,47600.1,141384,676599
0.476,0.00159347,180491,-28814,20899.9,587968,48074.1,146347,666672
0.478,0.00160538,186209,-24736.7,23278.9,608777,48905.8,151692,654449
0.48,0.00161725,190936,-17467.4,25952.9,626549,50211.2,157545,639185
0.482,0.00162912,195662,-10198.1,28626.9,644321,51516.5,163398,623921
0.484,0.00164098,200389,-2928.86,31300.9,662093,52821.9,169250,608657
0.486,0.00165285,205116,4340.42,33974.8,679865,54127.2,175103,593393
0.488,0.00166484,205688,11748.4,35809,691051,53810.5,176889,583831
0.49,0.00167712,196737,19474.2,35718.2,687141,49775.8,169353,587337
0.492,0.00168939,187787,27200,35627.4,683232,45741.1,161817,590844
0.494,0.00170167,178836,34925.7,35536.6,679323,41706.4,154281,594351
0.496,0.00171394,169886,42651.5,35445.8,675413,37671.7,146745,597858
0.498,0.00172622,160935,50377.3,35355,671504,33637,139209,601364
0.5,0.00173867,153576,53875.1,34886.3,667660,31271.3,131310,604729
0.502,0.00175126,147787,53263.3,33624.9,664127,29775.9,123287,609002
0.504,0.0017638,143799,48250,29160.8,662295,25053.7,116382,620025
0.506,0.00177634,140084,43541,24952,660223,20664.2,109833,630302
0.508,0.0017888,138645,41380,22879.6,656135,19061.2,106256,634328
0.51,0.00180126,137205,39219,20807.3,652048,17458.2,102680,638354
0.512,0.00181372,135766,37057.9,18735,647960,15855.2,99103.2,642380
0.514,0.00182618,134327,34896.9,16662.7,643872,14252.2,95526.7,646406
0.516,0.00183864,132887,32736,14590.5,639785,12649.2,91950.1,650432
0.518,0.0018511,131448,30574.9,12518.1,635697,11046.1,88373.5,654458
0.52,0.00186356,130009,28413.9,10445.8,631610,9443.13,84797,658484
0.522,0.00187602,128569,26252.9,8373.51,627522,7840.09,81220.4,662510
0.524,0.00188848,127130,24091.9,6301.24,623435,6237.09,77643.9,666536
0.526,0.00190094,125690,21930.8,4228.9,619347,4634.05,74067.3,670562
0.528,0.00191347,124376,20589,3096.41,616164,4151.54,71216.8,674723
0.53,0.0019263,123590,22697.7,5922.78,616789,8389.11,71424.6,679452
0.532,0.00193912,122803,24806.5,8749.23,617415,12626.8,71632.4,684182
0.534,0.00195194,122017,26915.2,11575.6,618041,16864.4,71840.2,688911
0.536,0.00196477,121230,29024,14402,618667,21102.1,72048.1,693641
0.538,0.00197759,120443,31132.8,17228.4,619293,25339.6,72255.9,698370
0.54,0.00199042,119733,33113.9,20009.2,619350,29526.8,72494.9,702281
0.542,0.00200337,120431,32741.9,21947.9,608921,32782.9,73308.4,691100
0.544,0.00201656,120713,30349.6,21764.3,594610,35324,73846.2,679769
0.546,0.00202996,120672,26394.8,19939.1,577298,37312,74170.5,668322
0.548,0.00204335,120632,22439.9,18113.9,559986,39300,74494.9,656876
0.55,0.00205674,120592,18485,16288.7,542674,41288,74819.2,645428
0.552,0.00207013,120551,14530.2,14463.5,525362,43276,75143.6,633982
0.554,0.00208353,120511,10575.3,12638.2,508049,45264.1,75467.9,622534
0.556,0.00209707,120507,9003.29,14748.5,503961,45996.9,75108.2,642770
0.558,0.00211066,120511,7992.86,17786.3,502989,46434,74587.1,670474
0.56,0.00212424,120516,6982.47,20824.1,502017,46871,74066.2,698177
0.562,0.00213783,120520,5972.07,23861.9,501046,47308.1,73545.2,725880
0.564,0.00215142,120525,4961.65,26899.7,500074,47745.1,73024.2,753584
0.566,0.002165,120529,3951.25,29937.5,499102,48182.2,72503.2,781287
0.568,0.00217859,120533,2940.82,32975.3,498131,48619.2,71982.2,808991
0.57,0.00219218,120538,1930.43,36013.1,497159,49056.2,71461.2,836694
0.572,0.00220576,120542,919.999,39051,496187,49493.3,70940.2,864398
0.574,0.00221949,119436,434.409,42537,483763,49502.6,67197.8,874387
0.576,0.00223333,116320,-355.649,46150.7,478387,49525.7,66791.7,872726
0.578,0.00224718,113040,-1226.58,49744.4,474827,49585.2,67067,871030
0.58,0.00226103,109761,-2097.48,53338,471266,49644.8,67342.2,869335
0.582,0.00227488,106481,-2968.41,56931.7,467705,49704.3,67617.5,867639
0.584,0.00228873,103201,-3839.32,60525.2,464144,49763.8,67892.7,865943
0.586,0.00230258,99921.7,-4710.25,64118.9,460583,49823.3,68167.9,864247
0.588,0.00231643,96642.1,-5581.15,67712.5,457022,49882.9,68443.2,862552
0.59,0.00233028,93362.5,-6452.06,71306.1,453462,49942.4,68718.4,860856
0.592,0.00234413,90082.8,-7322.99,74899.8,449901,50001.9,68993.7,859160
0.594,0.00235798,86803.2,-8193.89,78493.3,446340,50061.4,69268.9,857464
0.596,0.00237202,86198.6,-8681.65,80128.8,445791,51899.4,71608.5,853107
0.598,0.0023862,87341.2,-8919.14,80485.2,447211,54898.8,75296.3,847010
0.6,0.00240037,88483.7,-9156.64,80841.7,448630,57898.3,78984.1,840913
0.602,0.0024145,89910.1,-9216.88,80063.8,448009,61137.8,81769.4,828768
0.604,0.00242861,91471.6,-9192.71,78745.7,446416,64491.7,84124.9,813743
0.606,0.00244272,93033.2,-9168.54,77427.6,444823,67845.7,86480.4,798718
0.608,0.00245683,94594.8,-9144.37,76109.5,443230,71199.5,88835.9,783693
0.61,0.00247095,96156.3,-9120.2,74791.3,441638,74553.5,91191.5,768667
0.612,0.00248506,97717.9,-9096.04,73473.2,440045,77907.4,93547,753642
0.614,0.00249917,99279.4,-9071.87,72155.1,438452,81261.4,95902.5,738617
0.616,0.00251329,100841,-9047.7,70837,436859,84615.3,98258,723592
0.618,0.0025274,102403,-9023.53,69518.9,435267,87969.2,100614,708567
0.62,0.00254156,102846,-8410.56,67446.6,432209,91255.7,102539,699158
0.622,0.00255587,99473.6,-5787.14,62799.3,424152,94311.7,102996,708930
0.624,0.00257018,96100.8,-3163.64,58151.8,416094,97367.8,103452,718701
0.626,0.00258462,92787.1,-1314.28,54287.5,409366,97998,104029,721303
0.628,0.00259921,89533.1,-247.229,51214.4,403981,96176.4,104729,716659
0.63,0.00261379,86279.2,819.786,48141.4,398595,94354.8,105428,712014
0.632,0.00262837,83025.1,1886.83,45068.3,393210,92533.2,106127,707370
0.634,0.00264295,79771.2,2953.85,41995.3,387825,90711.6,106827,702726
0.636,0.00265761,77089.5,3578.42,40068.3,382539,88576.6,107280,698308
0.638,0.00267248,75823.4,3108.42,40976.6,377497,85665.9,107124,694450
0.64,0.00268734,74557.4,2638.44,41884.9,372456,82755.3,106968,690593
0.642,0.00270221,73291.3,2168.44,42793.3,367415,79844.7,106812,686735
0.644,0.00271708,72025.2,1698.45,43701.6,362374,76934.1,106656,682878
0.646,0.00273205,71051.2,1696.75,43577.5,359985,74489.6,105605,678855
0.648,0.00274719,70532.5,2425.18,41843.7,361732,72771.8,103161,674573
0.65,0.00276233,70013.9,3153.6,40109.9,363479,71054,100716,670291
0.652,0.00277747,69495.3,3882.05,38376.1,365226,69336.1,98271.6,666008
0.654,0.00279261,68976.7,4610.48,36642.3,366973,67618.3,95827,661726
0.656,0.00280775,68458,5338.93,34908.5,368719,65900.5,93382.4,657444
0.658,0.00282289,67939.4,6067.36,33174.7,370466,64182.7,90937.8,653162
0.66,0.00283803,67420.8,6795.81,31440.9,372213,62464.8,88493.2,648880
0.662,0.00285317,66902.1,7524.24,29707.1,373960,60747,86048.6,644598
0.664,0.00286831,66383.5,8252.66,27973.4,375707,59029.2,83604.1,640316
0.666,0.00288345,65864.9,8981.11,26239.5,377454,57311.4,81159.4,636034
0.668,0.00289859,65346.3,9709.54,24505.8,379200,55593.6,78714.9,631752
0.67,0.00291373,64827.6,10438,22771.9,380947,53875.8,76270.2,627470
0.672,0.00292887,64309,11166.4,21038.2,382694,52158,73825.7,623188
0.674,0.00294401,63790.4,11894.9,19304.3,384441,50440.1,71381,618905
0.676,0.00295915,63271.7,12623.3,17570.6,386188,48722.3,68936.5,614623
0.678,0.0029743,62753.1,13351.7,15836.8,387935,47004.5,66491.9,610341
0.68,0.00298945,62212,14122.9,13983.9,389163,45539.1,63724.5,606107
0.682,0.00300479,61209.4,15769.5,9689.67,379756,49250.7,54338.8,602860
0.684,0.00302013,60206.9,17416.2,5395.32,370350,52962.4,44952.9,599613
0.686,0.00303546,59204.3,19062.9,1101.1,360943,56674,35567.2,596366
0.688,0.0030508,58201.7,20709.6,-3193.25,351537,60385.7,26181.2,593119
0.69,0.00306614,57199.2,22356.2,-7487.48,342130,64097.3,16795.5,589872
0.692,0.00308148,56196.6,24002.9,-11781.7,332724,67808.8,7409.85,586624
0.694,0.00309682,55194.1,25649.6,-16076,323317,71520.5,-1976.11,583377
0.696,0.00311216,54191.5,27296.3,-20370.3,313911,75232.1,-11361.8,580130
0.698,0.0031276,53648.6,27998.8,-22607.7,307217,78249.8,-18527,574329
0.7,0.00314324,54064.3,26732.2,-20555.2,306182,79820,-21060.5,563203
0.702,0.00315888,54479.9,25465.5,-18502.7,305147,81390.2,-23594,552076
0.704,0.00317451,54895.6,24198.9,-16450.2,304112,82960.4,-26127.4,540949
0.706,0.00319015,55311.3,22932.3,-14397.7,303077,84530.6,-28660.9,529822
0.708,0.00320579,55727,21665.6,-12345.2,302041,86100.9,-31194.4,518695
0.71,0.00322143,56142.6,20399,-10292.7,301006,87671,-33727.9,507568
0.712,0.00323731,55518.3,21586.3,-11674.2,307515,87535,-36705.3,503874
0.714,0.00325341,53950.3,25000.3,-16171.6,320869,85850.8,-40085.3,506924
0.716,0.00326951,52382.3,28414.3,-20669.1,334223,84166.6,-43465.5,509973
0.718,0.00328561,50814.3,31828.2,-25166.5,347577,82482.4,-46845.5,513023
0.72,0.00330171,49246.2,35242.3,-29664,360931,80798.1,-50225.7,516073
0.722,0.00331781,47678.2,38656.2,-34161.3,374285,79113.9,-53605.8,519123
0.724,0.00333388,46899.8,42849.2,-36609.5,386713,78482.5,-55962.6,525019
0.726,0.00334988,47952.6,48849.1,-34305.6,396994,80292.7,-55946.3,537517
0.728,0.00336587,49005.4,54848.9,-32001.7,407275,82102.8,-55930.1,550015
0.73,0.00338187,50058.2,60848.8,-29697.7,417557,83913,-55913.9,562514
0.732,0.00339787,51111,66848.5,-27393.8,427838,85723.1,-55897.7,575011
0.734,0.00341387,52163.8,72848.5,-25089.9,438119,87533.3,-55881.4,587510
0.736,0.00342986,53216.6,78848.2,-22786,448400,89343.4,-55865.2,600008
0.738,0.00344586,54269.3,84848,-20482.1,458681,91153.5,-55849,612506
0.74,0.00346181,51591,80627.3,-24861.5,459301,89913.5,-61607,603004
0.742,0.00347775,48796.3,76087.4,-29449.5,459618,88578.3,-67545.1,592816
0.744,0.00349369,46001.4,71547.5,-34037.7,459935,87243,-73483.5,582627
0.746,0.00350963,43206.7,67007.7,-38625.7,460252,85907.8,-79421.6,572439
0.748,0.00352577,46717.8,65585.1,-36324.4,458268,85978.9,-73145.9,563946
0.75,0.00354192,50676.4,64383.8,-33534.3,456120,86149.7,-66003.5,555573
0.752,0.00355808,54635,63182.6,-30744.1,453972,86320.6,-58861.1,547200
0.754,0.00357423,58593.7,61981.3,-27953.8,451824,86491.5,-51718.5,538827
0.756,0.00359066,58076.7,57517,-27375.5,449816,86759.2,-45539.6,532183
0.758,0.00360711,57268.3,52840,-26941.3,447818,87033.3,-39423.2,525651
0.76,0.00362355,56459.8,48163.2,-26507,445819,87307.3,-33307.1,519119
0.762,0.00364007,55073.3,44995.7,-25724.7,443332,87370.1,-28403.4,517338
0.764,0.00365672,52640.8,44559.4,-24312.5,439958,87050.8,-25694.2,524156
0.766,0.00367337,50208.4,44123.1,-22900.3,436584,86731.4,-22985,530973
0.768,0.00369001,47775.8,43686.8,-21488,433210,86412,-20275.7,537790
0.77,0.00370666,45343.4,43250.6,-20075.8,429836,86092.6,-17566.5,544607
0.772,0.00372331,42910.9,42814.3,-18663.6,426463,85773.2,-14857.2,551424
0.774,0.00373992,40991.6,41639.9,-17341,420611,85256.3,-11550,558005
0.776,0.00375645,40100.3,38987.1,-16198.1,409795,84343.5,-7045.03,564113
0.778,0.00377298,39208.9,36334.4,-15055.1,398979,83430.7,-2540.18,570221
0.78,0.00378951,38317.6,33681.7,-13912.2,388164,82518,1964.68,576330
0.782,0.00380604,37426.3,31028.9,-12769.2,377348,81605.2,6469.67,582438
0.784,0.00382257,36534.9,28376.2,-11626.3,366532,80692.5,10974.5,588546
0.786,0.0038391,35643.6,25723.3,-10483.3,355716,79779.7,15479.5,594654
0.788,0.00385563,34752.3,23070.6,-9340.33,344901,78867,19984.4,600762
0.79,0.00387216,33860.9,20417.8,-8197.35,334085,77954.2,24489.4,606870
0.792,0.00388873,33306.7,17879.7,-7185.9,323156,76960.8,29028.2,611504
0.794,0.00390577,37881.7,17084.7,-8175.14,310513,74740.1,34083.6,593706
0.796,0.00392282,42456.6,16289.7,-9164.35,297870,72519.6,39138.9,575908
0.798,0.00393986,47031.5,15494.7,-10153.6,285228,70299,44194.2,558110
0.8,0.00395691,51606.6,14699.7,-11142.8,272584,68078.3,49249.7,540311
0.802,0.00397396,56181.4,13904.7,-12132,259942,65857.8,54305,522513
0.804,0.003991,60756.5,13109.7,-13121.3,247298,63637.1,59360.4,504715
0.806,0.00400805,65331.4,12314.7,-14110.5,234656,61416.5,64415.7,486917
0.808,0.0040251,69906.4,11519.7,-15099.7,222012,59195.9,69471.2,469119
0.81,0.00404224,73478.5,10989.2,-15281.4,218649,58474,73286,460300
0.812,0.00405946,76236.8,10673.3,-14807.7,222815,58968,76094.1,458766
0.814,0.00407668,78995.3,10357.4,-14334.1,226981,59462.1,78902.4,457233
0.816,0.0040939,81753.6,10041.6,-13860.5,231147,59956.2,81710.6,455700
0.818,0.00411113,84512,9725.66,-13386.8,235313,60450.3,84518.8,454166
0.82,0.00412835,87270.4,9409.77,-12913.2,239478,60944.4,87327,452633
0.822,0.00414557,90028.8,9093.87,-12439.6,243644,61438.5,90135.3,451099
0.824,0.00416279,92787.2,8777.98,-11966,247810,61932.6,92943.5,449566
0.826,0.00418001,95545.5,8462.09,-11492.3,251976,62426.7,95751.6,448033
0.828,0.00419724,98304,8146.2,-11018.7,256142,62920.8,98559.9,446499
0.83,0.00421446,101062,7830.31,-10545.1,260308,63414.9,101368,444966
0.832,0.00423168,103821,7514.41,-10071.5,264474,63909,104176,443433
0.834,0.00424891,106579,7198.52,-9597.84,268640,64403,106985,441899
0.836,0.00426613,109338,6882.62,-9124.2,272806,64897.1,109793,440366
0.838,0.00428335,112096,6566.73,-8650.58,276972,65391.2,112601,438833
0.84,0.00430057,114854,6250.84,-8176.96,281138,65885.3,115409,437299
0.842,0.00431773,116467,6500.7,-7443.78,284897,66767.1,117957,436464
0.844,0.00433488,117984,6797.89,-6688.9,288622,67681.3,120484,435687
0.846,0.00435204,119501,7095.09,-5934.01,292348,68595.6,123010,434911
0.848,0.00436919,121018,7392.28,-5179.13,296073,69509.8,125537,434134
0.85,0.00438634,122535,7689.48,-4424.23,299798,70424,128063,433357
0.852,0.00440379,122259,6688.03,-2918.7,296012,70652.6,125718,434077
0.854,0.00442129,121618,5421.63,-1260.02,290693,70741.4,122379,435102
0.856,0.00443884,118741,4597.71,299.1,284406,70785.9,116731,435702
0.858,0.00445645,112529,4433.87,1709.58,276677,70764.4,107638,435667
0.86,0.00447406,106316,4270.03,3120.1,268946,70742.9,98544.5,435631
0.862,0.00449167,100104,4106.19,4530.58,261216,70721.4,89451.4,435596
0.864,0.00450928,93891.6,3942.34,5941.1,253486,70699.9,80358,435560
0.866,0.00452706,89983.1,4179.92,6748.47,251483,70731.5,74752.5,434933
0.868,0.00454495,87604.6,4684.08,7155.3,253282,70798.3,71463.1,433913
0.87,0.00456284,85226.1,5188.26,7562.14,255082,70865.1,68173.6,432893
0.872,0.00458074,82847.6,5692.42,7968.96,256881,70931.9,64884.2,431873
0.874,0.00459863,80469.1,6196.6,8375.8,258680,70998.7,61594.8,430853
0.876,0.00461652,78090.7,6700.76,8782.63,260480,71065.5,58305.4,429833
0.878,0.00463441,76278.8,7509.15,9559.44,263299,71052.7,55594,428255
0.88,0.00465229,74571.1,8373.44,10404.2,266306,71025.2,52989,426575
0.882,0.00467017,72863.4,9237.76,11249.1,269313,70997.7,50384,424894
0.884,0.00468805,71155.8,10102.1,12093.9,272320,70970.3,47779,423213
0.886,0.00470593,69448.1,10966.3,12938.7,275327,70942.8,45174,421533
0.888,0.00472381,67740.4,11830.7,13783.5,278334,70915.3,42568.9,419852
0.89,0.00474169,66032.8,12695,14628.4,281341,70887.8,39964,418172
0.892,0.00475957,64325.1,13559.3,15473.2,284347,70860.3,37358.9,416491
0.894,0.00477745,62617.4,14423.6,16318,287354,70832.9,34753.9,414810
0.896,0.00479534,60909.7,15287.9,17162.8,290361,70805.4,32148.9,413130
0.898,0.00481322,59202.1,16152.2,18007.6,293368,70777.9,29543.9,411449
0.9,0.0048311,57494.4,17016.5,18852.5,296375,70750.4,26938.9,409768
0.902,0.00484898,55786.7,17880.8,19697.3,299382,70722.9,24333.8,408088
0.904,0.00486709,51130.1,17104,19156.8,300442,72733.6,21121.1,412631
0.906,0.00488523,46226.1,16189.5,18500.1,301339,74915.2,17857.3,417696
0.908,0.00490336,41322.3,15275.1,17843.4,302235,77096.7,14593.6,422761
0.91,0.00492149,36418.3,14360.6,17186.8,303132,79278.3,11329.9,427826
0.912,0.00493963,31514.5,13446.1,16530.1,304029,81459.8,8066.18,432891
0.914,0.00495776,26610.7,12531.7,15873.4,304925,83641.3,4802.5,437956
0.916,0.00497589,21706.7,11617.2,15216.7,305822,85822.9,1538.72,443021
0.918,0.00499403,16802.9,10702.8,14560.1,306719,88004.4,-1724.97,448086
0.92,0.00501235,13974.3,10770.8,14096.6,306630,89758.5,-3697.36,451967
0.922,0.00503088,13376.3,11894.6,13840.9,305483,91053.2,-4281.87,454573
0.924,0.00504941,12778.3,13018.5,13585.1,304336,92348,-4866.4,457180
0.926,0.00506793,12180.2,14142.3,13329.4,303189,93642.7,-5450.91,459787
0.928,0.00508646,11582.2,15266.1,13073.7,302042,94937.4,-6035.42,462394
0.93,0.00510495,12376.5,15986,13225,296256,96278.5,-6401.61,459352
0.932,0.00512343,13226.5,16689.8,13392.6,290284,97621.5,-6759.07,456085
0.934,0.00514191,14076.5,17393.6,13560.2,284312,98964.5,-7116.53,452818
0.936,0.00516039,14926.4,18097.4,13727.8,278341,100307,-7473.99,449551
0.938,0.00517887,15776.4,18801.2,13895.4,272369,101650,-7831.46,446284
0.94,0.00519736,16626.3,19505,14063,266397,102993,-8188.91,443017
0.942,0.00521584,17476.3,20208.8,14230.6,260426,104336,-8546.37,439751
0.944,0.00523432,18326.3,20912.6,14398.2,254454,105679,-8903.83,436484
0.946,0.0052528,19176.2,21616.3,14565.8,248482,107022,-9261.29,433217
0.948,0.00527128,20026.2,22320.1,14733.4,242510,108365,-9618.76,429950
0.95,0.00528977,20876.2,23023.9,14901,236539,109708,-9976.21,426683
0.952,0.00530825,21726.1,23727.7,15068.6,230567,111051,-10333.7,423416
0.954,0.00532673,22576.1,24431.5,15236.2,224595,112394,-10691.1,420149
0.956,0.00534521,23426,25135.3,15403.8,218624,113737,-11048.6,416882
0.958,0.00536376,28567.9,27967.5,16247.5,222056,116478,-5746.19,418503
0.96,0.0053824,39151.4,33498.1,17948.3,237413,120993,6732.25,426323
0.962,0.00540117,55781.6,43061.2,20224.4,278030,127366,27166.1,454772
0.964,0.0054201,79623.2,57433.1,23186.4,348776,135955,57087.6,507825
0.966,0.00543898,96192.1,66157,24922.5,396408,141423,79099.9,541881
0.968,0.00545767,89467.5,56790.6,22732.6,370011,136896,75779.3,515093
0.97,0.00547636,82742.7,47424,20542.5,343614,132368,72458.6,488304
0.972,0.00549506,76018,38057.7,18352.6,317217,127840,69137.9,461515
0.974,0.00551375,69293.4,28691.4,16162.6,290820,123313,65817.3,434727
0.976,0.00553252,62981.7,21677.9,15275.8,273804,118737,63912.5,417637
0.978,0.00555129,56626.5,15097.7,14691.8,258840,114074,62285.2,402624
0.98,0.00557025,55916.8,14955,15298.8,257293,112198,63897.7,403141
0.982,0.00558921,55207.2,14812.3,15905.7,255746,110321,65510.2,403659
0.984,0.00560817,54497.5,14669.5,16512.6,254199,108445,67122.7,404176
0.986,0.00562713,53787.9,14526.8,17119.5,252652,106568,68735.2,404694
0.988,0.00564609,53078.3,14384.1,17726.4,251105,104692,70347.7,405212
0.99,0.00566506,52368.6,14241.4,18333.3,249558,102816,71960.3,405729
0.992,0.00568402,51659,14098.7,18940.2,248011,100939,73572.7,406247
0.994,0.00570298,50949.3,13956,19547.1,246464,99062.6,75185.3,406764
0.996,0.00572194,50239.7,13813.2,20154,244917,97186.2,76797.8,407282
0.998,0.0057409,49530.1,13670.5,20760.9,243370,95309.7,78410.3,407800
1,0.00575986,48820.4,13527.8,21367.8,241823,93433.3,80022.8,408317
1.002,0.00577882,48110.8,13385.1,21974.7,240276,91556.8,81635.3,408835
1.004,0.00579778,47401.2,13242.4,22581.6,238729,89680.4,83247.8,409352
1.006,0.00581674,46691.5,13099.7,23188.5,237182,87803.8,84860.4,409870
1.008,0.0058357,45981.9,12956.9,23795.4,235635,85927.4,86472.8,410388
1.01,0.00585466,45272.2,12814.2,24402.3,234088,84051,88085.3,410905
1.012,0.00587362,44562.6,12671.5,25009.2,232541,82174.5,89697.8,411423
1.014,0.00589258,43852.9,12528.8,25616.2,230994,80298,91310.4,411940
1.016,0.00591154,43143.3,12386.1,26223.1,229447,78421.5,92922.9,412458
1.018,0.0059305,42433.7,12243.4,26830,227900,76545.1,94535.4,412976
1.02,0.00594947,41724,12100.7,27436.9,226353,74668.7,96147.9,413493
1.022,0.00596843,41014.4,11957.9,28043.7,224806,72792.2,97760.4,414011
1.024,0.00598739,40200.5,11867,28699.5,223261,70951,99347.6,414685
1.026,0.00600627,40727.1,11110,28727,221687,68655.4,101261,413350
1.028,0.0060254,38480.4,9515.36,28514.2,219566,66780.4,96448.2,416454
1.03,0.00604467,36045.8,8087.07,29953,217851,66018,90049.7,418627
1.032,0.00606393,33611.3,6658.79,31391.7,216137,65255.6,83651.2,420799
1.034,0.0060832,31176.6,5230.41,32830.6,214422,64493.1,77252.3,422972
1.036,0.00610247,28742,3802.13,34269.4,212707,63730.6,70853.8,425145
1.038,0.00612174,26307.5,2373.84,35708.2,210992,62968.2,64455.3,427318
1.04,0.00614101,23872.9,945.551,37147,209277,62205.8,58056.8,429490
1.042,0.00616028,21438.2,-482.822,38585.9,207562,61443.3,51657.9,431663
1.044,0.00617955,19978.4,-1320.07,40754,204380,61324.6,47079.1,431934
1.046,0.00619903,20036.4,-746.323,41515.3,206588,62563.3,45141.9,425150
1.048,0.00621851,20088,-160.153,42187.3,209061,63809.7,43186.2,418243
1.05,0.00623798,20139.6,426.016,42859.4,211533,65056,41230.6,411336
1.052,0.00625746,20191.3,1012.22,43531.4,214006,66302.4,39274.8,404428
1.054,0.00627694,20242.9,1598.39,44203.5,216478,67548.8,37319.2,397521
1.056,0.00629642,20294.5,2184.56,44875.5,218950,68795.1,35363.6,390613
1.058,0.0063159,20346.2,2770.73,45547.5,221423,70041.4,33407.9,383706
1.06,0.00633538,20397.8,3356.9,46219.6,223895,71287.8,31452.3,376799
1.062,0.00635486,20449.4,3943.1,46891.6,226368,72534.2,29496.6,369891
1.064,0.00637434,20501,4529.27,47563.7,228840,73780.5,27540.9,362984
1.066,0.00639382,20552.7,5115.44,48235.7,231312,75026.9,25585.3,356077
1.068,0.0064133,20604.3,5701.61,48907.7,233785,76273.2,23629.7,349169
1.07,0.00643278,20655.9,6287.81,49579.8,236257,77519.6,21673.9,342262
1.072,0.00645226,20707.6,6873.98,50251.8,238730,78765.9,19718.3,335354
1.074,0.00647176,20874.4,7981.18,50311.4,239651,79049.5,18465.1,326297
1.076,0.00649134,21368,10566.4,48633.7,236171,76601.9,19204.8,311140
1.078,0.00651093,21861.6,13151.7,46955.9,232691,74154.3,19944.4,295983
1.08,0.00653054,21808.3,15507.1,45763,228735,71812.8,19968.1,283424
1.082,0.00655032,20376.5,16487.7,46067.4,225020,70430,17785.5,283016
1.084,0.00657017,19889.3,16461.4,46018.9,224666,70083.4,16130.9,288009
1.086,0.00659002,19402.1,16435,45970.4,224312,69736.9,14476.4,293001
1.088,0.00660987,18914.9,16408.7,45922,223957,69390.4,12821.7,297993
1.09,0.00662972,18427.7,16382.3,45873.5,223603,69043.8,11167.2,302986
1.092,0.00664957,17940.6,16356,45825,223249,68697.3,9512.62,307978
1.094,0.00666942,17453.4,16329.6,45776.5,222895,68350.8,7858.06,312970
1.096,0.00668926,16966.2,16303.3,45728,222541,68004.3,6203.51,317962
1.098,0.00670912,16479,16276.9,45679.5,222187,67657.7,4548.85,322955
1.1,0.00672896,15991.8,16250.6,45631,221833,67311.2,2894.3,327947
1.102,0.00674881,15504.6,16224.2,45582.6,221478,66964.7,1239.74,332940
1.104,0.00676866,15017.4,16197.9,45534.1,221124,66618.1,-414.818,337932
1.106,0.00678851,14530.3,16171.5,45485.6,220770,66271.6,-2069.38,342924
1.108,0.00680837,15233.1,16166.2,44324.3,219185,65709,-2675.68,345493
1.11,0.00682823,16428.7,16169.5,42702.2,217091,65057,-2847.87,347058
1.112,0.00684809,17624.3,16172.8,41080.2,214996,64405,-3020.06,348623
1.114,0.00686795,18819.9,16176.1,39458.2,212902,63753,-3192.25,350188
1.116,0.00688781,20015.6,16179.4,37836,210807,63100.9,-3364.45,351754
1.118,0.00690768,21211.1,16182.7,36214,208713,62448.9,-3536.64,353319
1.12,0.00692754,22406.7,16186,34592,206619,61796.9,-3708.83,354884
1.122,0.00694755,23298.3,17575.2,31183.5,204475,61704.8,-934.916,351852
1.124,0.00696758,24128.7,19242.9,27416.1,202321,61725.3,2431.09,347896
1.126,0.00698762,24959.1,20910.7,23648.4,200166,61745.8,5797.31,343940
1.128,0.00700766,25789.5,22578.4,19881,198012,61766.3,9163.32,339984
1.13,0.0070277,26620,24246.1,16113.5,195858,61786.8,12529.3,336029
1.132,0.00704774,27450.4,25913.8,12346.1,193704,61807.3,15895.3,332073
1.134,0.00706784,27826.2,27097.8,10004.5,191354,62151.5,18725.5,328481
1.136,0.00708802,27528,27564.9,9776.57,188711,62975.5,20761.5,325430
1.138,0.0071082,27229.9,28031.9,9548.7,186068,63799.5,22797.4,322378
1.14,0.00712837,27132.7,27815.1,9180.02,183948,63117.5,22703.8,317510
1.142,0.00714853,27071.5,27475.9,8786.13,181922,62165.9,22229.1,312317
1.144,0.00716869,27010.3,27136.7,8392.22,179895,61214.2,21754.3,307123
1.146,0.00718885,26949.1,26797.5,7998.34,177869,60262.6,21279.5,301930
1.148,0.00720901,26887.8,26458.3,7604.45,175843,59310.9,20804.8,296737
1.15,0.00722917,26826.6,26119.1,7210.57,173816,58359.3,20330,291544
1.152,0.00724933,26765.4,25779.9,6816.68,171790,57407.7,19855.2,286351
1.154,0.0072695,26704.2,25440.7,6422.77,169763,56456,19380.5,281157
1.156,0.00728966,26642.9,25101.4,6028.88,167737,55504.4,18905.7,275964
1.158,0.00730982,26581.7,24762.2,5635,165711,54552.7,18430.9,270771
1.16,0.00732998,26520.5,24423,5241.11,163684,53601.1,17956.2,265578
1.162,0.00735014,26459.3,24083.8,4847.23,161658,52649.5,17481.4,260385
1.164,0.0073703,26398,23744.6,4453.32,159631,51697.8,17006.6,255191
1.166,0.00739046,26336.8,23405.4,4059.43,157605,50746.2,16531.9,249998
1.168,0.00741063,26088.4,23179.9,3585.46,156395,49712.6,16116.8,245472
1.17,0.0074308,25383,23232.2,2915.9,157177,48478.9,15847.7,242573
1.172,0.00745098,24677.5,23284.4,2246.29,157959,47245.1,15578.5,239674
1.174,0.00747116,23972,23336.7,1576.73,158741,46011.4,15309.3,236776
1.176,0.00749133,23266.6,23389,907.16,159523,44777.7,15040.1,233877
1.178,0.00751158,21681,22961.5,354.509,158307,43376.3,13386.7,230803
1.18,0.00753199,18051.5,21420.1,73.3557,152451,41585.5,8518.8,227322
1.182,0.0075524,14421.8,19878.5,-207.814,146595,39794.6,3650.58,223840
1.184,0.00757281,10792.4,18337.1,-488.967,140739,38003.7,-1217.34,220359
1.186,0.00759322,7162.91,16795.7,-770.121,134883,36212.9,-6085.26,216877
1.188,0.00761363,3533.45,15254.2,-1051.27,129027,34422.1,-10953.2,213396
1.19,0.00763411,3522.08,15104.2,-945.374,129826,34528.9,-10622.5,212656
1.192,0.00765459,4336.46,15271.8,-751.146,132143,35068.7,-9105.47,212543
1.194,0.00767508,5150.85,15439.4,-556.917,134459,35608.5,-7588.4,212430
1.196,0.00769556,5965.23,15606.9,-362.689,136776,36148.4,-6071.33,212317
1.198,0.00771605,6779.62,15774.5,-168.46,139093,36688.2,-4554.26,212203
1.2,0.00773653,7594.05,15942.1,25.7795,141410,37228,-3037.1,212090
1.202,0.00775702,8408.43,16109.7,220.008,143727,37767.9,-1520.02,211977
1.204,0.0077775,9222.82,16277.2,414.236,146044,38307.7,-2.95163,211863
1.206,0.00779799,10037.2,16444.8,608.465,148361,38847.5,1514.12,211750
1.208,0.00781847,10851.6,16612.4,802.693,150678,39387.3,3031.19,211637
1.21,0.00783896,11666,16780,996.933,152995,39927.2,4548.35,211523
1.212,0.00785945,12480.4,16947.5,1191.16,155312,40467,6065.43,211410
1.214,0.00787993,13294.8,17115.1,1385.39,157628,41006.9,7582.5,211297
1.216,0.00790044,14026,17839.7,1750.51,161258,41577.2,10084.8,212648
1.218,0.00792099,14656.6,19239.4,2322.81,166480,42184.5,13781.6,215773
1.22,0.00794153,18221.8,20704.4,2926.77,173518,43543.3,18676.5,219263
1.222,0.00796208,23888.7,22216.1,3553.44,181857,45440.2,24429.6,223014
1.224,0.00798262,29555.5,23727.8,4180.1,190196,47337.1,30182.6,226765
1.226,0.00800316,35222.3,25239.5,4806.77,198535,49233.9,35935.7,230516
1.228,0.0080237,40889.5,26751.2,5433.47,206874,51130.9,41689.1,234267
1.23,0.00804424,46556.3,28262.9,6060.13,215213,53027.8,47442.1,238018
1.232,0.00806486,51338.8,29097.8,6008.78,219678,54541.8,51562.9,238885
1.234,0.00808563,54462.6,28663.4,4685.9,216880,55337.5,52622.5,234345
1.236,0.00810639,55480.4,28119.4,3753.39,213059,55804.2,53001.7,232087
1.238,0.00812712,54182.7,27454.9,3250.08,208114,55909.2,52632.8,232338
1.24,0.00814786,52885.1,26790.5,2746.8,203169,56014.1,52264,232589
1.242,0.0081686,51587.5,26126.1,2243.52,198225,56119.1,51895.1,232841
1.244,0.00818934,50289.8,25461.7,1740.24,193280,56224,51526.2,233092
1.246,0.00821008,48992.1,24797.2,1236.93,188335,56329,51157.4,233344
1.248,0.00823082,47694.5,24132.8,733.649,183390,56433.9,50788.5,233595
1.25,0.00825156,46396.9,23468.4,230.368,178445,56538.9,50419.6,233847
1.252,0.00827229,45099.2,22803.9,-272.913,173500,56643.8,50050.8,234098
1.254,0.00829303,43801.6,22139.5,-776.194,168556,56748.8,49681.9,234350
1.256,0.00831377,42503.9,21475,-1279.5,163611,56853.8,49313,234601
1.258,0.00833451,41206.2,20810.6,-1782.79,158666,56958.7,48944.2,234853
1.26,0.00835528,40858.2,20272.9,-2195.05,155441,56713,48928.4,238158
1.262,0.00837606,40822.9,19776.8,-2577.35,152783,56351.8,49028.9,242469
1.264,0.00839684,40787.6,19280.8,-2959.67,150125,55990.6,49129.4,246781
1.266,0.00841761,40752.3,18784.7,-3341.96,147468,55629.4,49229.9,251092
1.268,0.00843839,40717,18288.7,-3724.26,144810,55268.3,49330.4,255403
1.27,0.00845917,40681.7,17792.6,-4106.55,142152,54907.1,49430.9,259715
1.272,0.00847995,40646.4,17296.6,-4488.85,139494,54545.9,49531.4,264026
1.274,0.00850073,40611.1,16800.5,-4871.17,136836,54184.7,49631.9,268337
1.276,0.00852166,41035.4,15954.5,-5105.42,137080,52224.7,50496.6,272147
1.278,0.00854261,41535.8,15050.7,-5315.2,137804,50000.4,51487.6,275875
1.28,0.00856356,42036.1,14146.9,-5524.99,138529,47776.2,52478.5,279602
1.282,0.00858451,42536.4,13243,-5734.78,139253,45552,53469.5,283329
1.284,0.00860547,43036.8,12339.2,-5944.58,139977,43327.6,54460.5,287057
1.286,0.00862642,43537.1,11435.3,-6154.36,140701,41103.4,55451.5,290784
1.288,0.00864737,44037.4,10531.5,-6364.15,141425,38879.1,56442.4,294511
1.29,0.00866832,44537.8,9627.67,-6573.94,142149,36654.9,57433.4,298239
1.292,0.00868936,44936.8,9561.89,-6785.13,142742,35687.2,57658.7,297845
1.294,0.00871043,45306.1,9742.7,-6996.72,143296,35089.3,57658.6,296238
1.296,0.00873153,44852.4,10164.5,-6416.11,141984,34473.3,56092.3,294696
1.298,0.00875263,44330,10606.5,-5769.22,140515,33855.7,54395,293160
1.3,0.00877373,43807.5,11048.5,-5122.32,139047,33238.1,52697.6,291623
1.302,0.00879483,43284.9,11490.5,-4475.38,137578,32620.5,51000.1,290086
1.304,0.00881593,42762.4,11932.4,-3828.49,136109,32002.9,49302.8,288550
1.306,0.00883704,42239.9,12374.4,-3181.59,134641,31385.4,47605.4,287013
1.308,0.00885814,41717.5,12816.4,-2534.7,133172,30767.8,45908.1,285477
1.31,0.00887924,41195,13258.3,-1887.8,131704,30150.2,44210.7,283940
1.312,0.00890034,40672.4,13700.3,-1240.87,130235,29532.6,42513.2,282404
1.314,0.00892144,40149.9,14142.3,-593.97,128767,28915.1,40815.9,280867
1.316,0.00894254,39627.4,14584.3,52.9259,127298,28297.5,39118.5,279331
1.318,0.00896364,39105,15026.3,699.822,125830,27679.9,37421.2,277794
1.32,0.00898475,38582.4,15468.3,1346.76,124361,27062.3,35723.7,276257
1.322,0.00900584,38167.8,15938.7,1920.13,123826,26619,34350.3,273433
1.324,0.00902692,38076.6,16494.5,2273.11,126090,26697.9,33947.8,266749
1.326,0.00904799,37985.3,17050.3,2626.09,128353,26776.7,33545.4,260065
1.328,0.00906907,37894.1,17606.1,2979.06,130617,26855.6,33142.9,253381
1.33,0.00909014,37802.9,18162,3332.07,132880,26934.5,32740.4,246697
1.332,0.00911122,37711.6,18717.8,3685.05,135144,27013.3,32338,240013
1.334,0.00913229,37620.4,19273.6,4038.02,137408,27092.2,31935.5,233329
1.336,0.00915337,37529.2,19829.4,4391,139671,27171.1,31533.1,226645
1.338,0.00917444,37437.9,20385.2,4744,141935,27249.9,31130.6,219961
1.34,0.00919552,37346.7,20941,5096.98,144198,27328.8,30728.2,213277
1.342,0.00921665,37009.4,21038.3,5581.01,142626,27724.1,30314.3,207183
1.344,0.00923786,36287.2,20417.9,6270.08,135051,28614.4,29882.5,202015
1.346,0.00925907,35564.9,19797.5,6959.15,127477,29504.8,29450.6,196846
1.348,0.00928028,34842.7,19177.1,7648.27,119901,30395.1,29018.8,191677
1.35,0.0093015,34120.4,18556.7,8337.34,112327,31285.5,28587,186508
1.352,0.00932271,33398.2,17936.3,9026.41,104752,32175.8,28155.2,181339
1.354,0.00934392,32675.9,17315.9,9715.48,97177.1,33066.2,27723.4,176171
1.356,0.00936513,31953.7,16695.5,10404.6,89602.4,33956.5,27291.6,171002
1.358,0.00938635,31231.4,16075.1,11093.7,82027.2,34846.9,26859.7,165833
1.36,0.00940763,30751.7,15704.5,11848,78006.6,35911.3,27735.3,166954
1.362,0.00942896,30421,15487.3,12642.3,76169.9,37082.5,29414.2,171940
1.364,0.00945029,30090.2,15270.2,13436.7,74333.2,38253.7,31093.2,176926
1.366,0.00947163,29743.8,15111.5,13998.8,73020.3,39238.6,32085.6,180092
1.368,0.009493,29366.3,15068.1,14102.5,72741.2,39855.5,31723,179666
1.37,0.00951438,28988.8,15024.7,14206.2,72462.1,40472.3,31360.3,179240
1.372,0.00953575,28611.4,14981.3,14309.9,72183.1,41089.2,30997.7,178813
1.374,0.00955712,28233.9,14938,14413.6,71904,41706.1,30635.1,178387
1.376,0.0095785,27856.4,14894.6,14517.3,71624.9,42323,30272.4,177961
1.378,0.00959987,27479,14851.2,14621,71345.9,42939.9,29909.8,177535
1.38,0.00962124,27101.5,14807.8,14724.7,71066.8,43556.7,29547.1,177109
1.382,0.00964262,26724,14764.4,14828.4,70787.7,44173.6,29184.5,176682
1.384,0.00966399,26346.6,14721,14932.1,70508.6,44790.5,28821.9,176256
1.386,0.00968536,25969.1,14677.6,15035.8,70229.6,45407.4,28459.2,175830
1.388,0.00970674,25591.6,14634.2,15139.5,69950.5,46024.3,28096.6,175404
1.39,0.00972811,25214.2,14590.8,15243.2,69671.4,46641.1,27733.9,174978
1.392,0.00974948,24836.7,14547.5,15346.9,69392.4,47258,27371.3,174551
1.394,0.00977087,24569.4,14497,15361.6,69363.5,47783.9,26969.4,173810
1.396,0.00979238,25218.8,14387.7,14635.4,71417.7,47552.1,26241.1,170447
1.398,0.00981388,25868.2,14278.5,13909.3,73471.8,47320.3,25512.7,167084
1.4,0.00983538,26517.7,14169.2,13183.1,75525.9,47088.5,24784.3,163721
1.402,0.00985693,27368.6,14753.2,11389.4,81816.9,46776.5,25709.4,168064
1.404,0.00987848,28246.7,15430.6,9451.63,88679.2,46453.7,26857.3,173448
1.406,0.00990003,29124.7,16108,7513.99,95541.2,46130.9,28005.2,178830
1.408,0.00992157,30002.8,16785.4,5576.34,102403,45808.1,29153,184213
1.41,0.00994312,30880.8,17462.8,3638.7,109265,45485.3,30300.9,189596
1.412,0.00996467,31758.9,18140.1,1701.06,116127,45162.5,31448.8,194978
1.414,0.00998622,32637,18817.6,-236.704,122989,44839.7,32596.7,200362
1.416,0.0100078,32928.7,19099.4,-1343.88,125624,44374.3,33127.5,202635
1.418,0.0100295,32751.2,19064.6,-1786.39,124875,43794.6,33164.4,202421
1.42,0.0100512,32573.7,19029.8,-2228.9,124126,43215,33201.4,202207
1.422,0.0100728,32396.2,18995,-2671.44,123377,42635.3,33238.3,201993
1.424,0.0100945,32218.7,18960.2,-3113.95,122629,42055.7,33275.2,201778
1.426,0.0101161,32041.2,18925.4,-3556.46,121880,41476,33312.1,201564
1.428,0.0101378,31800.1,18897.6,-3976.4,120617,40768.2,33256.6,200767
1.43,0.0101594,31394.8,18888,-4338.07,118025,39729.1,32962.4,198463
1.432,0.0101811,30989.4,18878.5,-4699.76,115433,38690,32668.2,196160
1.434,0.0102027,30584.1,18868.9,-5061.43,112841,37650.9,32374,193856
1.436,0.0102243,30178.7,18859.3,-5423.1,110249,36611.9,32079.8,191553
1.438,0.010246,29773.4,18849.7,-5784.77,107657,35572.8,31785.6,189249
1.44,0.0102676,29368,18840.1,-6146.46,105065,34533.7,31491.3,186946
1.442,0.0102892,28962.7,18830.6,-6508.13,102474,33494.6,31197.1,184642
1.444,0.0103109,28561.4,18834.5,-6851.27,100114,32490.1,30895.4,182432
1.446,0.0103325,28215.3,19023.5,-6940.43,100937,31959.5,30490.8,181494
1.448,0.0103541,27869.2,19212.6,-7029.59,101761,31428.8,30086.2,180557
1.45,0.0103758,27523.1,19401.6,-7118.75,102584,30898.1,29681.6,179620
1.452,0.0103974,27177,19590.7,-7207.91,103408,30367.4,29277,178682
1.454,0.010419,26830.9,19779.7,-7297.07,104231,29836.8,28872.4,177745
1.456,0.0104406,26484.8,19968.8,-7386.22,105055,29306.1,28467.8,176807
1.458,0.0104623,26138.8,20157.8,-7475.38,105878,28775.4,28063.2,175870
1.46,0.0104839,25792.6,20346.8,-7564.54,106702,28244.7,27658.5,174933
1.462,0.0105055,25446.6,20535.9,-7653.7,107525,27714,27253.9,173995
1.464,0.0105272,25100.5,20724.9,-7742.86,108349,27183.4,26849.3,173058
1.466,0.0105488,24754.4,20914,-7832.02,109172,26652.7,26444.7,172120
1.468,0.0105704,24408.3,21103,-7921.18,109996,26122,26040.1,171183
1.47,0.010592,24062.2,21292.1,-8010.34,110819,25591.3,25635.5,170246
1.472,0.0106137,23716.1,21481.1,-8099.5,111642,25060.7,25230.9,169308
1.474,0.0106353,23370,21670.1,-8188.65,112466,24530,24826.3,168371
1.476,0.0106569,23023.9,21859.2,-8277.81,113289,23999.3,24421.7,167433
1.478,0.0106786,22677.8,22048.2,-8366.97,114113,23468.6,24017,166496
1.48,0.0107003,22183,21732.6,-7571.45,112224,23875.7,22775.2,164696
1.482,0.010722,21581.3,21054.4,-6140.16,108387,24956.6,20931.7,162276
1.484,0.0107438,20979.6,20376.1,-4708.87,104549,26037.5,19088.2,159856
1.486,0.0107655,20377.9,19697.9,-3277.58,100711,27118.5,17244.7,157436
1.488,0.0107873,19776.1,19019.6,-1846.21,96873.4,28199.5,15401,155015
1.49,0.0108091,19174.4,18341.4,-414.921,93035.8,29280.4,13557.5,152595
1.492,0.0108308,18572.7,17663.1,1016.37,89198.1,30361.3,11714,150175
1.494,0.0108526,17971,16984.9,2447.66,85360.5,31442.2,9870.52,147755
1.496,0.0108744,17649,16811,3906.24,84641.6,31932.1,8456.89,148030
1.498,0.0108962,17504.2,16956.7,5381.98,85898.6,32047.5,7315.73,150012
1.5,0.0109181,17359.5,17102.3,6857.71,87155.6,32162.9,6174.56,151993
1.502,0.0109399,17214.7,17248,8333.45,88412.5,32278.3,5033.4,153975
1.504,0.0109617,17083.9,17410.8,9724.22,89683.4,32361.6,3946.27,155669
1.506,0.0109837,17216.9,17896.6,9513.5,91216.6,31840.7,3877.74,151948
1.508,0.0110056,17349.9,18382.4,9302.79,92749.7,31319.8,3809.22,148227
1.51,0.0110276,17482.9,18868.2,9092.07,94282.8,30798.9,3740.69,144505
1.512,0.0110495,17615.9,19354,8881.36,95815.9,30278,3672.17,140784
1.514,0.0110715,17748.9,19839.8,8670.64,97349.1,29757.1,3603.64,137062
1.516,0.0110934,18233.7,19980.3,8336.94,96406.7,29333.2,4463.3,134684
1.518,0.0111153,18785.7,20054.8,7979.77,94991.9,28927.8,5500.09,132561
1.52,0.0111372,19337.7,20129.4,7622.6,93577,28522.4,6536.89,130438
1.522,0.0111591,19889.7,20204,7265.43,92162.2,28116.9,7573.69,128316
1.524,0.011181,20441.7,20278.5,6908.24,90747.3,27711.5,8610.55,126193
1.526,0.011203,20993.7,20353.1,6551.07,89332.4,27306.1,9647.35,124070
1.528,0.0112249,21545.7,20427.7,6193.91,87917.6,26900.6,10684.1,121948
1.53,0.0112468,22097.6,20502.2,5836.74,86502.7,26495.2,11720.9,119825
1.532,0.0112687,22631.4,20588.1,5494.72,85216.9,26089,12661.7,117802
1.534,0.0112906,22881,20851,5389.08,85943.9,25669.8,12104.2,117339
1.536,0.0113125,23130.6,21113.9,5283.46,86670.9,25250.6,11546.6,116876
1.538,0.0113343,23380.2,21376.8,5177.83,87397.8,24831.5,10989.1,116413
1.54,0.0113562,23629.8,21639.7,5072.2,88124.8,24412.3,10431.6,115950
1.542,0.0113781,23879.4,21902.6,4966.56,88851.8,23993.1,9874.03,115487
1.544,0.0114,24129,22165.4,4860.93,89578.7,23574,9316.51,115024
1.546,0.0114219,24378.6,22428.3,4755.31,90305.7,23154.8,8758.99,114561
1.548,0.0114438,24628.2,22691.2,4649.68,91032.6,22735.6,8201.46,114098
1.55,0.0114656,24877.8,22954.1,4544.05,91759.6,22316.5,7643.94,113635
1.552,0.0114875,25127.4,23217,4438.41,92486.6,21897.3,7086.39,113172
1.554,0.0115095,25130.1,23247.7,4680.19,92450.2,21863.1,7421.27,113320
1.556,0.0115315,24987.9,23142.2,5126.02,91965.5,22055,8280.29,113828
1.558,0.0115535,24845.6,23036.6,5571.84,91480.8,22246.9,9139.3,114335
1.56,0.0115755,24703.4,22931,6017.66,90996.1,22438.8,9998.32,114842
1.562,0.0115975,24561.1,22825.5,6463.51,90511.3,22630.7,10857.4,115350
1.564,0.0116195,24418.9,22719.9,6909.34,90026.6,22822.6,11716.4,115857
1.566,0.0116415,24276.6,22614.3,7355.16,89541.9,23014.5,12575.4,116364
1.568,0.0116635,24134.4,22508.7,7800.98,89057.2,23206.4,13434.4,116871
1.57,0.0116855,23992.1,22403.2,8246.83,88572.5,23398.3,14293.5,117379
1.572,0.0117075,23849.9,22297.6,8692.65,88087.8,23590.1,15152.5,117886
1.574,0.0117295,23707.6,22192,9138.48,87603.1,23782,16011.5,118393
1.576,0.0117515,24303,22286.6,10055,87875.6,23879.2,16557.8,119012
1.578,0.0117736,25524,22550.8,11370.6,88790.6,23896,16838.8,119725
1.58,0.0117957,26745,22815.1,12686.4,89705.6,23912.8,17119.8,120437
1.582,0.0118177,27966,23079.3,14002.1,90620.6,23929.5,17400.8,121150
1.584,0.0118398,29187,23343.5,15317.8,91535.6,23946.3,17681.8,121863
1.586,0.0118619,30408,23607.8,16633.5,92450.5,23963.1,17962.8,122576
1.588,0.0118839,31629.1,23872.1,17949.3,93365.6,23979.9,18243.8,123288
1.59,0.011906,32850.1,24136.3,19265,94280.5,23996.7,18524.8,124001
1.592,0.0119281,34071.1,24400.5,20580.7,95195.5,24013.5,18805.8,124714
1.594,0.0119502,34318.6,24328,20548.3,94857.3,24089,19203.3,125076
1.596,0.0119723,34357.7,24183.4,20227.5,94250.9,24177.1,19625.8,125364
1.598,0.0119944,34396.9,24038.8,19906.7,93644.5,24265.2,20048.4,125651
1.6,0.0120165,34436,23894.3,19585.9,93038.1,24353.2,20470.9,125939
1.602,0.0120386,34475.2,23749.7,19265.1,92431.7,24441.3,20893.4,126226
1.604,0.0120607,34514.4,23605.1,18944.3,91825.3,24529.4,21316,126514
1.606,0.0120828,34304.6,23614,18422.6,89286.1,24244.9,21124.2,124804
1.608,0.0121049,33929,23725.2,17767.2,85460.1,23712.2,20523.4,121766
1.61,0.0121271,33553.4,23836.4,17111.9,81634.2,23179.6,19922.7,118727
1.612,0.0121492,33177.9,23947.6,16456.5,77808.4,22647,19321.9,115689
1.614,0.0121714,32802.4,24058.8,15801.2,73982.6,22114.4,18721.2,112650
1.616,0.0121935,32426.8,24170,15145.8,70156.5,21581.7,18120.4,109612
1.618,0.0122157,32051.2,24281.2,14490.4,66330.7,21049.1,17519.7,106573
1.62,0.0122378,31675.7,24392.3,13835.1,62504.9,20516.5,16919,103535
1.622,0.0122599,31638.7,24415.2,13306.1,60528.4,20230.9,16682.4,101752
1.624,0.0122821,31984.8,24338.1,12920.2,60644.5,20224.8,16857.8,101389
1.626,0.0123042,32331,24261.1,12534.2,60760.6,20218.7,17033.2,101025
1.628,0.0123264,32677.1,24184,12148.3,60876.7,20212.6,17208.7,100662
1.63,0.0123485,33023.2,24107,11762.4,60992.8,20206.5,17384.1,100299
1.632,0.0123707,33369.3,24029.9,11376.4,61108.9,20200.4,17559.5,99936.4
1.634,0.0123928,33715.4,23952.8,10990.5,61225,20194.3,17734.9,99573.4
1.636,0.012415,34061.5,23875.8,10604.5,61341.1,20188.2,17910.4,99210.4
1.638,0.0124371,34407.7,23798.7,10218.6,61457.3,20182.1,18085.8,98847.4
1.64,0.0124593,34753.8,23721.6,9832.68,61573.4,20176,18261.2,98484.4
1.642,0.0124815,35099.9,23644.6,9446.74,61689.5,20169.9,18436.6,98121.4
1.644,0.0125036,35446,23567.5,9060.79,61805.6,20163.8,18612.1,97758.3
1.646,0.0125258,35792.1,23490.5,8674.85,61921.7,20157.7,18787.5,97395.3
1.648,0.0125479,36138.2,23413.4,8288.92,62037.8,20151.6,18962.9,97032.3
1.65,0.0125701,36484.3,23336.3,7902.99,62153.9,20145.5,19138.4,96669.3
1.652,0.0125922,36830.5,23259.3,7517.05,62270,20139.4,19313.8,96306.3
1.654,0.0126144,37176.6,23182.2,7131.1,62386.1,20133.3,19489.2,95943.2
1.656,0.0126366,37799.4,23304.7,6672.19,63018.2,20168.9,19859.3,95665.8
1.658,0.0126588,38750.2,23064.5,5599.84,62427.3,20441.2,20177,94651.3
1.66,0.0126811,38702.9,22374.1,4676.64,60389,20625,19502.6,92934.2
1.662,0.0127034,38655.6,21683.7,3753.45,58350.8,20808.7,18828.1,91217
1.664,0.0127256,38608.3,20993.2,2830.2,56312.4,20992.5,18153.6,89499.8
1.666,0.0127479,38561,20302.8,1907,54274.1,21176.3,17479.2,87782.7
1.668,0.0127701,38513.7,19612.3,983.807,52235.9,21360.1,16804.8,86065.5
1.67,0.0127924,38466.4,18921.9,60.6119,50197.6,21543.9,16130.3,84348.4
1.672,0.0128146,38419.1,18231.4,-862.638,48159.3,21727.7,15455.9,82631.1
1.674,0.0128369,38371.8,17541,-1785.83,46121,21911.5,14781.4,80914
1.676,0.0128591,36545.7,16048.1,-2443.23,41503.7,21937.5,12338.9,77944.6
1.678,0.0128814,36417.7,15622.6,-2657.4,40399,22078.7,12187,79250.8
1.68,0.0129037,36358.8,15234.6,-2867.65,39416.1,22225.3,12116.3,80668.7
1.682,0.0129259,36299.9,14846.5,-3077.92,38433.2,22371.9,12045.5,82086.6
1.684,0.0129482,36241,14458.4,-3288.17,37450.4,22518.5,11974.8,83504.5
1.686,0.0129704,36182.2,14070.3,-3498.43,36467.5,22665.1,11904,84922.4
1.688,0.0129927,36064.7,13647.6,-3725.76,35531.3,22770.3,11841.8,86471.8
1.69,0.0130149,35914.7,13205.7,-3962.57,34620.8,22852.6,11784.3,88094.1
1.692,0.0130372,35764.7,12763.8,-4199.36,33710.4,22934.9,11726.8,89716.3
1.694,0.0130594,35614.7,12321.9,-4436.15,32800,23017.1,11669.3,91338.5
1.696,0.0130817,35464.7,11880,-4672.95,31889.6,23099.4,11611.9,92960.7
1.698,0.0131039,35314.7,11438.1,-4909.74,30979.2,23181.6,11554.4,94582.9
1.7,0.0131262,35164.7,10996.2,-5146.55,30068.8,23263.9,11496.9,96205.2
1.702,0.0131484,35014.7,10554.3,-5383.34,29158.4,23346.1,11439.4,97827.4
1.704,0.0131707,34864.7,10112.4,-5620.13,28248,23428.4,11381.9,99449.6
1.706,0.0131929,34714.7,9670.52,-5856.92,27337.6,23510.7,11324.4,101072
1.708,0.0132152,34732.8,9339.62,-6071.14,26670.3,23621.7,11233.1,102555
1.71,0.0132374,35578.2,9554.87,-6174.28,27199.8,23874.4,10975,103352
1.712,0.0132597,36551.5,9859.77,-6251.65,27857.4,24093.6,10817.6,104261
1.714,0.0132821,38183.8,10626.4,-6196.42,29175.2,24140.6,11178.2,105749
1.716,0.0133044,39816.2,11393,-6141.18,30493,24187.7,11538.7,107236
1.718,0.0133268,41448.6,12159.6,-6085.94,31810.8,24234.7,11899.2,108723
1.72,0.0133491,43080.9,12926.2,-6030.71,33128.6,24281.7,12259.8,110211
1.722,0.0133715,44713.3,13692.8,-5975.47,34446.3,24328.8,12620.3,111698
1.724,0.0133938,46345.6,14459.4,-5920.23,35764.1,24375.8,12980.8,113185
1.726,0.0134162,47794.6,15169.7,-5877.44,37018.5,24409.3,13272.8,114430
1.728,0.0134385,47262.7,15271.9,-5969.1,37588.7,24296.7,12824.3,113053
1.73,0.0134608,46730.9,15374.1,-6060.76,38158.9,24184.2,12375.9,111676
1.732,0.0134832,46199,15476.3,-6152.41,38729.1,24071.6,11927.4,110299
1.734,0.0135055,45667.2,15578.5,-6244.06,39299.2,23959,11479,108922
1.736,0.0135279,45135.3,15680.7,-6335.72,39869.4,23846.4,11030.5,107545
1.738,0.0135502,44603.5,15782.9,-6427.38,40439.6,23733.8,10582,106168
1.74,0.0135725,44071.6,15885.1,-6519.03,41009.8,23621.3,10133.6,104791
1.742,0.0135949,43539.8,15987.3,-6610.68,41580,23508.7,9685.13,103413
1.744,0.0136172,43007.9,16089.5,-6702.34,42150.2,23396.1,9236.67,102036
1.746,0.0136395,42476.1,16191.7,-6793.99,42720.4,23283.5,8788.19,100659
1.748,0.0136619,41944.2,16293.9,-6885.65,43290.6,23170.9,8339.74,99282.3
1.75,0.0136842,41412.4,16396,-6977.3,43860.8,23058.4,7891.28,97905.3
1.752,0.0137065,40880.6,16498.2,-7068.96,44430.9,22945.8,7442.83,96528.2
1.754,0.0137289,40348.7,16600.4,-7160.61,45001.1,22833.2,6994.37,95151.2
1.756,0.0137512,39816.8,16702.6,-7252.27,45571.3,22720.6,6545.89,93774
1.758,0.0137736,39300.2,16796.5,-7337.06,46095.9,22602.8,6124.4,92405.2
1.76,0.0137959,39247.4,16636.9,-7211.76,45223.8,22324.3,6528.33,91286.5
1.762,0.0138182,39105.7,16576.5,-7016.15,44335.9,21946.6,6858.4,90313
1.764,0.0138406,38841.4,16653.2,-6723.46,43426.2,21431.8,7086.47,89540
1.766,0.013863,38577,16730,-6430.77,42516.5,20917.1,7314.53,88767.1
1.768,0.0138854,38312.7,16806.7,-6138.09,41606.8,20402.3,7542.58,87994.1
1.77,0.0139078,38048.3,16883.5,-5845.41,40697.1,19887.6,7770.64,87221.2
1.772,0.0139301,37784,16960.2,-5552.73,39787.4,19372.8,7998.69,86448.3
1.774,0.0139525,37519.6,17037,-5260.03,38877.6,18858.1,8226.76,85675.3
1.776,0.0139749,37913.5,17534.5,-5048.93,39257.6,18525.4,8591.32,85105.3
1.778,0.0139973,38445.5,18120.5,-4854.97,39908.3,18231,8984.53,84577.9
1.78,0.0140197,38977.6,18706.4,-4661.01,40559,17936.5,9377.75,84050.6
1.782,0.014042,39509.6,19292.3,-4467.05,41209.8,17642.1,9770.97,83523.2
1.784,0.0140644,39991.1,19811.3,-4257.21,41839,17330.1,10142.8,82933.8
1.786,0.0140868,40303.8,20106.9,-3994.45,42396.1,16959.7,10443.3,82137.8
1.788,0.0141092,40616.4,20402.6,-3731.69,42953.3,16589.2,10743.8,81341.7
1.79,0.0141316,40929.1,20698.2,-3468.93,43510.5,16218.8,11044.4,80545.6
1.792,0.014154,41241.8,20993.8,-3206.15,44067.7,15848.3,11344.9,79749.4
1.794,0.0141764,41554.5,21289.5,-2943.39,44624.9,15477.9,11645.4,78953.4
1.796,0.0141988,41867.2,21585.1,-2680.63,45182.1,15107.5,11945.9,78157.3
1.798,0.0142212,42179.9,21880.7,-2417.87,45739.3,14737,12246.4,77361.2
1.8,0.0142435,42492.6,22176.4,-2155.11,46296.5,14366.6,12546.9,76565.1
1.802,0.0142659,42805.3,22472,-1892.33,46853.7,13996.2,12847.5,75769
1.804,0.0142883,43118,22767.6,-1629.57,47410.9,13625.7,13148,74972.9
1.806,0.0143107,43430.7,23063.3,-1366.81,47968.1,13255.3,13448.5,74176.8
1.808,0.0143331,44043,23088.9,-1181.18,47218.8,12839.4,13407.9,73472.9
1.81,0.0143556,44996.6,22807.1,-1083.37,44981.8,12371.7,12978.7,72873.9
1.812,0.014378,45950.2,22525.2,-985.562,42744.7,11903.9,12549.5,72274.9
1.814,0.0144004,46903.8,22243.3,-887.756,40507.7,11436.2,12120.4,71675.9
1.816,0.0144229,47857.3,21961.5,-789.95,38270.8,10968.4,11691.2,71077
1.818,0.0144453,48810.9,21679.7,-692.144,36033.8,10500.7,11262.1,70478
1.82,0.0144677,49764.5,21397.8,-594.332,33796.7,10033,10832.9,69879
1.822,0.0144902,50718.1,21115.9,-496.526,31559.7,9565.23,10403.8,69280.1
1.824,0.0145126,51489.7,20862.4,-407.419,29702.9,9196.1,10091.1,68796
1.826,0.014535,51303.1,20757.6,-364.121,29848.1,9346.13,10392,68916.9
1.828,0.0145575,51116.5,20652.9,-320.823,29993.3,9496.16,10692.9,69037.9
1.83,0.0145799,50930,20548.2,-277.522,30138.5,9646.2,10993.8,69158.8
1.832,0.0146023,50743.4,20443.5,-234.223,30283.7,9796.23,11294.7,69279.7
1.834,0.0146247,50556.8,20338.7,-190.925,30428.9,9946.26,11595.6,69400.6
1.836,0.0146472,50370.3,20234,-147.627,30574.1,10096.3,11896.5,69521.6
1.838,0.0146696,50183.7,20129.3,-104.326,30719.3,10246.3,12197.4,69642.5
1.84,0.014692,49997.1,20024.6,-61.0274,30864.5,10396.4,12498.3,69763.4
1.842,0.0147144,49660.8,19843.5,2.27608,31184.5,10640.3,12818.8,69945.3
1.844,0.0147369,48551.6,19268.6,168.822,32406.9,11368.5,13240.6,70442.1
1.846,0.0147593,47442.4,18693.7,335.367,33629.2,12096.8,13662.5,70938.8
1.848,0.0147817,46333.1,18118.7,501.923,34851.6,12825.2,14084.4,71435.6
1.85,0.0148041,45223.9,17543.8,668.469,36074,13553.4,14506.3,71932.3
1.852,0.0148265,45156.3,17102.8,593.32,36049.7,13802.8,14722.1,71700.7
1.854,0.014849,45707.7,16741.4,374.573,35284.8,13767.7,14815.5,71036.3
1.856,0.0148714,46259.1,16380,155.825,34519.8,13732.6,14909,70371.9
1.858,0.0148938,46810.5,16018.6,-62.9362,33754.8,13697.5,15002.4,69707.4
1.86,0.0149163,48100.9,16226.8,-518.586,34895.6,13871.7,15699.7,70370.6
1.862,0.0149387,49454.7,16483.9,-994.586,36200.1,14064,16448.9,71147.8
1.864,0.0149612,50808.6,16741,-1470.59,37504.5,14256.3,17198,71924.9
1.866,0.0149836,52162.5,16998.1,-1946.61,38809.1,14448.6,17947.3,72702.1
1.868,0.0150061,53672.8,17037.2,-2051.52,38389.7,14411.8,18322.7,73230.4
1.87,0.0150286,55233.2,17006.8,-2037.86,37419.5,14301.8,18578.8,73679.2
1.872,0.015051,56793.6,16976.3,-2024.2,36449.2,14191.8,18834.9,74128
1.874,0.0150735,58353.9,16945.8,-2010.54,35479,14081.8,19090.9,74576.8
1.876,0.0150959,59914.4,16915.3,-1996.88,34508.7,13971.8,19347,75025.6
1.878,0.0151184,59932.4,16746.5,-2037.69,34218.8,13890.6,19344.5,74721.1
1.88,0.0151409,59816.8,16565.7,-2083.22,33988,13811.8,19319.6,74351.3
1.882,0.0151634,59701.1,16385,-2128.76,33757.1,13733.1,19294.7,73981.4
1.884,0.0151859,59585.4,16204.2,-2174.29,33526.3,13654.3,19269.8,73611.6
1.886,0.0152084,59469.7,16023.4,-2219.83,33295.4,13575.6,19244.8,73241.7
1.888,0.0152309,59354,15842.7,-2265.36,33064.6,13496.9,19219.9,72871.9
1.89,0.0152534,59238.3,15661.9,-2310.9,32833.7,13418.1,19195,72502.1
1.892,0.0152759,59122.7,15481.2,-2356.43,32602.9,13339.4,19170.1,72132.2
1.894,0.0152984,59007,15300.4,-2401.97,32372,13260.6,19145.1,71762.4
1.896,0.0153209,58891.3,15119.6,-2447.5,32141.2,13181.9,19120.2,71392.5
1.898,0.0153434,58775.6,14938.9,-2493.04,31910.3,13103.2,19095.3,71022.7
1.9,0.0153659,58659.9,14758.1,-2538.57,31679.5,13024.4,19070.4,70652.9
1.902,0.0153884,58544.2,14577.4,-2584.1,31448.6,12945.7,19045.5,70283
1.904,0.0154109,58428.6,14396.6,-2629.64,31217.7,12866.9,19020.5,69913.2
1.906,0.0154334,58312.9,14215.8,-2675.17,30986.9,12788.2,18995.6,69543.3
1.908,0.0154559,58197.2,14035.1,-2720.71,30756,12709.5,18970.7,69173.5
1.91,0.0154784,58076.7,13845.4,-2763.82,30511.5,12634.6,18946.7,68798.2
1.912,0.0155009,58085,13896.1,-2872.36,30637.2,12455.1,18896.1,68569.3
1.914,0.0155234,58093.4,13946.8,-2980.91,30763,12275.6,18845.4,68340.4
1.916,0.0155459,58101.7,13997.4,-3089.46,30888.8,12096.2,18794.8,68111.5
1.918,0.0155684,58110,14048.1,-3198,31014.5,11916.7,18744.1,67882.6
1.92,0.0155909,58118.3,14098.8,-3306.55,31140.3,11737.2,18693.4,67653.7
1.922,0.0156134,58126.6,14149.5,-3415.1,31266.1,11557.7,18642.8,67424.8
1.924,0.0156359,58134.9,14200.1,-3523.64,31391.8,11378.2,18592.1,67195.9
1.926,0.0156584,58143.2,14250.8,-3632.19,31517.6,11198.8,18541.4,66967
1.928,0.0156809,58151.5,14301.5,-3740.73,31643.3,11019.3,18490.8,66738.1
1.93,0.0157034,58159.8,14352.2,-3849.27,31769.1,10839.8,18440.1,66509.2
1.932,0.0157259,58168.1,14402.8,-3957.82,31894.9,10660.3,18389.4,66280.3
1.934,0.0157484,58418.2,14493.1,-3820.24,32051.3,10654.9,18357,66364.1
1.936,0.0157709,58815.2,14607.3,-3533.03,32226.3,10755.3,18335.6,66638.1
1.938,0.0157933,59212.2,14721.6,-3245.83,32401.3,10855.7,18314.1,66912
1.94,0.0158158,59609.2,14835.8,-2958.61,32576.3,10956.1,18292.7,67186
1.942,0.0158382,61047.2,15098,-2590.96,32245.1,11037,18212.4,68340.6
1.944,0.0158607,62997.9,15432.9,-2183.68,31664.6,11108.3,18103,69928.9
1.946,0.0158832,64948.6,15767.9,-1776.4,31084.1,11179.6,17993.6,71517.3
1.948,0.0159057,66899.4,16102.9,-1369.12,30503.6,11250.9,17884.2,73105.6
1.95,0.0159282,68850.2,16437.9,-961.814,29923.1,11322.2,17774.8,74694.1
1.952,0.0159506,70800.9,16772.9,-554.534,29342.6,11393.5,17665.4,76282.4
1.954,0.0159731,72751.6,17107.8,-147.255,28762.1,11464.8,17556,77870.8
1.956,0.0159956,74702.3,17442.8,260.025,28181.6,11536.1,17446.5,79459.1
1.958,0.0160181,76653.1,17777.8,667.304,27601,11607.4,17337.1,81047.5
1.96,0.0160406,78603.9,18112.8,1074.61,27020.5,11678.7,17227.7,82636
1.962,0.0160631,80421,18441,1546.75,26569.5,11795.6,17103.8,84085.9
1.964,0.0160856,81535.6,18733.7,2359.81,26799.4,12151.8,16903.7,84808.5
1.966,0.0161081,82650.3,19026.5,3172.87,27029.3,12508.1,16703.6,85531.1
1.968,0.0161307,83765,19319.2,3985.98,27259.3,12864.3,16503.5,86253.8
1.97,0.0161532,84879.6,19612,4799.03,27489.2,13220.6,16303.4,86976.4
1.972,0.0161757,85994.3,19904.7,5612.09,27719.1,13576.8,16103.3,87699
1.974,0.0161983,87109,20197.4,6425.15,27949,13933.1,15903.2,88421.7
1.976,0.0162208,88929.3,20453.6,7152.48,28927,13999.3,16130.1,89523.5
1.978,0.0162433,91006.8,20696.5,7848.64,30177.5,13959.8,16512.5,90763.5
1.98,0.0162658,93084.1,20939.3,8544.76,31427.9,13920.4,16894.8,92003.4
1.982,0.0162883,95161.4,21182.2,9240.88,32678.4,13880.9,17277.2,93243.3
1.984,0.0163108,97238.8,21425,9937,33928.8,13841.5,17659.5,94483.1
1.986,0.0163333,99316.1,21667.9,10633.1,35179.2,13802,18041.9,95723
1.988,0.0163558,99897.4,21437.7,11208.1,35692,14216.5,17979.7,96291.1
1.99,0.0163783,96702.3,20013.7,11477.2,34342.8,15776.7,16795.3,95163.4
1.992,0.0164008,93507.2,18589.7,11746.3,32993.5,17336.8,15611,94035.7
1.994,0.0164233,90312.2,17165.8,12015.4,31644.3,18896.9,14426.6,92907.9
1.996,0.0164458,87116.9,15741.7,12284.5,30295,20457.2,13242.2,91780.1
1.998,0.0164682,83921.9,14317.7,12553.5,28945.7,22017.3,12057.8,90652.4
2,0.0164907,80726.8,12893.7,12822.6,27596.5,23577.4,10873.5,89524.6
