"arc_length","Displacement_Magnitude","Sxx","Sxy","Sxz","Syy","Syz","Szz","Von_Mises_Stress"
0,0,1.1906e+06,-68522.5,-6420.76,2.39634e+06,481445,1.02542e+06,1.54906e+06
0.002,1.82877e-06,1.1312e+06,-62607,-5581.73,2.30816e+06,451542,946080,1.51198e+06
0.004,2.96962e-06,1.09892e+06,-60118.3,-4578.34,2.25276e+06,434303,908017,1.48702e+06
0.006,3.93e-06,1.0755e+06,-58749,-3521.24,2.20807e+06,421200,883437,1.46603e+06
0.008,4.91365e-06,1.05207e+06,-57379.7,-2464.15,2.16339e+06,408097,858856,1.44503e+06
0.01,5.90897e-06,1.02865e+06,-56010.4,-1407.05,2.1187e+06,394995,834276,1.42404e+06
0.012,6.91092e-06,1.00523e+06,-54641.1,-349.958,2.07401e+06,381892,809696,1.40304e+06
0.014,7.91699e-06,981801,-53271.9,707.137,2.02933e+06,368790,785116,1.38205e+06
0.016,8.89198e-06,958366,-51491.6,1908.95,1.98351e+06,356642,761936,1.36126e+06
0.018,9.78321e-06,934904,-48675,3475.61,1.93485e+06,346903,742286,1.341e+06
0.02,1.06753e-05,911441,-45858.5,5042.28,1.88619e+06,337163,722637,1.32075e+06
0.022,1.1568e-05,887979,-43042,6608.94,1.83752e+06,327424,702987,1.30049e+06
0.024,1.24612e-05,864516,-40225.5,8175.61,1.78886e+06,317684,683338,1.28023e+06
0.026,1.33549e-05,841054,-37408.9,9742.27,1.7402e+06,307944,663688,1.25997e+06
0.028,1.42488e-05,817591,-34592.4,11308.9,1.69154e+06,298205,644038,1.23971e+06
0.03,1.51431e-05,794129,-31775.9,12875.6,1.64287e+06,288465,624389,1.21945e+06
0.032,1.60375e-05,770666,-28959.3,14442.3,1.59421e+06,278726,604739,1.19919e+06
0.034,1.69321e-05,747204,-26142.8,16008.9,1.54555e+06,268986,585089,1.17893e+06
0.036,1.78269e-05,723741,-23326.3,17575.6,1.49689e+06,259247,565440,1.15867e+06
0.038,1.87219e-05,700279,-20509.8,19142.3,1.44823e+06,249507,545790,1.13841e+06
0.04,1.96169e-05,676816,-17693.2,20708.9,1.39956e+06,239767,526141,1.11816e+06
0.042,2.05121e-05,653354,-14876.7,22275.6,1.3509e+06,230028,506491,1.0979e+06
0.044,2.14074e-05,629891,-12060.2,23842.2,1.30224e+06,220288,486841,1.07764e+06
0.046,2.23027e-05,606429,-9243.67,25408.9,1.25358e+06,210549,467192,1.05738e+06
0.048,2.31981e-05,582966,-6427.14,26975.6,1.20491e+06,200809,447542,1.03712e+06
0.05,2.51007e-05,555912,-4292.41,29415.1,1.17023e+06,195383,416079,1.03658e+06
0.052,2.7368e-05,527563,-2403.58,32169.3,1.14058e+06,191512,380356,1.04316e+06
0.054,2.96368e-05,499214,-514.75,34923.6,1.11093e+06,187641,344633,1.04974e+06
0.056,3.19068e-05,470864,1374.08,37677.9,1.08129e+06,183770,308910,1.05632e+06
0.058,3.41776e-05,442515,3262.91,40432.2,1.05164e+06,179899,273187,1.0629e+06
0.06,3.64492e-05,414166,5151.74,43186.5,1.02199e+06,176028,237464,1.06948e+06
0.062,3.87213e-05,385817,7040.58,45940.7,992347,172157,201740,1.07606e+06
0.064,4.09157e-05,381843,6428.83,45985.2,986310,175547,199296,1.07805e+06
0.066,4.31367e-05,379643,5635.16,45832.5,981990,179466,199272,1.07971e+06
0.068,4.53864e-05,377443,4841.49,45679.8,977670,183384,199248,1.08137e+06
0.07,4.76607e-05,375243,4047.83,45527.1,973351,187303,199225,1.08303e+06
0.072,4.99513e-05,370340,1514.46,45693.5,965171,186221,188704,1.08285e+06
0.074,5.22521e-05,365001,-1299.58,45911.3,956368,184333,176490,1.08239e+06
0.076,5.45619e-05,359662,-4113.61,46129.2,947565,182444,164276,1.08192e+06
0.078,5.68797e-05,354323,-6927.65,46347,938762,180556,152061,1.08145e+06
0.08,5.92044e-05,348984,-9741.68,46564.9,929960,178667,139847,1.08098e+06
0.082,6.15353e-05,343645,-12555.7,46782.7,921157,176779,127633,1.08051e+06
0.084,6.38718e-05,338306,-15369.8,47000.5,912354,174890,115419,1.08004e+06
0.086,6.62132e-05,332967,-18183.8,47218.4,903551,173002,103204,1.07958e+06
0.088,6.85595e-05,328822,-20690.2,47193.3,896276,171835,92737,1.08048e+06
0.09,7.09148e-05,331118,-21538.2,45859.3,897231,174561,91685.3,1.08879e+06
0.092,7.32778e-05,333414,-22386.3,44525.3,898186,177287,90633.5,1.09709e+06
0.094,7.56478e-05,335710,-23234.4,43191.2,899141,180013,89581.8,1.10539e+06
0.096,7.8024e-05,338006,-24082.4,41857.2,900096,182739,88530,1.1137e+06
0.098,8.04061e-05,340302,-24930.5,40523.2,901051,185465,87478.3,1.122e+06
0.1,8.30623e-05,346754,-26341.5,39708.7,912802,188670,87786.1,1.13788e+06
0.102,8.65881e-05,366604,-29566.6,40568.7,959352,193419,92475.7,1.17816e+06
0.104,9.01155e-05,386454,-32791.8,41428.7,1.0059e+06,198168,97165.4,1.21843e+06
0.106,9.36442e-05,406304,-36017,42288.7,1.05245e+06,202917,101855,1.25871e+06
0.108,9.71742e-05,426154,-39242.1,43148.7,1.099e+06,207665,106545,1.29898e+06
0.11,0.000100705,446004,-42467.3,44008.7,1.14555e+06,212414,111234,1.33926e+06
0.112,0.000104237,465854,-45692.5,44868.7,1.1921e+06,217163,115924,1.37953e+06
0.114,0.00010777,485704,-48917.6,45728.7,1.23865e+06,221912,120614,1.41981e+06
0.116,0.000111457,479434,-49195,44595.1,1.22117e+06,223285,118529,1.40813e+06
0.118,0.000115306,445380,-46336.5,41340.7,1.13558e+06,221066,109239,1.34119e+06
0.12,0.000119155,411325,-43478,38086.2,1.04998e+06,218848,99948.8,1.27425e+06
0.122,0.000123005,377271,-40619.5,34831.8,964388,216630,90658.6,1.20731e+06
0.124,0.000126856,343217,-37761,31577.4,878794,214411,81368.4,1.14037e+06
0.126,0.000130707,309162,-34902.6,28323,793200,212193,72078.2,1.07343e+06
0.128,0.000134558,275108,-32044.1,25068.6,707606,209974,62787.9,1.00648e+06
0.13,0.000138409,241054,-29185.6,21814.2,622013,207756,53497.8,939545
0.132,0.000142527,228069,-28991.6,19588.5,588356,206327,49829.6,915583
0.134,0.000146814,227548,-30373.9,17971.5,585427,205365,49487.5,917049
0.136,0.000151111,227028,-31756.3,16354.5,582497,204403,49145.4,918514
0.138,0.000155418,226508,-33138.7,14737.5,579567,203441,48803.3,919980
0.14,0.000159735,225988,-34521,13120.5,576638,202480,48461.2,921446
0.142,0.000164061,225468,-35903.4,11503.5,573708,201518,48119.1,922911
0.144,0.000168394,224947,-37285.7,9886.53,570779,200556,47777,924377
0.146,0.000172735,224427,-38668.1,8269.53,567849,199594,47434.9,925843
0.148,0.000177082,223907,-40050.4,6652.52,564920,198632,47092.8,927309
0.15,0.000181436,223387,-41432.8,5035.52,561990,197670,46750.7,928774
0.152,0.000185796,222866,-42815.1,3418.53,559061,196708,46408.6,930240
0.154,0.000190161,222346,-44197.5,1801.53,556131,195746,46066.5,931706
0.156,0.000194531,221826,-45579.8,184.529,553202,194784,45724.4,933171
0.158,0.000198906,221306,-46962.2,-1432.47,550272,193822,45382.3,934637
0.16,0.000203285,220786,-48344.5,-3049.46,547342,192860,45040.3,936103
0.162,0.000207669,220265,-49726.9,-4666.46,544413,191898,44698.2,937568
0.164,0.000212056,219745,-51109.2,-6283.47,541483,190936,44356.1,939034
0.166,0.000216448,219225,-52491.6,-7900.46,538554,189974,44014,940500
0.168,0.000220842,218705,-53873.9,-9517.46,535624,189013,43671.9,941966
0.17,0.00022524,218184,-55256.3,-11134.5,532695,188051,43329.8,943431
0.172,0.000229641,217664,-56638.7,-12751.5,529765,187089,42987.7,944897
0.174,0.000233954,219328,-57571.5,-11176,535444,186199,42400.9,943433
0.176,0.00023822,222185,-58258.8,-7856.22,545826,185350,41680.5,940368
0.178,0.000242977,222432,-58161.1,-9255.17,547241,183857,43099,929302
0.18,0.000248202,221260,-57477.9,-14693.4,543332,181757,46987.2,913765
0.182,0.000253719,230571,-58158.1,-17795.3,570379,179358,57018.5,929006
0.184,0.000259237,239882,-58838.2,-20897.3,597426,176959,67049.9,944246
0.186,0.000264756,249193,-59518.4,-23999.2,624474,174560,77081.3,959487
0.188,0.000270275,258505,-60198.6,-27101.1,651521,172161,87112.6,974727
0.19,0.000275795,267816,-60878.7,-30203.1,678569,169762,97144,989968
0.192,0.000281316,277127,-61558.9,-33305,705616,167363,107175,1.00521e+06
0.194,0.000286837,286439,-62239.1,-36406.9,732664,164964,117207,1.02045e+06
0.196,0.000292359,295750,-62919.2,-39508.9,759711,162565,127238,1.03569e+06
0.198,0.000298075,299604,-61847.6,-39818.4,767366,160157,130867,1.03372e+06
0.2,0.000303864,301476,-60139.4,-39113.3,767976,157745,132169,1.0255e+06
0.202,0.000309656,303347,-58431.3,-38408.2,768586,155334,133471,1.01727e+06
0.204,0.000315451,305219,-56723.1,-37703.2,769196,152923,134773,1.00905e+06
0.206,0.000321249,307090,-55015,-36998.1,769805,150511,136075,1.00083e+06
0.208,0.00032705,308962,-53306.9,-36293.1,770415,148100,137378,992603
0.21,0.000332853,310833,-51598.7,-35588,771025,145689,138680,984380
0.212,0.000338659,312705,-49890.6,-34883,771635,143277,139982,976157
0.214,0.000344466,314576,-48182.5,-34177.9,772244,140866,141284,967934
0.216,0.000350276,316448,-46474.3,-33472.9,772854,138455,142586,959711
0.218,0.000356088,318320,-44766.2,-32767.8,773464,136043,143889,951488
0.22,0.000361902,320191,-43058,-32062.8,774074,133632,145191,943265
0.222,0.000367718,322063,-41349.9,-31357.7,774684,131221,146493,935042
0.224,0.000373536,323934,-39641.8,-30652.7,775293,128809,147795,926819
0.226,0.000379763,312981,-37063.2,-24061.3,758080,126368,142476,915926
0.228,0.000386,301726,-34464.2,-17331.6,740448,123926,137002,904970
0.23,0.000392238,290471,-31865.2,-10602,722816,121484,131528,894014
0.232,0.000398476,279216,-29266.2,-3872.39,705184,119042,126053,883059
0.234,0.000404714,267962,-26667.1,2857.25,687552,116600,120579,872103
0.236,0.000410952,256707,-24068.1,9586.88,669920,114158,115105,861147
0.238,0.000417191,245452,-21469.1,16316.5,652289,111716,109630,850192
0.24,0.000423654,243065,-21192.2,20989.5,646702,110898,108932,861682
0.242,0.000430167,242595,-21417.3,25218,643719,110431,109267,878024
0.244,0.000436683,242125,-21642.4,29446.5,640737,109964,109601,894367
0.246,0.0004432,241655,-21867.5,33674.9,637754,109497,109935,910709
0.248,0.000449718,241185,-22092.6,37903.3,634772,109030,110269,927052
0.25,0.000456239,240715,-22317.7,42131.8,631789,108564,110604,943394
0.252,0.00046276,240244,-22542.8,46360.3,628807,108097,110938,959737
0.254,0.000469284,239774,-22767.9,50588.7,625824,107630,111272,976079
0.256,0.000475808,239304,-22993,54817.2,622841,107163,111606,992422
0.258,0.000482334,238834,-23218.1,59045.6,619859,106696,111941,1.00876e+06
0.26,0.000488861,238364,-23443.2,63274,616876,106230,112275,1.02511e+06
0.262,0.000495743,233428,-21655.2,65489.8,612987,109775,112150,1.0328e+06
0.264,0.000502694,227616,-19472.7,67311.3,608921,114107,111934,1.03879e+06
0.266,0.000509646,221805,-17290.3,69132.7,604854,118439,111719,1.04479e+06
0.268,0.000516598,215993,-15107.8,70954.2,600788,122771,111503,1.05078e+06
0.27,0.00052355,210182,-12925.4,72775.6,596721,127103,111288,1.05678e+06
0.272,0.000530502,204370,-10742.9,74597.1,592655,131435,111072,1.06278e+06
0.274,0.000537528,199647,-8386.45,75937.7,588604,135289,110898,1.06706e+06
0.276,0.000544892,199965,-5222.98,75049.7,584624,136933,110912,1.06341e+06
0.278,0.000552257,200283,-2059.5,74161.7,580645,138576,110926,1.05977e+06
0.28,0.000559623,200601,1103.97,73273.7,576666,140219,110940,1.05612e+06
0.282,0.00056728,206563,3786.4,70649.8,584992,137836,109538,1.03958e+06
0.284,0.000575049,214709,6282.75,67354.4,598079,133896,107588,1.01805e+06
0.286,0.000582818,222854,8779.1,64059,611165,129956,105638,996520
0.288,0.000590588,230999,11275.4,60763.7,624251,126016,103688,974990
0.29,0.000598358,239144,13771.8,57468.3,637337,122076,101739,953459
0.292,0.000606128,247289,16268.1,54172.9,650423,118136,99788.9,931929
0.294,0.000613976,251053,16037.3,50606.7,663306,117574,99304,916627
0.296,0.000621839,254104,15362.5,46996.3,676156,117562,99057.7,902340
0.298,0.000629703,257155,14687.7,43386,689006,117550,98811.3,888053
0.3,0.000637568,260206,14013,39775.7,701856,117538,98565,873765
0.302,0.000645434,263257,13338.2,36165.4,714705,117526,98318.7,859478
0.304,0.000653301,266307,12663.4,32555.1,727555,117514,98072.3,845190
0.306,0.00066117,269358,11988.6,28944.8,740405,117502,97826,830903
0.308,0.00066904,272409,11313.9,25334.4,753254,117490,97579.6,816616
0.31,0.000676911,275460,10639.1,21724.1,766104,117478,97333.3,802328
0.312,0.000684796,278449,9893.22,17910.2,778379,117475,97213.2,788319
0.314,0.000693056,279729,7187.19,8481.21,774803,117729,100574,781972
0.316,0.000701315,281010,4481.15,-947.749,771228,117982,103935,775625
0.318,0.000709575,282290,1775.15,-10376.6,767652,118236,107296,769278
0.32,0.000717835,283570,-930.884,-19805.5,764076,118490,110657,762931
0.322,0.000726096,284850,-3636.92,-29234.5,760500,118743,114018,756585
0.324,0.000734356,286131,-6342.96,-38663.5,756924,118997,117379,750238
0.326,0.000742637,286980,-8842.12,-47037.9,752060,119075,120603,746034
0.328,0.000751095,284060,-9530.43,-46181.9,735921,117620,122623,760591
0.33,0.000759555,281139,-10218.7,-45325.9,719781,116164,124642,775148
0.332,0.000768014,278218,-10907,-44469.8,703641,114708,126662,789705
0.334,0.000776475,275298,-11595.3,-43613.8,687501,113253,128682,804262
0.336,0.000784937,272377,-12283.6,-42757.8,671361,111797,130701,818819
0.338,0.000793399,269456,-12971.9,-41901.7,655221,110342,132721,833376
0.34,0.000801862,266535,-13660.3,-41045.7,639081,108886,134741,847933
0.342,0.000810326,263615,-14348.6,-40189.7,622941,107430,136760,862491
0.344,0.000818791,260694,-15036.9,-39333.6,606801,105975,138780,877048
0.346,0.000827256,257773,-15725.2,-38477.6,590661,104519,140800,891604
0.348,0.000835879,252375,-15985.3,-36274.4,574212,103561,140128,895133
0.35,0.000844784,242519,-15474.8,-31646.9,557205,103496,134615,878816
0.352,0.000853689,232662,-14964.4,-27019.4,540198,103432,129101,862499
0.354,0.000862594,222805,-14454,-22392,523191,103368,123588,846182
0.356,0.000871499,212949,-13943.6,-17764.5,506185,103304,118074,829865
0.358,0.000880404,203092,-13433.1,-13137,489178,103240,112561,813549
0.36,0.000889309,193236,-12922.7,-8509.48,472171,103176,107047,797232
0.362,0.000898214,183379,-12412.3,-3882.06,455165,103111,101534,780915
0.364,0.000907279,182477,-12483.4,-2705.11,457826,101539,99888.2,773812
0.366,0.000916375,183223,-12661.6,-2162.91,464105,99689.8,98954.4,768403
0.368,0.000925471,183968,-12839.7,-1620.71,470385,97840.3,98020.6,762995
0.37,0.000934568,184713,-13017.9,-1078.51,476664,95990.8,97086.8,757586
0.372,0.000943666,185459,-13196,-536.307,482944,94141.4,96153,752178
0.374,0.000952765,186204,-13374.2,5.89362,489223,92291.9,95219.2,746770
0.376,0.000961864,186950,-13552.3,548.086,495502,90442.4,94285.5,741361
0.378,0.000970964,187695,-13730.5,1090.29,501782,88593,93351.7,735953
0.38,0.000980065,188440,-13908.6,1632.49,508061,86743.5,92417.9,730545
0.382,0.000989181,189867,-14186.4,2085.56,516966,85317.7,92050.5,722925
0.384,0.000998346,193535,-14792.6,2245.08,534516,85287.5,93548.9,708022
0.386,0.00100751,197203,-15398.7,2404.61,552066,85257.3,95047.2,693119
0.388,0.00101668,200872,-16004.8,2564.13,569616,85227.1,96545.5,678216
0.39,0.00102585,204540,-16610.9,2723.65,587166,85196.9,98043.9,663313
0.392,0.00103501,208209,-17217,2883.17,604716,85166.7,99542.2,648410
0.394,0.00104438,210181,-17550.3,3484.66,617389,85517.7,101534,635848
0.396,0.00105414,208667,-17322.9,4994.42,620038,86652.1,104538,628097
0.398,0.00106391,207152,-17095.5,6504.19,622686,87786.5,107542,620345
0.4,0.00107368,205638,-16868.1,8013.96,625335,88920.8,110547,612594
0.402,0.00108344,204124,-16640.7,9523.72,627984,90055.2,113551,604842
0.404,0.00109321,202610,-16413.3,11033.5,630633,91189.6,116556,597091
0.406,0.00110297,201096,-16185.9,12543.2,633282,92323.9,119560,589340
0.408,0.00111274,199581,-15958.5,14053,635931,93458.3,122565,581588
0.41,0.0011226,194771,-14872.9,15165.9,630727,94198.6,122792,581969
0.412,0.0011327,186459,-13333.5,14626,608494,92843.1,117877,595616
0.414,0.0011428,178147,-11794,14086,586261,91487.7,112963,609262
0.416,0.0011529,169835,-10254.6,13546.1,564027,90132.2,108049,622909
0.418,0.001163,161522,-8715.1,13006.2,541794,88776.7,103134,636556
0.42,0.0011731,153211,-7175.67,12466.3,519561,87421.3,98220.1,650202
0.422,0.0011832,144898,-5636.21,11926.4,497328,86065.8,93305.7,663849
0.424,0.0011933,136586,-4096.75,11386.5,475094,84710.4,88391.4,677495
0.426,0.00120341,128274,-2557.29,10846.5,452861,83354.9,83477,691142
0.428,0.00121351,119962,-1017.83,10306.6,430628,81999.5,78562.7,704789
0.43,0.00122361,111650,521.634,9766.7,408394,80644,73648.3,718435
0.432,0.00123369,105333,195.284,8679.64,386003,78699.3,70735.9,723911
0.434,0.00124375,100746,-1749.85,7117.89,363475,76243.5,69560.3,722298
0.436,0.00125381,96159.5,-3695.01,5556.12,340948,73787.6,68384.7,720684
0.438,0.00126387,91572.8,-5640.18,3994.35,318420,71331.7,67209.1,719071
0.44,0.00127393,86986.1,-7585.34,2432.57,295892,68875.8,66033.5,717457
0.442,0.00128399,82399.5,-9530.5,870.799,273364,66420,64857.9,715844
0.444,0.00129427,82800.9,-15813.8,-451.955,261765,62951.9,65550.3,711727
0.446,0.00130473,87293.7,-25655.4,-1578.65,259132,58653.5,67774.9,705556
0.448,0.00131519,91786.5,-35497.1,-2705.35,256499,54355.1,69999.6,699385
0.45,0.00132565,96279.3,-45338.6,-3832.04,253865,50056.8,72224.2,693214
0.452,0.00133648,102072,-44743,-2178.8,272342,50069.4,76353.6,684898
0.454,0.00134733,107965,-43340.8,-310.716,292450,50415.1,80630.1,676415
0.456,0.00135818,113858,-41938.6,1557.36,312557,50760.8,84906.7,667932
0.458,0.00136903,119752,-40536.4,3425.44,332665,51106.5,89183.3,659449
0.46,0.00137988,125645,-39134.2,5293.52,352773,51452.2,93459.9,650967
0.462,0.00139073,131538,-37732,7161.6,372880,51797.9,97736.5,642484
0.464,0.00140158,137431,-36329.9,9029.65,392988,52143.6,102013,634002
0.466,0.00141244,143324,-34927.7,10897.7,413096,52489.3,106290,625519
0.468,0.00142329,149217,-33525.5,12765.8,433203,52835,110566,617036
0.47,0.00143414,155111,-32123.3,14633.9,453311,53180.7,114843,608553
0.472,0.00144499,161004,-30721.1,16502,473419,53526.4,119119,600071
0.474,0.00145585,166897,-29318.9,18370.1,493526,53872.1,123396,591588
0.476,0.0014667,172790,-27916.7,20238.1,513634,54217.8,127673,583105
0.478,0.00147752,177855,-24444.6,22277.1,531693,54873.9,132250,572639
0.48,0.0014883,181824,-18231.5,24542.3,547038,55940.8,137227,559547
0.482,0.00149908,185793,-12018.3,26807.5,562383,57007.8,142203,546455
0.484,0.00150987,189762,-5805.11,29072.8,577728,58074.7,147179,533362
0.486,0.00152065,193731,408.069,31338,593073,59141.7,152156,520270
0.488,0.00153153,194001,6739.16,32858.5,602459,58830,153645,511803
0.49,0.00154266,185793,13340.5,32671.8,598183,55358.5,147143,513940
0.492,0.00155379,177585,19941.9,32485.2,593908,51887,140640,516077
0.494,0.00156491,169377,26543.1,32298.5,589633,48415.5,134137,518214
0.496,0.00157604,161169,33144.5,32111.8,585357,44944,127635,520351
0.498,0.00158717,152961,39745.9,31925.2,581082,41472.5,121132,522488
0.5,0.00159845,146384,42701.3,31423.6,577013,39420.8,114332,524629
0.502,0.00160986,141399,42124.6,30266.9,573430,38113.6,107445,527712
0.504,0.00162122,138155,37827.9,26476.7,571956,34088.7,101572,537002
0.506,0.00163257,135115,33788.1,22897.9,570257,30348.2,95997,545650
0.508,0.00164387,133785,31899.9,21088.5,566676,28987.7,92914.7,548934
0.51,0.00165516,132456,30011.7,19279.2,563095,27627.3,89832.4,552218
0.512,0.00166646,131126,28123.5,17469.8,559513,26266.9,86750,555501
0.514,0.00167776,129797,26235.3,15660.4,555932,24906.5,83667.7,558785
0.516,0.00168905,128467,24347.1,13851.1,552351,23546.2,80585.4,562068
0.518,0.00170035,127138,22458.9,12041.7,548769,22185.7,77503,565352
0.52,0.00171164,125809,20570.7,10232.3,545188,20825.3,74420.7,568636
0.522,0.00172294,124479,18682.4,8422.93,541606,19464.9,71338.4,571919
0.524,0.00173424,123150,16794.3,6613.59,538025,18104.5,68256.1,575203
0.526,0.00174553,121820,14906,4804.19,534443,16744.1,65173.7,578487
0.528,0.00175689,120633,13718.2,3796.12,531586,16330.8,62730.1,581857
0.53,0.00176849,120042,15480.7,6163.44,531781,19907.3,62977.2,585592
0.532,0.00178009,119452,17243.3,8530.83,531975,23483.8,63224.3,589328
0.534,0.00179169,118862,19005.8,10898.2,532169,27060.2,63471.4,593064
0.536,0.00180329,118271,20768.4,13265.5,532364,30636.7,63718.5,596799
0.538,0.00181489,117681,22531,15632.9,532558,34213.1,63965.6,600535
0.54,0.0018265,117127,24183.4,17962.2,532245,37748.6,64226.7,603568
0.542,0.0018382,117235,23806.7,19590.9,522582,40527.3,64745.4,593663
0.544,0.00185012,116924,21737,19446.4,509802,42699.8,65012.3,583907
0.546,0.00186221,116288,18358.1,17930.5,494611,44403.1,65084.4,574268
0.548,0.00187429,115652,14979.2,16414.6,479421,46106.5,65156.4,564628
0.55,0.00188638,115016,11600.2,14898.7,464231,47809.9,65228.5,554988
0.552,0.00189846,114379,8221.33,13382.8,449041,49513.3,65300.6,545349
0.554,0.00191055,113743,4842.33,11866.9,433850,51216.7,65372.7,535709
0.556,0.00192277,113694,3537.06,13648,430367,51789.8,65027.2,552350
0.558,0.00193502,113782,2720.5,16206.2,429642,52096.6,64583.4,575187
0.56,0.00194726,113871,1903.96,18764.2,428918,52403.4,64139.5,598023
0.562,0.00195951,113960,1087.43,21322.3,428193,52710.1,63695.7,620859
0.564,0.00197177,114048,270.865,23880.5,427468,53016.9,63251.8,643695
0.566,0.00198402,114137,-545.672,26438.6,426744,53323.6,62807.9,666531
0.568,0.00199627,114225,-1362.23,28996.8,426019,53630.4,62364.1,689367
0.57,0.00200852,114314,-2178.77,31554.9,425295,53937.1,61920.2,712203
0.572,0.00202077,114403,-2995.33,34113,424570,54243.9,61476.4,735040
0.574,0.00203313,113556,-3391.11,37036.7,413931,54180.7,58383.3,742728
0.576,0.0020456,110928,-4115.42,40030.2,408853,54150.7,58088.3,740670
0.578,0.00205807,108152,-4915.22,43003,405280,54154.9,58360.4,738608
0.58,0.00207054,105376,-5715,45975.7,401706,54159.2,58632.5,736546
0.582,0.00208301,102599,-6514.8,48948.5,398132,54163.4,58904.6,734484
0.584,0.00209548,99823.3,-7314.58,51921.2,394558,54167.6,59176.6,732422
0.586,0.00210795,97047,-8114.38,54894,390984,54171.8,59448.7,730360
0.588,0.00212042,94270.9,-8914.16,57866.8,387410,54176,59720.8,728299
0.59,0.00213289,91494.7,-9713.94,60839.5,383837,54180.2,59992.9,726237
0.592,0.00214536,88718.5,-10513.7,63812.3,380263,54184.4,60265,724175
0.594,0.00215783,85942.3,-11313.5,66785,376689,54188.6,60537,722113
0.596,0.00217047,85345.1,-11770.5,68112.8,376035,55642.3,62487,718264
0.598,0.00218321,86171.1,-12003.7,68366.1,377289,58042.5,65532.8,713249
0.6,0.00219595,86997.1,-12236.8,68619.5,378543,60442.9,68578.6,708233
0.602,0.00220866,88078.7,-12309.8,67921,378157,63046.5,70868.8,698289
0.604,0.00222135,89282.1,-12306.6,66769.2,376989,65746.9,72799.2,685999
0.606,0.00223404,90485.5,-12303.3,65617.4,375822,68447.5,74729.6,673709
0.608,0.00224674,91688.9,-12300.1,64465.6,374655,71147.9,76660,661419
0.61,0.00225943,92892.3,-12296.9,63313.8,373488,73848.4,78590.5,649129
0.612,0.00227212,94095.7,-12293.6,62162,372320,76548.9,80520.8,636839
0.614,0.00228482,95299.1,-12290.4,61010.2,371153,79249.4,82451.3,624549
0.616,0.00229751,96502.5,-12287.1,59858.4,369986,81949.9,84381.7,612259
0.618,0.00231021,97705.9,-12283.9,58706.7,368819,84650.3,86312,599969
0.62,0.00232294,97931.3,-11815.7,56936.4,366319,87292,87902.3,592188
0.622,0.0023358,94817.5,-9759.8,53054.6,359267,89732.8,88330.8,599805
0.624,0.00234865,91703.5,-7703.89,49172.6,352216,92173.7,88759.3,607421
0.626,0.00236162,88668.4,-6239.33,45949,346054,92644.2,89210.4,608961
0.628,0.0023747,85712.9,-5372.36,43390.6,340791,91123.3,89684.2,604358
0.63,0.00238777,82757.5,-4505.42,40832.2,335529,89602.4,90158,599756
0.632,0.00240085,79801.9,-3638.45,38273.8,330266,88081.5,90631.8,595153
0.634,0.00241392,76846.5,-2771.51,35715.5,325004,86560.6,91105.6,590551
0.636,0.00242707,74422.4,-2243.47,34110.8,319969,84777.9,91388,586197
0.638,0.00244039,73312.7,-2553.86,34865.5,315497,82347.4,91196.8,582459
0.64,0.00245371,72203.1,-2864.24,35620.2,311026,79917,91005.5,578720
0.642,0.00246703,71093.4,-3174.62,36374.9,306555,77486.5,90814.3,574981
0.644,0.00248035,69983.8,-3485,37129.5,302084,75056.1,90623,571242
0.646,0.00249375,69181.6,-3434.83,37029.3,299974,73015,89710.5,567547
0.648,0.0025073,68858.9,-2822.49,35596.1,301547,71581.1,87673.5,563920
0.65,0.00252084,68536.1,-2210.15,34163,303120,70147.3,85636.4,560292
0.652,0.00253438,68213.4,-1597.79,32729.8,304692,68713.4,83599.3,556665
0.654,0.00254793,67890.6,-985.447,31296.6,306265,67279.6,81562.3,553037
0.656,0.00256147,67567.9,-373.088,29863.4,307838,65845.7,79525.2,549409
0.658,0.00257502,67245.2,239.253,28430.2,309411,64411.8,77488.2,545782
0.66,0.00258856,66922.4,851.612,26997,310983,62978,75451.1,542154
0.662,0.0026021,66599.7,1463.95,25563.8,312556,61544.1,73414,538527
0.664,0.00261565,66277,2076.29,24130.7,314129,60110.3,71377,534900
0.666,0.00262919,65954.2,2688.65,22697.5,315702,58676.4,69339.9,531272
0.668,0.00264274,65631.5,3300.99,21264.3,317274,57242.5,67302.9,527644
0.67,0.00265629,65308.7,3913.35,19831.1,318847,55808.7,65265.8,524017
0.672,0.00266983,64986,4525.69,18397.9,320420,54374.8,63228.7,520389
0.674,0.00268338,64663.3,5138.05,16964.7,321992,52940.9,61191.7,516762
0.676,0.00269692,64340.5,5750.39,15531.5,323565,51507.1,59154.6,513134
0.678,0.00271047,64017.8,6362.73,14098.4,325138,50073.2,57117.6,509507
0.68,0.00272402,63667.3,7004.36,12568.7,326255,48846.3,54809.9,505914
0.682,0.00273773,62748.5,8246.01,9060.59,318022,51861.8,46953.3,503037
0.684,0.00275144,61829.7,9487.69,5552.4,309789,54877.4,39096.4,500161
0.686,0.00276515,60910.8,10729.3,2044.33,301556,57893,31239.8,497284
0.688,0.00277886,59992,11971,-1463.86,293323,60908.6,23382.9,494407
0.69,0.00279257,59073.1,13212.7,-4971.93,285090,63924.2,15526.3,491530
0.692,0.00280628,58154.3,14454.3,-8480.01,276857,66939.7,7669.68,488654
0.694,0.00281999,57235.5,15696,-11988.2,268624,69955.4,-187.175,485777
0.696,0.0028337,56316.6,16937.7,-15496.3,260391,72970.9,-8043.8,482900
0.698,0.00284749,55744.5,17437.2,-17335,254503,75407.2,-14059.7,478042
0.7,0.00286145,55895.4,16388.9,-15691.8,253505,76635.2,-16236,469053
0.702,0.0028754,56046.4,15340.6,-14048.6,252507,77863.2,-18412.3,460064
0.704,0.00288936,56197.4,14292.4,-12405.4,251509,79091.2,-20588.6,451075
0.706,0.00290331,56348.3,13244.1,-10762.3,250512,80319.2,-22764.8,442086
0.708,0.00291727,56499.3,12195.8,-9119.05,249514,81547.2,-24941.2,433097
0.71,0.00293122,56650.2,11147.5,-7475.88,248516,82775.2,-27117.4,424108
0.712,0.00294537,56268.3,12079.7,-8584.97,253876,82618.4,-29512.6,421007
0.714,0.0029597,55402.9,14808.9,-12191.3,265003,81205.2,-32106.3,423249
0.716,0.00297403,54537.4,17538.1,-15797.8,276131,79791.9,-34700,425491
0.718,0.00298836,53671.9,20267.2,-19404.2,287259,78378.7,-37293.6,427733
0.72,0.00300268,52806.5,22996.5,-23010.7,298387,76965.4,-39887.4,429975
0.722,0.00301701,51941,25725.6,-26617.1,309514,75552.2,-42481,432216
0.724,0.00303131,51575.9,29092.7,-28594.6,319562,74973,-44322.1,436604
0.726,0.00304556,52371.1,33939.3,-26794.6,327108,76328,-44417.9,445969
0.728,0.0030598,53166.4,38785.7,-24994.7,334654,77683,-44513.7,455333
0.73,0.00307404,53961.6,43632.3,-23194.7,342199,79038,-44609.6,464697
0.732,0.00308829,54756.8,48478.8,-21394.7,349745,80392.9,-44705.4,474062
0.734,0.00310253,55552,53325.4,-19594.7,357291,81747.9,-44801.2,483426
0.736,0.00311677,56347.3,58171.8,-17794.8,364836,83102.9,-44897,492790
0.738,0.00313102,57142.5,63018.3,-15994.8,372382,84457.8,-44992.8,502154
0.74,0.00314522,55067.4,59659.3,-19498.5,373178,83432.4,-49481.7,494548
0.742,0.00315942,52902.7,56044,-23167.8,373764,82332.6,-54107.8,486412
0.744,0.00317362,50737.9,52428.7,-26837.2,374350,81232.8,-58734,478275
0.746,0.00318782,48573.2,48813.4,-30506.4,374936,80133,-63360,470139
0.748,0.00320218,51077.5,47676,-28644.4,372641,80167.6,-58420,462798
0.75,0.00321654,53913,46714.4,-26389.9,370141,80282.8,-52801.2,455514
0.752,0.00323091,56748.6,45752.8,-24135.4,367641,80397.9,-47182.4,448231
0.754,0.00324527,59584.2,44791.2,-21880.8,365142,80513.1,-41563.4,440947
0.756,0.00325986,58824.9,41140.4,-21414.4,362695,80743.2,-36615.3,434927
0.758,0.00327446,57831.4,37314.3,-21064.5,360252,80980.7,-31710.7,428988
0.76,0.00328905,56837.9,33488.2,-20714.6,357808,81218.3,-26806.3,423051
0.762,0.00330371,55450.4,30888.8,-20083.5,355175,81280,-22857.9,421013
0.764,0.00331848,53349.8,30509,-18943.9,352200,81023.5,-20639.5,426033
0.766,0.00333324,51249.3,30129.1,-17804.2,349225,80766.9,-18421.2,431052
0.768,0.00334801,49148.7,29749.3,-16664.5,346249,80510.4,-16202.8,436072
0.77,0.00336277,47048.1,29369.4,-15524.9,343274,80253.9,-13984.5,441092
0.772,0.00337754,44947.5,28989.6,-14385.2,340299,79997.4,-11766.1,446112
0.774,0.00339227,43262.3,28050.4,-13323.7,335408,79582.5,-9058.53,451012
0.776,0.00340695,42409,25990.6,-12418.8,326681,78850.1,-5370.71,455675
0.778,0.00342163,41555.7,23930.9,-11513.8,317954,78117.7,-1683.01,460336
0.78,0.0034363,40702.4,21871.3,-10608.9,309227,77385.3,2004.7,464998
0.782,0.00345098,39849.1,19811.5,-9703.97,300500,76652.9,5692.51,469660
0.784,0.00346566,38995.8,17751.8,-8799.04,291773,75920.6,9380.22,474322
0.786,0.00348033,38142.5,15692.1,-7894.1,283045,75188.2,13068,478984
0.788,0.00349501,37289.2,13632.4,-6989.17,274318,74455.8,16755.7,483646
0.79,0.00350969,36435.9,11572.6,-6084.22,265591,73723.4,20443.6,488309
0.792,0.00352439,35833.7,9598.61,-5280.21,256741,72927.7,24143.5,491783
0.794,0.00353947,39051.3,8928.34,-6011.62,246021,71168.4,28029,477197
0.796,0.00355455,42268.8,8258.09,-6743,235302,69409.1,31914.4,462611
0.798,0.00356963,45486.4,7587.85,-7474.38,224582,67649.9,35799.8,448026
0.8,0.00358471,48704,6917.58,-8205.79,213862,65890.5,39685.4,433439
0.802,0.00359979,51921.5,6247.33,-8937.17,203143,64131.3,43570.8,418854
0.804,0.00361487,55139.1,5577.06,-9668.58,192423,62371.9,47456.3,404267
0.806,0.00362995,58356.6,4906.81,-10400,181703,60612.7,51341.8,389682
0.808,0.00364503,61574.3,4236.54,-11131.4,170983,58853.3,55227.3,375096
0.81,0.00366019,64206,3810.35,-11252.7,168058,58259.9,58175,367886
0.812,0.00367541,66362.4,3582.19,-10879,171457,58612.4,60361.9,366662
0.814,0.00369063,68518.8,3354.02,-10505.3,174856,58965,62548.8,365437
0.816,0.00370585,70675.2,3125.85,-10131.6,178254,59317.5,64735.7,364213
0.818,0.00372107,72831.7,2897.68,-9757.91,181653,59670.1,66922.6,362988
0.82,0.00373629,74988.1,2669.52,-9384.21,185052,60022.6,69109.5,361764
0.822,0.00375151,77144.5,2441.34,-9010.51,188451,60375.2,71296.4,360540
0.824,0.00376673,79300.9,2213.18,-8636.82,191850,60727.7,73483.3,359315
0.826,0.00378195,81457.3,1985.02,-8263.13,195248,61080.2,75670.1,358091
0.828,0.00379717,83613.8,1756.85,-7889.43,198647,61432.8,77857.1,356866
0.83,0.00381239,85770.2,1528.68,-7515.74,202046,61785.3,80043.9,355642
0.832,0.00382761,87926.6,1300.51,-7142.04,205445,62137.8,82230.9,354418
0.834,0.00384283,90083,1072.35,-6768.35,208844,62490.4,84417.7,353193
0.836,0.00385805,92239.5,844.176,-6394.65,212242,62842.9,86604.7,351969
0.838,0.00387327,94395.9,616.012,-6020.96,215641,63195.5,88791.5,350744
0.84,0.00388849,96552.3,387.847,-5647.27,219040,63548,90978.4,349520
0.842,0.00390366,97858.4,587.777,-5084.93,222129,64191.2,92990.5,348885
0.844,0.00391883,99093.4,823.517,-4506.84,225193,64858.7,94987.9,348300
0.846,0.003934,100328,1059.26,-3928.72,228256,65526.2,96985.4,347714
0.848,0.00394916,101563,1295.01,-3350.62,231320,66193.7,98982.8,347129
0.85,0.00396433,102798,1530.75,-2772.51,234383,66861.2,100980,346543
0.852,0.00397972,102587,825.133,-1573.94,231126,66990.8,99204.4,346751
0.854,0.00399516,102080,-72.5503,-248.782,226579,67010.6,96658.7,347122
0.856,0.00401063,99836.5,-699.208,972.962,221276,66985.9,92352.9,347137
0.858,0.00402615,95001.1,-921.544,2040.36,214847,66894.8,85422.2,346623
0.86,0.00404167,90165.5,-1143.89,3107.79,208418,66803.6,78491.2,346109
0.862,0.00405719,85330,-1366.22,4175.18,201989,66712.5,71560.5,345595
0.864,0.00407271,80494.5,-1588.57,5242.61,195560,66621.4,64629.5,345081
0.866,0.00408836,77460.9,-1469.16,5838.04,193813,66580.9,60355.2,344370
0.868,0.0041041,75623.9,-1122.79,6120.01,195176,66574.1,57845.1,343528
0.87,0.00411984,73786.9,-776.405,6402,196538,66567.3,55335,342686
0.872,0.00413557,71950,-430.034,6683.97,197901,66560.5,52824.9,341845
0.874,0.00415131,70113,-83.6528,6965.96,199263,66553.7,50314.7,341003
0.876,0.00416705,68276,262.718,7247.93,200626,66546.9,47804.7,340161
0.878,0.00418278,66915.9,875.648,7835.68,202824,66468.1,45731.7,338933
0.88,0.00419851,65643.4,1537.57,8479.64,205175,66376.1,43739.2,337633
0.882,0.00421425,64370.9,2199.51,9123.62,207527,66284.1,41746.6,336334
0.884,0.00422998,63098.4,2861.43,9767.57,209878,66192.1,39754.1,335035
0.886,0.00424571,61825.9,3523.35,10411.5,212230,66100.1,37761.6,333735
0.888,0.00426144,60553.4,4185.29,11055.5,214582,66008.1,35769,332436
0.89,0.00427717,59280.9,4847.21,11699.5,216933,65916.1,33776.5,331136
0.892,0.0042929,58008.4,5509.15,12343.4,219285,65824.1,31784,329837
0.894,0.00430863,56735.9,6171.07,12987.4,221637,65732.1,29791.4,328537
0.896,0.00432437,55463.4,6833.01,13631.4,223988,65640.1,27798.9,327238
0.898,0.0043401,54190.9,7494.93,14275.3,226340,65548.1,25806.4,325939
0.9,0.00435583,52918.4,8156.85,14919.3,228692,65456.1,23813.8,324639
0.902,0.00437156,51645.9,8818.79,15563.3,231043,65364.2,21821.3,323340
0.904,0.00438747,48103.6,8174.54,15175.2,231311,66748,19262.8,326327
0.906,0.00440339,44370.8,7420.76,14700.6,231405,68255.5,16656.8,329675
0.908,0.00441931,40638.1,6667,14226,231498,69763.1,14050.9,333022
0.91,0.00443523,36905.3,5913.21,13751.4,231592,71270.7,11444.9,336369
0.912,0.00445115,33172.6,5159.45,13276.8,231685,72778.2,8838.97,339716
0.914,0.00446707,29440,4405.69,12802.2,231779,74285.8,6233.05,343063
0.916,0.00448299,25707.2,3651.9,12327.6,231872,75793.3,3627.05,346410
0.918,0.00449891,21974.5,2898.14,11853,231966,77300.9,1021.13,349757
0.92,0.00451497,19832.4,2913.62,11506.3,231666,78505.2,-546.954,352321
0.922,0.00453119,19400,3755.81,11297.1,230945,79383.6,-999.573,354044
0.924,0.00454741,18967.5,4598.03,11087.9,230223,80262.1,-1452.2,355766
0.926,0.00456363,18535,5440.22,10878.7,229501,81140.5,-1904.82,357489
0.928,0.00457984,18102.5,6282.41,10669.5,228780,82018.9,-2357.44,359211
0.93,0.00459603,18620.7,6858.69,10769.8,224334,82950.4,-2679.01,356700
0.932,0.00461221,19176.8,7424.32,10882.5,219739,83883.9,-2995.32,354021
0.934,0.00462839,19732.9,7989.97,10995.3,215144,84817.5,-3311.65,351341
0.936,0.00464457,20289,8555.6,11108,210549,85751.1,-3627.97,348661
0.938,0.00466076,20845.1,9121.24,11220.7,205954,86684.7,-3944.29,345981
0.94,0.00467694,21401.2,9686.87,11333.4,201360,87618.2,-4260.61,343301
0.942,0.00469312,21957.3,10252.5,11446.1,196765,88551.8,-4576.92,340621
0.944,0.0047093,22513.5,10818.2,11558.8,192170,89485.4,-4893.25,337941
0.946,0.00472549,23069.6,11383.8,11671.5,187575,90418.9,-5209.57,335262
0.948,0.00474167,23625.7,11949.4,11784.3,182980,91352.5,-5525.89,332582
0.95,0.00475785,24181.8,12515.1,11897,178385,92286.1,-5842.21,329902
0.952,0.00477403,24737.9,13080.7,12009.7,173790,93219.7,-6158.53,327222
0.954,0.00479022,25294,13646.3,12122.4,169196,94153.2,-6474.85,324542
0.956,0.0048064,25850.1,14212,12235.1,164601,95086.8,-6791.17,321862
0.958,0.00482263,29487,16267.6,12813.1,166750,97038.8,-2922.52,322636
0.96,0.00483893,37029.8,20212.5,13980.8,177451,100282,6252.18,327789
0.962,0.00485532,49002.2,26899.9,15508.9,206823,104835,21348.6,347866
0.964,0.00487183,66257.3,36858.2,17466.7,258461,110951,43507.1,385741
0.966,0.0048883,78218.4,42872.7,18600.1,293049,114833,59778.3,409882
0.968,0.00490463,73223.2,36256.2,17093.3,273025,111556,57192.4,390035
0.97,0.00492097,68228,29639.5,15586.6,253001,108279,54606.4,370188
0.972,0.0049373,63232.9,23023,14079.8,232977,105002,52020.5,350341
0.974,0.00495364,58237.8,16406.5,12573.1,212953,101726,49434.6,330495
0.976,0.00497002,53525.8,11343.2,11973.7,199779,98377.5,47915,317503
0.978,0.00498642,48774.6,6555.25,11585.9,188082,94957.9,46603.5,305965
0.98,0.00500295,48250.9,6420.23,12004.6,186967,93537,47767.1,305974
0.982,0.00501949,47727.2,6285.21,12423.3,185853,92116.2,48930.6,305982
0.984,0.00503602,47203.5,6150.19,12842.1,184738,90695.3,50094.2,305990
0.986,0.00505255,46679.8,6015.17,13260.8,183623,89274.5,51257.7,305998
0.988,0.00506908,46156.2,5880.16,13679.5,182508,87853.6,52421.3,306007
0.99,0.00508562,45632.5,5745.14,14098.3,181394,86432.7,53584.8,306015
0.992,0.00510215,45108.8,5610.12,14517,180279,85011.9,54748.4,306023
0.994,0.00511868,44585.1,5475.1,14935.8,179164,83591,55911.9,306031
0.996,0.00513522,44061.4,5340.08,15354.5,178050,82170.1,57075.5,306040
0.998,0.00515175,43537.7,5205.06,15773.2,176935,80749.2,58239,306048
1,0.00516828,43014,5070.05,16192,175820,79328.4,59402.6,306056
1.002,0.00518482,42490.4,4935.03,16610.7,174705,77907.5,60566.1,306065
1.004,0.00520135,41966.7,4800.01,17029.4,173591,76486.7,61729.6,306073
1.006,0.00521788,41443,4664.99,17448.2,172476,75065.8,62893.3,306081
1.008,0.00523442,40919.3,4529.97,17866.9,171361,73644.9,64056.8,306089
1.01,0.00525095,40395.6,4394.95,18285.7,170246,72224.1,65220.3,306098
1.012,0.00526748,39871.9,4259.94,18704.4,169132,70803.2,66383.9,306106
1.014,0.00528402,39348.2,4124.91,19123.1,168017,69382.3,67547.5,306114
1.016,0.00530055,38824.6,3989.9,19541.9,166902,67961.4,68711,306122
1.018,0.00531708,38300.9,3854.88,19960.6,165787,66540.6,69874.5,306131
1.02,0.00533362,37777.2,3719.86,20379.3,164673,65119.7,71038.1,306139
1.022,0.00535015,37253.5,3584.85,20798.1,163558,63698.9,72201.6,306147
1.024,0.00536669,36653,3484.02,21252.1,162443,62302.6,73346,306264
1.026,0.00538316,37040.8,2943.12,21252.8,161335,60589.1,74737.1,304987
1.028,0.00539982,35357.3,1719.91,21083.6,159336,59149.3,71194.6,306617
1.03,0.00541657,33573.6,640.484,22060.4,157324,58474.9,66572.1,307432
1.032,0.00543332,31789.9,-438.945,23037.1,155311,57800.6,61949.5,308248
1.034,0.00545008,30006.1,-1518.44,24013.9,153298,57126.3,57326.7,309063
1.036,0.00546683,28222.3,-2597.87,24990.7,151286,56452,52704.2,309879
1.038,0.00548359,26438.7,-3677.3,25967.4,149273,55777.6,48081.6,310694
1.04,0.00550034,24654.9,-4756.73,26944.2,147261,55103.3,43459.1,311509
1.042,0.0055171,22871.1,-5836.22,27921,145248,54429,38836.3,312325
1.044,0.00553386,21800,-6429.81,29416.3,142353,54226.4,35565.9,311876
1.046,0.00555076,21844.5,-5999.63,29909.9,143924,55036.1,34252.3,307034
1.048,0.00556766,21884.5,-5563.77,30340,145694,55851.8,32924.9,302120
1.05,0.00558456,21924.6,-5127.9,30770.2,147465,56667.5,31597.5,297206
1.052,0.00560146,21964.6,-4692.02,31200.3,149235,57483.3,30270,292292
1.054,0.00561837,22004.6,-4256.15,31630.4,151006,58299,28942.7,287378
1.056,0.00563527,22044.6,-3820.29,32060.5,152776,59114.7,27615.3,282464
1.058,0.00565217,22084.6,-3384.43,32490.6,154547,59930.5,26287.9,277550
1.06,0.00566907,22124.6,-2948.56,32920.7,156317,60746.2,24960.5,272636
1.062,0.00568598,22164.6,-2512.67,33350.9,158088,61562,23633,267722
1.064,0.00570288,22204.6,-2076.81,33781,159859,62377.7,22305.6,262808
1.066,0.00571978,22244.7,-1640.95,34211.1,161629,63193.4,20978.2,257894
1.068,0.00573669,22284.7,-1205.09,34641.2,163400,64009.1,19650.8,252980
1.07,0.00575359,22324.7,-769.197,35071.3,165170,64824.9,18323.4,248065
1.072,0.00577049,22364.7,-333.334,35501.5,166941,65640.6,16996,243151
1.074,0.00578742,22425.1,435.925,35525.8,167491,65788.9,16126.8,236624
1.076,0.00580439,22543.4,2150.96,34399,164578,64043.8,16557.4,225522
1.078,0.00582137,22661.8,3866,33272.2,161665,62298.8,16988,214420
1.08,0.00583837,22439.7,5432.79,32464.7,158377,60620.8,16924.9,205078
1.082,0.00585548,21428.9,6102.05,32633,155317,59579.1,15354,204212
1.084,0.00587263,21129.3,6102.84,32551,154977,59245.1,14171,207428
1.086,0.00588979,20829.7,6103.63,32469,154637,58911.2,12987.9,210644
1.088,0.00590696,20530.1,6104.42,32387,154296,58577.2,11804.8,213860
1.09,0.00592412,20230.5,6105.21,32305,153956,58243.3,10621.7,217076
1.092,0.00594128,19930.9,6106,32223,153616,57909.3,9438.64,220292
1.094,0.00595844,19631.3,6106.79,32141,153276,57575.4,8255.57,223508
1.096,0.0059756,19331.7,6107.58,32059,152935,57241.5,7072.51,226724
1.098,0.00599276,19032,6108.37,31977,152595,56907.5,5889.37,229940
1.1,0.00600992,18732.4,6109.16,31895,152255,56573.6,4706.31,233156
1.102,0.00602708,18432.8,6109.95,31813,151915,56239.6,3523.24,236372
1.104,0.00604424,18133.2,6110.74,31731,151574,55905.7,2340.17,239588
1.106,0.0060614,17833.6,6111.53,31649,151234,55571.8,1157.11,242804
1.108,0.00607856,18269.6,6139.6,30816.9,150042,55103.3,668.034,244396
1.11,0.00609573,19010.1,6178.98,29674.4,148498,54579.3,466.373,245317
1.112,0.0061129,19750.7,6218.35,28531.9,146954,54055.2,264.712,246237
1.114,0.00613006,20491.2,6257.73,27389.3,145409,53531.1,63.0508,247158
1.116,0.00614723,21231.8,6297.11,26246.7,143865,53007,-138.622,248078
1.118,0.0061644,21972.3,6336.48,25104.2,142321,52483,-340.284,248999
1.12,0.00618156,22712.8,6375.86,23961.7,140777,51958.9,-541.945,249919
1.122,0.00619883,23122.3,7273.84,21642.6,138639,51831.2,1233.13,247218
1.124,0.00621611,23465.3,8344.38,19087.1,136381,51783.2,3405.48,243789
1.126,0.0062334,23808.3,9414.99,16531.5,134124,51735.2,5577.97,240359
1.128,0.00625068,24151.3,10485.5,13976,131867,51687.2,7750.32,236930
1.13,0.00626797,24494.3,11556.1,11420.4,129610,51639.2,9922.67,233501
1.132,0.00628525,24837.2,12626.6,8864.94,127353,51591.2,12095,230072
1.134,0.00630257,24930.6,13364.8,7274.21,125072,51767.3,13971.2,226976
1.136,0.00631995,24653.9,13610.3,7113.77,122756,52275.8,15408.5,224375
1.138,0.00633733,24377.3,13855.8,6953.34,120440,52784.2,16845.7,221775
1.14,0.0063547,24259.8,13714.3,6673.17,118853,52325,16792,218408
1.142,0.00637207,24170.7,13503.4,6371.56,117398,51692.7,16471.4,214904
1.144,0.00638943,24081.7,13292.6,6069.94,115942,51060.4,16150.7,211400
1.146,0.0064068,23992.7,13081.8,5768.33,114487,50428.1,15830.1,207896
1.148,0.00642417,23903.7,12871,5466.72,113032,49795.7,15509.5,204392
1.15,0.00644153,23814.6,12660.1,5165.11,111576,49163.4,15188.9,200887
1.152,0.0064589,23725.6,12449.3,4863.51,110121,48531.1,14868.3,197383
1.154,0.00647627,23636.6,12238.5,4561.88,108665,47898.7,14547.7,193879
1.156,0.00649364,23547.6,12027.7,4260.27,107210,47266.4,14227.1,190375
1.158,0.006511,23458.5,11816.8,3958.66,105754,46634.1,13906.5,186871
1.16,0.00652837,23369.5,11606,3657.06,104299,46001.8,13585.9,183367
1.162,0.00654574,23280.5,11395.2,3355.45,102843,45369.5,13265.3,179863
1.164,0.00656311,23191.4,11184.3,3053.82,101388,44737.1,12944.7,176359
1.166,0.00658047,23102.4,10973.5,2752.22,99932.3,44104.8,12624.1,172855
1.168,0.00659784,22899.3,10834.4,2400.59,99048.5,43411.5,12345.8,169805
1.17,0.00661522,22417.5,10870.2,1926.81,99561.2,42569.6,12171,167865
1.172,0.0066326,21935.7,10906,1453,100074,41727.5,11996.1,165925
1.174,0.00664998,21453.8,10941.9,979.213,100586,40885.5,11821.2,163985
1.176,0.00666735,20972,10977.7,505.43,101099,40043.5,11646.3,162046
1.178,0.00668477,19850,10665.7,140.357,100196,39091.2,10588.5,159897
1.18,0.0067023,17241.2,9546.05,27.7349,96003.9,37882.6,7480.6,157264
1.182,0.00671983,14632.2,8426.3,-84.8942,91811.9,36673.9,4372.48,154630
1.184,0.00673736,12023.4,7306.61,-197.517,87620.2,35465.3,1264.55,151997
1.186,0.00675488,9414.55,6186.92,-310.139,83428.5,34256.7,-1843.38,149364
1.188,0.00677241,6805.72,5067.23,-422.762,79236.8,33048.1,-4951.32,146730
1.19,0.00678998,6759.43,4942.72,-322.992,79655.5,33027.8,-4731.24,146081
1.192,0.00680755,7297.99,5045.36,-174.755,81126.4,33278.6,-3751.64,145885
1.194,0.00682513,7836.54,5147.99,-26.5192,82597.3,33529.5,-2772.04,145688
1.196,0.00684271,8375.1,5250.63,121.717,84068.1,33780.3,-1792.44,145492
1.198,0.00686028,8913.66,5353.26,269.953,85539,34031.1,-812.845,145296
1.2,0.00687786,9452.24,5455.9,418.198,87010,34282,166.814,145099
1.202,0.00689543,9990.8,5558.54,566.435,88480.9,34532.8,1146.41,144903
1.204,0.00691301,10529.4,5661.17,714.671,89951.8,34783.6,2126.01,144707
1.206,0.00693059,11067.9,5763.81,862.907,91422.6,35034.5,3105.61,144510
1.208,0.00694816,11606.5,5866.44,1011.14,92893.5,35285.3,4085.21,144314
1.21,0.00696574,12145.1,5969.09,1159.39,94364.5,35536.1,5064.87,144118
1.212,0.00698332,12683.6,6071.72,1307.63,95835.4,35787,6044.47,143921
1.214,0.00700089,13222.2,6174.36,1455.86,97306.2,36037.8,7024.07,143725
1.216,0.00701848,13724,6614.1,1714.33,99475.7,36302.6,8597.66,144313
1.218,0.0070361,14181.3,7462.49,2106.45,102492,36584.3,10891.3,145851
1.22,0.00705371,16293.6,8281.08,2530.04,106396,37344.8,13844.6,147582
1.222,0.00707132,19591.2,9078.38,2976.21,110935,38448.1,17270.5,149450
1.224,0.00708893,22888.7,9875.67,3422.37,115475,39551.4,20696.3,151318
1.226,0.00710654,26186.2,10673,3868.53,120014,40654.7,24122.1,153186
1.228,0.00712415,29483.9,11470.3,4314.72,124553,41758.1,27548.1,155054
1.23,0.00714176,32781.5,12267.6,4760.89,129093,42861.4,30973.9,156922
1.232,0.00715941,35532.2,12692.2,4776.78,131237,43729.9,33391.3,157032
1.234,0.00717716,37257.7,12417.9,3985.73,128889,44158.1,33917.5,153848
1.236,0.00719489,37794.4,12116.9,3436.69,126158,44389.1,34083.5,152111
1.238,0.00721263,37024,11786.6,3153.72,123004,44403.3,33853.3,151964
1.24,0.00723036,36253.7,11456.3,2870.76,119850,44417.6,33623.1,151818
1.242,0.00724809,35483.3,11126,2587.8,116697,44431.8,33392.9,151672
1.244,0.00726582,34713,10795.7,2304.84,113543,44446,33162.8,151526
1.246,0.00728355,33942.6,10465.4,2021.86,110389,44460.2,32932.6,151379
1.248,0.00730128,33172.3,10135.1,1738.9,107236,44474.5,32702.4,151233
1.25,0.00731901,32401.9,9804.81,1455.94,104082,44488.7,32472.2,151087
1.252,0.00733674,31631.6,9474.51,1172.98,100928,44502.9,32242.1,150941
1.254,0.00735447,30861.3,9144.22,890.02,97774.9,44517.2,32011.9,150794
1.256,0.0073722,30090.9,8813.91,607.043,94621.1,44531.4,31781.7,150648
1.258,0.00738993,29320.6,8483.62,324.083,91467.5,44545.6,31551.5,150502
1.26,0.00740768,29121.9,8209.51,82.8855,89515.7,44368.6,31539.9,152148
1.262,0.00742544,29111.6,7953.9,-144.559,87959.7,44128.6,31600.2,154383
1.264,0.00744319,29101.2,7698.27,-372.016,86403.5,43888.5,31660.5,156619
1.266,0.00746095,29090.9,7442.66,-599.46,84847.5,43648.5,31720.8,158855
1.268,0.0074787,29080.5,7187.06,-826.904,83291.5,43408.5,31781.1,161091
1.27,0.00749645,29070.2,6931.45,-1054.35,81735.4,43168.4,31841.4,163327
1.272,0.00751421,29059.8,6675.84,-1281.79,80179.4,42928.4,31901.7,165563
1.274,0.00753196,29049.5,6420.22,-1509.25,78623.3,42688.4,31962,167799
1.276,0.00754981,29155.4,5788.34,-1705.87,78619,41513.8,32428.5,169472
1.278,0.00756767,29280.6,5094.29,-1897.39,78871.1,40184.7,32962.1,171053
1.28,0.00758552,29405.7,4400.23,-2088.92,79123.2,38855.7,33495.8,172633
1.282,0.00760338,29530.9,3706.18,-2280.44,79375.3,37526.7,34029.4,174214
1.284,0.00762124,29656,3012.09,-2471.98,79627.4,36197.5,34563.1,175794
1.286,0.0076391,29781.2,2318.04,-2663.51,79879.5,34868.5,35096.7,177375
1.288,0.00765696,29906.3,1623.99,-2855.03,80131.6,33539.5,35630.3,178955
1.29,0.00767482,30031.5,929.936,-3046.56,80383.7,32210.4,36163.9,180536
1.292,0.00769273,30217.7,855.052,-3201.3,80775.3,31602.5,36236.5,180038
1.294,0.00771066,30421.9,962.362,-3345.21,81207.8,31206.9,36173.3,178930
1.296,0.0077286,29969.6,1165.09,-3053.98,79985.6,30810.1,35145.8,177592
1.298,0.00774654,29462.4,1375.8,-2726.35,78625,30413.1,34037.7,176235
1.3,0.00776448,28955.1,1586.51,-2398.71,77264.4,30016.2,32929.5,174878
1.302,0.00778243,28447.9,1797.23,-2071.06,75903.7,29619.3,31821.3,173520
1.304,0.00780037,27940.7,2007.95,-1743.42,74543.1,29222.3,30713.1,172163
1.306,0.00781832,27433.4,2218.66,-1415.79,73182.5,28825.4,29605,170806
1.308,0.00783626,26926.2,2429.37,-1088.15,71821.9,28428.5,28496.8,169449
1.31,0.0078542,26419,2640.08,-760.519,70461.3,28031.6,27388.7,168092
1.312,0.00787215,25911.7,2850.8,-432.865,69100.6,27634.6,26280.4,166735
1.314,0.00789009,25404.5,3061.51,-105.229,67740,27237.7,25172.3,165378
1.316,0.00790804,24897.2,3272.22,222.406,66379.4,26840.8,24064.1,164021
1.318,0.00792598,24390,3482.93,550.041,65018.8,26443.8,22956,162664
1.32,0.00794392,23882.7,3693.66,877.696,63658.1,26046.9,21847.7,161307
1.322,0.00796186,23490.5,3937.28,1181.38,63018.1,25747.8,20943.3,159381
1.324,0.00797979,23443.1,4279.55,1413.25,64538,25742.1,20649.3,155751
1.326,0.00799772,23395.8,4621.83,1645.13,66057.9,25736.4,20355.3,152120
1.328,0.00801565,23348.4,4964.1,1877.01,67577.8,25730.7,20061.4,148490
1.33,0.00803358,23301,5306.39,2108.9,69097.8,25725,19767.4,144859
1.332,0.00805151,23253.6,5648.67,2340.78,70617.7,25719.3,19473.5,141229
1.334,0.00806944,23206.2,5990.94,2572.66,72137.6,25713.6,19179.5,137598
1.336,0.00808737,23158.9,6333.21,2804.54,73657.5,25707.9,18885.6,133968
1.338,0.0081053,23111.5,6675.51,3036.43,75177.5,25702.2,18591.6,130337
1.34,0.00812323,23064.1,7017.78,3268.31,76697.4,25696.5,18297.6,126707
1.342,0.00814119,22857.2,7087.43,3561.7,75843.7,25861.9,17996.8,123288
1.344,0.00815919,22400.8,6730.48,3951.35,71276,26295.2,17685.3,120199
1.346,0.0081772,21944.3,6373.53,4340.99,66708.2,26728.5,17373.7,117110
1.348,0.0081952,21487.8,6016.56,4730.66,62140.2,27161.9,17062.2,114021
1.35,0.0082132,21031.4,5659.61,5120.3,57572.4,27595.2,16750.6,110933
1.352,0.00823121,20574.9,5302.66,5509.95,53004.7,28028.5,16439.1,107844
1.354,0.00824921,20118.5,4945.71,5899.59,48437,28461.8,16127.5,104755
1.356,0.00826722,19662,4588.76,6289.23,43869.2,28895.1,15816,101666
1.358,0.00828522,19205.5,4231.79,6678.9,39301.2,29328.5,15504.4,98577.3
1.36,0.00830326,18945.1,4044.45,7097.22,37023.4,29863.2,15964,98839.9
1.362,0.00832133,18805.2,3961.32,7533.16,36152.7,30460.3,16897.3,101162
1.364,0.00833939,18665.3,3878.19,7969.1,35282,31057.4,17830.7,103484
1.366,0.00835747,18489.2,3816.53,8283.6,34664.7,31539.1,18389.4,104958
1.368,0.00837556,18241.7,3797.22,8358.4,34547.7,31793.1,18208.7,104758
1.37,0.00839365,17994.1,3777.91,8433.2,34430.6,32047.1,18027.9,104559
1.372,0.00841175,17746.6,3758.6,8508.01,34313.6,32301,17847.2,104359
1.374,0.00842984,17499,3739.3,8582.81,34196.5,32555,17666.4,104160
1.376,0.00844793,17251.4,3719.99,8657.62,34079.5,32809,17485.7,103961
1.378,0.00846603,17003.9,3700.68,8732.42,33962.4,33063,17304.9,103761
1.38,0.00848412,16756.3,3681.37,8807.22,33845.4,33317,17124.2,103562
1.382,0.00850221,16508.8,3662.06,8882.02,33728.3,33571,16943.4,103362
1.384,0.0085203,16261.2,3642.76,8956.83,33611.3,33825,16762.7,103163
1.386,0.0085384,16013.7,3623.45,9031.63,33494.2,34078.9,16582,102963
1.388,0.00855649,15766.1,3604.14,9106.44,33377.2,34332.9,16401.2,102764
1.39,0.00857458,15518.5,3584.83,9181.24,33260.2,34586.9,16220.5,102565
1.392,0.00859268,15271,3565.53,9256.04,33143.1,34840.9,16039.7,102365
1.394,0.00861078,15085.9,3544.06,9284.28,33155.8,35047.6,15837,102011
1.396,0.00862893,15420.9,3504.68,8924.91,34248.1,34860.7,15451.1,100371
1.398,0.00864709,15755.9,3465.29,8565.55,35340.5,34673.7,15065.2,98730.3
1.4,0.00866525,16090.9,3425.9,8206.19,36432.9,34486.8,14679.3,97089.9
1.402,0.00868342,16409.5,3619.52,7343.63,39323.9,34256.7,15122.6,98883
1.404,0.0087016,16725.9,3844.55,6413.19,42457.6,34020.7,15677.8,101139
1.406,0.00871978,17042.2,4069.56,5482.81,45591.1,33784.7,16232.9,103395
1.408,0.00873796,17358.6,4294.58,4552.42,48724.5,33548.7,16788,105651
1.41,0.00875614,17675,4519.59,3622.04,51858,33312.7,17343.1,107906
1.412,0.00877432,17991.3,4744.61,2691.66,54991.5,33076.7,17898.2,110162
1.414,0.0087925,18307.7,4969.64,1761.22,58125.1,32840.7,18453.3,112418
1.416,0.00881071,18420.9,5090.49,1203.43,59352.4,32554.1,18672.2,113241
1.418,0.00882895,18371.5,5127.96,943.847,59054.1,32227.1,18621.9,112918
1.42,0.00884718,18322.1,5165.44,684.261,58755.8,31900,18571.6,112595
1.422,0.00886541,18272.7,5202.93,424.66,58457.5,31572.9,18521.3,112272
1.424,0.00888365,18223.3,5240.41,165.075,58159.2,31245.9,18471,111948
1.426,0.00890188,18173.9,5277.88,-94.5106,57860.9,30918.8,18420.7,111625
1.428,0.00892011,17954.4,5266.29,-356.934,57078.3,30530.2,18279.6,110921
1.43,0.00893833,17295.5,5127.94,-626.686,55045.1,29982.9,17904.2,109234
1.432,0.00895656,16636.6,4989.58,-896.454,53011.8,29435.4,17528.7,107546
1.434,0.00897478,15977.7,4851.24,-1166.21,50978.7,28888,17153.3,105859
1.436,0.008993,15318.8,4712.89,-1435.96,48945.5,28340.7,16777.9,104172
1.438,0.00901122,14659.9,4574.54,-1705.71,46912.3,27793.3,16402.5,102485
1.44,0.00902944,14001,4436.19,-1975.48,44879,27245.9,16027,100797
1.442,0.00904766,13342.1,4297.84,-2245.23,42845.9,26698.5,15651.6,99109.8
1.444,0.00906588,12715.1,4176.14,-2501.91,40983.4,26165.7,15287.3,97493.1
1.446,0.0090841,12526.1,4282.6,-2579.3,41461.5,25833.3,15076.6,96845.2
1.448,0.00910233,12337.1,4389.06,-2656.69,41939.6,25500.9,14865.9,96197.3
1.45,0.00912055,12148.1,4495.53,-2734.09,42417.7,25168.4,14655.2,95549.4
1.452,0.00913877,11959,4601.99,-2811.48,42895.8,24836,14444.5,94901.4
1.454,0.00915699,11770,4708.45,-2888.87,43373.9,24503.6,14233.8,94253.5
1.456,0.00917521,11581,4814.91,-2966.26,43852,24171.2,14023.1,93605.6
1.458,0.00919344,11392,4921.37,-3043.65,44330.1,23838.7,13812.4,92957.7
1.46,0.00921166,11203,5027.84,-3121.05,44808.2,23506.3,13601.7,92309.8
1.462,0.00922988,11013.9,5134.3,-3198.44,45286.3,23173.9,13391,91661.9
1.464,0.0092481,10824.9,5240.76,-3275.83,45764.4,22841.5,13180.3,91014
1.466,0.00926633,10635.9,5347.22,-3353.22,46242.5,22509.1,12969.5,90366.1
1.468,0.00928455,10446.9,5453.69,-3430.61,46720.7,22176.6,12758.8,89718.1
1.47,0.00930277,10257.8,5560.15,-3508.01,47198.8,21844.2,12548.1,89070.2
1.472,0.00932099,10068.8,5666.61,-3585.4,47676.9,21511.8,12337.4,88422.3
1.474,0.00933921,9879.8,5773.07,-3662.79,48155,21179.4,12126.7,87774.4
1.476,0.00935744,9690.79,5879.54,-3740.18,48633.1,20846.9,11916,87126.5
1.478,0.00937566,9501.75,5986,-3817.57,49111.2,20514.5,11705.3,86478.5
1.48,0.00939391,9279.79,5822.25,-3440.49,48067.5,20596.2,11136.9,85368.5
1.482,0.00941219,9034.16,5464.3,-2736.82,45930.1,20975.4,10311.4,83926.2
1.484,0.00943047,8788.53,5106.36,-2033.14,43792.8,21354.7,9485.94,82484
1.486,0.00944875,8542.9,4748.42,-1329.46,41655.4,21733.9,8660.47,81041.8
1.488,0.00946702,8297.25,4390.45,-625.737,39518,22113.2,7834.95,79599.4
1.49,0.0094853,8051.62,4032.51,77.9413,37380.6,22492.4,7009.48,78157.2
1.492,0.00950358,7805.99,3674.56,781.62,35243.3,22871.7,6184.01,76715
1.494,0.00952186,7560.36,3316.62,1485.3,33106,23250.9,5358.54,75272.7
1.496,0.00954016,7375.8,3198.07,2169.37,32664,23343.8,4807.29,75057.1
1.498,0.00955846,7229.94,3231.18,2840.97,33296.1,23255.3,4429.8,75618.5
1.5,0.00957678,7084.08,3264.29,3512.56,33928.1,23166.7,4052.31,76179.8
1.502,0.00959508,6938.22,3297.4,4184.15,34560.2,23078.1,3674.82,76741.2
1.504,0.0096134,6800.16,3339.42,4816.53,35192.6,22980.2,3315.44,77193.7
1.506,0.00963176,6809.01,3549.41,4709.86,35830.8,22705.7,3297.32,75594.6
1.508,0.00965012,6817.87,3759.38,4603.19,36469.1,22431.2,3279.2,73995.5
1.51,0.00966848,6826.73,3969.36,4496.53,37107.3,22156.8,3261.09,72396.4
1.512,0.00968684,6835.58,4179.34,4389.86,37745.5,21882.3,3242.97,70797.3
1.514,0.0097052,6844.44,4389.33,4283.19,38383.8,21607.8,3224.85,69198.2
1.516,0.00972355,6805.85,4404.19,4092.19,37567.1,21391.3,3566.38,67872.7
1.518,0.00974189,6758.21,4381.81,3885.09,36472.8,21185.9,3976.53,66599.4
1.52,0.00976023,6710.57,4359.43,3677.99,35378.4,20980.6,4386.69,65326.2
1.522,0.00977858,6662.93,4337.05,3470.89,34284.1,20775.2,4796.85,64052.9
1.524,0.00979692,6615.28,4314.67,3263.78,33189.7,20569.8,5207.03,62779.6
1.526,0.00981526,6567.64,4292.3,3056.68,32095.4,20364.4,5617.19,61506.3
1.528,0.00983361,6520,4269.92,2849.58,31001,20159,6027.35,60233
1.53,0.00985195,6472.36,4247.54,2642.48,29906.7,19953.6,6437.5,58959.8
1.532,0.00987029,6431.08,4233.54,2445.73,28896.1,19747.7,6808.96,57739.7
1.534,0.00988863,6489,4350.34,2410.45,29191.9,19534.5,6576.55,57349.4
1.536,0.00990696,6546.92,4467.12,2375.16,29487.7,19321.3,6344.16,56959.1
1.538,0.0099253,6604.84,4583.91,2339.88,29783.5,19108.1,6111.77,56568.8
1.54,0.00994363,6662.75,4700.69,2304.6,30079.3,18894.8,5879.37,56178.5
1.542,0.00996197,6720.68,4817.49,2269.31,30375.1,18681.6,5646.97,55788.2
1.544,0.0099803,6778.6,4934.27,2234.03,30670.9,18468.4,5414.57,55397.9
1.546,0.00999863,6836.51,5051.06,2198.75,30966.7,18255.2,5182.18,55007.6
1.548,0.010017,6894.43,5167.84,2163.46,31262.5,18041.9,4949.79,54617.3
1.55,0.0100353,6952.35,5284.63,2128.18,31558.3,17828.7,4717.4,54227
1.552,0.0100536,7010.27,5401.42,2092.9,31854.1,17615.5,4484.99,53836.7
1.554,0.010072,7012.09,5419.16,2177.55,31850.6,17534.3,4627.45,53775.6
1.556,0.0100904,6980.96,5378.73,2332.65,31671.4,17530.6,4990.07,53907.8
1.558,0.0101088,6949.84,5338.3,2487.75,31492.2,17527,5352.69,54040.1
1.56,0.0101272,6918.71,5297.86,2642.85,31313,17523.4,5715.31,54172.3
1.562,0.0101455,6887.58,5257.43,2797.96,31133.8,17519.7,6077.95,54304.6
1.564,0.0101639,6856.45,5217,2953.06,30954.5,17516.1,6440.57,54436.8
1.566,0.0101823,6825.32,5176.56,3108.16,30775.3,17512.4,6803.19,54569.1
1.568,0.0102007,6794.19,5136.13,3263.26,30596.1,17508.8,7165.81,54701.3
1.57,0.0102191,6763.06,5095.7,3418.37,30416.9,17505.1,7528.46,54833.6
1.572,0.0102375,6731.93,5055.27,3573.47,30237.7,17501.5,7891.08,54965.8
1.574,0.0102559,6700.8,5014.83,3728.57,30058.4,17497.8,8253.7,55098.1
1.576,0.0102743,6798.77,4960.61,4064.97,29917.1,17431.1,8432.4,55046.7
1.578,0.0102927,7006.24,4894.69,4555.15,29807.8,17310.9,8455.11,54839.5
1.58,0.0103111,7213.73,4828.77,5045.36,29698.5,17190.6,8477.82,54632.4
1.582,0.0103295,7421.2,4762.85,5535.54,29589.3,17070.4,8500.53,54425.2
1.584,0.0103479,7628.67,4696.94,6025.72,29480,16950.1,8523.24,54218.1
1.586,0.0103663,7836.14,4631.02,6515.89,29370.8,16829.9,8545.95,54010.9
1.588,0.0103847,8043.63,4565.1,7006.1,29261.5,16709.7,8568.66,53803.8
1.59,0.0104031,8251.1,4499.18,7496.28,29152.3,16589.4,8591.36,53596.6
1.592,0.0104215,8458.57,4433.26,7986.46,29043,16469.2,8614.07,53389.5
1.594,0.0104399,8504.3,4382.18,7979.72,28843.4,16437.9,8759.56,53406.1
1.596,0.0104583,8515.41,4334.27,7866.62,28624.4,16425.6,8931.33,53470.5
1.598,0.0104767,8526.53,4286.35,7753.52,28405.5,16413.3,9103.1,53535
1.6,0.0104951,8537.64,4238.44,7640.43,28186.5,16401,9274.87,53599.4
1.602,0.0105136,8548.75,4190.53,7527.34,27967.6,16388.7,9446.63,53663.9
1.604,0.010532,8559.87,4142.61,7414.24,27748.6,16376.4,9618.4,53728.4
1.606,0.0105504,8328.03,4105.39,7215.28,26563,16249.6,9443.6,52869.8
1.608,0.0105688,7934.42,4075.28,6959.15,24733.7,16046.5,9038.07,51396.7
1.61,0.0105872,7540.83,4045.16,6703.04,22904.5,15843.5,8632.56,49923.6
1.612,0.0106057,7147.25,4015.05,6446.92,21075.3,15640.5,8227.06,48450.6
1.614,0.0106241,6753.67,3984.94,6190.81,19246.2,15437.5,7821.55,46977.6
1.616,0.0106425,6360.06,3954.83,5934.67,17416.9,15234.5,7416.02,45504.4
1.618,0.010661,5966.47,3924.72,5678.56,15587.7,15031.4,7010.51,44031.4
1.62,0.0106794,5572.89,3894.61,5422.44,13758.5,14828.4,6605,42558.4
1.622,0.0106978,5439.27,3876.37,5230.33,12842.3,14708.2,6427.22,41711.4
1.624,0.0107163,5599.8,3871.58,5110.64,12958.9,14681.6,6507.1,41572.7
1.626,0.0107347,5760.34,3866.79,4990.94,13075.6,14655.1,6586.99,41434.1
1.628,0.0107532,5920.87,3862,4871.24,13192.2,14628.5,6666.87,41295.4
1.63,0.0107716,6081.4,3857.21,4751.55,13308.9,14601.9,6746.76,41156.8
1.632,0.01079,6241.93,3852.41,4631.86,13425.6,14575.4,6826.64,41018.1
1.634,0.0108085,6402.46,3847.62,4512.16,13542.2,14548.8,6906.53,40879.5
1.636,0.0108269,6563,3842.83,4392.46,13658.9,14522.3,6986.41,40740.8
1.638,0.0108454,6723.53,3838.04,4272.77,13775.5,14495.7,7066.3,40602.2
1.64,0.0108638,6884.06,3833.25,4153.08,13892.2,14469.1,7146.18,40463.5
1.642,0.0108822,7044.59,3828.45,4033.38,14008.9,14442.6,7226.07,40324.9
1.644,0.0109007,7205.13,3823.66,3913.68,14125.5,14416,7305.96,40186.2
1.646,0.0109191,7365.66,3818.87,3793.99,14242.2,14389.4,7385.84,40047.6
1.648,0.0109375,7526.19,3814.08,3674.3,14358.8,14362.9,7465.72,39908.9
1.65,0.010956,7686.72,3809.29,3554.6,14475.5,14336.3,7545.61,39770.3
1.652,0.0109744,7847.25,3804.49,3434.91,14592.2,14309.8,7625.49,39631.6
1.654,0.0109929,8007.79,3799.7,3315.21,14708.8,14283.2,7705.38,39493
1.656,0.0110113,8095,3840.31,3164.07,14840.4,14243,7799.92,39238
1.658,0.0110298,8122.85,3699,2822.35,14300.5,14257.5,7878.59,38677.6
1.66,0.0110482,7990.55,3464.61,2550.02,13461.1,14265,7711.68,37982.3
1.662,0.0110667,7858.25,3230.22,2277.7,12621.8,14272.5,7544.78,37287
1.664,0.0110852,7725.94,2995.81,2005.36,11782.4,14280,7377.86,36591.6
1.666,0.0111036,7593.64,2761.42,1733.04,10943,14287.5,7210.96,35896.3
1.668,0.0111221,7461.33,2527.03,1460.71,10103.7,14295,7044.05,35201
1.67,0.0111406,7329.03,2292.64,1188.39,9264.3,14302.5,6877.15,34505.7
1.672,0.011159,7196.72,2058.24,916.051,8424.89,14310,6710.23,33810.3
1.674,0.0111775,7064.42,1823.85,643.728,7585.54,14317.5,6543.33,33115
1.676,0.011196,6646.72,1423.6,495.071,6212.6,14312.5,5938.8,32179.3
1.678,0.0112144,6721.96,1306.66,396.523,5946.96,14287.4,5865.06,32402.4
1.68,0.0112329,6812.82,1198.73,296.604,5714.32,14262,5810.67,32653.8
1.682,0.0112514,6903.69,1090.79,196.679,5481.67,14236.7,5756.27,32905.3
1.684,0.0112699,6994.55,982.861,96.7604,5249.04,14211.4,5701.88,33156.8
1.686,0.0112883,7085.41,874.932,-3.15849,5016.4,14186,5647.49,33408.3
1.688,0.0113068,7174.99,758.968,-107.128,4827.77,14139,5593.73,33695.5
1.69,0.0113253,7263.86,638.547,-213.347,4663.5,14080,5540.32,34002.5
1.692,0.0113437,7352.72,518.133,-319.56,4499.24,14021.1,5486.91,34309.5
1.694,0.0113622,7441.59,397.719,-425.772,4334.98,13962.1,5433.5,34616.5
1.696,0.0113806,7530.46,277.305,-531.985,4170.72,13903.1,5380.1,34923.6
1.698,0.0113991,7619.32,156.891,-638.198,4006.45,13844.1,5326.69,35230.6
1.7,0.0114176,7708.2,36.4704,-744.417,3842.18,13785.1,5273.28,35537.6
1.702,0.011436,7797.06,-83.9435,-850.63,3677.92,13726.1,5219.87,35844.6
1.704,0.0114545,7885.93,-204.357,-956.843,3513.66,13667.2,5166.46,36151.6
1.706,0.011473,7974.79,-324.771,-1063.06,3349.4,13608.2,5113.06,36458.6
1.708,0.0114914,8048.04,-422.262,-1157.76,3194.1,13563.1,5046.7,36711.3
1.71,0.0115099,8044.44,-406.95,-1195.84,3082.89,13586.7,4916.63,36696.2
1.712,0.0115284,8056.86,-373.157,-1234.4,3012.09,13597.4,4816.7,36696.8
1.714,0.0115469,8151.79,-244.187,-1275.36,3149.43,13541.6,4871.96,36778.3
1.716,0.0115654,8246.73,-115.218,-1316.32,3286.76,13485.9,4927.23,36859.7
1.718,0.0115839,8341.67,13.7595,-1357.29,3424.1,13430.1,4982.49,36941.2
1.72,0.0116024,8436.6,142.729,-1398.26,3561.43,13374.4,5037.75,37022.7
1.722,0.0116209,8531.53,271.699,-1439.22,3698.76,13318.6,5093.02,37104.1
1.724,0.0116393,8626.46,400.669,-1480.19,3836.1,13262.9,5148.28,37185.6
1.726,0.0116578,8703.11,525.935,-1519.11,3984.27,13203.7,5190.68,37218.3
1.728,0.0116763,8582.32,611.208,-1536.04,4249.51,13106.6,5094.09,36724.4
1.73,0.0116948,8461.54,696.477,-1552.97,4514.74,13009.5,4997.51,36230.6
1.732,0.0117133,8340.75,781.745,-1569.89,4779.97,12912.5,4900.93,35736.7
1.734,0.0117318,8219.97,867.013,-1586.82,5045.2,12815.4,4804.34,35242.9
1.736,0.0117503,8099.18,952.281,-1603.74,5310.43,12718.4,4707.76,34749.1
1.738,0.0117688,7978.39,1037.55,-1620.67,5575.68,12621.3,4611.17,34255.2
1.74,0.0117873,7857.6,1122.82,-1637.59,5840.91,12524.2,4514.59,33761.4
1.742,0.0118058,7736.82,1208.09,-1654.52,6106.14,12427.2,4418.01,33267.5
1.744,0.0118243,7616.03,1293.36,-1671.44,6371.37,12330.1,4321.43,32773.7
1.746,0.0118427,7495.24,1378.63,-1688.37,6636.61,12233.1,4224.84,32279.8
1.748,0.0118612,7374.46,1463.9,-1705.29,6901.84,12136,4128.26,31786
1.75,0.0118797,7253.67,1549.17,-1722.22,7167.07,12038.9,4031.68,31292.2
1.752,0.0118982,7132.88,1634.44,-1739.14,7432.3,11941.9,3935.1,30798.3
1.754,0.0119167,7012.1,1719.7,-1756.07,7697.53,11844.8,3838.51,30304.5
1.756,0.0119352,6891.31,1804.98,-1773,7962.78,11747.8,3741.93,29810.6
1.758,0.0119537,6764.26,1885.94,-1791.37,8206.19,11650.3,3648.03,29323.5
1.76,0.0119722,6445.5,1834.96,-1854.13,7781.67,11542.1,3636.23,29041.5
1.762,0.0119907,6102.12,1775.89,-1887.71,7330.8,11379.2,3555.25,28709.6
1.764,0.0120092,5724.7,1705.64,-1881,6843.53,11140.7,3378.71,28308.8
1.766,0.0120277,5347.31,1635.4,-1874.28,6356.28,10902.2,3202.18,27908
1.768,0.0120462,4969.91,1565.16,-1867.57,5869.03,10663.7,3025.66,27507.2
1.77,0.0120647,4592.52,1494.91,-1860.86,5381.78,10425.2,2849.13,27106.4
1.772,0.0120832,4215.13,1424.67,-1854.14,4894.54,10186.8,2672.61,26705.7
1.774,0.0121017,3837.71,1354.42,-1847.43,4407.26,9948.27,2496.07,26304.9
1.776,0.0121202,3709.17,1410.29,-1834.12,4391.25,9803.37,2518.89,25947.1
1.778,0.0121387,3632.88,1492.64,-1819.42,4474.19,9678.11,2583.57,25598.5
1.78,0.0121572,3556.59,1574.99,-1804.73,4557.13,9552.85,2648.25,25249.8
1.782,0.0121757,3480.3,1657.34,-1790.03,4640.08,9427.6,2712.94,24901.1
1.784,0.0121942,3400.89,1734.95,-1767.08,4736.59,9299.31,2779.54,24559.8
1.786,0.0122127,3311.05,1796.71,-1716.59,4878.36,9160.93,2852.51,24243.5
1.788,0.0122312,3221.22,1858.47,-1666.11,5020.13,9022.55,2925.49,23927.2
1.79,0.0122497,3131.38,1920.23,-1615.62,5161.89,8884.17,2998.46,23610.9
1.792,0.0122682,3041.54,1982,-1565.14,5303.67,8745.79,3071.45,23294.5
1.794,0.0122867,2951.7,2043.76,-1514.65,5445.44,8607.41,3144.42,22978.2
1.796,0.0123052,2861.87,2105.52,-1464.17,5587.2,8469.03,3217.4,22661.9
1.798,0.0123237,2772.03,2167.28,-1413.68,5728.97,8330.65,3290.38,22345.5
1.8,0.0123422,2682.2,2229.04,-1363.2,5870.74,8192.27,3363.35,22029.2
1.802,0.0123607,2592.36,2290.8,-1312.71,6012.51,8053.89,3436.33,21712.9
1.804,0.0123792,2502.52,2352.56,-1262.23,6154.28,7915.51,3509.31,21396.6
1.806,0.0123977,2412.69,2414.32,-1211.74,6296.05,7777.13,3582.29,21080.2
1.808,0.0124162,2321.85,2427.6,-1167.24,6022.98,7664.71,3485.25,20697
1.81,0.0124347,2229.87,2385.66,-1129.55,5277.52,7581.85,3194.6,20237.6
1.812,0.0124532,2137.89,2343.72,-1091.86,4532.01,7498.99,2903.94,19778.2
1.814,0.0124717,2045.91,2301.79,-1054.17,3786.55,7416.13,2613.29,19318.8
1.816,0.0124902,1953.93,2259.85,-1016.49,3041.09,7333.27,2322.65,18859.4
1.818,0.0125087,1861.95,2217.91,-978.798,2295.62,7250.41,2032,18400
1.82,0.0125272,1769.96,2175.98,-941.107,1550.12,7167.55,1741.34,17940.6
1.822,0.0125457,1677.99,2134.04,-903.418,804.653,7084.69,1450.7,17481.2
1.824,0.0125643,1596.61,2102.03,-878.27,188.813,7007.93,1200,17075.5
1.826,0.0125828,1571.08,2122.32,-919.152,255.501,6963.27,1159.68,16952.5
1.828,0.0126013,1545.55,2142.61,-960.033,322.189,6918.6,1119.36,16829.6
1.83,0.0126198,1520.01,2162.9,-1000.92,388.881,6873.94,1079.04,16706.7
1.832,0.0126383,1494.48,2183.18,-1041.8,455.569,6829.28,1038.71,16583.8
1.834,0.0126568,1468.95,2203.47,-1082.68,522.257,6784.62,998.391,16460.8
1.836,0.0126753,1443.42,2223.76,-1123.56,588.944,6739.95,958.069,16337.9
1.838,0.0126939,1417.89,2244.05,-1164.44,655.636,6695.29,917.744,16215
1.84,0.0127124,1392.35,2264.33,-1205.33,722.324,6650.63,877.422,16092.1
1.842,0.0127309,1383.84,2284.9,-1236.83,876.236,6613.81,857.064,16036.8
1.844,0.0127494,1463.18,2306.89,-1219.93,1480.29,6617.45,939.739,16330.9
1.846,0.0127679,1542.52,2328.89,-1203.03,2084.35,6621.1,1022.41,16625
1.848,0.0127864,1621.86,2350.89,-1186.14,2688.44,6624.74,1105.09,16919.1
1.85,0.0128049,1701.19,2372.89,-1169.24,3292.49,6628.39,1187.77,17213.2
1.852,0.0128234,1809.63,2259.46,-1212.6,3291.6,6617.45,1229.52,17029.6
1.854,0.012842,1935.35,2065.57,-1291.76,2931.29,6597.83,1246.97,16562.1
1.856,0.0128605,2061.07,1871.69,-1370.92,2570.97,6578.22,1264.42,16094.7
1.858,0.012879,2186.79,1677.79,-1450.08,2210.64,6558.61,1281.87,15627.2
1.86,0.0128975,2412.9,1594.85,-1469.63,2500.37,6472.3,1593.23,15477.1
1.862,0.012916,2647.63,1521.44,-1484.05,2845.95,6380.26,1929.84,15354.3
1.864,0.0129345,2882.36,1448.03,-1498.47,3191.53,6288.21,2266.45,15231.5
1.866,0.012953,3117.11,1374.61,-1512.89,3537.12,6196.17,2603.08,15108.7
1.868,0.0129715,3173.9,1324.28,-1443.53,3483.35,6075.42,2676.99,14861.5
1.87,0.0129901,3173.83,1281.31,-1347.4,3301.97,5945.5,2666.97,14574.5
1.872,0.0130086,3173.77,1238.35,-1251.28,3120.59,5815.59,2656.95,14287.5
1.874,0.0130271,3173.7,1195.39,-1155.15,2939.22,5685.67,2646.92,14000.5
1.876,0.0130456,3173.63,1152.42,-1059.01,2757.83,5555.74,2636.9,13713.4
1.878,0.0130641,3239.5,1111.36,-1010.84,2756.53,5489.76,2640.65,13597.1
1.88,0.0130827,3311.09,1070.46,-966.832,2770.84,5429.33,2645.6,13495.6
1.882,0.0131012,3382.68,1029.56,-922.823,2785.16,5368.9,2650.54,13394.1
1.884,0.0131197,3454.27,988.662,-878.814,2799.47,5308.46,2655.48,13292.5
1.886,0.0131382,3525.86,947.76,-834.802,2813.79,5248.03,2660.43,13191
1.888,0.0131567,3597.45,906.86,-790.793,2828.11,5187.59,2665.37,13089.5
1.89,0.0131753,3669.04,865.961,-746.783,2842.42,5127.16,2670.32,12988
1.892,0.0131938,3740.63,825.061,-702.774,2856.74,5066.73,2675.26,12886.5
1.894,0.0132123,3812.23,784.159,-658.762,2871.05,5006.29,2680.21,12784.9
1.896,0.0132308,3883.81,743.26,-614.753,2885.37,4945.85,2685.15,12683.4
1.898,0.0132493,3955.4,702.36,-570.744,2899.68,4885.42,2690.1,12581.9
1.9,0.0132679,4026.99,661.461,-526.735,2914,4824.99,2695.04,12480.4
1.902,0.0132864,4098.58,620.561,-482.725,2928.32,4764.55,2699.99,12378.8
1.904,0.0133049,4170.17,579.659,-438.714,2942.63,4704.12,2704.93,12277.3
1.906,0.0133234,4241.76,538.76,-394.704,2956.95,4643.68,2709.88,12175.8
1.908,0.0133419,4313.35,497.86,-350.695,2971.26,4583.25,2714.82,12074.3
1.91,0.0133605,4384.94,456.96,-306.686,2985.58,4522.81,2719.76,11972.7
1.912,0.013379,4454.67,448.641,-274.884,3040.72,4443.69,2739.51,11880.1
1.914,0.0133975,4524.32,441.623,-243.568,3097.51,4363.81,2759.84,11787.7
1.916,0.013416,4593.97,434.606,-212.254,3154.29,4283.94,2780.18,11695.4
1.918,0.0134345,4663.62,427.589,-180.94,3211.07,4204.07,2800.51,11603.1
1.92,0.0134531,4733.27,420.571,-149.626,3267.84,4124.2,2820.85,11510.8
1.922,0.0134716,4802.92,413.554,-118.31,3324.63,4044.32,2841.18,11418.5
1.924,0.0134901,4872.57,406.537,-86.9956,3381.41,3964.45,2861.52,11326.2
1.926,0.0135086,4942.22,399.519,-55.6815,3438.19,3884.57,2881.85,11233.8
1.928,0.0135271,5011.87,392.502,-24.3675,3494.97,3804.7,2902.18,11141.5
1.93,0.0135457,5081.52,385.485,6.94658,3551.74,3724.83,2922.52,11049.2
1.932,0.0135642,5151.17,378.467,38.2625,3608.53,3644.95,2942.85,10956.9
1.934,0.0135827,5188.49,388.727,77.1781,3660.64,3580.68,2954.6,10869
1.936,0.0136012,5206.15,409.487,120.714,3709.91,3525.88,2961.13,10783.8
1.938,0.0136197,5223.81,430.248,164.251,3759.18,3471.08,2967.65,10698.5
1.94,0.0136383,5241.48,451.01,207.79,3808.45,3416.29,2974.18,10613.3
1.942,0.0136568,5270.18,517.572,262.864,3731.85,3343.13,2962.17,10516.9
1.944,0.0136753,5304.32,606.695,323.623,3593.25,3260.94,2941.04,10415
1.946,0.0136938,5338.47,695.818,384.381,3454.65,3178.75,2919.9,10313.1
1.948,0.0137123,5372.61,784.94,445.139,3316.04,3096.55,2898.77,10211.3
1.95,0.0137309,5406.75,874.068,505.901,3177.43,3014.35,2877.63,10109.4
1.952,0.0137494,5440.9,963.191,566.66,3038.83,2932.16,2856.5,10007.5
1.954,0.0137679,5475.04,1052.31,627.418,2900.23,2849.97,2835.36,9905.62
1.956,0.0137864,5509.18,1141.44,688.176,2761.62,2767.77,2814.23,9803.74
1.958,0.0138049,5543.32,1230.56,748.935,2623.02,2685.58,2793.09,9701.87
1.96,0.0138235,5577.47,1319.69,809.697,2484.41,2603.38,2771.96,9599.98
1.962,0.013842,5605.81,1408.41,872.986,2374.05,2521.89,2752.63,9495.49
1.964,0.0138605,5603.67,1495.05,949.578,2412.15,2444.11,2742.8,9377.24
1.966,0.013879,5601.52,1581.69,1026.17,2450.24,2366.32,2732.96,9259
1.968,0.0138976,5599.38,1668.33,1102.77,2488.34,2288.53,2723.13,9140.75
1.97,0.0139161,5597.24,1754.97,1179.36,2526.43,2210.75,2713.29,9022.5
1.972,0.0139346,5595.1,1841.61,1255.95,2564.53,2132.97,2703.46,8904.26
1.974,0.0139531,5592.96,1928.25,1332.54,2602.62,2055.18,2693.62,8786.01
1.976,0.0139717,5586.68,1948.86,1344.15,2519.22,2025.47,2669.13,8692.42
1.978,0.0139902,5578.9,1945.44,1332.09,2391.58,2013.25,2639.3,8607.79
1.98,0.0140087,5571.13,1942.02,1320.04,2263.94,2001.04,2609.47,8523.17
1.982,0.0140272,5563.35,1938.6,1307.98,2136.31,1988.82,2579.64,8438.54
1.984,0.0140457,5555.57,1935.18,1295.93,2008.67,1976.6,2549.81,8353.92
1.986,0.0140643,5547.79,1931.76,1283.87,1881.04,1964.39,2519.98,8269.29
1.988,0.0140828,5584.8,1887.34,1294.34,1793.54,1945.77,2501.93,8185.22
1.99,0.0141013,5734.86,1739.47,1361.64,1807.36,1910.99,2513.62,8102.55
1.992,0.0141198,5884.91,1591.59,1428.94,1821.18,1876.2,2525.32,8019.88
1.994,0.0141384,6034.97,1443.71,1496.25,1835.01,1841.42,2537.01,7937.21
1.996,0.0141569,6185.03,1295.83,1563.55,1848.83,1806.63,2548.71,7854.54
1.998,0.0141754,6335.09,1147.95,1630.85,1862.66,1771.85,2560.4,7771.87
2,0.0141939,6485.14,1000.07,1698.16,1876.48,1737.06,2572.1,7689.2
