"PointID","x","y","z","Displacement_x","Displacement_y","Displacement_z","Sxx","Syy","Sxy","Szz","Sxz","Syz","Von_Mises_Stress"
0, 1.000000000000000e+00, -1.017433573914477e-33, -1.661650000000000e-17, 0.000000000000000e+00, 0.000000000000000e+00, 0.000000000000000e+00, 1.492387226308891e+06, 4.093183814904700e+06, -6.959229812043754e+05, 7.656403169225508e+05, -5.023235170948089e+04, -7.356342255250951e+05, 3.502341251838605e+06
1, 3.355180000000000e-01, 4.849484022358998e-18, 7.920070000000000e-02, 0.000000000000000e+00, 0.000000000000000e+00, 0.000000000000000e+00, -1.031276860214323e+07, -1.931517689736695e+07, -2.649232532228907e+05, -1.029438541767062e+07, 9.672705094805745e+04, 3.485238973124715e+06, 1.085764612817094e+07
2, 0.000000000000000e+00, 0.000000000000000e+00, 0.000000000000000e+00, 0.000000000000000e+00, 0.000000000000000e+00, 0.000000000000000e+00, 1.806077261804912e+06, 3.462478147227631e+06, 1.107299994419477e+06, 1.003967457152065e+06, -7.588544633276850e+05, -2.394808874661553e+06, 5.227514532119158e+06
3, 3.374140000000000e-01, -2.462058828296351e-18, -4.020980000000000e-02, 0.000000000000000e+00, 0.000000000000000e+00, 0.000000000000000e+00, 9.488501020822600e+06, 1.779727416517314e+07, 3.091286311580475e+05, 9.633890400584247e+06, -5.239485537116507e+04, 3.067065445479722e+06, 9.816538615875311e+06
4, 1.000000000000000e+00, 2.000000000000000e+00, -1.661650000000000e-17, 1.288745195104912e-05, -7.879632261470482e-05, 4.259476506436144e-02, 3.114889584827804e+03, -3.801044537534310e+03, -9.913630713498574e+02, 1.374803615878548e+03, 9.919626986521904e+03, 2.013526632452425e+04, 3.941136859825040e+04
5, 3.355180000000000e-01, 2.000000000000000e+00, 7.920070000000000e-02, -1.561013179136855e-04, -2.205390039429882e-03, 4.115203637125618e-02, 5.557280495298117e+04, -1.694908740269542e+03, -2.532182825236716e+04, 1.668264930788682e+04, 6.815862504714408e+03, 1.029327738833839e+04, 7.032561780844210e+04
6, 0.000000000000000e+00, 2.000000000000000e+00, 0.000000000000000e+00, 1.432731375870452e-05, -4.784395729083915e-05, 4.045728209524137e-02, -3.632498543929106e+04, -1.876238948021685e+04, 1.913993209912197e+03, -1.736082226081489e+04, -4.384303336691109e+01, 7.693163786158829e+03, 2.288175058983737e+04
7, 3.374140000000000e-01, 2.000000000000000e+00, -4.020980000000000e-02, 9.851496201946155e-05, 1.035287156096042e-03, 4.120027480890714e-02, -1.007961710240213e+04, 1.000164778542541e+04, 2.628528232613049e+04, 7.376724291106601e+03, 1.326455285737828e+04, 5.853849406244744e+03, 5.532478274581032e+04
8, 9.997509999999999e-01, 2.000053280200000e+00, 3.262363572646351e-21, 1.288727978596138e-05, -7.880438372198650e-05, 4.259568395386637e-02, 5.136695627036039e+03, 3.668179237165621e+03, 4.242336199358382e+03, 2.992085221680577e+02, 7.646108207753605e+03, 1.539848401515811e+04, 3.097055027170533e+04
9, 3.355180000000000e-01, 2.079200700000000e+00, 4.849484022358998e-18, 1.066271861832613e-05, -8.522076430693762e-05, 4.333108841986927e-02, 2.253065973316720e+04, 9.214674369234926e+03, 5.376635549768036e+03, 1.448618266551234e+04, 2.352878254661323e+04, -2.252288303170978e+03, 4.356217166642898e+04
10, 9.701194436714909e-01, 3.826640574990034e-19, 6.249584714379277e-03, 0.000000000000000e+00, 0.000000000000000e+00, 0.000000000000000e+00, 1.296172736538912e+06, 3.627799217439645e+06, -4.963620705427387e+05, 1.115997873275651e+06, -2.319866988450943e+04, -1.025872530085179e+06, 3.128422814165393e+06
11, 9.382097110650589e-01, 7.732109015868859e-19, 1.262790935509120e-02, 0.000000000000000e+00, 0.000000000000000e+00, 0.000000000000000e+00, 1.218812439234698e+06, 2.683659427170686e+06, -3.007514823958608e+05, 1.117840336141917e+06, 6.287227973514416e+04, -1.180530253189671e+06, 2.601547407602743e+06
12, 9.049008908571293e-01, 1.161724240643488e-18, 1.897302324158920e-02, 0.000000000000000e+00, 0.000000000000000e+00, 0.000000000000000e+00, 1.995662946756915e+05, 5.802505153217235e+05, 1.081185995790872e+05, 3.967702886325601e+05, -1.568603215853162e+05, -7.082546554537726e+05, 1.312438870743268e+06
13, 8.703994777155915e-01, 1.544245649105354e-18, 2.522027824345812e-02, 0.000000000000000e+00, 0.000000000000000e+00, 0.000000000000000e+00, -4.256426104617071e+05, -2.850336641517502e+05, 1.380081836663133e+05, -3.937162593050192e+05, 8.492185631618624e+04, -2.388221964587844e+05, 5.159293585039459e+05
14, 8.348190149083717e-01, 1.918180697711467e-18, 3.132730271608063e-02, 0.000000000000000e+00, 0.000000000000000e+00, 0.000000000000000e+00, -1.129449801276745e+06, -1.745365979424357e+06, 3.215091239984510e+05, -1.105469729604600e+06, 1.918617447598842e+05, 2.076981578072872e+04, 9.036198259941774e+05
15, 7.982311241441484e-01, 2.281438305588957e-18, 3.725994558933780e-02, 0.000000000000000e+00, 0.000000000000000e+00, 0.000000000000000e+00, -5.008189329954661e+06, -9.022037937416557e+06, 9.604344665746796e+05, -4.940344942896325e+06, -1.084091705174443e+05, 9.129656078583043e+05, 4.657357614023663e+06
16, 7.606838525419612e-01, 2.632151724446222e-18, 4.298771954318967e-02, 0.000000000000000e+00, 0.000000000000000e+00, 0.000000000000000e+00, -6.097594020509444e+06, -1.169094719400678e+07, 7.341813630343517e+05, -6.249329154475502e+06, -5.117573411497200e+04, 1.253337721219409e+06, 6.066086473197876e+06
17, 7.222098785286807e-01, 2.968448429788834e-18, 4.848004292192971e-02, 0.000000000000000e+00, 0.000000000000000e+00, 0.000000000000000e+00, -6.253523683407744e+06, -1.200939808438721e+07, 2.692706847665749e+05, -6.398300680976025e+06, -5.731265651750079e+04, 1.511156609745400e+06, 6.276614494221271e+06
18, 6.828309868320698e-01, 3.288341236577380e-18, 5.370446145920187e-02, 0.000000000000000e+00, 0.000000000000000e+00, 0.000000000000000e+00, -6.385829187728604e+06, -1.176986603279111e+07, 2.949646552931027e+05, -6.027013612605163e+06, -7.068394933778612e+04, 1.849124703559472e+06, 6.448431224462959e+06
19, 6.425603851926893e-01, 3.589551721037565e-18, 5.862376444207491e-02, 0.000000000000000e+00, 0.000000000000000e+00, 0.000000000000000e+00, -6.744724250440832e+06, -1.249184287478653e+07, 5.411169594277302e+05, -6.675144768867088e+06, 2.456108969598524e+04, 2.173877515761113e+06, 6.963588020144445e+06
20, 6.014043929749187e-01, 3.869471511319297e-18, 6.319535251865177e-02, 0.000000000000000e+00, 0.000000000000000e+00, 0.000000000000000e+00, -8.230073075832319e+06, -1.521436550156032e+07, 7.248946159064355e+05, -8.243670842188956e+06, -2.379043124556326e+04, 2.269192588320299e+06, 8.106255262807246e+06
21, 5.593632358333843e-01, 4.124984756308877e-18, 6.736833829799292e-02, 0.000000000000000e+00, 0.000000000000000e+00, 0.000000000000000e+00, -8.622418606862562e+06, -1.573340434871799e+07, 5.035796019372515e+05, -8.651848652594537e+06, -1.100631642352832e+05, 2.605602587268980e+06, 8.457087039167536e+06
22, 5.164315576230487e-01, 4.352285245997886e-18, 7.108055960044711e-02, 0.000000000000000e+00, 0.000000000000000e+00, 0.000000000000000e+00, -9.083332402472343e+06, -1.747741471765985e+07, 8.693712958878030e+05, -8.881370059574187e+06, -2.418893497720899e+05, 3.029613128634343e+06, 1.010818050311078e+07
23, 4.725988298299814e-01, 4.546726879488007e-18, 7.425613733419331e-02, 0.000000000000000e+00, 0.000000000000000e+00, 0.000000000000000e+00, -9.701365404887097e+06, -1.845368806611941e+07, 1.596799928629426e+05, -9.697635484632943e+06, 1.522993012671025e+05, 3.339230256810013e+06, 1.049920310309495e+07
24, 4.278495429484783e-01, 4.702552464899745e-18, 7.680104631535864e-02, 0.000000000000000e+00, 0.000000000000000e+00, 0.000000000000000e+00, -9.898375709484942e+06, -1.878655025148372e+07, 3.158556453865892e+05, -9.939077662049511e+06, -1.221217861850592e+05, 3.403151764499153e+06, 1.066432832550534e+07
25, 3.821630384685604e-01, 4.810901667109800e-18, 7.857058151125020e-02, 0.000000000000000e+00, 0.000000000000000e+00, 0.000000000000000e+00, -1.216657583085193e+07, -2.256584307845341e+07, -7.267379022299931e+03, -1.215829298486994e+07, -1.539128758628202e+01, 3.910965249423299e+06, 1.241442988675703e+07
26, 2.887856952611400e-01, 4.804429146040567e-18, 7.846487372933268e-02, 0.000000000000000e+00, 0.000000000000000e+00, 0.000000000000000e+00, -1.043651798629835e+07, -1.982664113250076e+07, -2.668451030722900e+05, -1.078616059864042e+07, 9.252758425693122e+04, 3.301289116031209e+06, 1.086040091072536e+07
27, 2.436331012289116e-01, 4.671156728100061e-18, 7.628829808893167e-02, 0.000000000000000e+00, 0.000000000000000e+00, 0.000000000000000e+00, -1.078284536230334e+07, -2.039002630989522e+07, -5.980367391059498e+05, -1.075919366234551e+07, -1.421639277362335e+05, 3.150418254015826e+06, 1.111011666998211e+07
28, 2.001440438813819e-01, 4.446525138257191e-18, 7.261966466821282e-02, 0.000000000000000e+00, 0.000000000000000e+00, 0.000000000000000e+00, -9.317975059944296e+06, -1.829557449001279e+07, -1.319248456528781e+06, -9.312485045282733e+06, 2.706540880981745e+05, 2.852619943847265e+06, 1.051189520628906e+07
29, 1.584403550861914e-01, 4.125376727162859e-18, 6.737473987924816e-02, 0.000000000000000e+00, 0.000000000000000e+00, 0.000000000000000e+00, -7.618812981920013e+06, -1.436744646966232e+07, -1.533603446901842e+06, -7.322497603752806e+06, 1.649816448728997e+05, 1.951860844827243e+06, 8.136236128483442e+06
30, 1.187045466097549e-01, 3.698952267673506e-18, 6.041046996249733e-02, 0.000000000000000e+00, 0.000000000000000e+00, 0.000000000000000e+00, -6.236641795899801e+06, -1.179637299415288e+07, -1.324141362005421e+06, -5.907444017799206e+06, 1.505466992313035e+05, 1.156786599830495e+06, 6.495517147198344e+06
31, 8.123277220709749e-02, 3.151113717465006e-18, 5.146329198161353e-02, 0.000000000000000e+00, 0.000000000000000e+00, 0.000000000000000e+00, -5.622955913637171e+06, -1.059912886543556e+07, -1.481969081600857e+06, -5.875489210109763e+06, 1.665456272756178e+05, 6.507007258186821e+05, 5.613516248377768e+06
32, 4.659006783432600e-02, 2.447688606861239e-18, 3.997510872324388e-02, 0.000000000000000e+00, 0.000000000000000e+00, 0.000000000000000e+00, -3.346226570624034e+06, -6.433011046839876e+06, -1.289192847547690e+06, -2.669711672994091e+06, 8.232054927178772e+04, -7.950158092820180e+05, 4.356225604497756e+06
33, 1.630188419265116e-02, 1.496366139049271e-18, 2.443832067959874e-02, 0.000000000000000e+00, 0.000000000000000e+00, 0.000000000000000e+00, -1.476531718308098e+06, -2.576645177109758e+06, -7.516533563658602e+05, -7.771652476196529e+05, 6.808917032405069e+03, -2.003897353104793e+06, 4.026244744597821e+06
34, 2.006880193853882e-02, -1.260083494765489e-18, -2.057940481579859e-02, 0.000000000000000e+00, 0.000000000000000e+00, 0.000000000000000e+00, 4.644100940838935e+06, 9.326117142322274e+06, 2.433293123226115e+06, 4.296348940838629e+06, 2.795853578554548e+05, -9.236232699149873e+05, 6.650329141053224e+06
35, 5.180751442251855e-02, -1.864343568802749e-18, -3.044804663937196e-02, 0.000000000000000e+00, 0.000000000000000e+00, 0.000000000000000e+00, 5.586323878172407e+06, 1.103025239888604e+07, 1.582037656687319e+06, 5.887519748645505e+06, 9.446754246860734e+04, 2.769016309226978e+05, 5.987713522901123e+06
36, 8.698086041529213e-02, -2.215140132688241e-18, -3.617717849942718e-02, 0.000000000000000e+00, 0.000000000000000e+00, 0.000000000000000e+00, 6.810404153664555e+06, 1.297247278549175e+07, 1.557046537137258e+06, 7.011094022402927e+06, 1.072518767103745e+05, 9.385202428890860e+05, 6.835557979596805e+06
37, 1.244462868952566e-01, -2.426270136534380e-18, -3.962530700516514e-02, 0.000000000000000e+00, 0.000000000000000e+00, 0.000000000000000e+00, 7.867433221051429e+06, 1.485575457528375e+07, 1.242362603773834e+06, 7.659896284443627e+06, 1.771876356365106e+05, 1.420237618618299e+06, 7.817022918503855e+06
38, 1.638080575324727e-01, -2.543354158793545e-18, -4.153749734933101e-02, 0.000000000000000e+00, 0.000000000000000e+00, 0.000000000000000e+00, 8.576693912241802e+06, 1.640813956022597e+07, 1.308945309218596e+06, 8.302874347373269e+06, 2.556972215695466e+05, 2.314938232369233e+06, 9.217586173453610e+06
39, 2.048724553968089e-01, -2.591128184122018e-18, -4.231773215995981e-02, 0.000000000000000e+00, 0.000000000000000e+00, 0.000000000000000e+00, 9.619474866178853e+06, 1.843960885003730e+07, 7.969881849372054e+05, 9.729851450065210e+06, -1.046412753776958e+05, 2.950984325771468e+06, 1.024191171550019e+07
40, 2.475312729303336e-01, -2.585800684739633e-18, -4.223072461887111e-02, 0.000000000000000e+00, 0.000000000000000e+00, 0.000000000000000e+00, 1.033911722936178e+07, 1.936535400332189e+07, 5.903496734403009e+05, 1.043015552060319e+07, 5.013383525262748e+03, 2.965125279915800e+06, 1.039620231081734e+07
41, 2.917226135216736e-01, -2.539484939855114e-18, -4.147430612177688e-02, 0.000000000000000e+00, 0.000000000000000e+00, 0.000000000000000e+00, 9.042371470529880e+06, 1.712626710989316e+07, 8.663518152744575e+04, 9.208777067244107e+06, -1.040997714599580e+04, 2.927235463600493e+06, 9.474218622033129e+06
42, 3.864717608851156e-01, -2.357837534179923e-18, -3.850768088570469e-02, 0.000000000000000e+00, 0.000000000000000e+00, 0.000000000000000e+00, 1.167427680810148e+07, 2.187390051370380e+07, 2.063025189349108e+04, 1.153584672807178e+07, 1.140240583865089e+05, 3.234880117880103e+06, 1.170030131062878e+07
43, 4.344666857105546e-01, -2.240002290264680e-18, -3.658322175567579e-02, 0.000000000000000e+00, 0.000000000000000e+00, 0.000000000000000e+00, 9.526333583912481e+06, 1.821345656012690e+07, -5.147352871291986e+05, 9.615025142874999e+06, -1.027692663417191e+05, 3.217345971571834e+06, 1.032395197746356e+07
44, 4.814409163794265e-01, -2.103072535191045e-18, -3.434691529448138e-02, 0.000000000000000e+00, 0.000000000000000e+00, 0.000000000000000e+00, 9.125757942502795e+06, 1.679958541503153e+07, -3.145408648999881e+05, 8.983420248544464e+06, -3.433675263412738e+04, 3.122690208211716e+06, 9.463302294534210e+06
45, 5.274267894792859e-01, -1.952541774596743e-18, -3.188848022063993e-02, 0.000000000000000e+00, 0.000000000000000e+00, 0.000000000000000e+00, 8.677840617958965e+06, 1.641849360958873e+07, -4.294672510878472e+05, 8.652189809714114e+06, -1.042050986641528e+05, 2.738780286276093e+06, 9.121709025335444e+06
46, 5.724477020551271e-01, -1.793204979064451e-18, -2.928622693271679e-02, 0.000000000000000e+00, 0.000000000000000e+00, 0.000000000000000e+00, 8.105745101116044e+06, 1.477158031003806e+07, -3.874493762311953e+05, 7.970114120748315e+06, 1.660017690917193e+04, 2.468369090635547e+06, 8.005345977380159e+06
47, 6.165185641349364e-01, -1.628593563877007e-18, -2.659782972370935e-02, 0.000000000000000e+00, 0.000000000000000e+00, 0.000000000000000e+00, 6.742278888294382e+06, 1.264613955046695e+07, -2.847353109815416e+05, 6.726590623628898e+06, -4.249568090350094e+04, 2.356710241377215e+06, 7.201342089825731e+06
48, 6.596461271309235e-01, -1.461247284002381e-18, -2.386476730977875e-02, 0.000000000000000e+00, 0.000000000000000e+00, 0.000000000000000e+00, 6.908730972839850e+06, 1.274627383846417e+07, -1.025446599368709e+05, 6.817846403134355e+06, -1.414520873574988e+04, 2.265383248765009e+06, 7.074159989601746e+06
49, 7.018289552756054e-01, -1.292951721745568e-18, -2.111620142603153e-02, 0.000000000000000e+00, 0.000000000000000e+00, 0.000000000000000e+00, 6.626867196895523e+06, 1.258812678795377e+07, -2.051804390117033e+05, 6.547056574900776e+06, -1.065223204665133e+05, 1.849234247072329e+06, 6.814550420737157e+06
50, 7.430567730392225e-01, -1.124913914096041e-18, -1.837184513349674e-02, 0.000000000000000e+00, 0.000000000000000e+00, 0.000000000000000e+00, 6.296058421682721e+06, 1.205377105879909e+07, -4.322990886883086e+05, 6.344082302804330e+06, -7.804803342148762e+04, 1.518794987400663e+06, 6.354226155214770e+06
51, 7.833091990281363e-01, -9.579113246713254e-19, -1.564439579594515e-02, 0.000000000000000e+00, 0.000000000000000e+00, 0.000000000000000e+00, 5.437463003853636e+06, 1.032918182001931e+07, -7.197904949314733e+05, 5.432535820715217e+06, -6.479050042623680e+04, 1.218274715182381e+06, 5.474715334116242e+06
52, 8.225531245137294e-01, -7.923942031117518e-19, -1.294120679087518e-02, 0.000000000000000e+00, 0.000000000000000e+00, 0.000000000000000e+00, 1.549514847495524e+06, 3.462858093491814e+06, -2.137175082467131e+05, 1.474476381876291e+06, 1.774735198296025e+05, 3.226061425707841e+04, 2.011150367853434e+06
53, 8.607380472886941e-01, -6.286192738116247e-19, -1.026647088428879e-02, 0.000000000000000e+00, 0.000000000000000e+00, 0.000000000000000e+00, 1.279836234320858e+06, 2.566384818271631e+06, -3.286905175766240e+05, 1.295899105794876e+06, 1.618886527004284e+05, -1.425910933241115e+05, 1.448631232058936e+06
54, 8.977869248831105e-01, -4.667774935724709e-19, -7.623306740415207e-03, 0.000000000000000e+00, 0.000000000000000e+00, 0.000000000000000e+00, 1.031684934493516e+06, 2.145449025455155e+06, -2.952154239238043e+05, 9.009402351981362e+05, -1.256941143699119e+04, -7.127554209310075e+05, 1.785826043585148e+06
55, 9.335760417539527e-01, -3.071646053792216e-19, -5.016544368244788e-03, 0.000000000000000e+00, 0.000000000000000e+00, 0.000000000000000e+00, 9.301179590284537e+05, 2.403987677396637e+06, -4.582983953093783e+05, 7.856548945881440e+05, 5.114514382067409e+04, -1.203795158475808e+06, 2.718714649454699e+06
56, 9.678783239300333e-01, -1.505440037869663e-19, -2.458651358733713e-03, 0.000000000000000e+00, 0.000000000000000e+00, 0.000000000000000e+00, 1.346158619493029e+06, 3.138621063174155e+06, -6.173593889583062e+05, 1.308257100404608e+06, 6.909547505905405e+04, -1.333038813585042e+06, 3.125858765472212e+06
57, 9.701194436714911e-01, 2.000000000000000e+00, 6.249584714379221e-03, -6.329679828054324e-07, -2.485066249976325e-04, 4.252742282250155e-02, -4.391225874842481e+03, 5.525646556491418e+03, -3.562052126491492e+03, -1.486875566713982e+03, 8.480928586491060e+03, 1.024353748808508e+04, 2.542854329218419e+04
58, 9.382097110650592e-01, 2.000000000000000e+00, 1.262790935509114e-02, -1.427022223638580e-05, -4.214730946038303e-04, 4.245573407744496e-02, -8.984453958605334e+03, 9.844927306630250e+03, -1.042944157051450e+04, 7.564414551416947e+02, 1.254031075839426e+04, 2.740694395027121e+03, 3.296434076624860e+04
59, 9.049008908571297e-01, 2.000000000000000e+00, 1.897302324158913e-02, -2.763315849632630e-05, -5.933263488882429e-04, 4.238138439718908e-02, -3.211735261907818e+03, 7.069876365589403e+03, -1.013343217281225e+04, 1.038215465610624e+04, 2.284258766341194e+04, -5.546164619690890e+03, 4.600466157215887e+04
60, 8.703994777155918e-01, 2.000000000000000e+00, 2.522027824345807e-02, -4.062200161805696e-05, -7.623360900224641e-04, 4.230500700649260e-02, 4.952591322029913e+02, 1.577903023917914e+04, -6.668625173542857e+03, 8.636242605974223e+03, 2.673615534327843e+04, -7.495855563209465e+03, 5.120435125827423e+04
61, 8.348190149083721e-01, 2.000000000000000e+00, 3.132730271608058e-02, -5.321252035984936e-05, -9.272344138478560e-04, 4.222698951990990e-02, -3.873517584535561e+03, 1.413186590242359e+04, -1.382577506585385e+04, -2.373038877628933e+02, 2.824918930780570e+04, -4.766639133855018e+03, 5.751185327014612e+04
62, 7.982311241441487e-01, 2.000000000000000e+00, 3.725994558933777e-02, -6.542221492739086e-05, -1.087225455664758e-03, 4.214726293245702e-02, 6.131087856499113e+03, 1.485617100610750e+04, -1.516908608146075e+04, -1.508200895488037e+03, 2.785292880219563e+04, 2.906566755962095e+02, 5.673670001241539e+04
63, 7.606838525419615e-01, 2.000000000000000e+00, 4.298771954318962e-02, -7.726018327861017e-05, -1.241513870943053e-03, 4.206586300517906e-02, 1.598801971784599e+04, 1.250118902585347e+04, -1.903664314290358e+04, 7.186745528931498e+03, 2.760049737378968e+04, -1.540944298504968e+03, 5.863956943002137e+04
64, 7.222098785286808e-01, 2.000000000000000e+00, 4.848004292192968e-02, -8.888600617945608e-05, -1.389139886935203e-03, 4.198271023549438e-02, 2.873270643593311e+04, 2.844845275812420e+04, -2.161805902930737e+04, 7.933795751492651e+03, 2.176672099466806e+04, -4.141969619664519e+02, 5.701464595600976e+04
65, 6.828309868320699e-01, 2.000000000000000e+00, 5.370446145920185e-02, -9.995412157614431e-05, -1.529322330143119e-03, 4.189772408030334e-02, 4.639550771283999e+04, 3.428689639452267e+04, -3.708313858395255e+04, 1.424957474302605e+04, 1.926067327319111e+04, 4.084409198137068e+03, 7.796911035002848e+04
66, 6.425603851926897e-01, 2.000000000000000e+00, 5.862376444207488e-02, -1.106144571813260e-04, -1.661060091150308e-03, 4.181077527309629e-02, 3.872910886411115e+04, 4.639714390225298e+03, -4.822501021573656e+04, 2.425582704597981e+03, 1.780636896302161e+04, 1.001782386607207e+04, 9.732262401963056e+04
67, 6.014043929749189e-01, 2.000000000000000e+00, 6.319535251865176e-02, -1.204573340763825e-04, -1.783218847510842e-03, 4.172209695543005e-02, 4.059518917098677e+04, 1.235001449953030e+04, -5.909815293132314e+04, 8.281080114318573e+03, 1.679259597708167e+04, 4.644215593861420e+03, 1.109852646785451e+05
68, 5.593632358333845e-01, 2.000000000000000e+00, 6.736833829799291e-02, -1.293308473861443e-04, -1.894524110147719e-03, 4.163173579537627e-02, 3.103952898332394e+04, 8.210682610660464e+03, -4.738681332210425e+04, 9.407274019361317e+03, 1.346241755026360e+04, 3.504957819474066e+03, 8.838758811948457e+04
69, 5.164315576230488e-01, 2.000000000000000e+00, 7.108055960044712e-02, -1.373440021276116e-04, -1.992988178436829e-03, 4.153942518768086e-02, 4.766165920070051e+04, 1.731913262402541e+04, -3.797192102222584e+04, 1.936831599432681e+04, 1.086784726317055e+04, 6.445352690506438e+03, 7.528113346213539e+04
70, 4.725988298299815e-01, 2.000000000000000e+00, 7.425613733419331e-02, -1.443953978300613e-04, -2.077188628189267e-03, 4.144552947636123e-02, 4.517881777617978e+04, -3.744770212805195e+03, -3.694608349032883e+04, 1.869173576790327e+04, 1.232288941819697e+04, 9.639540646205394e+03, 8.141622802671259e+04
71, 4.278495429484783e-01, 2.000000000000000e+00, 7.680104631535864e-02, -1.500487026163747e-04, -2.144257907978259e-03, 4.134959610414096e-02, 4.805470700008405e+04, 1.346635246434753e+03, -3.143562958794591e+04, 1.725826401088686e+04, 9.375672334111901e+03, 2.716378446405082e+03, 7.029981971774985e+04
72, 3.821630384685604e-01, 2.000000000000000e+00, 7.857058151125020e-02, -1.542773353689214e-04, -2.190208834178101e-03, 4.125166012480605e-02, 7.392073463542324e+04, 1.285714540575928e+04, -3.307709623494453e+04, 1.582015181014670e+04, 9.367637811984800e+03, 4.087915631815303e+03, 8.457117413028296e+04
73, 2.887856952611400e-01, 2.000000000000000e+00, 7.846487372933268e-02, -1.549895049954425e-04, -2.183665224496756e-03, 4.105220629223957e-02, 4.744859718065162e+04, 4.714663069314843e+03, -1.260486828499403e+04, 1.896413910666149e+04, 9.791682879777012e+03, 5.486820788715329e+03, 4.769586358661389e+04
74, 2.436331012289115e-01, 2.000000000000000e+00, 7.628829808893166e-02, -1.505682741143322e-04, -2.123294561244876e-03, 4.095599598406029e-02, 3.893275103083099e+04, 3.612745878288471e+03, -6.598167131310444e+03, 1.628672826117650e+04, 1.249734873732757e+04, 3.898925006774138e+03, 4.006558278424462e+04
75, 2.001440438813817e-01, 2.000000000000000e+00, 7.261966466821279e-02, -1.428617960518592e-04, -2.022401276546737e-03, 4.086376931290091e-02, 2.985091572771136e+04, -6.104939326471690e+03, -4.234239405427655e+03, 1.245575777103509e+04, 1.048380911731318e+04, 4.944111848259568e+03, 3.777310010624989e+04
76, 1.584403550861912e-01, 2.000000000000000e+00, 6.737473987924814e-02, -1.317731923404439e-04, -1.879046742614729e-03, 4.077574167080191e-02, 3.163939639002021e+04, 8.764833040034264e+03, 7.418015249522375e+02, 1.939180338049377e+04, 8.995718074738967e+03, 6.932047726300812e+03, 2.795836793135860e+04
77, 1.187045466097547e-01, 2.000000000000000e+00, 6.041046996249730e-02, -1.168962511478716e-04, -1.689084258497592e-03, 4.069247195880640e-02, 1.797384165563463e+04, 2.184975987866541e+03, 2.605778050359401e+03, 1.927907193060998e+04, 7.521709397985237e+03, 5.742704494077223e+03, 2.367772264994957e+04
78, 8.123277220709731e-02, 2.000000000000000e+00, 5.146329198161349e-02, -9.754019520892554e-05, -1.445527575709281e-03, 4.061452265987928e-02, 8.951731244498133e+03, 5.343050709581676e+03, 3.500349006334720e+03, 1.410414293955371e+04, 7.389725498182398e+03, 6.253991217371806e+03, 1.939283388329439e+04
79, 4.659006783432578e-02, 2.000000000000000e+00, 3.997510872324379e-02, -7.259537581140191e-05, -1.133128097886835e-03, 4.054359442208411e-02, 2.728535141146676e+01, -3.452506216487100e+02, 2.656930762156787e+03, 5.283971458678117e+03, 4.338718447676218e+03, 6.430838403281476e+03, 1.521342041725854e+04
80, 1.630188419265100e-02, 2.000000000000000e+00, 2.443832067959863e-02, -3.878962112977002e-05, -7.110103128295173e-04, 4.048360162283826e-02, -2.205058405579768e+04, -9.237618054470344e+03, 8.989075100011239e+02, -6.426035125176453e+03, 2.085572130261887e+03, 7.435420437348375e+03, 1.973401078111138e+04
81, 2.006880193853867e-02, 2.000000000000000e+00, -2.057940481579853e-02, 5.880495334704104e-05, 5.098193568847109e-04, 4.050840902831485e-02, -2.311780028751084e+04, -9.126041426157026e+02, -1.012408120028198e+02, -2.735768329672188e+03, 4.409722426565398e+03, 5.934746757290784e+03, 2.489864066715130e+04
82, 5.180751442251835e-02, 2.000000000000000e+00, -3.044804663937191e-02, 7.994235718068038e-05, 7.766802427938563e-04, 4.058091865353275e-02, -1.855102333419981e+04, 1.275887145276148e+04, 6.747799565793863e+02, 4.371125327347561e+03, 7.837295573428685e+03, 5.903873565424311e+03, 3.283667320030055e+04
83, 8.698086041529188e-02, 2.000000000000000e+00, -3.617717849942715e-02, 9.208919785153730e-05, 9.311263166088685e-04, 4.065928509524119e-02, -1.957844855636556e+04, 1.808875448377096e+04, 1.380235286034173e+03, 7.190520672114872e+03, 6.807621413982962e+03, 5.396438673783435e+03, 3.686725683693295e+04
84, 1.244462868952564e-01, 2.000000000000000e+00, -3.962530700516512e-02, 9.916775576520546e-05, 1.023702122479191e-03, 4.074164726153744e-02, -2.323401342177746e+04, 2.515192191163156e+04, 4.401057113360577e+03, 1.202627606768722e+04, 4.442879639365124e+03, 5.088694335062126e+03, 4.553454233455184e+04
85, 1.638080575324726e-01, 2.000000000000000e+00, -4.153749734933101e-02, 1.029024098886196e-04, 1.074585455840008e-03, 4.082753771924723e-02, -1.700383987058870e+04, 2.230486457443968e+04, 8.427464156394211e+03, 1.091517670616801e+04, 9.621670955697946e+03, 8.275515739379887e+03, 4.385697156972307e+04
86, 2.048724553968088e-01, 2.000000000000000e+00, -4.231773215995981e-02, 1.041614253027290e-04, 1.094865129192386e-03, 4.091642815367412e-02, -7.313879836302449e+03, 3.202827307121929e+04, 1.278234165332930e+04, 1.260304152935100e+04, 9.929100700044703e+03, 6.350705137543223e+03, 4.547344774771393e+04
87, 2.475312729303336e-01, 2.000000000000000e+00, -4.223072461887111e-02, 1.036376504863160e-04, 1.091701341415605e-03, 4.100822726844791e-02, -1.514146220912382e+04, 1.844086918509202e+04, 1.626448029312448e+04, 8.018395864374576e+03, 1.172183589159268e+04, 5.671529600357019e+03, 4.678346920265820e+04
88, 2.917226135216736e-01, 2.000000000000000e+00, -4.147430612177688e-02, 1.015987913874456e-04, 1.070299761267185e-03, 4.110285127855745e-02, -1.307060488204745e+04, 1.036537975655894e+04, 2.270958706626072e+04, 7.803411891319731e+03, 1.088329581003905e+04, 7.245319927334813e+03, 5.055457660354934e+04
89, 3.864717608851156e-01, 2.000000000000000e+00, -3.850768088570469e-02, 9.451393660438873e-05, 9.882883558622463e-04, 4.130433991132262e-02, -1.002272778962972e+04, 4.985521609898584e+03, 3.649704989025834e+04, 2.099599841224565e+03, 1.141601043856566e+04, 3.515678936383237e+03, 6.792954652483031e+04
90, 4.344666857105547e-01, 2.000000000000000e+00, -3.658322175567579e-02, 9.019573005287357e-05, 9.352285267597033e-04, 4.140579874479633e-02, -1.168518969901804e+02, 2.059447665440350e+04, 3.763948483902244e+04, 5.285879403274687e+02, 1.392223751797721e+04, 3.862687912416091e+03, 7.274920913319003e+04
91, 4.814409163794267e-01, 2.000000000000000e+00, -3.434691529448138e-02, 8.531697134979421e-05, 8.736364093129834e-04, 4.150468369337085e-02, 9.633877986495376e+03, 1.894230072616205e+04, 3.834256027548295e+04, 5.707043103398995e+03, 1.585660277733451e+04, 1.629611263423499e+04, 7.810288475168405e+04
92, 5.274267894792861e-01, 2.000000000000000e+00, -3.188848022063992e-02, 8.003812213605577e-05, 8.057589254370084e-04, 4.160107167878974e-02, 9.259004675918486e+03, -7.210023767484063e+02, 4.076784779861456e+04, 4.884479156608853e+03, 1.413724875509118e+04, 8.242910972448228e+03, 7.658037354399428e+04
93, 5.724477020551272e-01, 2.000000000000000e+00, -2.928622693271679e-02, 7.447162422148613e-05, 7.345570341651189e-04, 4.169546178631509e-02, 1.857210883082198e+04, 7.553730462959156e+03, 4.308914633033038e+04, 8.294285506102808e+03, 1.738635412430992e+04, 6.608847067563161e+03, 8.198599557416279e+04
94, 6.165185641349364e-01, 2.000000000000000e+00, -2.659782972370934e-02, 6.880657430581236e-05, 6.605705115016736e-04, 4.178767273994310e-02, 1.098710455544120e+04, 7.039361188169541e+03, 3.329595252668271e+04, -1.776539964829946e+03, 1.945392458115954e+04, -9.208588450450188e+02, 6.776340131649032e+04
95, 6.596461271309236e-01, 2.000000000000000e+00, -2.386476730977874e-02, 6.298129837133820e-05, 5.853531177781382e-04, 4.187781206076979e-02, 4.046610322191166e+03, -3.085923243089194e+03, 2.267970716001377e+04, 1.416567923659246e+03, 2.222559252133774e+04, -4.983577166220331e+03, 5.602301005723343e+04
96, 7.018289552756057e-01, 2.000000000000000e+00, -2.111620142603152e-02, 5.710623728681641e-05, 5.090795001369691e-04, 4.196589488073138e-02, 7.708877400202322e+03, 2.923042713755908e+03, 4.390143190602716e+03, 3.830494382176726e+03, 2.119019228540316e+04, 3.652112367524222e+03, 3.826606018026479e+04
97, 7.430567730392229e-01, 2.000000000000000e+00, -1.837184513349673e-02, 5.115453199138614e-05, 4.332466970806415e-04, 4.205168242272302e-02, 7.696762220132607e+03, -5.559560153385002e+03, -1.634235507226762e+02, 1.222645262288960e+03, 2.549189377255164e+04, -7.295179197887519e+02, 4.563998189161858e+04
98, 7.833091990281366e-01, 2.000000000000000e+00, -1.564439579594513e-02, 4.552172109266450e-05, 3.574632195274749e-04, 4.213561246726628e-02, 2.242434396504215e+04, 2.079110268733337e+03, 2.704307404188794e+03, 7.397763372797968e+03, 3.102546608102476e+04, -1.438717166160348e+03, 5.700785523191624e+04
99, 8.225531245137295e-01, 2.000000000000000e+00, -1.294120679087515e-02, 4.002600800999401e-05, 2.824793021800331e-04, 4.221757393053970e-02, 2.184336412998153e+04, 6.946398663582306e+03, 3.092415324825227e+03, 5.241087784932116e+03, 2.932590438459280e+04, -9.831306309199842e+02, 5.349622754575783e+04
100, 8.607380472886944e-01, 2.000000000000000e+00, -1.026647088428878e-02, 3.462739471127990e-05, 2.080627516962835e-04, 4.229774558494220e-02, 2.643830597335861e+04, 9.567601904165698e+03, 4.642871041603166e+03, 5.368697822416093e+03, 2.813576682332431e+04, -4.318417424797843e+03, 5.355902337941604e+04
101, 8.977869248831107e-01, 2.000000000000000e+00, -7.623306740415189e-03, 2.925642461096972e-05, 1.344838008915106e-04, 4.237603099988252e-02, 1.456210639929667e+04, 1.534438970081151e+03, 2.015648105498700e+03, 8.739653291130207e+03, 2.941830844798476e+04, 1.346872001271702e+02, 5.230986184010808e+04
102, 9.335760417539527e-01, 2.000000000000000e+00, -5.016544368244768e-03, 2.381733992670547e-05, 6.168784766857893e-05, 4.245231646348779e-02, 7.797202382624397e+03, 2.151722831035689e+03, -3.838895062963382e+03, 8.801941998888293e+03, 2.349263019705089e+04, 4.240817995235621e+03, 4.233708960790555e+04
103, 9.678783239300335e-01, 2.000000000000000e+00, -2.458651358733690e-03, 1.827691570027712e-05, -9.918283458698607e-06, 4.252584271000825e-02, 2.912220419558394e+03, 4.403141450961602e+03, 9.524360144980795e+02, 4.822201917244010e+03, 1.086274411380283e+04, 1.094771878341391e+04, 2.681976724492675e+04
104, 9.700091932207499e-01, 2.006272133682530e+00, 3.840447379824982e-19, 1.288956372647032e-05, -7.969294197399113e-05, 4.270126889407372e-02, -9.085160777513820e+02, 2.265680300354495e+03, 1.615642349862191e+03, 5.791859511646114e+02, 1.387038264781262e+04, -4.323592300217645e+03, 2.546841804501152e+04
105, 9.382433450551674e-01, 2.012621344199231e+00, 7.728089150078681e-19, 1.285860684843015e-05, -8.056903031192220e-05, 4.280598675174430e-02, 9.424023126120530e+03, -3.980536756219544e+03, 1.260643698906320e+03, 9.908021985845855e+03, 2.736603308137313e+04, 2.984222567939779e+03, 4.964461695569656e+04
106, 9.050574667212357e-01, 2.018943929806960e+00, 1.159942840398406e-18, 1.275661498370551e-05, -8.144393841937742e-05, 4.290690797931496e-02, 1.961517598025556e+04, 2.239160484741888e+03, 3.382577658615488e+03, 1.468367612874509e+04, 4.005467754329001e+04, -2.771520783753882e+03, 7.149165576453427e+04
107, 8.706596779026837e-01, 2.025174371071047e+00, 1.541434738354332e-18, 1.268618564166657e-05, -8.231117230647622e-05, 4.300301217236668e-02, 1.414378530900724e+04, 1.963353711750700e+04, 4.946935338348842e+03, 6.432801628943093e+03, 4.532932674491584e+04, -3.332280740991558e+03, 8.001812552674473e+04
108, 8.351645595478382e-01, 2.031269599330860e+00, 1.914647501102527e-18, 1.241722785115529e-05, -8.317259372779898e-05, 4.309352682894602e-02, 2.244614737316241e+04, 1.433341258898318e+04, 3.461952416476995e+03, -5.624918042912069e+03, 4.402047569200434e+04, -9.848753934942929e+02, 8.048813697133897e+04
109, 7.986443932742444e-01, 2.037194869339015e+00, 2.277453666107488e-18, 1.213845129828528e-05, -8.397867118359326e-05, 4.317744397279705e-02, 2.234343197369307e+04, 1.217771782274823e+04, 8.379554211173011e+02, -4.176354251696038e+03, 4.684795528330863e+04, 2.416245706995945e+03, 8.450362252602732e+04
110, 7.611476149376654e-01, 2.042919178380374e+00, 2.627954927272102e-18, 1.197522726145706e-05, -8.480591656903711e-05, 4.325377524154134e-02, 2.427436541257474e+04, 8.166994476364488e+03, 2.277963209914712e+03, 1.065263186955690e+04, 4.365754578569045e+04, -3.372750627005039e+03, 7.741593059470435e+04
111, 7.227071182079762e-01, 2.048411508468502e+00, 2.964252043432668e-18, 1.185533803281513e-05, -8.503307974187108e-05, 4.332187510867930e-02, 1.578508478793570e+04, 6.816547438824636e+03, -7.844173321225646e+02, 6.106833710905174e+03, 4.787720632511698e+04, -7.464708080130968e+03, 8.445706387357427e+04
112, 6.833447361573288e-01, 2.053638910676399e+00, 3.284327541321451e-18, 1.167385694672562e-05, -8.580648441547812e-05, 4.338043428478089e-02, 2.263636802752657e+04, 1.142347627740333e+03, 3.455866893851595e+01, 1.061870367167793e+04, 3.833285508076593e+04, -6.229834093066484e+03, 6.980521946107662e+04
113, 6.430736117832979e-01, 2.058563800413359e+00, 3.585880104509234e-18, 1.155872107860834e-05, -8.643237939202214e-05, 4.342887017858957e-02, 2.261221438756774e+04, 5.965468419396906e+03, -2.206174447763730e+03, 4.903352288177697e+03, 4.306579482901806e+04, -8.402972446424712e+03, 7.801501475410590e+04
114, 6.018998732711830e-01, 2.063143133148494e+00, 3.866274102694873e-18, 1.134759752932646e-05, -8.640731659305401e-05, 4.346543323503904e-02, 2.228749568063059e+04, 4.051906327477400e+03, 3.490715545398898e+03, 5.706307661428358e+03, 4.425274724549425e+04, -6.775374954703087e+03, 7.971382626738785e+04
115, 5.598234292327973e-01, 2.067325477049989e+00, 4.122360348476951e-18, 1.122336086789577e-05, -8.691135661335718e-05, 4.348923501004269e-02, 2.163650904376927e+04, 5.200572148839698e+03, 8.469498909807275e+03, 3.980881629712168e+03, 3.714150511058035e+04, -3.175225418753867e+03, 6.837830089544095e+04
116, 5.168384858632473e-01, 2.071048090663230e+00, 4.350297162656987e-18, 1.103803544876686e-05, -8.717185336866440e-05, 4.349841283484331e-02, 2.739610312977781e+04, 1.751649907892505e+03, 5.109363019882070e+03, 8.471057512578711e+03, 3.192323823982770e+04, -2.700288008243872e+02, 6.054987880109468e+04
117, 4.729339340787210e-01, 2.074234341266622e+00, 4.545392299346189e-18, 1.086606909371729e-05, -8.690584999590870e-05, 4.349118207270964e-02, 2.344768011200952e+04, 2.844258089904692e+03, 4.467001971912186e+03, 1.142097560509754e+04, 2.785670513875761e+04, -5.438646405838750e+03, 5.289554196171885e+04
118, 4.280935218130071e-01, 2.076789206764179e+00, 4.701827525419687e-18, 1.070946141470096e-05, -8.666695380436622e-05, 4.346449498185379e-02, 2.601524819756337e+04, 8.455818604494656e+03, 6.461920907526628e+03, 1.098412343458766e+04, 2.562958685975762e+04, 4.003502047672411e+03, 4.913563698052664e+04
119, 3.822956696975011e-01, 2.078566978719010e+00, 4.810681066996361e-18, 1.062463094048116e-05, -8.609626907246648e-05, 4.341442125087504e-02, 1.937449621164845e+04, 1.057318798661326e+04, 7.534585380582102e+03, 1.236809991672169e+04, 2.378476178198545e+04, 1.206426645437698e+03, 4.400804662305449e+04
120, 2.887856952588719e-01, 2.078464873729261e+00, 4.804429146036186e-18, 1.068952694175188e-05, -8.377604378516368e-05, 4.321041234326140e-02, 1.775466441312380e+04, 1.018662984248976e+04, 3.544923647657382e+03, 1.142036218122850e+04, 1.686295606890494e+04, 1.454397807117529e+02, 3.066432919686216e+04
121, 2.436331012187445e-01, 2.076288298088264e+00, 4.671156728059173e-18, 1.076037930677204e-05, -8.182727471572025e-05, 4.305402296911094e-02, 1.333830660299921e+04, 1.010434574583178e+04, 3.026379007961682e+03, 8.653871204554443e+03, 1.510930897057446e+04, 4.324615557071513e+03, 2.803053011744744e+04
122, 2.001440438703789e-01, 2.072619664667066e+00, 4.446525138187010e-18, 1.098892176331148e-05, -7.942805438937439e-05, 4.286059142580205e-02, 9.569873421151480e+03, 1.016991321046727e+04, 3.439457480117232e+03, 1.387835466561548e+04, 1.240778596743353e+04, 4.145512125095835e+03, 2.377483273665527e+04
123, 1.584403550725992e-01, 2.067374739877223e+00, 4.125376727038853e-18, 1.127867436071135e-05, -7.646383307272075e-05, 4.262812196320596e-02, 6.338266813749140e+03, 1.382583998610984e+04, 3.008493268292364e+03, 1.424273797404673e+04, 6.596007973575890e+03, 4.265243961290319e+03, 1.648062763005011e+04
124, 1.187045466020017e-01, 2.060410469960914e+00, 3.698952267576546e-18, 1.165021345563705e-05, -7.291628783412298e-05, 4.235326418175149e-02, -4.651743980492749e+03, 1.079430172542374e+04, 2.031032606713331e+03, 1.084340138830795e+04, 9.409136981519947e+03, 3.207577623045192e+03, 2.341319400565435e+04
125, 8.123277220246546e-02, 2.051463291980323e+00, 3.151113717385973e-18, 1.212600933865604e-05, -6.872533159210659e-05, 4.202936222212056e-02, -6.552638989348382e+03, 8.513617902469334e+03, 3.564482466177826e+02, 8.208956417418669e+03, 6.162491344627771e+03, 2.082621181959773e+03, 1.870339019776714e+04
126, 4.659006781207434e-02, 2.039975108714376e+00, 2.447688606318236e-18, 1.266908359598418e-05, -6.363254435343135e-05, 4.164263986720293e-02, -1.050953141602935e+04, 5.760513618731004e+03, -5.358015920072388e+02, 5.368245567353169e+03, 3.748390199784792e+03, 3.152071186467038e+03, 1.820179157107438e+04
127, 1.630188413089794e-02, 2.024438320636381e+00, 1.496366136403069e-18, 1.336846503854905e-05, -5.720859091226660e-05, 4.115550512187965e-02, -1.882477473550104e+04, -2.558870747319585e+03, 2.318673327162716e+02, -2.096673229615587e+03, 3.809771632563406e+03, 4.824838054356840e+03, 1.964313807297005e+04
128, 9.998754999590636e-01, 2.000026640108759e+00, -8.306616085862229e-18, 1.288736561524950e-05, -7.880035331275792e-05, 4.259522450659237e-02, 2.091482028692601e+02, -7.086452529395069e+03, 1.095459361527337e+03, -3.066048872691057e+03, 7.509731841154136e+03, 4.356865434533976e+04, 7.686045414095010e+04
129, 1.000000000000000e+00, 2.985074626860042e-02, -1.661650000000000e-17, -1.825722956257624e-05, 2.314528089488246e-05, -3.313172757635208e-05, 7.937803351182872e+04, 3.153597372536106e+06, -3.744832254901999e+05, 1.355843810294045e+04, 1.329527012343489e+05, -6.390601846937547e+05, 3.369931262869173e+06
130, 1.000000000000000e+00, 5.970149253720006e-02, -1.661650000000000e-17, -3.025422232106820e-05, 3.844647076102492e-05, -2.786111287167437e-05, 6.974611221081426e+04, 2.868027518536838e+06, -1.077647272020660e+05, 1.173657509328686e+06, 2.439548485114696e+05, -3.455751076516130e+05, 2.555698054074307e+06
131, 1.000000000000000e+00, 8.955223880579252e-02, -1.661650000000000e-17, -2.989169447019380e-05, 5.396315288321246e-05, 2.699921756088575e-05, -7.337261456933274e+04, 2.139524237243734e+06, 1.465677578100434e+05, -9.179739120505351e+05, -9.327201211555576e+04, 4.965008966507133e+05, 2.882596768445082e+06
132, 1.000000000000000e+00, 1.194029850743846e-01, -1.661650000000000e-17, -3.475800213358082e-05, 7.156675889561856e-05, 1.119160112347251e-04, 7.429845725735578e+04, 1.880982134711864e+06, 8.993962652916627e+04, -4.695069929580673e+05, 5.609960682557455e+05, -1.101479388139487e+06, 3.024979737324500e+06
133, 1.000000000000000e+00, 1.492537313429901e-01, -1.661650000000000e-17, -3.988253716621492e-05, 8.148022306188329e-05, 2.129698598183349e-04, 1.131778454897430e+04, 2.438689325307121e+06, 1.253376485715169e+05, 2.976959709480187e+05, 3.375583029606600e+05, -3.244150853661775e+05, 2.446160184442057e+06
134, 1.000000000000000e+00, 1.791044776116012e-01, -1.661650000000000e-17, -4.149622198153236e-05, 9.889527535936887e-05, 3.706461436081554e-04, 5.301666911103795e+04, 2.662894297191454e+06, -2.141833483906490e+04, 2.190209971136389e+05, 9.192624143556747e+04, -9.397670439349662e+04, 2.541454325450878e+06
135, 1.000000000000000e+00, 2.089552238802123e-01, -1.661650000000000e-17, -3.907371137812496e-05, 1.114710140671868e-04, 5.878143308426509e-04, 1.065562747681845e+05, 2.357914928849731e+06, -1.210432625486748e+03, -2.731367770442762e+04, 1.675323710463572e+05, 2.554674337500154e+05, 2.380739956423363e+06
136, 1.000000000000000e+00, 2.388059701488219e-01, -1.661650000000000e-17, -4.234271016756441e-05, 1.282714351849845e-04, 8.320254694900164e-04, 9.619117178834020e+04, 2.684163257678011e+06, -5.747302969584331e+03, 3.468560674319881e+05, 2.275123105365436e+05, 2.007474837183754e+04, 2.503659779161667e+06
137, 1.000000000000000e+00, 2.686567164174086e-01, -1.661650000000000e-17, -4.175638271186610e-05, 1.425715031570518e-04, 1.102737690167832e-03, 9.240704068592476e+04, 2.514927453068380e+06, -3.281517901895486e+04, 2.606716631631879e+04, 1.232662264046813e+05, 1.001625094016987e+05, 2.472372869868847e+06
138, 1.000000000000000e+00, 2.985074626859783e-01, -1.661650000000000e-17, -3.940014329623098e-05, 1.530322591473260e-04, 1.431708776686302e-03, 1.511977225598437e+05, 2.198701466011100e+06, -1.811842436110681e+05, -2.198714018843796e+05, 4.546241520559263e+05, 1.693473044774131e+05, 2.427817409493389e+06
139, 1.000000000000000e+00, 3.283582089545479e-01, -1.661650000000000e-17, -3.940930665818909e-05, 1.692876331082227e-04, 1.778495003964542e-03, 2.622756316910837e+04, 2.128390424374714e+06, 1.945616686957379e+04, 4.046063406121756e+04, 2.761435493923846e+05, -2.570848273396613e+04, 2.149710498523731e+06
140, 1.000000000000000e+00, 3.582089552231176e-01, -1.661650000000000e-17, -3.839153334465190e-05, 1.748876057534191e-04, 2.153969748046158e-03, -1.383004427165419e+05, 1.961262874317971e+06, -1.357869354787843e+05, 6.515220018441469e+04, 2.129031490987761e+05, 1.570449189686544e+05, 2.070672413082784e+06
141, 1.000000000000000e+00, 3.880597014916872e-01, -1.661650000000000e-17, -3.752618625851856e-05, 1.872917192699344e-04, 2.559160766200552e-03, -4.713108147677043e+04, 2.021992442131480e+06, -1.733048437407974e+05, -2.146676484182120e+05, 2.534624527666926e+05, 2.674132198218324e+05, 2.270100735831051e+06
142, 1.000000000000000e+00, 4.179104477602568e-01, -1.661650000000000e-17, -3.616185167659713e-05, 1.975558204269368e-04, 2.988543921787601e-03, -4.302649543455665e+04, 1.970169187040113e+06, -8.977572325093315e+02, -3.858315356502606e+05, 1.638881686118664e+05, 2.524945770800247e+05, 2.265490394180962e+06
143, 1.000000000000000e+00, 4.477611940288265e-01, -1.661650000000000e-17, -3.362515276447708e-05, 2.069555150508717e-04, 3.436288313468955e-03, 5.340681520282530e+04, 1.883502221070161e+06, -2.274374079864272e+04, -3.651477906487414e+05, 1.973020692326391e+05, -1.440477183297150e+05, 2.114478044862333e+06
144, 1.000000000000000e+00, 4.776119402973962e-01, -1.661650000000000e-17, -3.422333668206060e-05, 2.160057030999932e-04, 3.911511532142059e-03, -8.493868423173862e+04, 1.841007157046887e+06, 1.007820257131405e+04, -4.691939599440928e+03, 1.769610823818182e+05, -2.547867543375441e+04, 1.912420955935645e+06
145, 1.000000000000000e+00, 5.074626865659658e-01, -1.661650000000000e-17, -3.340216692183928e-05, 2.221431506650925e-04, 4.412254505663793e-03, 2.557247844683810e+04, 1.998243720310977e+06, -5.306422668743088e+04, -6.094466815876222e+03, 2.876953904536115e+05, -1.709826435425069e+05, 2.073490207076572e+06
146, 1.000000000000000e+00, 5.373134328345355e-01, -1.661650000000000e-17, -3.238644575492833e-05, 2.330612482382404e-04, 4.929555716951528e-03, 6.221475637444308e+04, 1.941360345455285e+06, 3.666736678587919e+04, 1.999665926808317e+03, 8.793518050638265e+04, 1.276303313568844e+05, 1.929784107979513e+06
147, 1.000000000000000e+00, 5.671641791031051e-01, -1.661650000000000e-17, -3.188246246057418e-05, 2.380457250068940e-04, 5.477561840988993e-03, 1.270476009511805e+04, 1.766796043218528e+06, 4.194258298150653e+04, 3.043803221757009e+05, 6.741841608262603e+04, -4.166593807777649e+04, 1.635361343119415e+06
148, 1.000000000000000e+00, 5.970149253716749e-01, -1.661650000000000e-17, -2.819110548445136e-05, 2.427668848284902e-04, 6.054847778818928e-03, -4.831592030289656e+03, 1.625331707079607e+06, -1.438567635939220e+04, -6.032810174617570e+04, 1.908044859264962e+05, 1.468490690076844e+05, 1.710413535824096e+06
149, 1.000000000000000e+00, 6.268656716402444e-01, -1.661650000000000e-17, -2.628202552766579e-05, 2.467554569151867e-04, 6.667596787332641e-03, 2.456106779505417e+04, 1.620780140627034e+06, -8.127295303834682e+03, 2.126259824427316e+05, 2.896803292208862e+05, 5.059241752247660e+05, 1.817391259011909e+06
150, 1.000000000000000e+00, 6.567164179088141e-01, -1.661650000000000e-17, -2.424466754598342e-05, 2.476791792289657e-04, 7.287610886817619e-03, -1.264237900223856e+05, 1.424988559921904e+06, -5.620017274537514e+04, 8.661882441457620e+04, 1.906955483091359e+04, 5.451822038356910e+03, 1.460275994847778e+06
151, 1.000000000000000e+00, 6.865671641773838e-01, -1.661650000000000e-17, -2.172148246028932e-05, 2.510401575663776e-04, 7.924592116559298e-03, -4.815069957541872e+04, 1.535567411036233e+06, -6.712311190362184e+04, 2.187110136066625e+04, 1.278205562616207e+05, 2.894852811446541e+05, 1.648061684667087e+06
152, 1.000000000000000e+00, 7.164179104459534e-01, -1.661650000000000e-17, -1.845886651404699e-05, 2.533235267573597e-04, 8.577176154238975e-03, -6.452039544191647e+04, 1.326179004614076e+06, -1.817348702560026e+04, -2.655617792198770e+05, 2.856421013440344e+04, 7.915435947450064e+04, 1.508736358075579e+06
153, 1.000000000000000e+00, 7.462686567145230e-01, -1.661650000000000e-17, -1.548436746295900e-05, 2.554264435893489e-04, 9.246701457265305e-03, -5.208200937646396e+04, 1.207240944093686e+06, 3.020250913642638e+04, -4.097108738531925e+05, 9.557973426787561e+04, 1.787758096191756e+05, 1.513336824867564e+06
154, 1.000000000000000e+00, 7.761194029830928e-01, -1.661650000000000e-17, -1.433099466113461e-05, 2.543949569285692e-04, 9.918455829115019e-03, 4.104915930438331e+04, 1.226892411610385e+06, -1.007720797663710e+05, 2.400781796505729e+04, 2.278905492568995e+04, 7.744053782627960e+04, 1.215210745485248e+06
155, 1.000000000000000e+00, 8.059701492516623e-01, -1.661650000000000e-17, -1.248676810958887e-05, 2.549768806295039e-04, 1.060987087696186e-02, 1.380618524988036e+04, 1.239345466484406e+06, -6.810847464524482e+04, -1.356248855919862e+05, 5.511613842046187e+04, 1.660194911890698e+05, 1.346524004761193e+06
156, 1.000000000000000e+00, 8.358208955202320e-01, -1.661650000000000e-17, -1.084073971509281e-05, 2.544496719155964e-04, 1.131682127476627e-02, -1.180134042758618e+04, 1.104008169119385e+06, -4.034323399622150e+04, -2.813766384540231e+04, 6.338677818770825e+04, 1.469740589939796e+05, 1.159856225859598e+06
157, 1.000000000000000e+00, 8.656716417888017e-01, -1.661650000000000e-17, -9.096956967706571e-06, 2.528009486384569e-04, 1.202848610618040e-02, -6.030135801421724e+04, 9.608128738058041e+05, 1.560015482633031e+04, -1.802552804736161e+05, 2.067064458845803e+04, -8.760263215437037e+03, 1.087102581679599e+06
158, 1.000000000000000e+00, 8.955223880573714e-01, -1.661650000000000e-17, -7.273167108671108e-06, 2.508045506659923e-04, 1.275263677578165e-02, -1.152299411409593e+04, 9.933470136497297e+05, -3.061645391135435e+04, -1.338116556616008e+05, 4.666588767522997e+04, 1.166238494790091e+05, 1.094418129096369e+06
159, 1.000000000000000e+00, 9.253731343259410e-01, -1.661650000000000e-17, -5.747187942446719e-06, 2.474748931547942e-04, 1.349042648568261e-02, 1.093483301910125e+04, 7.596395608388912e+05, -1.267914524233920e+04, -1.061665560424344e+05, 5.266113837499000e+04, 1.033407126505715e+05, 8.383231153528725e+05
160, 1.000000000000000e+00, 9.552238805945107e-01, -1.661650000000000e-17, -4.703228595165365e-06, 2.426001371903241e-04, 1.423582305651705e-02, 4.009554616527427e+04, 8.358041962036897e+05, -5.618674063417172e+04, 1.063585078769704e+05, 1.099082828713381e+05, 1.185445363891865e+05, 8.201742417030890e+05
161, 1.000000000000000e+00, 9.850746268630813e-01, -1.661650000000000e-17, -3.057705927664300e-06, 2.386922906737685e-04, 1.498791432011837e-02, 5.119771905985330e+04, 8.720183005614575e+05, 3.901099892176626e+03, 5.075502181720018e+04, 7.599001243421008e+04, 1.235521812346848e+05, 8.586469147324351e+05
162, 1.000000000000000e+00, 1.014925373131734e+00, -1.661650000000000e-17, -1.961506223393476e-06, 2.344002020743807e-04, 1.574598726913784e-02, 5.427222939384156e+04, 9.095994036607584e+05, -1.639000739503046e+03, 2.068554248127899e+05, 4.198563106926112e+04, 5.789044191929860e+04, 7.998174801799093e+05
163, 1.000000000000000e+00, 1.044776119400469e+00, -1.661650000000000e-17, -4.518504896008912e-07, 2.290601399528858e-04, 1.650878566453784e-02, 4.065463104024102e+04, 6.640929535833937e+05, -1.497564901359958e+04, 1.630452604750268e+05, 3.208638227258540e+04, 6.681650164936352e+04, 5.869468051954801e+05
164, 1.000000000000000e+00, 1.074626865669204e+00, -1.661650000000000e-17, 7.238031409645407e-07, 2.230694585015763e-04, 1.728128460337297e-02, 7.990128840691712e+03, 6.191994319652955e+05, -4.683026052884970e+04, 4.998628597172127e+04, 3.312318015184800e+04, 2.889686895224606e+04, 6.017040715379238e+05
165, 1.000000000000000e+00, 1.104477611937939e+00, -1.661650000000000e-17, 1.870135648451843e-06, 2.164760919574904e-04, 1.806335313014235e-02, -7.100705221247501e+04, 5.748567698429259e+05, -7.698469249707372e+04, 5.098444813908277e+04, 4.246665790966050e+04, 6.598906281495254e+04, 6.240880988249555e+05
166, 1.000000000000000e+00, 1.134328358206675e+00, -1.661650000000000e-17, 3.187626482201167e-06, 2.092712810401187e-04, 1.885496302696865e-02, -1.767965844645444e+04, 6.363058379178185e+05, -7.922849496031733e+04, 5.271365109434374e+04, 1.336401958253784e+05, 1.316690029454412e+05, 7.148683739499711e+05
167, 1.000000000000000e+00, 1.164179104475410e+00, -1.661650000000000e-17, 4.350319198181962e-06, 2.037541687480299e-04, 1.964859313454599e-02, -2.868465521740835e+04, 6.492722402182196e+05, 1.881337930117777e+04, -7.034598850742250e+04, 2.016355114259313e+04, 1.251441747752825e+04, 7.016816763874192e+05
168, 1.000000000000000e+00, 1.194029850744146e+00, -1.661650000000000e-17, 6.244983363490331e-06, 1.972449948947075e-04, 2.044745864463382e-02, -3.064767042803331e+04, 4.535896073967922e+05, 2.824583720741343e+04, -1.114577443343183e+05, -3.039764594060067e+04, 4.382450361391514e+04, 5.395132560326860e+05
169, 1.000000000000000e+00, 1.223880597012881e+00, -1.661650000000000e-17, 6.533244940518795e-06, 1.887778851290545e-04, 2.125423110133495e-02, 3.276147825208242e+04, 4.884813252942110e+05, 9.113570141781759e+02, 1.743012301743812e+05, 8.151464204815342e+04, 1.098283480833876e+05, 4.683319407360884e+05
170, 1.000000000000000e+00, 1.253731343281616e+00, -1.661650000000000e-17, 7.664942276691677e-06, 1.799090558668448e-04, 2.206260678469385e-02, -5.841381895314627e+04, 3.581096235685975e+05, -3.849562889046997e+04, 1.168188365330493e+04, 3.035390395640587e+04, 2.479057851865689e+04, 3.978218438893326e+05
171, 1.000000000000000e+00, 1.283582089550352e+00, -1.661650000000000e-17, 8.742691550087112e-06, 1.710634650275711e-04, 2.287497769247349e-02, 6.842343759554002e+03, 4.481016890378312e+05, -1.415701175837436e+04, 1.044838963015507e+05, -8.207726801088473e+03, 1.521400533363488e+03, 4.024534038790606e+05
172, 1.000000000000000e+00, 1.313432835819087e+00, -1.661650000000000e-17, 1.016359786983057e-05, 1.629004357387998e-04, 2.368926939777675e-02, -2.566079243296812e+04, 3.846834918933161e+05, 7.863121465127332e+03, -8.259668422260231e+04, -1.666186750995612e+04, 8.247507260431636e+04, 4.652012441401821e+05
173, 1.000000000000000e+00, 1.343283582087822e+00, -1.661650000000000e-17, 1.113473245745178e-05, 1.545099845478154e-04, 2.450686946041086e-02, -9.012006772752120e+03, 3.616643286773399e+05, 1.379026328574542e+04, -8.743110050157593e+03, 2.944271692025079e+04, 1.072531795142104e+05, 4.183087528220532e+05
174, 1.000000000000000e+00, 1.373134328356558e+00, -1.661650000000000e-17, 1.164381903709377e-05, 1.451395400804412e-04, 2.532424674287416e-02, -2.139045640613688e+04, 2.729849151048019e+05, 6.510088377299660e+03, -1.591915056285164e+04, -1.711108474952854e+04, 1.563812437242187e+04, 2.946444315903260e+05
175, 1.000000000000000e+00, 1.402985074625293e+00, -1.661650000000000e-17, 1.226507302483359e-05, 1.357584642126507e-04, 2.614389091444325e-02, -1.120322720210599e+04, 2.688836101917538e+05, 2.038833130110061e+04, -3.660302845996013e+04, -1.652335518113540e+04, 7.543046635390543e+04, 3.245663539434379e+05
176, 1.000000000000000e+00, 1.432835820894029e+00, -1.661650000000000e-17, 1.265511790318058e-05, 1.259456398936890e-04, 2.696634425049810e-02, -4.414952041725957e+03, 2.694929323035761e+05, -1.185665632525010e+04, 6.296715524049457e+04, 3.574708943387144e+03, 8.173812196604529e+04, 2.856795850551001e+05
177, 1.000000000000000e+00, 1.462686567162764e+00, -1.661650000000000e-17, 1.298295193316590e-05, 1.156762779060370e-04, 2.778937725434893e-02, -9.996499781648406e+03, 2.494016401241120e+05, -1.891996401984632e+04, 1.729042178186408e+05, -8.343742327471878e+02, 4.828660797109994e+04, 2.477231009353127e+05
178, 1.000000000000000e+00, 1.492537313431499e+00, -1.661650000000000e-17, 1.378054328078637e-05, 1.060670816408482e-04, 2.861219584915300e-02, -3.804925145169646e+04, 2.266314750139882e+05, -2.272840288308662e+02, -2.828781347172640e+03, -1.771824132566382e+04, 2.365486872099452e+04, 2.541550914437739e+05
179, 1.000000000000000e+00, 1.522388059700235e+00, -1.661650000000000e-17, 1.424715697773138e-05, 9.620952511132236e-05, 2.943644897384046e-02, -2.647510716294386e+04, 1.763179127172311e+05, 1.600385277865081e+04, -2.263390730332496e+03, -2.173800199446329e+04, 3.134302188754193e+04, 2.047788958838956e+05
180, 1.000000000000000e+00, 1.552238805968970e+00, -1.661650000000000e-17, 1.454973900912732e-05, 8.576218909017719e-05, 3.026170568017816e-02, -6.955692636927253e+03, 1.414509780110523e+05, 6.865292893316742e+03, 9.451641427172704e+03, 2.438376312150331e+03, 2.905346875398330e+04, 1.501676682838709e+05
181, 1.000000000000000e+00, 1.582089552237706e+00, -1.661650000000000e-17, 1.488735286836462e-05, 7.501156159370193e-05, 3.108573360096367e-02, -2.053935724866281e+04, 1.322266455687623e+05, 9.107427390705012e+03, 5.097769764555615e+03, -2.291256616417363e+03, 4.067071154730613e+04, 1.590758878200706e+05
182, 1.000000000000000e+00, 1.611940298506441e+00, -1.661650000000000e-17, 1.506593198827288e-05, 6.474295205420588e-05, 3.190978053255922e-02, -2.982049464142114e+04, 1.402704018033163e+05, -3.317339668403674e+03, -5.040362264295627e+04, -2.261731745722599e+04, 3.958269896608854e+04, 1.977968514707687e+05
183, 1.000000000000000e+00, 1.641791044775176e+00, -1.661650000000000e-17, 1.495587999145176e-05, 5.440901523129371e-05, 3.273461945057665e-02, -2.688128388694813e+04, 1.056669887550648e+05, 4.376299978315395e+03, -2.198582732220294e+04, -1.155195414957781e+04, 3.085932450875598e+04, 1.423334761391020e+05
184, 1.000000000000000e+00, 1.671641791043912e+00, -1.661650000000000e-17, 1.499397060346352e-05, 4.347463298848275e-05, 3.355838871084213e-02, -1.496751658116866e+04, 7.589907055132955e+04, -9.651233819172533e+02, -1.527361021469705e+03, -1.822239560106657e+04, 2.753404093953694e+04, 1.024179920593528e+05
185, 1.000000000000000e+00, 1.701492537312647e+00, -1.661650000000000e-17, 1.489962434336918e-05, 3.252656865823655e-05, 3.438255410708388e-02, -5.835704301433796e+03, 7.054277033073200e+04, 3.598450699532714e+01, 5.070502699769395e+04, 3.905861681346391e+03, 3.942703190626438e+04, 9.706325029407606e+04
186, 1.000000000000000e+00, 1.731343283581383e+00, -1.661650000000000e-17, 1.479390750711712e-05, 2.161046411236836e-05, 3.520657697496615e-02, -2.812433929392062e+03, 8.458588448796206e+04, 2.242087316434433e+03, 4.353933360487402e+04, 7.636044032858901e+03, 3.098010611205313e+04, 9.383600147984752e+04
187, 1.000000000000000e+00, 1.761194029850118e+00, -1.661650000000000e-17, 1.478212725002093e-05, 1.053100589025469e-05, 3.603004686887504e-02, -1.533494553912900e+04, 5.030777205110747e+04, -9.697630343270434e+03, 5.424469541297154e+03, -1.473050990272766e+04, 3.555229899447293e+04, 9.001227152913368e+04
188, 1.000000000000000e+00, 1.791044776118853e+00, -1.661650000000000e-17, 1.447855833613954e-05, -3.793270336414911e-07, 3.685329701186713e-02, -7.232227545082892e+03, 4.409030634381069e+04, -7.013561843734677e+03, 2.399664677909337e+04, 1.788026950779004e+03, 3.530524628661165e+04, 7.683126077274808e+04
189, 1.000000000000000e+00, 1.820895522387589e+00, -1.661650000000000e-17, 1.437380785379583e-05, -1.168566540955818e-05, 3.767538170906772e-02, -8.505880836098288e+03, 1.852007100735094e+04, -2.425140534410601e+03, 9.128496536053663e+03, 2.203142234557794e+03, 3.513272891144934e+04, 6.557376650724799e+04
190, 1.000000000000000e+00, 1.850746268656324e+00, -1.661650000000000e-17, 1.424231162994172e-05, -2.284797206941747e-05, 3.849689544470258e-02, -1.184629359462967e+04, 1.609328397086905e+04, -1.134449702602726e+03, -1.264050586427540e+04, 3.036454030000076e+03, 3.148206361309101e+04, 6.171160991748034e+04
191, 1.000000000000000e+00, 1.880597014925060e+00, -1.661650000000000e-17, 1.382966527294083e-05, -3.390047529902573e-05, 3.931748514498729e-02, -9.253296482225833e+03, 3.213762376575893e+04, -3.073369498960756e+03, 1.625699723331337e+04, 4.302228625281388e+03, 1.273929532755700e+04, 4.334538131955594e+04
192, 1.000000000000000e+00, 1.910447761193795e+00, -1.661650000000000e-17, 1.373892172290558e-05, -4.503484063896404e-05, 4.013725737981078e-02, -1.390761711830910e+04, 2.896603382292972e+03, 7.297590279831998e+03, -4.323771849848254e+02, -1.179725450304431e+04, 1.670944419258116e+04, 4.065008860428300e+04
193, 1.000000000000000e+00, 1.940298507462530e+00, -1.661650000000000e-17, 1.347598133236150e-05, -5.623665985815887e-05, 4.095704780304255e-02, -6.416579876038684e+03, 4.343271631587731e+03, 4.017703372010616e+03, 5.159085360574477e+03, -5.606434212519702e+03, 1.872503558565524e+04, 3.632934074594322e+04
194, 1.000000000000000e+00, 1.970149253731265e+00, -1.661650000000000e-17, 1.318950483619741e-05, -6.750646295706347e-05, 4.177646147490915e-02, 9.620816815711498e+02, -5.711888148923636e+03, 1.290176160632934e+03, 6.358895271092140e+03, 1.037116050677279e+04, 1.147458171817569e+04, 2.885065497462862e+04
195, 0.000000000000000e+00, 2.985074626860042e-02, 0.000000000000000e+00, 1.792478811221514e-05, 1.677183606231189e-05, -2.978291942595107e-05, 8.707538622154983e+05, 2.937860190671288e+06, 9.089510568241086e+05, 2.517552082392044e+05, -9.727663840860866e+05, -2.526209997053721e+06, 5.513459365450850e+06
196, 0.000000000000000e+00, 5.970149253720006e-02, 0.000000000000000e+00, 2.053126179181073e-05, 2.832520493363175e-05, -2.637190020361724e-05, 7.559453979720821e+04, 2.855540720735401e+06, 2.930427348073311e+05, 7.723734402690730e+05, -3.649054366537330e+05, -1.664555333950229e+06, 3.904602054940485e+06
197, 0.000000000000000e+00, 8.955223880579252e-02, 0.000000000000000e+00, 2.838973560849792e-05, 4.537211368788041e-05, 1.744578021932452e-05, 3.969628827376654e+05, 2.252633798769882e+06, 3.478621135476382e+05, 5.258317877936948e+05, -2.607262290492110e+05, -1.089392920675209e+06, 2.710769802237870e+06
198, 0.000000000000000e+00, 1.194029850743846e-01, 0.000000000000000e+00, 3.339597323199009e-05, 5.749111335963050e-05, 1.009430546496104e-04, 9.355230130219628e+04, 2.695199141428139e+06, 9.010156672880861e+04, -1.049884328323295e+05, -1.845518894367885e+05, -4.220132159533490e+05, 2.825833703073881e+06
199, 0.000000000000000e+00, 1.492537313429901e-01, 0.000000000000000e+00, 3.249915932247716e-05, 7.680567759045086e-05, 2.162364192476729e-04, -2.574306493776473e+05, 3.183221203553682e+06, 3.050299145049475e+05, -2.630379910613727e+05, -1.505987715894530e+05, -2.055570403064307e+05, 3.511600821935025e+06
200, 0.000000000000000e+00, 1.791044776116012e-01, 0.000000000000000e+00, 3.738410219331079e-05, 9.299391470908493e-05, 3.590959886945189e-04, 3.353620615452046e+05, 1.641207509209595e+06, 6.087822305800307e+05, 3.176923910393951e+05, -2.280966088647908e+05, -3.415564112819924e+05, 1.829352988691270e+06
201, 0.000000000000000e+00, 2.089552238802123e-01, 0.000000000000000e+00, 4.255041674947058e-05, 9.991527872383471e-05, 5.287634066888855e-04, 4.227119242115549e+05, 2.437194689190824e+06, 5.145907297905700e+04, 1.097705202138546e+05, -9.546652316068983e+04, -5.572613810469937e+05, 2.398623483930799e+06
202, 0.000000000000000e+00, 2.388059701488219e-01, 0.000000000000000e+00, 4.134982297196443e-05, 1.172784766183682e-04, 7.512065207239058e-04, 4.096699973989684e+05, 3.039825853851237e+06, -7.523070501736857e+04, -7.286625755493224e+05, -1.092230751299262e+05, -1.016771748659314e+05, 3.360252329843171e+06
203, 0.000000000000000e+00, 2.686567164174086e-01, 0.000000000000000e+00, 3.873707020383282e-05, 1.436994336075081e-04, 1.003635533891142e-03, 1.240724547465334e+05, 2.737719240802777e+06, 1.441148027161817e+05, -9.093669147491988e+05, -1.371270992941849e+03, 2.004929675834486e+04, 3.265533759202632e+06
204, 0.000000000000000e+00, 2.985074626859783e-01, 0.000000000000000e+00, 4.797335923751797e-05, 1.597586425772790e-04, 1.282647172990904e-03, -1.134998462106333e+05, 2.570647481292206e+06, 1.072621123376182e+04, -2.463863903924668e+05, -7.267354879423551e+04, 8.489915202738931e+04, 2.759856130080376e+06
205, 0.000000000000000e+00, 3.283582089545479e-01, 0.000000000000000e+00, 5.065372355614328e-05, 1.701766582260233e-04, 1.586478932066260e-03, -3.944157648567623e+04, 1.570032289696092e+06, -1.651979597682499e+05, 1.328379381945607e+05, -1.626063356070648e+05, 1.668460234820481e+05, 1.608574936418255e+06
206, 0.000000000000000e+00, 3.582089552231176e-01, 0.000000000000000e+00, 4.917019487138408e-05, 1.804006974327962e-04, 1.920024675867049e-03, -2.408365855694741e+05, 2.227949462895878e+06, -1.650352268546281e+05, 6.200355134691864e+05, -1.866398642638009e+05, 3.473787986796915e+05, 2.293234741757418e+06
207, 0.000000000000000e+00, 3.880597014916872e-01, 0.000000000000000e+00, 5.174753148378709e-05, 1.872032933582062e-04, 2.274317267598858e-03, -1.815198554795345e+03, 1.963216771199187e+06, -1.234378455572565e+05, 3.079848103114849e+05, -2.876081934203422e+05, 2.247810183271079e+05, 1.947820681816466e+06
208, 0.000000000000000e+00, 4.179104477602568e-01, 0.000000000000000e+00, 5.034638230823384e-05, 1.971149148382138e-04, 2.663672124907646e-03, -5.812791330640092e+04, 2.124817051357220e+06, -1.577167231090316e+04, -1.546908139087505e+05, -3.215851412509162e+05, -6.880085757178674e+04, 2.304465779814621e+06
209, 0.000000000000000e+00, 4.477611940288265e-01, 0.000000000000000e+00, 5.056416216381115e-05, 2.104693131613810e-04, 3.093790977004351e-03, -5.651282708680895e+04, 1.735200976558937e+06, 8.898862222300110e+04, -2.249808113452648e+05, -1.775791955776985e+04, 2.414824736980036e+04, 1.888628761321999e+06
210, 0.000000000000000e+00, 4.776119402973962e-01, 0.000000000000000e+00, 5.326479568619306e-05, 2.170796120646301e-04, 3.537740544657109e-03, -3.849026757140392e+04, 1.634219847628238e+06, -1.844961180878263e+05, 6.478773982567288e+04, -1.381090898105259e+05, 5.861438525558144e+04, 1.674967779380348e+06
211, 0.000000000000000e+00, 5.074626865659658e-01, 0.000000000000000e+00, 5.178861947300814e-05, 2.243174421489580e-04, 3.998063239465999e-03, -1.541462326669189e+05, 1.836282736300032e+06, -7.055204587223478e+04, 2.411092081990101e+05, -1.059968620383777e+05, 2.300456792459690e+05, 1.881145471735519e+06
212, 0.000000000000000e+00, 5.373134328345355e-01, 0.000000000000000e+00, 5.431719271706617e-05, 2.305333453544653e-04, 4.477173459288608e-03, 1.725123267537492e+05, 1.910881561591991e+06, -1.834274024738815e+05, 2.479636937051465e+05, -3.484080049070943e+05, 4.657453613867596e+05, 2.003076544947035e+06
213, 0.000000000000000e+00, 5.671641791031051e-01, 0.000000000000000e+00, 5.148815971300793e-05, 2.366163152207751e-04, 4.984093993342278e-03, -2.043493215542478e+05, 1.253634327054136e+06, -1.045252337220133e+05, -2.767706387642706e+05, -1.453827756429581e+05, 1.599391850386027e+05, 1.552248987645364e+06
214, 0.000000000000000e+00, 5.970149253716749e-01, 0.000000000000000e+00, 5.095566422394547e-05, 2.437698588457493e-04, 5.516510325698581e-03, -6.132408051063729e+04, 1.707678325703996e+06, -1.863017837611223e+05, -9.417667252292129e+03, -9.908015635576964e+04, -1.288333399831560e+05, 1.795441729352515e+06
215, 0.000000000000000e+00, 6.268656716402444e-01, 0.000000000000000e+00, 4.953256306174493e-05, 2.483494377071432e-04, 6.063434286575076e-03, 7.432972221570963e+02, 1.483234226202424e+06, -1.365035397797896e+05, -3.081280306699430e+04, -1.211110114593692e+05, 1.013218421662140e+04, 1.531590035970875e+06
216, 0.000000000000000e+00, 6.567164179088141e-01, 0.000000000000000e+00, 4.992279298943192e-05, 2.519873229802974e-04, 6.627940644168093e-03, -1.531330295974722e+05, 1.340828455633730e+06, 1.031336257962071e+05, 1.328499478342214e+05, -2.396516553312977e+04, -1.628035245399127e+04, 1.385960822114033e+06
217, 0.000000000000000e+00, 6.865671641773838e-01, 0.000000000000000e+00, 4.949548375912660e-05, 2.520242953275992e-04, 7.208633624946306e-03, -7.965258891618889e+04, 1.540440553136379e+06, 9.675490405329190e+04, 2.427064767040475e+05, -2.197312732637883e+05, -6.147148720921555e+04, 1.546166778704062e+06
218, 0.000000000000000e+00, 7.164179104459534e-01, 0.000000000000000e+00, 4.945522417142134e-05, 2.541573580538622e-04, 7.799745484193814e-03, -1.076492230444364e+05, 9.686098128223605e+05, -6.419550920924585e+04, 3.410516325873222e+04, -6.838409008397830e+04, 3.556267878392090e+04, 1.027642852888681e+06
219, 0.000000000000000e+00, 7.462686567145230e-01, 0.000000000000000e+00, 4.827978533449538e-05, 2.531582146288996e-04, 8.419653087363083e-03, -1.650988547231746e+05, 8.870545967420315e+05, 4.252312322217337e+04, -1.513788282655962e+05, -7.362462623641902e+04, 9.802195766112300e+04, 1.069247805097970e+06
220, 0.000000000000000e+00, 7.761194029830928e-01, 0.000000000000000e+00, 4.567078890879012e-05, 2.541712116315323e-04, 9.047567859613631e-03, -3.738262799744026e+04, 1.196152898323215e+06, 5.601443606999170e+04, -1.102136955564246e+04, -3.663540336487906e+04, 1.020762710098601e+05, 1.238743422436223e+06
221, 0.000000000000000e+00, 8.059701492516623e-01, 0.000000000000000e+00, 4.725163989306724e-05, 2.545279811268647e-04, 9.685888786713281e-03, 3.469852902887399e+04, 1.254281066514529e+06, -7.153792085007721e+03, -1.183042151655640e+05, -4.482887998522619e+04, 9.880090397727105e+03, 1.305322237879397e+06
222, 0.000000000000000e+00, 8.358208955202320e-01, 0.000000000000000e+00, 4.695277087904404e-05, 2.579530451151113e-04, 1.033518911675141e-02, 4.292294972821695e+04, 1.074866304820160e+06, -4.472998221691980e+04, -4.075700325771355e+04, -1.072153828582568e+05, 3.717031853926964e+05, 1.270133810696069e+06
223, 0.000000000000000e+00, 8.656716417888017e-01, 0.000000000000000e+00, 4.552415041944244e-05, 2.567580405145268e-04, 1.099989929314064e-02, 8.615417925540356e+04, 9.335518898875760e+05, -1.758778833841424e+05, -1.664429945189441e+05, -1.209834346666902e+05, 3.774439914384372e+05, 1.249015789713331e+06
224, 0.000000000000000e+00, 8.955223880573714e-01, 0.000000000000000e+00, 4.524092141720663e-05, 2.554418470595565e-04, 1.167438000769697e-02, -8.377217505788879e+04, 1.009430476857741e+06, 2.156647526101923e+04, -1.478989360744998e+05, -1.749526675837176e+04, 4.763629762884383e+05, 1.397278237150174e+06
225, 0.000000000000000e+00, 9.253731343259410e-01, 0.000000000000000e+00, 4.270585571809261e-05, 2.522372823374752e-04, 1.236467613191567e-02, -4.697142740166852e+04, 4.773256166889587e+05, 7.544594041485201e+03, 6.628710475268391e+04, 2.007676435956244e+04, 3.568244544869572e+05, 7.821028308223299e+05
226, 0.000000000000000e+00, 9.552238805945107e-01, 0.000000000000000e+00, 4.377968330269381e-05, 2.480293421932636e-04, 1.305999959459037e-02, -1.388841585633958e+05, 5.267696896484091e+05, 3.813145414743164e+04, 2.202626131041364e+05, -5.825051501728444e+04, 2.399616749761444e+05, 7.213183942356218e+05
227, 0.000000000000000e+00, 9.850746268630813e-01, 0.000000000000000e+00, 4.450733140874880e-05, 2.410281751170501e-04, 1.376328105198887e-02, -1.602443051378100e+05, 7.205028171236003e+05, -8.637430204733709e+04, 9.884475177696339e+03, -5.889597942433638e+04, 2.858840304012515e+05, 9.658134744564357e+05
228, 0.000000000000000e+00, 1.014925373131734e+00, 0.000000000000000e+00, 4.150495884090374e-05, 2.383859566553737e-04, 1.447738316101380e-02, -1.064237564422948e+04, 8.740829917845358e+05, -3.461505009873670e+04, -1.759048568888851e+05, 2.275855190967125e+04, 2.376309047824920e+05, 1.063398501869736e+06
229, 0.000000000000000e+00, 1.044776119400469e+00, 0.000000000000000e+00, 4.032015283882834e-05, 2.352058351189901e-04, 1.519815633865468e-02, -4.707333476456837e+04, 7.072850966746754e+05, 8.973996991911482e+04, -4.540530440093343e+04, -6.252768197417348e+04, 2.236035821178276e+05, 8.681507576972323e+05
230, 0.000000000000000e+00, 1.074626865669204e+00, 0.000000000000000e+00, 4.082979754867211e-05, 2.308237630590515e-04, 1.592803231554368e-02, -5.150617422472165e+04, 7.654673943901702e+05, 3.247463795255119e+04, 6.179223020544259e+04, -4.587505629893373e+04, 2.550152461339082e+05, 8.901102372515666e+05
231, 0.000000000000000e+00, 1.104477611937939e+00, 0.000000000000000e+00, 3.912372137255399e-05, 2.269780768759111e-04, 1.666815926372434e-02, 1.617397386248322e+04, 7.280394756051251e+05, -3.162533732481523e+04, -1.651366132845131e+05, 1.630350063780798e+04, 2.159927667882686e+05, 9.013608033800680e+05
232, 0.000000000000000e+00, 1.134328358206675e+00, 0.000000000000000e+00, 3.911807007738084e-05, 2.245659513146238e-04, 1.741537711749323e-02, -1.206787221310184e+05, 7.192988199555050e+05, 1.167022635183964e+05, 4.250926214225612e+03, -2.356891391537846e+04, 1.542788822536763e+05, 8.544953164665949e+05
233, 0.000000000000000e+00, 1.164179104475410e+00, 0.000000000000000e+00, 3.819176999115409e-05, 2.171081625247390e-04, 1.817082369567801e-02, -4.698447049707468e+04, 3.297684860069028e+05, -4.026172061905828e+04, 9.399665241314315e+04, -2.521322897195950e+04, 1.437381174956820e+05, 4.212546626859396e+05
234, 0.000000000000000e+00, 1.194029850744146e+00, 0.000000000000000e+00, 3.720839126780673e-05, 2.098915842938046e-04, 1.893220969659218e-02, -6.198368311711407e+04, 2.866530918674264e+05, 3.479628994216138e+04, 5.199233380559089e+04, 5.591257190026246e+03, 1.572156086267210e+05, 4.155457579850785e+05
235, 0.000000000000000e+00, 1.223880597012881e+00, 0.000000000000000e+00, 3.674752613981353e-05, 2.013384333208763e-04, 1.969711711694458e-02, -3.938566198638806e+04, 3.882860462047072e+05, -6.605271818176542e+04, 1.074905177613251e+05, 7.082567528090601e+03, 5.615907290012874e+04, 4.054156051659335e+05
236, 0.000000000000000e+00, 1.253731343281616e+00, 0.000000000000000e+00, 3.514760717850118e-05, 1.942952821899421e-04, 2.046603787130249e-02, -4.981874590811177e+04, 4.560163069199898e+05, -3.695177186006215e+04, -1.145517194462096e+05, 6.349138986667731e+02, 2.747884778230538e+04, 5.469610923330433e+05
237, 0.000000000000000e+00, 1.283582089550352e+00, 0.000000000000000e+00, 3.368405339714432e-05, 1.879633952061067e-04, 2.123832215062312e-02, 5.850997358379856e+03, 3.748591556478933e+05, 1.339497314050787e+04, -4.402357075633865e+04, -1.405103243472075e+04, 1.016718253285532e+05, 4.349720296812364e+05
238, 0.000000000000000e+00, 1.313432835819087e+00, 0.000000000000000e+00, 3.354712043028216e-05, 1.803576003405402e-04, 2.201528117601241e-02, -9.988367720891336e+04, 3.498428797795444e+05, 3.133926326361244e+04, 6.897405037435162e+04, -2.646400862062812e+04, 1.173640711726630e+05, 4.485505087585586e+05
239, 0.000000000000000e+00, 1.343283582087822e+00, 0.000000000000000e+00, 3.272410569219938e-05, 1.710821520829724e-04, 2.279598023162632e-02, -7.418269405245579e+04, 2.620026168411541e+05, -1.533803667761006e+04, 1.911567453449102e+04, -2.358015610533021e+04, 1.390593279158704e+05, 3.882601386014494e+05
240, 0.000000000000000e+00, 1.373134328356558e+00, 0.000000000000000e+00, 3.228015496856140e-05, 1.634020356513430e-04, 2.358096906259402e-02, -8.445993659526188e+04, 3.707880950737323e+05, 2.849689674864665e+03, -5.257795411412482e+04, -6.101862727113630e+02, 1.193518730730843e+05, 4.863261347788438e+05
241, 0.000000000000000e+00, 1.402985074625293e+00, 0.000000000000000e+00, 3.079285795066361e-05, 1.553043768620724e-04, 2.437028989715351e-02, -3.783262106807576e+04, 3.831051628224558e+05, 1.509623238099379e+04, -6.358357946610106e+04, -2.164945511000474e+04, 7.355524120961392e+04, 4.549859196397262e+05
242, 0.000000000000000e+00, 1.432835820894029e+00, 0.000000000000000e+00, 2.969733158392218e-05, 1.482927273668833e-04, 2.516231815501044e-02, -6.290863016221498e+03, 2.513455018218553e+05, 1.801453508720990e+04, -2.976394895044444e+04, -1.958282249252818e+04, 9.163726192949510e+04, 3.166878547359059e+05
243, 0.000000000000000e+00, 1.462686567162764e+00, 0.000000000000000e+00, 2.933744112480329e-05, 1.382152130947056e-04, 2.595705012837662e-02, -3.896412844942915e+04, 1.418792831976165e+05, -8.955261962602623e+03, 2.243514304733550e+04, -6.409684483234891e+03, 7.400355689517918e+04, 2.053386908542872e+05
244, 0.000000000000000e+00, 1.492537313431499e+00, 0.000000000000000e+00, 2.836344108153588e-05, 1.284399908531271e-04, 2.675323780918576e-02, -6.109503526376249e+04, 2.070139265484487e+05, -1.650160794510623e+04, 1.661590075477606e+04, -4.260430244085499e+03, 5.745695188243741e+04, 2.605027323355590e+05
245, 0.000000000000000e+00, 1.522388059700235e+00, 0.000000000000000e+00, 2.754630357400603e-05, 1.195769007260178e-04, 2.755028896132701e-02, -2.506289145492277e+04, 1.794059801013083e+05, 1.165617776973761e+04, -2.554332927425209e+04, -2.267899155250457e+04, 2.643108973287078e+04, 2.143651132116979e+05
246, 0.000000000000000e+00, 1.552238805968970e+00, 0.000000000000000e+00, 2.694058040338468e-05, 1.097872152074283e-04, 2.834969463101744e-02, -1.667906452524306e+04, 1.299355890339144e+05, 1.277769737894862e+04, -2.470986399740914e+04, -2.688552295398407e+04, 2.558591702314462e+04, 1.654085952876872e+05
247, 0.000000000000000e+00, 1.582089552237706e+00, 0.000000000000000e+00, 2.617693132917626e-05, 9.993152860063303e-05, 2.915078234672863e-02, -2.699995932406447e+04, 1.682961328425986e+05, -1.325654934036366e+04, 8.805204456369431e+03, -7.859134114614393e+03, 3.447087020245930e+04, 1.915912152189832e+05
248, 0.000000000000000e+00, 1.611940298506441e+00, 0.000000000000000e+00, 2.500421015923238e-05, 9.012570746694606e-05, 2.995403044133056e-02, -3.739641052611674e+04, 7.430266929100969e+04, 5.922825628244440e+03, -1.851684263595921e+04, -5.646393424388310e+03, 5.433442854781223e+04, 1.406480266419153e+05
249, 0.000000000000000e+00, 1.641791044775176e+00, 0.000000000000000e+00, 2.434943638163212e-05, 7.991879687447440e-05, 3.075835472542945e-02, -5.002426076784795e+04, 1.150849274542836e+05, 3.063074262529319e+03, -1.958800678793322e+04, -2.514887198512879e+03, 5.718121452794509e+04, 1.817093820745216e+05
250, 0.000000000000000e+00, 1.671641791043912e+00, 0.000000000000000e+00, 2.378536199263218e-05, 6.980484203535173e-05, 3.156362807035251e-02, -3.713774877284314e+04, 6.819082776668234e+04, 7.220943131171249e+03, -3.052906535959486e+04, 1.988883054245810e+03, 3.640010965603028e+04, 1.207679489393428e+05
251, 0.000000000000000e+00, 1.701492537312647e+00, 0.000000000000000e+00, 2.287105191527833e-05, 5.945748842720966e-05, 3.236973810046667e-02, -4.321516140757280e+04, 6.719046722953839e+04, 4.068858261418514e+03, -2.248391773758278e+04, -3.290541204143378e+03, 3.584306133521631e+04, 1.194431507186122e+05
252, 0.000000000000000e+00, 1.731343283581383e+00, 0.000000000000000e+00, 2.213441777401681e-05, 4.913310466458237e-05, 3.317651451572697e-02, -3.632455182385173e+04, 6.575023039171158e+04, -4.124695545202093e+03, -1.901226367395156e+04, -4.030930448270251e+02, 2.725977874410466e+04, 1.059841584688416e+05
253, 0.000000000000000e+00, 1.761194029850118e+00, 0.000000000000000e+00, 2.115015016866673e-05, 3.885088780166204e-05, 3.398406574613516e-02, -3.799002660673156e+04, 3.943927944033712e+04, 1.434512966430115e+03, -1.456924204499687e+04, -2.390137773266408e+03, 3.628838515370958e+04, 9.329645190464031e+04
254, 0.000000000000000e+00, 1.791044776118853e+00, 0.000000000000000e+00, 2.056841972884055e-05, 2.822743468460648e-05, 3.479226172618767e-02, -3.340710647587146e+04, 2.816651665528554e+04, -5.489439709308978e+03, -1.234583732774744e+04, -2.749979132964756e+03, 3.177597019222080e+04, 7.797624843546511e+04
255, 0.000000000000000e+00, 1.820895522387589e+00, 0.000000000000000e+00, 1.978975441010306e-05, 1.746025169347201e-05, 3.560075739327159e-02, -3.767429870027497e+04, 1.557102366377804e+04, -8.272315952263054e+03, -1.836296667791029e+04, -7.232853457468156e+01, 2.871676184835160e+04, 6.970667371477159e+04
256, 0.000000000000000e+00, 1.850746268656324e+00, 0.000000000000000e+00, 1.897564567885507e-05, 6.737820789623483e-06, 3.640963441079151e-02, -3.714005212243146e+04, 1.801726893996182e+04, -3.690432833252227e+03, -1.102685838637716e+04, -1.796621061904763e+03, 2.448225507835816e+04, 6.428513832440958e+04
257, 0.000000000000000e+00, 1.880597014925060e+00, 0.000000000000000e+00, 1.805253626295349e-05, -4.072582964169923e-06, 3.721884375594715e-02, -3.917104521486095e+04, 2.852524023471712e+03, 1.828741709262304e+02, -1.086253452754117e+04, -3.069690116254060e+03, 2.416521246702388e+04, 5.619581204864161e+04
258, 0.000000000000000e+00, 1.910447761193795e+00, 0.000000000000000e+00, 1.724770422935340e-05, -1.498680041323594e-05, 3.802823318371051e-02, -3.086416089554245e+04, -3.057672297062918e+02, 2.405035550033454e+03, -4.795509536074998e+03, 3.952871526953001e+02, 1.753376150545193e+04, 4.191531483763273e+04
259, 0.000000000000000e+00, 1.940298507462530e+00, 0.000000000000000e+00, 1.632653594860201e-05, -2.591044244817930e-05, 3.883790433231127e-02, -4.398427448711802e+04, -1.176950686944637e+04, -9.987845978361712e+02, -1.573272492530142e+04, 1.343567434237887e+03, 1.193000980977887e+04, 3.689455021931056e+04
260, 0.000000000000000e+00, 1.970149253731265e+00, 0.000000000000000e+00, 1.532297918156039e-05, -3.684437235918284e-05, 3.964758787131090e-02, -3.951271448887859e+04, -1.676922356015257e+04, 3.227320848699230e+02, -1.827797837005069e+04, 5.387204800168886e+02, 8.465755907429197e+03, 2.648430791778300e+04
261, 3.355180000000000e-01, 4.999999999990528e-02, 7.920070000000000e-02, -6.528194384139430e-06, -1.137851133754531e-04, 9.621429815132553e-05, -5.712849591037257e+06, -1.303844125682987e+07, -4.894099816748246e+05, -4.139249826543052e+06, -1.211376268187578e+05, 1.179123637251984e+06, 8.520659939991748e+06
262, 3.355180000000000e-01, 9.999999999980125e-02, 7.920070000000000e-02, -1.187027985939323e-05, -2.494834483102795e-04, 2.511986989710557e-04, -2.821560821637061e+06, -9.826045486897312e+06, -1.119120253148818e+05, -6.608990777681083e+05, -1.158986725656039e+05, 1.258989977684136e+06, 8.584790291666672e+06
263, 3.355180000000000e-01, 1.499999999997075e-01, 7.920070000000000e-02, -1.120003789838089e-05, -3.631986674396850e-04, 5.416582592093419e-04, -3.087612405481475e+06, -1.287870638280762e+07, -7.903111245798906e+05, -3.217691437174205e+05, 2.906642295328991e+05, 9.874583843153517e+05, 1.164682342143651e+07
264, 3.355180000000000e-01, 1.999999999996311e-01, 7.920070000000000e-02, -2.528684632333543e-05, -5.015566641436398e-04, 8.905248614080961e-04, -2.714334928454686e+06, -9.871457520293731e+06, -2.929190577234815e+05, -9.708848252065628e+05, -5.750720040014002e+04, 6.630413918797241e+05, 8.266093744828559e+06
265, 3.355180000000000e-01, 2.499999999995493e-01, 7.920070000000000e-02, -3.894167122362163e-05, -5.740919757141368e-04, 1.319706119011228e-03, -1.849848819830294e+06, -6.712254854698198e+06, -7.877888065550062e+04, -1.095378842898600e+06, -2.015269127433198e+05, 2.536215147240595e+05, 5.311702740831303e+06
266, 3.355180000000000e-01, 2.999999999994089e-01, 7.920070000000000e-02, -4.033073064775659e-05, -6.827771711080712e-04, 1.839951961114049e-03, -1.385710609134117e+06, -8.647996519505117e+06, 4.131137893396572e+05, -1.130702063740314e+06, -9.144234784404999e+04, 2.467128637309055e+05, 7.441602434797962e+06
267, 3.355180000000000e-01, 3.499999999992631e-01, 7.920070000000000e-02, -4.644986134562726e-05, -7.839240485573856e-04, 2.414375161730362e-03, -1.337807978222095e+06, -6.684569625493514e+06, -2.572393599227206e+05, -4.746747195608628e+05, -1.342283449466179e+05, 1.683640984987385e+05, 5.855376534302945e+06
268, 3.355180000000000e-01, 3.999999999991173e-01, 7.920070000000000e-02, -6.665532633565521e-05, -8.671679954317477e-04, 3.075687471546063e-03, -1.527851287823676e+06, -7.139018875360161e+06, -1.904414999950939e+04, -8.405811648818497e+05, -3.146962510089040e+05, 2.992225186229756e+05, 6.031643335952475e+06
269, 3.355180000000000e-01, 4.499999999989715e-01, 7.920070000000000e-02, -5.108855263791234e-05, -9.484265978786724e-04, 3.787727683251049e-03, -1.432382612028003e+06, -7.153253914353096e+06, -3.312989564720554e+05, -8.751270338542628e+05, 1.150998785675629e+05, 2.562851552376341e+05, 6.065719814383948e+06
270, 3.355180000000000e-01, 4.999999999988257e-01, 7.920070000000000e-02, -7.002402120856455e-05, -1.022435089374656e-03, 4.556800541294530e-03, -9.912917629326057e+05, -5.799710690104985e+06, -5.817733208088311e+05, -7.849675323859353e+05, -6.245717473739391e+04, 6.577067888988578e+05, 5.145908428016322e+06
271, 3.355180000000000e-01, 5.499999999986800e-01, 7.920070000000000e-02, -7.115445997562218e-05, -1.106695085289138e-03, 5.382953501404858e-03, -8.381262945641556e+05, -6.128799829805257e+06, 6.250979293936210e+03, -7.648378630139709e+05, -1.973372887498311e+05, 8.314546799820554e+04, 5.340601610615350e+06
272, 3.355180000000000e-01, 5.999999999985342e-01, 7.920070000000000e-02, -7.613506550150501e-05, -1.190926030646685e-03, 6.264144574828958e-03, -3.250114148284869e+05, -4.529458724178630e+06, -9.838808046005355e+04, -1.250984771181377e+04, 1.291157282985240e+05, 2.318006039599704e+05, 4.396496172702084e+06
273, 3.355180000000000e-01, 6.499999999983883e-01, 7.920070000000000e-02, -8.451121354416998e-05, -1.252479412542983e-03, 7.200613636574781e-03, -1.097825034635085e+06, -5.592198511020768e+06, -1.617258850570608e+05, -7.181386030079914e+05, -9.959445161519288e+04, 2.427264265563042e+05, 4.725989702037618e+06
274, 3.355180000000000e-01, 6.999999999982426e-01, 7.920070000000000e-02, -8.481188968749768e-05, -1.322315366730914e-03, 8.177091144436880e-03, -6.229053023836539e+05, -4.769587694170397e+06, 2.963336237550626e+05, -4.435667676800786e+05, -3.129930957391880e+03, 1.137056187221767e+05, 4.274699317461030e+06
275, 3.355180000000000e-01, 7.499999999980967e-01, 7.920070000000000e-02, -8.507303961645353e-05, -1.384104441858137e-03, 9.198442121776600e-03, -3.981589540777813e+05, -4.554612805625964e+06, -3.886741567472055e+05, -3.090977078712826e+05, 5.980357472651041e+04, -1.956600617827553e+04, 4.256677128260638e+06
276, 3.355180000000000e-01, 7.999999999979509e-01, 7.920070000000000e-02, -9.312870369335147e-05, -1.449099512483218e-03, 1.025074335662570e-02, -1.824053005510740e+05, -3.333116675145153e+06, -1.433725888280185e+05, -2.452525640599375e+05, -9.075221634431837e+04, 8.181078993817288e+04, 3.136777385243406e+06
277, 3.355180000000000e-01, 8.499999999978051e-01, 7.920070000000000e-02, -9.993709305567214e-05, -1.501345876300138e-03, 1.135327930458862e-02, -5.753576395283964e+05, -3.486790684747916e+06, -1.066017552010148e+05, -4.276620431098110e+05, -1.323728579601630e+05, 1.780886348752604e+05, 3.018288987964665e+06
278, 3.355180000000000e-01, 8.999999999976593e-01, 7.920070000000000e-02, -9.712981481027616e-05, -1.545116361394552e-03, 1.248118325972739e-02, -2.920390122466758e+05, -3.129290093016599e+06, -2.079716037217078e+05, -1.163833416959092e+05, 3.896233418526418e+04, 1.133692177674121e+05, 2.958394217133862e+06
279, 3.355180000000000e-01, 9.499999999975136e-01, 7.920070000000000e-02, -1.035906388275887e-04, -1.605561170163352e-03, 1.363903072806311e-02, -3.088311274582816e+05, -3.531254424286339e+06, -3.702035522399528e+05, -6.949612719477316e+04, 1.923067872098586e+04, 1.531714479975776e+05, 3.419821306971651e+06
280, 3.355180000000000e-01, 9.999999999973894e-01, 7.920070000000000e-02, -1.065783658854291e-04, -1.651447482996643e-03, 1.482189972088849e-02, -1.336087183378484e+05, -2.447469216603750e+06, -6.156083081418629e+04, -1.476378845455084e+05, -1.277362013210792e+04, 1.223018497199862e+04, 2.309543921532363e+06
281, 3.355180000000000e-01, 1.049999999997499e+00, 7.920070000000000e-02, -1.120671548292575e-04, -1.695846067422515e-03, 1.603390841302850e-02, -6.633076586318943e+04, -2.477471963102657e+06, -1.454757005380946e+05, -2.358374522026173e+05, -6.217798520210788e+04, 6.747769881955416e+04, 2.349973914426516e+06
282, 3.355180000000000e-01, 1.099999999997631e+00, 7.920070000000000e-02, -1.139224919577651e-04, -1.738300063866535e-03, 1.726400479229385e-02, -3.965816180799558e+04, -2.116062185871272e+06, 1.502060798660854e+05, -1.403309796755671e+05, -9.037007188554999e+04, 5.347405670252596e+03, 2.050566476970636e+06
283, 3.355180000000000e-01, 1.149999999997763e+00, 7.920070000000000e-02, -1.126177519192098e-04, -1.778628213598150e-03, 1.851320231524101e-02, 2.235154246036152e+04, -1.266869805402800e+06, 2.432506337068345e+04, -4.738592593351571e+04, 7.005889534255594e+04, 8.347005216939159e+04, 1.270609927037436e+06
284, 3.355180000000000e-01, 1.199999999997894e+00, 7.920070000000000e-02, -1.160274381818358e-04, -1.810574759240752e-03, 1.978354897088572e-02, -1.773206042938893e+05, -1.643955604991720e+06, -1.030990054936382e+04, -1.198553940583408e+05, 8.696699998536518e+04, 6.700091982550168e+04, 1.508335835778299e+06
285, 3.355180000000000e-01, 1.249999999998026e+00, 7.920070000000000e-02, -1.219695257518097e-04, -1.844590264050032e-03, 2.106275481421735e-02, 9.377258022014163e+03, -1.301583636209162e+06, -5.095594288527826e+04, -6.971900665481537e+04, 8.661939887871304e+02, 4.843401534948814e+04, 1.279066813019881e+06
286, 3.355180000000000e-01, 1.299999999998157e+00, 7.920070000000000e-02, -1.249505900618314e-04, -1.880711118490162e-03, 2.235820545713807e-02, 2.178529850955171e+04, -1.099104830489689e+06, -3.089139223867256e+04, -8.699950730057230e+04, -2.044945469195923e+04, 3.805713950771226e+04, 1.074595464713520e+06
287, 3.355180000000000e-01, 1.349999999998289e+00, 7.920070000000000e-02, -1.284980461317342e-04, -1.909077320015936e-03, 2.366800742392516e-02, -4.780305443909876e+04, -1.119497554160995e+06, 1.698940107554176e+04, 1.369010071228087e+04, -2.173509180895683e+04, -2.270202957651931e+03, 1.104767400120891e+06
288, 3.355180000000000e-01, 1.399999999998421e+00, 7.920070000000000e-02, -1.292096241017598e-04, -1.938033436890724e-03, 2.498198101281318e-02, 5.619396254760851e+04, -8.244645667879583e+05, -8.190187401258067e+04, 2.400222976462884e+04, 3.024498683231861e+04, 1.290561904420013e+03, 8.781337336291657e+05
289, 3.355180000000000e-01, 1.449999999998552e+00, 7.920070000000000e-02, -1.331983738502018e-04, -1.967126085437587e-03, 2.630734980510759e-02, -2.612867140578489e+04, -6.970681511101191e+05, -5.189341432027224e+04, -5.462360265615072e+04, -2.432630142018000e+03, 1.013203426398828e+05, 6.861102973292371e+05
290, 3.355180000000000e-01, 1.499999999998684e+00, 7.920070000000000e-02, -1.348777325213477e-04, -1.992474785638382e-03, 2.764032584391202e-02, -2.149824772927904e+04, -5.371277509556981e+05, -3.573030497826969e+04, -2.660429981250513e+04, 6.233843338727512e+03, 8.666260036252423e+04, 5.382794726356355e+05
291, 3.355180000000000e-01, 1.549999999998815e+00, 7.920070000000000e-02, -1.375752246456645e-04, -2.017729907774985e-03, 2.898090419956850e-02, -5.865561781480030e+04, -7.096359552195147e+05, -8.885507531460334e+04, -2.123240516496171e+04, 1.206510804515192e+04, 2.596940150397122e+04, 6.896979594702956e+05
292, 3.355180000000000e-01, 1.599999999998947e+00, 7.920070000000000e-02, -1.397674401330817e-04, -2.041855168837932e-03, 3.032209827202333e-02, 4.966968149880945e+04, -3.210436036415352e+05, -3.093031341574575e+04, 2.806246918502832e+04, 3.764390972410145e+03, 4.617644107112125e+04, 3.730877733940166e+05
293, 3.355180000000000e-01, 1.649999999999079e+00, 7.920070000000000e-02, -1.416154433403882e-04, -2.064385346431850e-03, 3.166961390477761e-02, 3.687193286033598e+04, -3.433547148035064e+05, -3.894636235935938e+04, 3.667239292727027e+02, 2.985432212538813e+04, 5.089168978183666e+04, 3.834304004600951e+05
294, 3.355180000000000e-01, 1.699999999999210e+00, 7.920070000000000e-02, -1.437646121690631e-04, -2.087477105279095e-03, 3.301968114325474e-02, 5.212771448901689e+04, -2.416070771499031e+05, -3.477094780916681e+04, 2.849403902610320e+02, 2.497601823983922e+04, 3.157577245603773e+04, 2.867565582721917e+05
295, 3.355180000000000e-01, 1.749999999999342e+00, 7.920070000000000e-02, -1.465434795985300e-04, -2.108064876329613e-03, 3.437213639147002e-02, 5.466443583041009e+04, -1.517560328492539e+05, -2.788077286562055e+04, 1.299780111753504e+04, 4.560522931693145e+03, 2.366964651028489e+04, 1.995490820957147e+05
296, 3.355180000000000e-01, 1.799999999999474e+00, 7.920070000000000e-02, -1.489866658922305e-04, -2.128733174010244e-03, 3.572652228562617e-02, 5.835436607503953e+04, -1.262944477941331e+05, -2.132873363491178e+04, 7.686214468537477e+03, -2.085301498691259e+03, 1.607531974478109e+04, 1.716381943290801e+05
297, 3.355180000000000e-01, 1.849999999999605e+00, 7.920070000000000e-02, -1.501267394448391e-04, -2.148462126388896e-03, 3.708200053442376e-02, 4.027209377658440e+04, -7.687349344582220e+04, -2.548162939293188e+04, 1.401291834086257e+04, 2.849928609593373e+03, 1.295704810042036e+04, 1.175263725683645e+05
298, 3.355180000000000e-01, 1.899999999999737e+00, 7.920070000000000e-02, -1.522226853578942e-04, -2.167665005174135e-03, 3.843812679130545e-02, 4.483338358591029e+04, -2.273070134195702e+04, -2.395559921795746e+04, 1.821376574591719e+04, 7.115993609443170e+02, 1.483772306814767e+04, 7.654139341405738e+04
299, 3.355180000000000e-01, 1.949999999999868e+00, 7.920070000000000e-02, -1.542604265296066e-04, -2.186681291304365e-03, 3.979479051793031e-02, 7.008086035083767e+04, -3.059364664814070e+03, -3.023665340258577e+04, 1.764359808166697e+04, 3.458282686163944e+02, 1.305528516152661e+04, 8.670831366448566e+04
300, 3.374140000000000e-01, 4.999999999990507e-02, -4.020980000000000e-02, -1.363579090473375e-06, 1.066293198990972e-04, 8.674539840573814e-05, 4.934374760845003e+06, 1.141667444357333e+07, 2.404287813346263e+05, 3.586459019073162e+06, -2.819550868441156e+04, 9.300983936971972e+05, 7.439471206445695e+06
301, 3.374140000000000e-01, 9.999999999979868e-02, -4.020980000000000e-02, 3.725574771122619e-06, 2.343353674221088e-04, 2.625582025918196e-04, 3.300940499992183e+06, 1.016837611314118e+07, 2.460465507079777e+04, 1.396707285652218e+06, 2.943215644845842e+05, 4.884878096693004e+05, 8.052485812775087e+06
302, 3.374140000000000e-01, 1.499999999997050e-01, -4.020980000000000e-02, 4.118239747155509e-06, 3.565003355047169e-04, 5.324119258089469e-04, 2.370040566654960e+06, 7.941685536903993e+06, 2.661637644025043e+05, 1.073045104432081e+06, 3.358990219949102e+05, 5.152171157056800e+05, 6.426444046545524e+06
303, 3.374140000000000e-01, 1.999999999996287e-01, -4.020980000000000e-02, 1.701314957844313e-05, 4.287208107220178e-04, 8.834149454597373e-04, 2.114205846055245e+06, 6.672477420455799e+06, 2.802888529279722e+05, 1.014926301400255e+06, -2.354250690223618e+05, 8.217541298577755e+05, 5.424469552538785e+06
304, 3.374140000000000e-01, 2.499999999995469e-01, -4.020980000000000e-02, 3.593367481797075e-05, 5.019355971038813e-04, 1.329116358220229e-03, 2.539501960338937e+06, 7.979915889299893e+06, 3.710846081973965e+05, 1.578499508514636e+06, -7.005977403016677e+05, 8.145289184080719e+05, 6.294908702495595e+06
305, 3.374140000000000e-01, 2.999999999994066e-01, -4.020980000000000e-02, 3.411219264861515e-05, 5.855904678079490e-04, 1.835307542899959e-03, 1.456075186932639e+06, 6.733352800020014e+06, 2.898564414819697e+04, 1.059549103191309e+06, -1.162970594262244e+05, 6.667102605909592e+05, 5.610354124379241e+06
306, 3.374140000000000e-01, 3.499999999992609e-01, -4.020980000000000e-02, 3.910486076979039e-05, 6.716709673385210e-04, 2.416029048340318e-03, 1.340975046979967e+06, 6.022493085822925e+06, 4.691895445166479e+05, 6.889399037960720e+05, 2.572530223556632e+05, 7.811671071289559e+05, 5.299424048620667e+06
307, 3.374140000000000e-01, 3.999999999991152e-01, -4.020980000000000e-02, 5.093717376355392e-05, 7.439920016081396e-04, 3.096911404477144e-03, 2.192129002213626e+06, 8.292318252185483e+06, 1.823076475482037e+05, 6.474624423078168e+05, 1.444370152843985e+05, 7.846393392856206e+05, 7.143551853089055e+06
308, 3.374140000000000e-01, 4.499999999989694e-01, -4.020980000000000e-02, 4.937228398491436e-05, 8.082256847988314e-04, 3.788183819903840e-03, 1.061251895577018e+06, 4.869377345625970e+06, 3.654557467186899e+05, 3.077210285250036e+05, 1.022164002641186e+05, 4.848562000489373e+05, 4.367658774811125e+06
309, 3.374140000000000e-01, 4.999999999988238e-01, -4.020980000000000e-02, 6.185893597538544e-05, 8.556319496984266e-04, 4.568946347833863e-03, 1.237322529700740e+06, 4.981512403801910e+06, 6.236127691095840e+05, 1.157185419756321e+06, -1.549929475211251e+05, 8.471273831268258e+05, 4.209162604814518e+06
310, 3.374140000000000e-01, 5.499999999986781e-01, -4.020980000000000e-02, 6.953049595023915e-05, 9.188376806077781e-04, 5.402192186508947e-03, 3.500422652709032e+05, 3.909530826932896e+06, -7.922666359218225e+04, 3.244637767522438e+05, -1.968840043445930e+05, 2.008385441946160e+05, 3.608017226352862e+06
311, 3.374140000000000e-01, 5.999999999985324e-01, -4.020980000000000e-02, 6.456132182031116e-05, 9.655337701194380e-04, 6.278181881053420e-03, 8.804413627512106e+05, 4.674083410816440e+06, 3.224988767913644e+05, 5.283877822752142e+05, 3.020879710908695e+05, 6.119597735534552e+05, 4.190524940292258e+06
312, 3.374140000000000e-01, 6.499999999983865e-01, -4.020980000000000e-02, 7.634232417160630e-05, 1.015303357093392e-03, 7.224944256265284e-03, 8.731923629763206e+05, 5.231796781782210e+06, 5.889185735917118e+05, 7.436453871844707e+05, 5.913542861020246e+04, 1.502661751201457e+05, 4.549457654003461e+06
313, 3.374140000000000e-01, 6.999999999982409e-01, -4.020980000000000e-02, 7.291179784599255e-05, 1.057749846142078e-03, 8.199083676596670e-03, 4.988528178308908e+05, 3.958976699705360e+06, 1.369199590721719e+05, 4.316950445442231e+05, 1.087523120350935e+05, 2.366371890804540e+05, 3.531154989390466e+06
314, 3.374140000000000e-01, 7.499999999980952e-01, -4.020980000000000e-02, 7.124449123790174e-05, 1.089248188562472e-03, 9.223867959235618e-03, 2.609312349089099e+05, 3.713728629451165e+06, 6.031143902013530e+05, 1.715898205321382e+05, 1.933114353237781e+05, 1.993182595383119e+05, 3.682499379593468e+06
315, 3.374140000000000e-01, 7.999999999979495e-01, -4.020980000000000e-02, 8.477654002497954e-05, 1.126252765112742e-03, 1.028090881131603e-02, 1.997681915814611e+05, 3.230383186324074e+06, 3.761642423486684e+05, 2.359820672325605e+05, -9.666214115790685e+04, 2.017784390957525e+05, 3.106583543428241e+06
316, 3.374140000000000e-01, 8.499999999978036e-01, -4.020980000000000e-02, 8.617563399034717e-05, 1.155542215240985e-03, 1.138278425993063e-02, 6.086006880214673e+05, 2.898068421887596e+06, 2.220342226666412e+05, 5.213975051080562e+05, -3.267976530044784e+04, 1.577356197699157e+05, 2.382154243455580e+06
317, 3.374140000000000e-01, 8.999999999976579e-01, -4.020980000000000e-02, 8.103792979805881e-05, 1.169624764289065e-03, 1.251050382677960e-02, 4.352673658338232e+05, 2.308817723850606e+06, 1.794099758633650e+05, 4.079495815896583e+05, 1.465458746236212e+05, 1.666299822236881e+05, 1.951001281692248e+06
318, 3.374140000000000e-01, 9.499999999975123e-01, -4.020980000000000e-02, 9.170365280741777e-05, 1.187538712336660e-03, 1.366974940408441e-02, 2.638092192498598e+05, 2.239905711502051e+06, 2.548267494751938e+05, 2.726658006386541e+05, -4.921141356712929e+04, 2.190809086896899e+05, 2.057571132764691e+06
319, 3.374140000000000e-01, 9.999999999973882e-01, -4.020980000000000e-02, 9.419363622532179e-05, 1.202816658932921e-03, 1.485966874645639e-02, 1.626255289509915e+05, 2.307935071901916e+06, 1.956390700711629e+04, 3.360860496706975e+05, -8.729514509747575e+04, 2.185761635764521e+05, 2.104198484268000e+06
320, 3.374140000000000e-01, 1.049999999997498e+00, -4.020980000000000e-02, 9.451674607525995e-05, 1.215406066799180e-03, 1.607037707253110e-02, 3.010798831330605e+05, 2.015343043071025e+06, 1.981891737336521e+05, 3.579763105981345e+05, -5.771682290796664e+04, 2.456562340307871e+05, 1.775745317350814e+06
321, 3.374140000000000e-01, 1.099999999997630e+00, -4.020980000000000e-02, 9.639981266384989e-05, 1.223735164087882e-03, 1.730262995093964e-02, 2.523853840168115e+05, 1.609065668645886e+06, 9.861186667172256e+03, 3.435408263740821e+05, -1.140523018297658e+05, 1.117668705395872e+05, 1.342390751460216e+06
322, 3.374140000000000e-01, 1.149999999997762e+00, -4.020980000000000e-02, 9.218729366695802e-05, 1.227324800511766e-03, 1.855441235738162e-02, 5.691872656486755e+04, 1.209185780330909e+06, 5.830968457428250e+04, 1.418947095441578e+05, 8.232071245701904e+04, 2.245288431124294e+05, 1.191131821647595e+06
323, 3.374140000000000e-01, 1.199999999997893e+00, -4.020980000000000e-02, 9.704125346130660e-05, 1.224521474902420e-03, 1.982416015362455e-02, -1.016636897404856e+04, 1.388509110640991e+06, 2.674200822677035e+04, 6.902792470487235e+04, 6.180014655276019e+04, 5.415325264813274e+04, 1.369013740034947e+06
324, 3.374140000000000e-01, 1.249999999998025e+00, -4.020980000000000e-02, 9.812293412464739e-05, 1.229043748207326e-03, 2.110506154442318e-02, 1.285896243572472e+04, 1.466599487242902e+06, 2.285760029313680e+05, 4.849286666465114e+04, -1.218708599234252e+04, 8.647152536510695e+04, 1.497480335297481e+06
325, 3.374140000000000e-01, 1.299999999998156e+00, -4.020980000000000e-02, 1.012032655900580e-04, 1.228458166113720e-03, 2.240310865058195e-02, 4.272257130938970e+03, 8.107333378068432e+05, 1.118513769389869e+05, 3.376078977430719e+04, -3.151817323679553e+04, 7.854631540849230e+04, 8.285461016708943e+05
326, 3.374140000000000e-01, 1.349999999998288e+00, -4.020980000000000e-02, 1.020105840762123e-04, 1.218808958112279e-03, 2.371092081304036e-02, 4.447135076953140e+04, 6.052191086438468e+05, 8.514667191990590e+04, -2.926572436275129e+04, -1.074990671042477e+03, 5.895415978965499e+04, 6.272186354567460e+05
327, 3.374140000000000e-01, 1.399999999998420e+00, -4.020980000000000e-02, 9.954042013498102e-05, 1.209338696480034e-03, 2.502516487892041e-02, 5.367565359486445e+04, 6.753820845226515e+05, 1.237544629076503e+05, 9.132859711229790e+04, 4.049134357566088e+04, 1.814231874763364e+05, 7.170319519581652e+05
328, 3.374140000000000e-01, 1.449999999998552e+00, -4.020980000000000e-02, 1.010069643404988e-04, 1.201335879202467e-03, 2.635263962735854e-02, 6.400518024322011e+04, 7.481303056215247e+05, 9.562051222821425e+04, 1.247804429924362e+05, 6.027728927955103e+04, 1.830971531309612e+05, 7.543517348206529e+05
329, 3.374140000000000e-01, 1.499999999998683e+00, -4.020980000000000e-02, 1.015487341348657e-04, 1.193986149270923e-03, 2.768693314358810e-02, 2.286453654715156e+04, 6.230704174362209e+05, 1.075263118649638e+05, 1.233878514062168e+05, 3.459848843176500e+04, 9.012972534596895e+04, 6.104624010921203e+05
330, 3.374140000000000e-01, 1.549999999998815e+00, -4.020980000000000e-02, 1.032116814516232e-04, 1.181030608538733e-03, 2.902613337120391e-02, 2.350859228148128e+04, 4.013248321322265e+05, 1.013024161161745e+05, 5.793703405285996e+04, -1.197532607461225e+04, 5.701039750317376e+04, 4.145963390948980e+05
331, 3.374140000000000e-01, 1.599999999998947e+00, -4.020980000000000e-02, 1.025297205592829e-04, 1.167068561170492e-03, 3.036865007368000e-02, 7.942496740446546e+03, 2.939886060889292e+05, 6.764894152287400e+04, 5.612361806422031e+04, -3.548779946233534e+03, 6.300302128104138e+04, 3.098981062916354e+05
332, 3.374140000000000e-01, 1.649999999999078e+00, -4.020980000000000e-02, 1.022707275577599e-04, 1.154176362323719e-03, 3.171629761893660e-02, -1.461597215035575e+04, 2.277500400458376e+05, 6.665665881711440e+04, 4.880573422532500e+04, 1.446960029226580e+04, 4.838486552569996e+04, 2.614824177152153e+05
333, 3.374140000000000e-01, 1.699999999999210e+00, -4.020980000000000e-02, 1.015411538004760e-04, 1.138776724790201e-03, 3.306708002652694e-02, -3.467243793540795e+03, 2.081835995558662e+05, 7.566583463845136e+04, 6.020582363820954e+04, 2.243045447921658e+04, 4.061090271631510e+04, 2.429134584650362e+05
334, 3.374140000000000e-01, 1.749999999999342e+00, -4.020980000000000e-02, 1.022174240145508e-04, 1.122543304795619e-03, 3.441970554983997e-02, -2.556786375632674e+04, 1.650916159319654e+05, 6.409330524065463e+04, 3.334703551275270e+04, 1.663470588755393e+03, 2.666345443407907e+04, 2.074952882613338e+05
335, 3.374140000000000e-01, 1.799999999999473e+00, -4.020980000000000e-02, 1.016912200979339e-04, 1.106629911435123e-03, 3.577407760688905e-02, -2.811439495168992e+04, 7.299570446978738e+04, 4.603882257207950e+04, 1.526415633785195e+04, 1.172081386918530e+03, 2.391221554876678e+04, 1.256867706503361e+05
336, 3.374140000000000e-01, 1.849999999999605e+00, -4.020980000000000e-02, 1.008887437623091e-04, 1.089027616687707e-03, 3.713005912715422e-02, 1.250344578409567e+03, 9.579297423074188e+04, 5.454970897817247e+04, 2.471341537649363e+04, 9.407298278444459e+02, 1.901894363618167e+04, 1.314739210552037e+05
337, 3.374140000000000e-01, 1.899999999999737e+00, -4.020980000000000e-02, 1.003764199784191e-04, 1.071367252545682e-03, 3.848626078986195e-02, -1.761353561352797e+04, 2.830415405974517e+04, 4.114444237537189e+04, 6.821231956817509e+03, -6.345441697636421e+02, 1.220332037988681e+04, 8.432123371694497e+04
338, 3.374140000000000e-01, 1.949999999999868e+00, -4.020980000000000e-02, 9.955917312320234e-05, 1.053496525668440e-03, 3.984308155434049e-02, -1.355287672935177e+04, 2.320908039446174e+04, 2.830236028310424e+04, 1.234543868179597e+04, 4.096540603913802e+03, 8.965391029576227e+03, 6.135667778218483e+04
339, 3.355180000000000e-01, 2.039600349631115e+00, 6.858981841048578e-02, -1.347158396197735e-04, -1.932198921864841e-03, 4.223082236456092e-02, 4.556449088225707e+04, 1.271511234968976e+04, -1.287468390207251e+04, 1.800647381141680e+04, 1.375765860329953e+04, 4.843661862343714e+03, 4.548337486011216e+04
340, 3.355180000000000e-01, 2.068589818193722e+00, 3.960035000656112e-02, -7.374825532718843e-05, -1.156143259030797e-03, 4.302835658269219e-02, 4.797738571149762e+04, 2.340029337172060e+04, -9.871644256964704e+03, 1.370210739661068e+04, 2.169149812444223e+04, -1.672587277522667e+03, 5.146596438019381e+04
341, 3.370396458323578e-01, 2.047249318715819e+00, -3.227060896093920e-02, 8.048904551358205e-05, 8.025567170891271e-04, 4.247899569936103e-02, -4.054787006272629e+03, 1.659492288817848e+03, 2.069787549839104e+04, 8.299092356937770e+03, 1.932327146697335e+04, -3.489892456804051e+01, 5.020014014849314e+04
342, 4.047695367997587e-01, 2.066727989084455e+00, 3.773498037625853e-02, -6.941826622805514e-05, -1.107064732575234e-03, 4.312719110915897e-02, 3.636864051409056e+04, 1.322988732037263e+04, -8.917930684052730e+03, 1.234574314791599e+04, 2.071837640123596e+04, 1.960356365715166e+03, 4.576584338215565e+04
343, 4.940550194662547e-01, 2.061187927727381e+00, 3.595462315137268e-02, -6.499653998544644e-05, -1.060009760815994e-03, 4.316837238657378e-02, 3.416112798511838e+04, 9.274730304058157e+03, -8.695943260307886e+03, 1.174137021621791e+04, 2.193879395981619e+04, 1.600386187485988e+03, 4.735509853064112e+04
344, 5.797006197335721e-01, 2.053553754943132e+00, 3.429492124661032e-02, -6.093249715765497e-05, -1.015579036742476e-03, 4.314428316574903e-02, 3.080115775815896e+04, 9.425818237142799e+03, -8.881801657008509e+03, 7.203750759470968e+03, 3.048607688600752e+04, -2.591220903544765e+03, 5.961833024601403e+04
345, 4.487530428320468e-01, 2.038075719831279e+00, 6.356613578561467e-02, -1.231452736212384e-04, -1.799943769420225e-03, 4.243322768053931e-02, 5.209744768492071e+04, 1.171836571437792e+04, -2.871378566039302e+04, 1.181496388990682e+04, 2.302998320206253e+04, 1.103842422498944e+03, 7.546402646519327e+04
346, 5.368963266662951e-01, 2.035078454967176e+00, 5.764711714089785e-02, -1.100412948995837e-04, -1.641848583070437e-03, 4.254162412404797e-02, 4.323943575677100e+04, 1.231016164272668e+04, -3.387528190190704e+04, 1.295299628882906e+04, 3.059088222950060e+04, -3.345716481515506e+02, 8.477910731852744e+04
347, 6.591526744130716e-01, 2.044564578056836e+00, 3.272166378235062e-02, -5.712672056593093e-05, -9.731903179426311e-04, 4.306957074315532e-02, 3.474638211106119e+04, 1.821088296508876e+04, -1.343133644784227e+04, 1.610389670273560e+04, 3.559750334688237e+04, -8.598589098837945e+03, 6.983737198698983e+04
348, 6.206741388248492e-01, 2.033461665778105e+00, 4.913195809848681e-02, -9.157668540066971e-05, -1.413975300422921e-03, 4.267910340294379e-02, 4.151096616621129e+04, 1.253095512213009e+04, -3.295129899463226e+04, 1.291486186274029e+04, 2.878584829317042e+04, 4.917656215752947e+01, 8.106854852588515e+04
349, 9.540233583520079e-01, 2.007398290385530e+00, 9.119547406337955e-03, -6.822236722124619e-06, -3.289691354070867e-04, 4.269390037020226e-02, 1.656108405415014e+03, 5.889903484400356e+03, -1.539373860880366e+02, 6.061840735256411e+03, 1.825638432839313e+04, -5.978269351986589e+03, 3.355382899170897e+04
350, 6.980074874278235e-01, 2.034589147505729e+00, 3.708836947869764e-02, -6.587932638725709e-05, -1.089880227771641e-03, 4.287868797915367e-02, 2.094716572494477e+04, 7.380408389566193e+03, -4.068650416292076e+03, 7.549523397049245e+03, 3.356902121114137e+04, -5.742850744089197e+03, 6.091823594026117e+04
351, 7.424015248547557e-01, 2.032485189060667e+00, 3.142528300439096e-02, -5.378319031790722e-05, -9.371905867813892e-04, 4.291774308006308e-02, 2.299348088269329e+04, 9.088310404248246e+03, -1.844371744406277e+04, 7.351333253218181e+03, 3.994296897144846e+04, -5.708150679349660e+03, 7.826306422461427e+04
352, 7.787644981409967e-01, 2.030351045011068e+00, 2.660958608429332e-02, -4.363270459809172e-05, -8.066816764966110e-04, 4.293828596206972e-02, 2.083128510041291e+04, 9.844174528897223e+03, -6.314876778992910e+03, 7.080853050940091e+03, 3.816478461046077e+04, -1.480236270685743e+03, 6.822442466203400e+04
353, 9.209753993424864e-01, 2.012741857116046e+00, 1.286537879513685e-02, -1.484363587844761e-05, -4.317594439515876e-04, 4.276699867725803e-02, -3.403328485646892e+03, -7.629892165156172e+03, -8.429225414856222e+03, 8.334911513996003e+03, 2.681114516264788e+04, -4.683596358370478e+02, 5.075025771359753e+04
354, 3.701285252412473e-01, 2.055211047896207e+00, 5.521104819842074e-02, -1.064691385685816e-04, -1.575974714561484e-03, 4.273370973443556e-02, 4.641388396633597e+04, 1.854869714230466e+04, -1.298062533831856e+04, 1.240576067820587e+04, 1.855989146381534e+04, 5.481359756326150e+03, 5.113133000091446e+04
355, 4.063084902428019e-01, 2.036189321105169e+00, 6.752572893308373e-02, -1.317925533348210e-04, -1.904946236773102e-03, 4.228997992032642e-02, 5.585769702053284e+04, 1.506911281233057e+04, -2.851996269406060e+04, 1.514369114167438e+04, 1.630065189082983e+04, -8.392183480766247e+02, 7.000059752521674e+04
356, 4.477038889322491e-01, 2.065832786872870e+00, 3.437749774865839e-02, -6.203649441484643e-05, -1.017154019663907e-03, 4.319606954827460e-02, 3.814453964116969e+04, 1.202689376172730e+04, -5.489628019692669e+03, 9.647291099762559e+03, 3.091800715511691e+04, -3.298882534130303e+03, 6.116182616149630e+04
357, 4.938332116292689e-01, 2.032450562319051e+00, 6.325490054231997e-02, -1.219713405032491e-04, -1.791304050166823e-03, 4.237666997439873e-02, 3.897007314761209e+04, 6.726245457832996e+03, -2.288869789553469e+04, 1.497971817521954e+04, 1.804385276897354e+04, 5.566341351435562e+03, 5.901722201416764e+04
358, 5.375850460894779e-01, 2.060573759477709e+00, 3.005654633641195e-02, -5.234040332208895e-05, -9.010225251055437e-04, 4.324677267863802e-02, 3.250481570403144e+04, 9.803091831779795e+03, -1.629872436097631e+03, 5.748453390480732e+03, 3.372173702034749e+04, 5.960134555309878e+03, 6.441941748566407e+04
359, 8.162487380951227e-01, 2.025337858879591e+00, 2.420451701220286e-02, -3.849745779230251e-05, -7.409988799745998e-04, 4.288200296910988e-02, 1.616874979966270e+04, 1.797170382451599e+04, -3.743834499789557e+03, -2.665896324695535e+03, 3.980633769557522e+04, -2.839588416278987e+03, 7.219296903779270e+04
360, 5.796208835042607e-01, 2.027475383786054e+00, 5.759562274988481e-02, -1.094600812030916e-04, -1.639778441170331e-03, 4.242580692736703e-02, 3.470351809715533e+04, 9.009163182163904e+03, -3.220672212074784e+04, 7.060918299835035e+03, 1.993990470624076e+04, 4.942432031508878e+03, 7.135793984986033e+04
361, 8.845310541715188e-01, 2.017301847531748e+00, 1.721347418321025e-02, -2.397741916349005e-05, -5.505255792817021e-04, 4.281128381555033e-02, -6.496080597112539e+03, 3.317209377362899e+03, -3.621058542905293e+03, 9.168940429183396e+03, 3.688541476987234e+04, -2.619633074210453e+03, 6.579888483531178e+04
362, 6.217735425944125e-01, 2.054440936999966e+00, 2.443009691848056e-02, -3.995582110507406e-05, -7.492077835724031e-04, 4.326190468755803e-02, 3.463355813289739e+04, 1.285841738111673e+04, -2.066362309692146e+04, 7.788125329527434e+03, 4.604270739507025e+04, -6.538596462060515e+03, 9.153840364395875e+04
363, 8.542833819245252e-01, 2.020821509455496e+00, 2.058741165526061e-02, -3.091039226574971e-05, -6.424701772900880e-04, 4.284110832589466e-02, 1.324008225833718e+04, 2.214740182565134e+04, -1.032798732372214e+03, 1.868681841289986e+03, 3.792625071128584e+04, -7.493068385063212e+03, 6.925877205771125e+04
364, 3.673072395807886e-01, 2.072042550290186e+00, 3.086400948075719e-02, -5.502927742532561e-05, -9.211875964178634e-04, 4.319366924694864e-02, 2.269052246037395e+04, 9.177031522573983e+03, 3.270616099206359e+03, 9.998985412347562e+03, 2.106444830255055e+04, 2.030761269792056e+03, 3.934181349359066e+04
365, 3.660511561140603e-01, 2.027881054749706e+00, 7.333878023636675e-02, -1.442535399722410e-04, -2.057900203780168e-03, 4.197614165881303e-02, 6.704404573597737e+04, 2.161977856566790e+04, -2.543215499683804e+04, 1.996663509940598e+04, 1.352284831492105e+04, 2.333166852893651e+03, 6.816528858185101e+04
366, 6.618899158821880e-01, 2.021094702543701e+00, 5.106975121013817e-02, -9.508075252100817e-05, -1.464400714921193e-03, 4.242936436516909e-02, 2.140809766952866e+04, -9.146960716287893e+03, -1.136676326933841e+04, 2.090691792242626e+03, 2.941108816545965e+04, -1.883635320151886e+03, 6.090828997186103e+04
367, 4.103383692802824e-01, 2.049563202920279e+00, -2.840999766110857e-02, 7.197273549000571e-05, 6.953578539322797e-04, 4.269747584678013e-02, 1.043218940814397e+04, 7.852479096354929e+03, 1.921398712080564e+04, 6.016129143083294e+03, 1.791710985547941e+04, 3.836172357141914e+03, 4.614665071671665e+04
368, 4.516948976946197e-01, 2.048537800364338e+00, -2.680031870969840e-02, 6.850317532825639e-05, 6.513666777657606e-04, 4.275745833347067e-02, 7.654710323114335e+03, -3.651084180022410e+02, 2.296745049722338e+04, 4.379055333124546e+03, 2.370920509580832e+04, 2.256620566176586e+03, 5.773166223111249e+04
369, 4.940824437765979e-01, 2.047619067767267e+00, -2.483409625292442e-02, 6.419216756482771e-05, 5.973262435732284e-04, 4.282219927490785e-02, 2.129534057812698e+04, 4.670093564551396e+03, 1.031778352572213e+04, 7.517713779025406e+03, 2.135485641910933e+04, 4.620867819571214e+03, 4.459464425906954e+04
370, 5.369482501723106e-01, 2.045834575238111e+00, -2.297926238791746e-02, 6.041701986857738e-05, 5.464934782067471e-04, 4.286444469192133e-02, 2.030800247835729e+04, 6.470020461199641e+03, 2.551356655857536e+04, 9.086585553181940e+03, 3.276982864295202e+04, 5.908084797861057e+03, 7.376486846674516e+04
371, 5.787699198880322e-01, 2.044190455106727e+00, -2.093220461686122e-02, 5.604849185077837e-05, 4.907125733074127e-04, 4.290813852924685e-02, 1.847003173617491e+04, 7.857315259216640e+03, 2.120495971729976e+04, 1.349611934514573e+04, 2.722468899722132e+04, 6.770598969051731e+02, 6.048520551872080e+04
372, 9.181764209359888e-01, 2.009841530255756e+00, -6.408541686194947e-03, 2.664583223289940e-05, 9.670204487445544e-05, 4.268879500810563e-02, 1.639153816315977e+04, -6.587794491672650e+03, 1.117487037419562e+03, 1.179346864205182e+04, 3.479405184777635e+04, -1.960256832067807e+01, 6.386827866838520e+04
373, 6.213763481208775e-01, 2.040708353176186e+00, -1.943942269244003e-02, 5.292067850463239e-05, 4.504578320232433e-04, 4.290361226027339e-02, 2.547524106545813e+04, 7.797820718929098e+03, -2.902910643130722e+03, 8.859998241725343e+03, 3.479231025433084e+04, -5.759121238437583e+03, 6.364857040082382e+04
374, 6.611411790093248e-01, 2.039191234359025e+00, -1.716297448588227e-02, 4.817735971335800e-05, 3.879656799842396e-04, 4.294602405291215e-02, 1.327377236833858e+04, -1.111679774846607e+04, 7.699946455070633e+03, 7.044541721552700e+03, 3.476468775570461e+04, -1.645897861002051e+04, 7.140084550866717e+04
375, 3.718824361581326e-01, 2.033947271835463e+00, -3.506856689497121e-02, 8.664708357528084e-05, 8.825848919683521e-04, 4.219366764659710e-02, 2.441681574805390e+03, 5.207892840040875e+03, 2.038987139065347e+04, 4.916809177568966e+03, 1.830020237326077e+04, 4.055581241075964e+03, 4.804380771602293e+04
376, 7.002130527705469e-01, 2.036116898302354e+00, -1.546523202998216e-02, 4.470676325424305e-05, 3.417112583937315e-04, 4.294461764073168e-02, -3.044540548566007e+03, -1.004376645174599e+04, 1.556680920330472e+04, -2.323306106422232e+03, 3.683423788349037e+04, -3.859030157571814e+03, 6.997495019015086e+04
377, 8.827689965526619e-01, 2.013365624079947e+00, -8.515537344018369e-03, 3.092559228901059e-05, 1.543862419536857e-04, 4.270950776309879e-02, 1.540626822440115e+04, -4.257569884605401e+03, 1.105556464669946e+04, 6.036298447869868e+03, 3.895351877761293e+04, -3.851076859542644e+03, 7.248111531563399e+04
378, 7.334530450109477e-01, 2.032812135329780e+00, -1.420570290078488e-02, 4.189290823096437e-05, 3.076037571119183e-04, 4.292479414499331e-02, 1.408239845115667e+04, 6.114574890294296e+03, -5.655480493244902e+02, 8.080915792169921e+03, 3.685281912605301e+04, -4.094927587080255e+03, 6.463235191221254e+04
379, 2.704242481409524e-01, 2.036234395152531e+00, -3.684107107280651e-02, 9.099714895130506e-05, 9.318119964413438e-04, 4.203856967090731e-02, -1.308119783375514e+04, 1.179023737522660e+04, 1.967816038469254e+04, 8.970596134094309e+03, 1.586182739929075e+04, 4.643646761016254e+03, 5.037443003227814e+04
380, 2.237346882388941e-01, 2.052569584087214e+00, -2.989945076472739e-02, 7.588445764306756e-05, 7.384716797964319e-04, 4.237859915898601e-02, 3.157110588520686e+03, 1.155764248357869e+04, 9.201318666612882e+03, 1.287815094886295e+04, 1.375097259726182e+04, 4.500166108226036e+03, 3.107121939894827e+04
381, 1.855478134382276e-01, 2.047136677651160e+00, -3.102729828432346e-02, 7.871142392931740e-05, 7.719243116749816e-04, 4.214917085230388e-02, -1.009686860088242e+04, 1.236922044313982e+04, 1.171439795423181e+04, 1.103451719288509e+04, 1.144230492914072e+04, 4.977566938344331e+03, 3.681453422324326e+04
382, 1.447969778815702e-01, 2.040974270203139e+00, -3.113416726947335e-02, 7.938205045115955e-05, 7.779690028738781e-04, 4.189402164134989e-02, -7.608038568945964e+03, 1.411194712253531e+04, 5.432632486937715e+03, 1.143608079420748e+04, 9.508029612696568e+03, 5.163762363648447e+03, 2.933496130027219e+04
383, 1.069827653238452e-01, 2.033947913834536e+00, -3.031596150912673e-02, 7.813851916822073e-05, 7.593215115174190e-04, 4.162122993999062e-02, -1.697026438074154e+04, 1.356929938411676e+04, 2.781080826457835e+03, 1.378951798655331e+04, 7.703308816664392e+03, 3.958128993534227e+03, 3.446252048943845e+04
384, 6.912266036368050e-02, 2.030004665271174e+00, -2.566782383737167e-02, 6.849339843664412e-05, 6.356461279614228e-04, 4.143053688903906e-02, -1.536085797249264e+04, 1.219992821410262e+04, 8.724030844087963e+01, 8.261677539245376e+03, 6.152445441934312e+03, 3.189017433049419e+03, 2.847201349973942e+04
385, 4.501882292768611e-02, 2.018960977495507e+00, -2.483085771331853e-02, 6.719084858304841e-05, 6.175910832797726e-04, 4.107840361969795e-02, -1.475293223423839e+04, 7.784073728380074e+03, -7.572418639540042e+02, 4.007351906489047e+03, 6.024646363063131e+03, 3.611541358666477e+03, 2.422402306260249e+04
386, 3.046842255885678e-01, 2.032728512478291e+00, -3.733534662066171e-02, 9.193652648786300e-05, 9.457544716569288e-04, 4.201732660544605e-02, -6.289849313944334e+03, 1.386608532594981e+04, 2.272300666326749e+04, 1.119503947640215e+04, 1.539983542738587e+04, 3.269165093169490e+03, 5.149845601396244e+04
387, 3.105108952804728e-01, 2.064488455901157e+00, -2.369400289624061e-02, 6.179746446096680e-05, 5.638802593383729e-04, 4.288666863379353e-02, 1.145067581864450e+02, 7.631761502645115e+03, 1.490985735168404e+04, 1.068548132286372e+04, 2.219788785316968e+04, -2.054518448132516e+03, 4.739834665650072e+04
388, 2.703858254158418e-01, 2.067950943257784e+00, -2.045332112377865e-02, 5.491171122083000e-05, 4.755618572724191e-04, 4.289308673246892e-02, 2.351587102036530e+03, 9.515706991165524e+03, 8.458521313475729e+03, 8.771848044599425e+03, 1.641001285592561e+04, 1.654562574018767e+03, 3.282174418590412e+04
389, 2.541200451245642e-01, 2.064094792385990e+00, 4.217306030919210e-02, -7.941326469834697e-05, -1.221807334539981e-03, 4.273017350657192e-02, 3.769061068955203e+04, 1.388537861815453e+04, -3.923858888531722e+03, 1.830654258315182e+04, 1.913094135768495e+04, 3.279422391335947e+03, 4.071144214656709e+04
390, 2.224508114329464e-01, 2.064588720808398e+00, 3.715290902452473e-02, -6.871712020924906e-05, -1.084897029513490e-03, 4.267713640070084e-02, 2.227130793235420e+04, 1.250491664979214e+04, 3.195424167547125e+02, 1.434136529745409e+04, 1.345152750465874e+04, 4.645794261204341e+03, 2.624322346630861e+04
391, 1.723310950596158e-01, 2.035173314569123e+00, 5.957249514271543e-02, -1.161556701279876e-04, -1.680767762361729e-03, 4.176267405451739e-02, 3.188180125739145e+04, 1.496575391922162e+04, -2.127612149108466e+03, 2.090550896982796e+04, 1.047052018726770e+04, 5.769409303315997e+03, 2.575441710600002e+04
392, 2.567137810936650e-01, 2.035739483537020e+00, 6.810897669725080e-02, -1.340947256225911e-04, -1.915019083249467e-03, 4.195679167276076e-02, 4.625420583222086e+04, 7.770433490853990e+03, -5.255270257701464e+03, 1.666720965572329e+04, 1.724971672671947e+04, 4.161840167162241e+03, 4.738403074750677e+04
393, 1.292732991206538e-01, 2.029650756017930e+00, 5.498957269455464e-02, -1.061432862315831e-04, -1.553300261274274e-03, 4.152154357591134e-02, 2.038571779860241e+04, 1.155526483223203e+04, 4.232851159676910e+02, 2.013275289704782e+04, 7.842826816433089e+03, 6.087715090376150e+03, 1.928873322740618e+04
394, 1.631275572595022e-01, 2.060461050361897e+00, 3.104328852945968e-02, -5.546855278407148e-05, -9.160418917951024e-04, 4.243925749502198e-02, 1.666602395427318e+04, 1.484595170125611e+04, 1.362929973133883e+03, 1.783677147841684e+04, 9.484875022411301e+03, 4.868087305455887e+03, 1.879814556820383e+04
395, 9.610215880304665e-02, 2.024704479486351e+00, 4.968217145135879e-02, -9.451863586130288e-05, -1.406716332287367e-03, 4.131743830072128e-02, 1.871499706925679e+04, 6.024909375740106e+03, 3.640929868704673e+02, 1.587193802479995e+04, 7.928203915644362e+03, 5.174001786537872e+03, 2.005792781824883e+04
396, 1.340281829873226e-01, 2.054036424292184e+00, 3.298542355016038e-02, -5.942800158338646e-05, -9.655981578556086e-04, 4.220138419740878e-02, 9.519371761780698e+03, 1.425303494370390e+04, 1.633768166556289e+03, 1.501360120935005e+04, 8.590329264824881e+03, 4.365577295455935e+03, 1.769604345501321e+04
397, 6.959164893299322e-02, 2.025011092577975e+00, 4.130380107923759e-02, -7.638403244985929e-05, -1.178916428793836e-03, 4.127141023352356e-02, 4.376896172508741e+03, 5.379540390219618e+03, -1.073673575076501e+03, 1.051296576235553e+04, 5.846036725078847e+03, 6.401096915825268e+03, 1.616827872510701e+04
398, 9.860872431996433e-02, 2.045350652632713e+00, 3.291458423654377e-02, -5.893580248989352e-05, -9.596578477991287e-04, 4.188906292523918e-02, 1.028565584769119e+04, 9.675747171402514e+03, 8.373242612904711e+02, 1.222383581389759e+04, 8.133731043250271e+03, 4.346823920309818e+03, 1.620405367006612e+04
399, 2.900179425861896e-01, 2.042302859580626e+00, 6.596643525032385e-02, -1.294603638952452e-04, -1.860371904831391e-03, 4.220738986103678e-02, 4.225711765442394e+04, 7.994435606696294e+03, -8.585403387158589e+03, 1.640570962289271e+04, 1.740796951162125e+04, 4.463963190675419e+03, 4.633042918064100e+04
400, 2.226606593656645e-01, 2.035943663840365e+00, 6.530143771440827e-02, -1.281884765970132e-04, -1.837943062067956e-03, 4.189001010002322e-02, 3.204659254121671e+04, 1.034035744480306e+04, -3.679890958567814e+03, 1.501336028454260e+04, 1.545165007910784e+04, 4.574571977120555e+03, 3.480272530390968e+04
401, 4.920715517370802e-02, 2.033936826703842e+00, 2.363437103745901e-02, -3.834899610918180e-05, -7.024764086110552e-04, 4.147581834273274e-02, -5.047353963130801e+03, 5.492049366816293e+03, -3.825140110071827e+02, 6.346942937614745e+03, 4.668539399765976e+03, 5.719724893450468e+03, 1.687573475654139e+04
402, 3.003160525284866e-01, 2.067394112814692e+00, 4.059546762745020e-02, -7.599252652136512e-05, -1.181556228470573e-03, 4.291977128618082e-02, 3.399822347821007e+04, 1.330862974650216e+04, -6.185521252344200e+03, 1.310632503663531e+04, 2.057533708857473e+04, -2.076240505261142e+02, 4.262898837516590e+04
403, 1.938051145410489e-01, 2.056364877973310e+00, 4.430694510160509e-02, -8.389725447328564e-05, -1.275143753443463e-03, 4.238956929386996e-02, 3.641254953514197e+04, 1.859344566516529e+04, -2.424082190937723e+03, 1.995751337548254e+04, 1.467579205309215e+04, 4.899844159610902e+03, 3.210709015403008e+04
404, 3.121353816945664e-01, 2.020443844935786e+00, 7.629746882307437e-02, -1.507562444461662e-04, -2.133409509290307e-03, 4.165782960795470e-02, 6.151204324050468e+04, 1.543650466343490e+04, -1.710220558245598e+04, 2.311282798329304e+04, 1.598935853863063e+04, 6.120588927566516e+03, 5.987495600724074e+04
405, 9.989053355166616e-02, 3.248417622935729e-02, 5.626408073111146e-02, -2.173667121579959e-05, -4.693295438379722e-05, 1.523375372626534e-05, -3.295546010195772e+06, -7.568014316340602e+06, -8.542385046049585e+05, -2.901744006780993e+06, -3.595455245535033e+05, -2.356059457249416e+05, 4.778607718708755e+06
406, 1.325495139068604e-02, 2.537313432831155e-01, 2.219474156696162e-02, -2.107978930009774e-05, -5.676170212295939e-05, 8.988087806606343e-04, -3.043015258284152e+05, 1.277679912881756e+06, 2.949753457863982e+05, -1.426867507216380e+06, -3.808779658687431e+05, -1.341695144870051e+05, 2.507775511413979e+06
407, 9.989053355166561e-02, 1.967515823770643e+00, 5.626408073111133e-02, -1.068991015219442e-04, -1.564147429407872e-03, 3.977220727877107e-02, 9.727741648105681e+03, 2.739924197056362e+02, 5.214640389118291e+03, 1.968586061184786e+04, 6.808900672223141e+03, 9.307576517524563e+03, 2.762666859004370e+04
408, 1.325495139080127e-02, 1.746268656715751e+00, 2.219474156705113e-02, -2.711958034482161e-05, -5.564230958404921e-04, 3.360088185954271e-02, -2.943355291062442e+04, 3.241045993280146e+04, 4.052027461448467e+03, -2.047362912447069e+04, 5.775260168587788e+03, 3.132289103411516e+04, 8.027161824094046e+04
409, 1.338198186380199e-02, 1.600186921811923e-01, 2.229317344562609e-02, -1.363203180059641e-05, -1.702422673880225e-05, 2.839413810744595e-04, -8.705465439300481e+05, 7.299839240177525e+05, -1.214599535574157e+05, -8.792501476107383e+05, -3.710295442709040e+05, -4.080089671632260e+03, 1.741551085938464e+06
410, 1.331199158271512e-02, 1.838962887527362e+00, 2.223899866990549e-02, -2.932924709356938e-05, -5.918287309322270e-04, 3.611110780714202e-02, -3.548061732845940e+04, -4.639167466854767e+03, 8.359624113458836e+03, -1.443108298033738e+04, 7.233046276490527e+02, 2.414991731972681e+04, 5.201879220039559e+04
411, 1.325495139067621e-02, 3.731343283574022e-01, 2.219474156695399e-02, -1.303256686221999e-05, -7.939695896310925e-05, 2.132018927411661e-03, -6.941070743300761e+05, -3.207013999681123e+05, -5.873773586791330e+04, -8.153825354398956e+03, 9.667657865517581e+04, 2.326777397381536e+04, 6.275654844353892e+05
412, 1.329362678323331e-02, 4.630000597922970e-01, 2.222475998020301e-02, -1.392941765467060e-05, -1.218215355917110e-04, 3.351271484705091e-03, -7.579391669377858e+04, 6.483429731628742e+05, 8.038184530971848e+02, -3.517021178889174e+05, -1.574405636448193e+05, 4.631052682345638e+03, 9.352666726655808e+05
413, 1.268849556703108e-02, 1.626892973689640e+00, 2.174992790571306e-02, -2.339976408081285e-05, -5.007391540890645e-04, 3.037672927446439e-02, -2.908242957630691e+04, 2.960991464968391e+04, 8.503629172209401e+03, -2.695243704553349e+04, 1.457714415874352e+01, 6.190789595232572e+04, 1.226336511428047e+05
414, 1.325495139078692e-02, 1.537313432834603e+00, 2.219474156703998e-02, -2.281536533681877e-05, -4.798289704270667e-04, 2.797112980172568e-02, -4.928226825252006e+04, -3.728301292416472e+04, 1.210746176949246e+04, -2.504109402204074e+03, -3.769140959166686e+04, 2.577481195594580e+04, 9.200867871368334e+04
415, 1.261614216975249e-02, 5.227709237351073e-01, 2.169239973930689e-02, -1.187210998424004e-05, -1.197122338268131e-04, 4.275274382022826e-03, -5.581711321366391e+05, 2.801777053683032e+05, -9.569899388757841e+04, -1.163335604606693e+05, -1.295816247260932e+05, 1.750926389963588e+05, 8.351386590831634e+05
416, 1.256296667760748e-02, 6.160385893874935e-01, 2.165001440139108e-02, -1.557302845578423e-05, -1.555655525202933e-04, 5.892811450873670e-03, -1.477754307989977e+05, 1.071980628392582e+06, 7.044667878156055e+04, -1.304567361768501e+05, -3.007003530877771e+05, 8.622616066726383e+04, 1.332454637674763e+06
417, 1.325495139079774e-02, 1.477611940297132e+00, 2.219474156704839e-02, -2.130039367856384e-05, -4.583363053086431e-04, 2.637677207026878e-02, -8.448644624578508e+04, -6.065701564989327e+03, 1.295856217318816e+03, -2.026497591213858e+04, -1.737638142958393e+04, 6.211387526040475e+04, 1.331283930812966e+05
418, 1.301834698351451e-02, 1.380047492139413e+00, 2.201013086439595e-02, -1.923807462334004e-05, -4.184400698680774e-04, 2.378510108959653e-02, -8.761433845219041e+04, 1.929086166200665e+05, 8.817874470543811e+03, -6.927542422258909e+04, -2.872559441768820e+04, 5.698450451897139e+04, 2.938288668687764e+05
419, 1.325495139067617e-02, 6.716417910430990e-01, 2.219474156695397e-02, -1.531225567874550e-05, -1.818229099845407e-04, 6.949426814050794e-03, -3.586670684392761e+05, 3.440680300790211e+04, 1.471054227923730e+05, -1.525304579884656e+05, -7.064829641509781e+04, -1.450269078349917e+05, 5.088854769573362e+05
420, 1.434775942836927e-02, 7.618234165491374e-01, 2.302662870623595e-02, -1.812179141607445e-05, -2.279818469564376e-04, 8.778033650580743e-03, -1.631323046998224e+05, 1.844256025804813e+05, 4.756050082325257e+04, -3.572470527958982e+05, -1.464914271603744e+05, 1.347644305971393e+05, 5.929525475403760e+05
421, 1.325495139079776e-02, 1.328358208953455e+00, 2.219474156704841e-02, -1.924969765915163e-05, -4.032333606596716e-04, 2.242877564908785e-02, -1.905741263126390e+05, -1.350882337793148e+05, 3.128478091252055e+04, -2.735506883513557e+04, -4.673211218237849e+04, 9.435239194892797e+04, 2.384487261199811e+05
422, 1.298298461285852e-02, 1.238960066561018e+00, 2.198239494530235e-02, -1.661169393592579e-05, -3.680919954105978e-04, 2.010808475978833e-02, -7.427356071576357e+04, 3.957475151437223e+05, 1.483839217302092e+04, -1.683996046915105e+03, -2.786392317369075e+04, 5.110923024740819e+04, 4.504404732140247e+05
423, 1.325495139067619e-02, 8.208955223859471e-01, 2.219474156695397e-02, -1.441497213600096e-05, -2.252095386554021e-04, 1.003570107636398e-02, 5.500896980534046e+04, 7.494448357292768e+05, 5.145781858698838e+04, -2.238873962906304e+05, -2.848215821819186e+04, 1.498622174617158e+05, 9.118407033879766e+05
424, 1.325495139068031e-02, 9.104477611916562e-01, 2.219474156695718e-02, -1.242617311355242e-05, -2.539249072454203e-04, 1.204615031241756e-02, -2.913668629395147e+05, -2.930575982085249e+05, -7.650063868254508e+04, -2.817372891599020e+05, 6.252981818199430e+04, 3.157384776302944e+05, 5.731240744794805e+05
425, 1.367295545726439e-02, 1.183439288613071e+00, 2.251688082134599e-02, -1.711173358230622e-05, -3.605512259688345e-04, 1.868697126689289e-02, -2.222483239455483e+04, 3.922230346820615e+05, -5.436284355363494e+03, 1.024200248284536e+05, -3.369608563154841e+04, 1.467473032696862e+05, 4.513799185969335e+05
426, 1.609703585518237e-02, 1.089882260122625e+00, 2.429450016365273e-02, -2.213543516826899e-05, -3.692808104216877e-04, 1.633715411366449e-02, -1.722362511315470e+05, 1.798176493228732e+05, 6.163327148724262e+03, -1.089790431787046e+05, -7.814122989465661e+03, 1.841270281090012e+05, 4.557180106065310e+05
427, 1.325495139067658e-02, 9.701492537287960e-01, 2.219474156695429e-02, -1.506936722676933e-05, -2.769861785368033e-04, 1.343909916490904e-02, -3.586298616562241e+05, -4.858079661053476e+05, 7.030493622228380e+04, -1.241493502366773e+05, -2.008390116877725e+05, 2.212737017968130e+05, 6.194349027935542e+05
428, 2.919070818576342e-01, 1.026329235821759e+00, 7.855989947137609e-02, -1.160076852281811e-04, -1.660534636339549e-03, 1.537839154709313e-02, -1.100800077340813e+05, -2.274580507343601e+06, -8.712838764480912e+04, -9.987130176843390e+04, -6.403679682046081e+04, 2.368501217159318e+04, 2.178077712318111e+06
429, 2.917868678042959e-01, 3.251346763584595e-01, 7.855636637315319e-02, -5.347517411024259e-05, -7.187488165381010e-04, 2.093876179743493e-03, -1.778813511992185e+06, -8.079240385872004e+06, -5.130903220487760e+05, -1.097040573969931e+06, -3.476606966370928e+04, -3.393833340869856e+05, 6.752377943334767e+06
430, 2.923040251266834e-01, 1.675205381097408e+00, 7.857149397629348e-02, -1.431349747232982e-04, -2.057546993979115e-03, 3.226034208953348e-02, 2.847310101359858e+04, -2.885869801464904e+05, -1.507699031767486e+04, 4.606238683076414e+03, 2.669437684132664e+04, 4.039540168472304e+04, 3.181895260422045e+05
431, 2.929122557184507e-01, 5.747635736323488e-01, 7.858904682850100e-02, -8.887505321224579e-05, -1.136883083453638e-03, 5.760027209635907e-03, -8.639184888629895e+05, -5.877842806137366e+06, 2.234339921012063e+04, -3.147767914940348e+05, -2.245864971018918e+05, -2.162196772759975e+05, 5.337360432483682e+06
432, 2.952160629308309e-01, 1.427750235783293e+00, 7.865319971295326e-02, -1.336821021201209e-04, -1.937761119576595e-03, 2.563722395100509e-02, -7.949901121898528e+04, -8.548004470472812e+05, -3.608466901865546e+04, -1.026456785313892e+05, -1.931833639251642e+04, 4.512662676886918e+04, 7.712441778783378e+05
433, 2.908920624847183e-01, 7.222366666906277e-01, 7.852975039407439e-02, -8.887708512238593e-05, -1.335540438322649e-03, 8.557873056624130e-03, -4.161283848755208e+05, -3.754123628739644e+06, -1.955902233667909e+04, -3.239102294294561e+05, 3.127408733843637e+04, 7.519989690393418e+04, 3.388153943623903e+06
434, 2.930194861418911e-01, 1.272391350110043e+00, 7.859211464847071e-02, -1.296785570426146e-04, -1.844419247556559e-03, 2.155934203711569e-02, -3.105740988920262e+04, -1.305411797963021e+06, 4.369014389747276e+04, -1.534003422249570e+05, -5.840921120581921e+04, 9.963087493786868e+03, 1.224458178151974e+06
435, 2.906695277799579e-01, 8.744423420291330e-01, 7.852304404366767e-02, -1.049076212735547e-04, -1.506822353914998e-03, 1.182706081650625e-02, -4.238517454529061e+05, -3.191131825109644e+06, -6.579499856738896e+04, -4.422268970768352e+05, 1.703610611853582e+05, 2.821862752613467e+05, 2.818912981144381e+06
436, 2.929315245926339e-01, 1.747537550646901e-01, 7.858959869352525e-02, -3.709715045057543e-05, -4.264261842033476e-04, 6.816100470951394e-04, -2.889330051677162e+06, -1.113947320577816e+07, -4.859571180426437e+05, -1.211749462079799e+06, -1.544098650777797e+05, 6.613674235164665e+05, 9.317275862727702e+06
437, 2.924391866392669e-01, 1.825819223990026e+00, 7.857541687618338e-02, -1.487852693998551e-04, -2.120215737075777e-03, 3.633564961738045e-02, 4.620122245312623e+04, -7.806363601140436e+04, -7.119386240475595e+03, 2.116970152244432e+04, 7.496627701832473e+03, 2.543061796055880e+04, 1.233636815894387e+05
438, 1.817012587382421e-01, 3.685250572065551e-02, 7.052931385844532e-02, -2.709693063018652e-05, -8.071214585890496e-05, 5.366976880134475e-05, -4.613461691576491e+06, -1.120236606451552e+07, -1.151302505834790e+06, -3.309227759212787e+06, -5.462405908426794e+04, 7.091307106494716e+05, 7.694296750452653e+06
439, 1.816394928806160e-01, 1.964220363056985e+00, 7.052172960220873e-02, -1.373192377763274e-04, -1.951744058309071e-03, 3.985408598951537e-02, 3.889501810128683e+04, -1.822530282316125e+03, 8.169674900722185e+02, 1.686365561090707e+04, 8.271088273117315e+03, 5.605748240495605e+03, 3.934138867283267e+04
440, 2.928827906170036e-01, 1.124297013408831e+00, 7.858820244110695e-02, -1.182139884313357e-04, -1.738588070014896e-03, 1.779374961885631e-02, -1.147216228469019e+05, -1.681001318684769e+06, -2.788337306687095e+04, -2.038101099352417e+05, 1.576686646756186e+04, 6.942238101375337e+03, 1.524747247707375e+06
441, 2.929122766919514e-01, 1.524763547541949e+00, 7.858904742932750e-02, -1.365669081285765e-04, -1.987345956471542e-03, 2.821682667185049e-02, -2.648591059635219e+03, -5.972953500809437e+05, -6.836605357283765e+03, 4.007983212314190e+03, 4.047771864545619e+04, 7.523409319761347e+04, 6.161521316112125e+05
442, 2.922213365487835e-01, 4.749999999988985e-01, 7.856908775599078e-02, -7.498852353050867e-05, -9.833842286743333e-04, 4.111454261663882e-03, -9.429624544782402e+05, -5.943989467490063e+06, -3.584469548425967e+05, -5.326750857563803e+05, 4.522469490417755e+05, 5.350279792773123e+05, 5.393353734622966e+06
443, 1.282680217212079e-02, 3.140819803025083e-01, 2.185943942122306e-02, -8.891199872795852e-06, -6.111181921277312e-05, 1.467579693238460e-03, -3.639106104637067e+05, 7.338523361860520e+05, -3.929556271273407e+04, -4.047690456462513e+05, -9.314109281806386e+04, 5.142421000922624e+03, 1.132405988021181e+06
444, 1.325495139078692e-02, 1.686567164178280e+00, 2.219474156703998e-02, -2.549928522931066e-05, -5.346118743192740e-04, 3.198737590344891e-02, -3.089035650658559e+04, 5.053282034799259e+04, -3.632325419952344e+03, -2.179794941956531e+04, -3.936371413503334e+03, 3.837072490357300e+04, 1.023478233178860e+05
445, 1.433336001364492e-02, 1.030059268284231e+00, 2.301587852738763e-02, -1.818008448414496e-05, -3.154529506528142e-04, 1.486933096566406e-02, -9.771879568411980e+04, 4.265949551523702e+05, 5.108166832573556e+04, -1.745248894308836e+05, -5.014015160202529e+04, 2.134572179149731e+05, 6.878492880109530e+05
446, 1.390646822861857e-02, 1.895252357277192e+00, 2.269467972743809e-02, -3.180624101325330e-05, -6.249663499379851e-04, 3.763810382772123e-02, -2.885471327385866e+04, -1.587669837916299e+04, 7.942507251021566e+03, -7.068300297693289e+02, 3.523844656914012e+03, 1.811642531586083e+04, 4.250348056577421e+04
447, 2.929256633723594e-01, 1.874622160595429e+00, 7.858943085418303e-02, -1.504079763335509e-04, -2.139983093416243e-03, 3.765978265853825e-02, 4.437013454751181e+04, -4.968111895279311e+04, -2.552850057903619e+04, 7.387618048567469e+03, 9.408682051812992e+03, 1.216343752368200e+04, 9.695165462088466e+04
448, 2.511414338746060e-01, 1.849925958965910e+00, 7.675864375148884e-02, -1.461953166463359e-04, -2.079038149369009e-03, 3.690188757044066e-02, 3.213824248599885e+04, -7.351653894151663e+04, -4.415515338448062e+03, 8.518027301965189e+03, 1.539358106941462e+04, 1.730743695013575e+04, 1.043708685131012e+05
449, 1.390646827580536e-02, 1.047476432281118e-01, 2.269467976321362e-02, -6.566573834031891e-06, -1.965494708551160e-05, 7.525166138491399e-05, -1.181425586468514e+06, -7.994469795073260e+05, -7.010621415797704e+04, -1.278364525362295e+06, -7.066381814321945e+05, -7.770514513538410e+05, 1.875237982552141e+06
450, 2.920337821225655e-01, 1.270951090350219e-01, 7.856361227283531e-02, -2.094079938539349e-05, -3.013256474098877e-04, 3.920565890332996e-04, -2.208454745497970e+06, -9.298308306958903e+06, -2.754328136274221e+05, -2.695298268423961e+05, -3.014116197078979e+05, 1.160089613289333e+06, 8.503511476655848e+06
451, 2.506370006267753e-01, 1.506979177130497e-01, 7.672845553573762e-02, -4.957081929276783e-05, -3.401087557451023e-04, 5.169439788897043e-04, -2.854745647057641e+06, -1.219095678972414e+07, -2.227615643114434e+03, -9.320286646465991e+05, -7.280000810687582e+05, 1.161869747344207e+06, 1.069824106947426e+07
452, 1.457069745760810e-02, 1.926018379165294e+00, 2.319238268023253e-02, -3.380089768532935e-05, -6.499380635914542e-04, 3.847367719590838e-02, -2.913534833292111e+04, -2.017332329803638e+04, 5.089937861375739e+03, -3.283726107481958e+03, -8.204438227374883e+02, 1.403892879679578e+04, 3.446676269418497e+04
453, 1.453951210487217e-02, 7.423488082129714e-02, 2.316927333071381e-02, -1.357663930379865e-05, -1.051019750199916e-05, 7.356971209718580e-06, -5.474825596202107e+05, 4.087122680555952e+05, -1.422184604919061e+05, -4.085362289731873e+05, -5.859912097688569e+05, -1.071525512357092e+06, 2.309998052980689e+06
454, 2.506078284359306e-01, 1.802726749959604e+00, 7.672670355529768e-02, -1.449793666508797e-04, -2.059467228521294e-03, 3.562201568545772e-02, 2.644258371043278e+04, -8.913712853354543e+04, -1.381172781428850e+03, 1.858854337827096e+04, 2.490194961377495e+03, 1.739338952540782e+04, 1.159504387035140e+05
455, 2.105903955978124e-01, 1.826169099607831e+00, 7.365569438195002e-02, -1.396528420463394e-04, -1.984855481372335e-03, 3.617257265195881e-02, 3.449089440711191e+04, -8.436452380182255e+04, 1.130011314603520e+04, 1.074318793663967e+04, 5.472339596953517e+03, 1.079101528286862e+04, 1.126511234831481e+05
456, 2.098663733109666e-01, 1.781098790355914e+00, 7.358719406899372e-02, -1.382118445699965e-04, -1.964773230303467e-03, 3.495061790666178e-02, 3.774911833448950e+04, -1.370368228460394e+05, -3.817319305775209e+02, 1.487770992307458e+04, 6.793614878418064e+03, 2.449751050348752e+04, 1.703376257364365e+05
457, 1.715082234437257e-01, 1.803275200492851e+00, 6.922185485095508e-02, -1.302027179902604e-04, -1.854436525485559e-03, 3.547033281033035e-02, 1.758998742188941e+04, -1.029476008538928e+05, 1.430538357745630e+04, 1.873218304405232e+03, -2.902983561267432e+03, 2.355797251333267e+04, 1.232315451469619e+05
458, 1.709703421568974e-01, 1.759446810663236e+00, 6.914970201886877e-02, -1.287377782968439e-04, -1.834928748337905e-03, 3.428305226830605e-02, 2.924304793320930e+04, -9.102063646001117e+04, 1.863900182807701e+04, 2.535869463704779e+04, -3.751216632904606e+03, 2.713166286793486e+04, 1.315451587157055e+05
459, 2.506612854558851e-01, 1.977047985995244e-01, 7.672991348534362e-02, -5.049915487579174e-05, -4.568449257324747e-04, 8.111381862372993e-04, -1.929118126914510e+06, -7.854122034888325e+06, -3.896089354611508e+05, -1.109124927982872e+06, -2.349696930360510e+05, 3.281241852123836e+05, 6.448297228296380e+06
460, 2.098518898994454e-01, 1.737117433101495e-01, 7.358581886443943e-02, -5.841280515244025e-05, -3.812377546692641e-04, 6.198640485345353e-04, -2.004051138422561e+06, -7.584916069689095e+06, -2.173973163029089e+05, -1.009422829023994e+06, -3.294309735999357e+05, 4.420593093670332e+05, 6.224133151208075e+06
461, 2.096226019726063e-01, 2.188691073691024e-01, 7.356402218187716e-02, -6.276541670352347e-05, -4.722608636958253e-04, 9.552548832987458e-04, -2.140620033789783e+06, -8.179165664924530e+06, -5.902441955176621e+05, -1.292042733326203e+06, -7.812305735691491e+04, -2.830859929381613e+05, 6.603951607185327e+06
462, 1.710464830238768e-01, 1.974117534489904e-01, 6.915993524954228e-02, -6.065937310328895e-05, -3.850778949705397e-04, 7.432324797129464e-04, -2.443727552763977e+06, -8.476690586444648e+06, -5.893440530089810e+05, -2.127362088694670e+06, -3.510764499849135e+05, -4.251219719176287e+04, 6.310508406052561e+06
463, 1.708042085890962e-01, 2.407285540995232e-01, 6.912735155379254e-02, -9.147869180435586e-05, -4.649264083615486e-04, 1.082080338300519e-03, -1.095311330273365e+06, -6.849102272458493e+06, -2.804171466912810e+05, -1.091854505230578e+06, -6.355410716059726e+05, -2.581937314667306e+05, 5.896918068203651e+06
464, 1.332412824639619e-01, 2.188322464609883e-01, 6.321505573805367e-02, -7.918130537673713e-05, -3.935404790088026e-04, 8.669194686691181e-04, -1.731796895338882e+06, -7.552737139852127e+06, -7.140956385170950e+05, -8.478564744031539e+05, -4.693254099919931e+05, -6.235746901126854e+05, 6.570174526952992e+06
465, 1.334611359121042e-01, 2.619193883709126e-01, 6.325504990100178e-02, -8.416279455204789e-05, -4.438202558717519e-04, 1.224299237709010e-03, -1.136760280990100e+06, -4.105336754403039e+06, -2.569727686374138e+04, -5.586420406087608e+05, -3.802020835101580e+05, 6.582809624294337e+04, 3.363256922003624e+06
466, 1.336887624466722e-01, 1.764552205527836e-01, 6.329638396382592e-02, -6.179528234342979e-05, -2.804505378833349e-04, 5.646030998617269e-04, -2.290564783289242e+06, -7.415410316839291e+06, -5.666890825453597e+05, -1.374269682243867e+06, -3.070808213153640e+05, 2.823750662396171e+05, 5.769317272116586e+06
467, 1.332412824631189e-01, 1.781167753538045e+00, 6.321505573790016e-02, -1.169275508502154e-04, -1.682167205053611e-03, 3.479175116132339e-02, -1.023643683151471e+04, -1.051283365394793e+05, 2.121582922527318e+04, 1.005884748254522e+04, 2.459393037248606e+03, 2.484536381405699e+04, 1.206755387801967e+05
468, 1.333500576074320e-01, 1.738075316783701e+00, 6.323485212845298e-02, -1.160658317325147e-04, -1.666073732687637e-03, 3.362629558406481e-02, 4.904187068481946e+03, -9.908035673751125e+04, 3.092992911736004e+04, 2.813294971975150e+04, 5.698349525692975e+03, 2.157446798470154e+04, 1.346534855336240e+05
469, 1.339230842162535e-01, 1.823547019333325e+00, 6.333885508663814e-02, -1.181683576859053e-04, -1.702038710873436e-03, 3.594053719612224e-02, 9.719920176424795e+03, -6.066632043432453e+04, 1.916336072212053e+04, 1.186237400917778e+04, 6.502351556408621e+03, 2.884101692600564e+04, 9.398707319879424e+04
470, 1.697569054415563e-01, 2.842053328054759e-01, 6.898574815368842e-02, -7.887906376985096e-05, -5.286156368905781e-04, 1.489734828493332e-03, -8.930507561774510e+05, -6.177046162477705e+06, -1.790031319259565e+05, -8.282885961562615e+05, -1.613956671185261e+05, 8.629263941986316e+04, 5.335130350225080e+06
471, 1.326042137965881e-01, 3.048395034576438e-01, 6.309876698837250e-02, -8.657784412532954e-05, -4.975704866786619e-04, 1.650585234046320e-03, -1.380352733785165e+06, -5.973072949264543e+06, -6.385304923886222e+04, -7.183708971532893e+05, 3.106704669466779e+04, 2.515937466492006e+04, 4.958691601153042e+06
472, 1.683509957177164e-01, 3.272637209173669e-01, 6.879371351530926e-02, -9.507018516065335e-05, -5.911558293077435e-04, 1.953099924705229e-03, -1.433724260374945e+06, -6.997205502335317e+06, -3.002261828238076e+05, -1.099646323098131e+06, -1.840352317555676e+05, -2.543991550494303e+05, 5.786945559414124e+06
473, 1.317808140552876e-01, 3.474859577718912e-01, 6.294758786259519e-02, -9.742015875282076e-05, -5.487765355941393e-04, 2.120087096126051e-03, -1.433808758024814e+06, -6.822843705683446e+06, 5.039017809156832e+04, -4.607743567243332e+05, -2.236531199184270e+05, -8.860298780222735e+04, 5.950919352479677e+06
474, 1.673898116767538e-01, 3.701082500775290e-01, 6.866111069007519e-02, -9.514682767737537e-05, -6.674512893469625e-04, 2.445394257468377e-03, -1.177463034608260e+06, -5.699473856258262e+06, -3.044660988438937e+05, -7.243541444301839e+05, -7.983542426959467e+04, 2.410548837959431e+05, 4.813979135205658e+06
475, 1.306783576436381e-01, 3.904455990949010e-01, 6.274361782443869e-02, -9.761672291886368e-05, -6.161794728081413e-04, 2.634275201564812e-03, -7.102489777951534e+05, -4.938410069100116e+06, -2.804889348604987e+05, -1.065709492496420e+05, -1.054894565628203e+05, 3.797735353672192e+05, 4.636411472973126e+06
476, 1.660485710691518e-01, 4.129467708783559e-01, 6.847428624847335e-02, -1.088964537902058e-04, -7.277927807159048e-04, 3.012933736678450e-03, -1.346500309257854e+06, -6.232151233702257e+06, -9.161648748213139e+04, -9.726164510590951e+05, -1.536534933685911e+05, 2.606055821403740e+05, 5.112317952859214e+06
477, 1.295573112240199e-01, 4.334140599189769e-01, 6.253437550604446e-02, -1.037079397336049e-04, -6.725145603712207e-04, 3.215367284528994e-03, -9.862650832203067e+05, -5.146381235662130e+06, 2.488632932505967e+05, -5.352770622243171e+05, 1.749281939749585e+05, 2.825110775687916e+05, 4.461295227819415e+06
478, 1.657523013812711e-01, 4.550897798036018e-01, 6.843273643589737e-02, -9.904861762729048e-05, -7.898653686647314e-04, 3.608484891616732e-03, -1.128545233889733e+06, -5.974827147939858e+06, 9.419304105780105e+04, -1.134396376272648e+06, 5.454395735883203e+04, 2.737906625474829e+05, 4.870169651902127e+06
479, 1.284870734408375e-01, 4.761479261112020e-01, 6.233288457703472e-02, -1.031656226759964e-04, -7.408910893404799e-04, 3.844543729463065e-03, -4.354511411406548e+05, -3.517581916762940e+06, 1.260287783243818e+05, 2.898146948643262e+01, 1.190023906486943e+04, -1.081231000099488e+05, 3.333845551840929e+06
480, 1.639110919691830e-01, 4.984885453100811e-01, 6.817222760136377e-02, -1.151409152319524e-04, -8.464382102967372e-04, 4.264524527061697e-03, -8.311475197048007e+05, -5.090118341000441e+06, 8.521382542090437e+04, -5.568182794122552e+05, -1.171725195455963e+05, 1.265103461506614e+05, 4.415137167489745e+06
481, 1.274784067908844e-01, 5.189201216989314e-01, 6.214142999747593e-02, -1.043717842288744e-04, -7.939706472971683e-04, 4.517359585360144e-03, -4.145308613799493e+05, -4.044595727939261e+06, 5.291253788749932e+05, -3.145913465051308e+05, 4.061911487892029e+04, -1.746087024663759e+05, 3.806111020176655e+06
482, 1.628430839458895e-01, 5.411954296680639e-01, 6.801930337823170e-02, -1.108738581981645e-04, -8.966265685518698e-04, 4.960671979662271e-03, -7.638675587365485e+05, -3.964260015507094e+06, 1.679280132419840e+05, -5.625621945431756e+05, 1.340341585103713e+03, 4.338572229577065e+05, 3.402439273265192e+06
483, 1.263857835587080e-01, 5.616063826777227e-01, 6.193232879606877e-02, -1.104904433773743e-04, -8.278915225563791e-04, 5.221810071150274e-03, -2.868429802220627e+05, -2.843194639354130e+06, 2.647259030245664e+05, -3.716063615516287e+05, 3.860352899679642e+04, 7.128422441930787e+04, 2.560349205864102e+06
484, 1.627976640907262e-01, 5.853963964283034e-01, 6.801277027367005e-02, -1.161995861098108e-04, -9.579131726648003e-04, 5.725173827633517e-03, -8.438523492489256e+05, -4.016523721679184e+06, 3.532022010893082e+04, -7.897000357501747e+05, -6.570515002640295e+04, 2.918905803143810e+05, 3.242356857592717e+06
485, 1.254487736504286e-01, 6.043657885752277e-01, 6.175158458898000e-02, -1.049975725069055e-04, -8.562035189232930e-04, 5.980548070329182e-03, -3.950286295159727e+05, -3.632604111390763e+06, 9.053382410807836e+04, -4.052318913090288e+05, 7.310733720143544e+04, 2.501692968679145e+05, 3.267620307905856e+06
486, 1.607107763200174e-01, 6.264735723576049e-01, 6.770998454802461e-02, -1.150461307914685e-04, -9.946590857985715e-04, 6.461886745675979e-03, -5.527038467610189e+05, -4.136613436749591e+06, -1.549605057526149e+05, -3.190606581760553e+05, -1.107060466448408e+05, 3.064222550910774e+05, 3.758569237030917e+06
487, 1.246237722859861e-01, 6.466301210505766e-01, 6.159135333068987e-02, -1.121633852266962e-04, -9.064481130262037e-04, 6.755758419686200e-03, -4.161287664352469e+05, -3.841316819613444e+06, 2.113868443505240e+05, -3.073096307027726e+05, 7.017145110881323e+04, 4.399441068122692e+05, 3.584125911642385e+06
488, 1.598997140939624e-01, 6.690272030851752e-01, 6.759092460033497e-02, -1.154711580635646e-04, -1.050338594594941e-03, 7.278272762945015e-03, -9.698689818479385e+05, -6.058427895061357e+06, 3.626422397865925e+04, -3.736065184810340e+05, -1.026338712739708e+05, 1.148128669688898e+05, 5.418317987229022e+06
489, 1.235439973022228e-01, 6.892580741520300e-01, 6.138008250859887e-02, -1.067231621185393e-04, -9.509350654633986e-04, 7.577035357852271e-03, -7.975747797374823e+05, -3.884373377838013e+06, 4.390338876063350e+04, -4.244749438373747e+05, 1.891474670213583e+05, 1.475646901282057e+05, 3.316270789906302e+06
490, 1.588794169123892e-01, 7.115661155709367e-01, 6.744004627580932e-02, -1.115585444530030e-04, -1.101805950602754e-03, 8.097844372215293e-03, -4.354112614457669e+05, -3.043163030134722e+06, 1.768967625050160e+05, -3.575967033986700e+05, 4.229865199173094e+04, 2.868359324709533e+04, 2.666656822900430e+06
491, 1.222871933372608e-01, 7.322933802295546e-01, 6.113186932545187e-02, -1.027008985385706e-04, -9.958451189398670e-04, 8.438775643993660e-03, -2.449581906268205e+05, -2.722059243688956e+06, 6.377666584579347e+02, -2.341731171572125e+05, 9.393525778775303e+04, -5.263080119004143e+04, 2.489506855513318e+06
492, 1.577423498515488e-01, 7.540719372319467e-01, 6.727044717015879e-02, -1.116524869230334e-04, -1.128719498473874e-03, 8.967491638781402e-03, -4.720951538216010e+05, -3.097302806670153e+06, 1.772514934796338e+05, -4.807938548996543e+05, -2.112317888798045e+04, 1.069687891473861e+05, 2.645538659473975e+06
493, 1.207855438940716e-01, 7.743500642152661e-01, 6.083200377468680e-02, -1.111754098477458e-04, -1.026573525181693e-03, 9.306351241392688e-03, -2.929018001882070e+05, -2.534272525300999e+06, 1.461016263820170e+05, -2.892438548952914e+05, -1.435921239662873e+05, 1.083144140866260e+05, 2.278825159207406e+06
494, 1.568455626772029e-01, 7.964961357777900e-01, 6.713559331152995e-02, -1.146749698204032e-04, -1.180400146359955e-03, 9.854541369171028e-03, -2.671776080531963e+05, -2.949563833261106e+06, 2.911677804280744e+05, -2.926908139022338e+05, -4.843304413480150e+04, 2.002626361270007e+05, 2.740273561450355e+06
495, 1.202676195293759e-01, 8.166702694320900e-01, 6.072774245674914e-02, -1.013278121262560e-04, -1.053601938751120e-03, 1.020856934975325e-02, -3.132098352309931e+05, -2.420231572888610e+06, 1.742575092197857e+05, -3.707565837836908e+05, 6.289366868554398e+04, 1.336936503478212e+05, 2.116172449676366e+06
496, 1.554082474559242e-01, 8.388456052531745e-01, 6.691738125315734e-02, -1.072508583083425e-04, -1.212090239725440e-03, 1.077686919223523e-02, -6.881662093933225e+05, -3.670659031784523e+06, 8.069977165261476e+04, -2.274346762722497e+05, 1.368356615511846e+05, 2.011545620854110e+05, 3.267837863114408e+06
497, 1.192854585831444e-01, 8.590673269931861e-01, 6.052884351037985e-02, -1.026075968019700e-04, -1.095748416641687e-03, 1.113482294984219e-02, -3.770908664637109e+05, -2.132490684868313e+06, 6.770566299945067e+04, -2.963677901983826e+05, 6.281709636616890e+04, 3.234841964130932e+04, 1.805097062450646e+06
498, 1.539212281360390e-01, 8.812721861508068e-01, 6.668891926203901e-02, -1.136332431692783e-04, -1.249467655051108e-03, 1.171162913172324e-02, -4.069739858488603e+05, -2.777923299848185e+06, 7.717971676419553e+04, -3.121398708574277e+05, -6.369285793969619e+03, 1.293347634412695e+05, 2.433806753082495e+06
499, 1.183421432382034e-01, 9.014100334209645e-01, 6.033634579960339e-02, -1.025034605953469e-04, -1.122636831975804e-03, 1.209125725843489e-02, -4.758336729819148e+05, -2.145439670868801e+06, 1.465833231063985e+05, -4.056226654245620e+05, -1.896099842433982e+04, 5.750211769762389e+04, 1.727772133106430e+06
500, 1.532998674794876e-01, 9.234594941317489e-01, 6.659263766720568e-02, -1.130331968767218e-04, -1.285985325534911e-03, 1.267410235122091e-02, -2.712805989622227e+05, -2.133894575277445e+06, 1.842634800410821e+04, -3.347148562661586e+05, -5.537023965389875e+04, -7.147511119134513e+03, 1.834549164644794e+06
501, 1.167649210866364e-01, 9.436797842212259e-01, 6.001126348838030e-02, -1.060356260510625e-04, -1.141766050232036e-03, 1.306275231362830e-02, -1.171948815015491e+05, -1.826067313054621e+06, 1.970293463879982e+05, -1.434231430758203e+05, -6.122393238159718e+04, 9.136013634990802e+04, 1.740361738013149e+06
502, 1.525946753367805e-01, 9.657098356242915e-01, 6.648278096777499e-02, -1.132401064421239e-04, -1.316130047738541e-03, 1.365574514330353e-02, -2.036682339285792e+05, -1.677357472780945e+06, 9.359224519352468e+04, -1.144097289774482e+05, -2.912700232737704e+04, 1.136315273229967e+05, 1.542344447754136e+06
503, 1.164640072358574e-01, 9.860406536959352e-01, 5.994878102958663e-02, -1.016074640246157e-04, -1.175395388092818e-03, 1.405632145957704e-02, -2.028845291010585e+05, -1.655861506085149e+06, 1.368028486710178e+05, -4.522049693920907e+04, 4.204565396367203e+04, 1.931921580606224e+05, 1.593267225102738e+06
504, 1.511989738753914e-01, 1.007880430482992e+00, 6.626351562804560e-02, -1.141577025483148e-04, -1.339983777463333e-03, 1.465876179519870e-02, -3.627658416087895e+05, -2.398087830699511e+06, 6.877008108533919e+04, -2.104726553742192e+05, -4.859948814131320e+04, 8.633876542468887e+04, 2.125871899886496e+06
505, 1.154143685397136e-01, 1.028129665200144e+00, 5.972966946735014e-02, -1.047032744473340e-04, -1.200017216320529e-03, 1.506096774849525e-02, -1.407966119483626e+05, -1.524366265974377e+06, 6.764189220811687e+04, -5.745185123425273e+04, -3.033709647985093e+04, 1.427901622041047e+05, 1.454021665831032e+06
506, 1.501513688452082e-01, 1.050018328890092e+00, 6.609732554808279e-02, -1.139561778000092e-04, -1.371664274063739e-03, 1.566933107167512e-02, -1.872257490156854e+05, -1.802537341039606e+06, 6.688742692251239e+04, -1.145703186602444e+05, 8.379257266383145e+03, 1.129636016951264e+05, 1.668468236193119e+06
507, 1.143014512171965e-01, 1.070383340144520e+00, 5.949536659727168e-02, -1.027507860212190e-04, -1.226878751732816e-03, 1.608698663254188e-02, -1.967002853155764e+05, -1.288640177132944e+06, 1.233538333684525e+05, -1.359215519092471e+05, -5.534361624231582e+04, 1.299322431768311e+05, 1.169563132543259e+06
508, 1.491056707606495e-01, 1.092107739744459e+00, 6.593005515901394e-02, -1.144275481140163e-04, -1.397421821306560e-03, 1.670006954741457e-02, 8.174393075328626e+03, -1.610456747951899e+06, -3.103899592638012e+03, -4.389866479972214e+04, 1.180668056339105e+04, 6.053052932256692e+04, 1.596818784837692e+06
509, 1.127772178626588e-01, 1.112237252589570e+00, 5.917111798519196e-02, -1.030934982214488e-04, -1.244934303583925e-03, 1.712172650432113e-02, -2.173519861683609e+05, -1.748360705217345e+06, 1.020902957162298e+05, 4.638576976717693e+04, -3.989424217214981e+04, 2.979896907210430e+04, 1.689981058585178e+06
510, 1.480618909384253e-01, 1.134148586110039e+00, 6.576170893807498e-02, -1.131747436488723e-04, -1.425122243333368e-03, 1.774408947016566e-02, -1.840124335023786e+05, -1.576978393745050e+06, 1.217819910388592e+05, -7.205893400219137e+04, 4.464247192290499e+04, 5.789046764965403e+04, 1.472874908481826e+06
511, 1.124651979590610e-01, 1.154133028786707e+00, 5.910424889294683e-02, -1.018984695462122e-04, -1.270725259341604e-03, 1.816634168742425e-02, -7.479949543559173e+04, -9.787143356490843e+05, 1.107424835557377e+05, -4.155246116338549e+01, -1.296030022518424e+04, 1.182770332122320e+05, 9.846266162200233e+05
512, 1.472811836936896e-01, 1.176125716650580e+00, 6.563488634120085e-02, -1.144289105536541e-04, -1.450358276220851e-03, 1.879933790818111e-02, -3.304910330480756e+05, -1.539320075005502e+06, 1.370083271924645e+05, -1.985284062794363e+05, 1.066954329622773e+04, 3.632163728633954e+04, 1.303386047900802e+06
513, 1.113819363411009e-01, 1.196217095779727e+00, 5.887077367595098e-02, -9.910628302155222e-05, -1.291275757150556e-03, 1.923124245224928e-02, -2.076847352136865e+05, -1.137879862114677e+06, 1.516216986967834e+05, -2.275418875442974e+05, 1.442217413741402e+04, 1.170621589633068e+05, 9.787176903111855e+05
514, 1.462034067434304e-01, 1.218102826820756e+00, 6.545852734152613e-02, -1.132413407398704e-04, -1.468956173789185e-03, 1.986492107198939e-02, 3.163641472719996e+04, -7.043578426516684e+05, 6.024213288932235e+04, 1.294135387411103e+04, -1.189437800643231e+04, 1.513521683898931e+05, 7.799434619280825e+05
515, 1.104489729292340e-01, 1.238163555087949e+00, 5.866804144917235e-02, -1.019455528921513e-04, -1.306711949929009e-03, 2.030097327084879e-02, -3.500902423243222e+04, -6.681320897957757e+05, 8.815686626086716e+04, -2.568077345757079e+04, 8.729957814464529e+03, 9.421625645615734e+04, 6.760261886766974e+05
516, 1.453302127391206e-01, 1.260015921322222e+00, 6.531454458059782e-02, -1.143058235943128e-04, -1.490889194873252e-03, 2.094377428578159e-02, -1.423984562200907e+05, -1.376402155598417e+06, 8.602856410759200e+04, -8.527771533783831e+04, -2.064117924402365e+04, 1.344114713637693e+05, 1.293907014414010e+06
517, 1.094084300527685e-01, 1.280042917054396e+00, 5.844012031916963e-02, -1.002166701963153e-04, -1.323192397415171e-03, 2.138177547516028e-02, -1.508508501902835e+05, -1.086500131052841e+06, 2.075231953057795e+03, -5.068461886845795e+04, -1.157958707054926e+04, 5.803655978844890e+04, 9.948433143305538e+05
518, 1.443660814380346e-01, 1.301875799407268e+00, 6.515438581713293e-02, -1.139153639186791e-04, -1.510894319375691e-03, 2.202069647341855e-02, -1.311022241894874e+04, -7.130438566591633e+05, 9.643791689162447e+04, -5.693222721883323e+03, 1.187194780711391e+03, 4.553845316744496e+04, 7.275161906559377e+05
519, 1.700029211773824e-01, 1.715881914566800e+00, 6.901912109203720e-02, -1.276976363008553e-04, -1.813882349074005e-03, 3.310345517480316e-02, -1.710642866561856e+04, -2.388670343502836e+05, 2.637385590327359e+04, -1.341158195073831e+04, -4.551739468374086e+03, 2.562863258214965e+04, 2.326589044450180e+05
520, 1.326160456088797e-01, 1.694835201273492e+00, 6.310093213040990e-02, -1.147467647929570e-04, -1.644531597270453e-03, 3.245624119978792e-02, -7.126075205916078e+03, -1.633160592058725e+05, 2.455963904018313e+04, 9.985004890916567e+03, 4.029288457893392e+03, 2.613580319482044e+04, 1.768280329083352e+05
521, 1.687069735539169e-01, 1.672689276573092e+00, 6.884255219623234e-02, -1.257616603075136e-04, -1.790848459713022e-03, 3.193421441346204e-02, 1.306143654152193e+04, -2.295193155017315e+05, 2.021847955392338e+04, -4.816248068031432e+03, 6.346711854848135e+03, 3.650895556920685e+04, 2.453042298907158e+05
522, 1.318113606745490e-01, 1.651574951598136e+00, 6.295321404468365e-02, -1.136416707897617e-04, -1.622014843662711e-03, 3.128764676498916e-02, 5.352142521897220e+03, -1.740845766245578e+05, 2.923220476856748e+04, 1.205825741990698e+04, 4.138925639552176e+02, 3.809895346602258e+04, 2.009091871574405e+05
523, 1.676126311221684e-01, 1.629773600334472e+00, 6.869194561441641e-02, -1.245022732207475e-04, -1.767981300413345e-03, 3.077570138657806e-02, 2.340393896563980e+04, -2.730603149840062e+05, 2.387962894913846e+04, 1.801832521670554e+04, 2.638002072697611e+04, 3.245244185391363e+04, 3.054199178295216e+05
524, 1.304414402703424e-01, 1.609087913424028e+00, 6.269955169798253e-02, -1.118643301416498e-04, -1.597448825950976e-03, 3.014117357411491e-02, -1.199615949671761e+04, -2.800328659323124e+05, 3.994933689881059e+04, 1.916558754637670e+04, 3.876856359891716e+04, 3.993395059384609e+04, 3.086231308188974e+05
525, 1.660485710684368e-01, 1.587053229119841e+00, 6.847428624837321e-02, -1.222083375295169e-04, -1.742427114559221e-03, 2.962469772914614e-02, 7.167697356007250e+03, -3.727403395410266e+05, 2.023352898005081e+04, 2.168865722579539e+04, 5.760611757118603e+04, 4.440453030151749e+04, 4.088477375456792e+05
526, 1.295017980180673e-01, 1.566515778819892e+00, 6.252396584497677e-02, -1.106780203660729e-04, -1.572598554012733e-03, 2.899615895155348e-02, -6.728869295622171e+03, -3.729716757835488e+05, 5.645912380078476e+04, -1.707109808644165e+03, 4.141332713067607e+04, 5.554085003303119e+04, 3.999507991001459e+05
527, 1.660552678147425e-01, 1.544538599564852e+00, 6.847522424214515e-02, -1.226253077152295e-04, -1.723638800631002e-03, 2.848412512167453e-02, 1.472709732584364e+04, -3.173416807547158e+05, 5.010494815452695e+04, -1.683684762293419e+04, 1.968895343853305e+04, 4.576746187475151e+04, 3.402396496834118e+05
528, 1.284817964455054e-01, 1.523815917255222e+00, 6.233188688650699e-02, -1.113164008929093e-04, -1.548135932827877e-03, 2.785022168948123e-02, -9.860619910716137e+03, -3.161101262929123e+05, 5.969830031928617e+04, -3.836987404321860e+04, 5.969967275920078e+03, 5.200144860221785e+04, 3.236999033150551e+05
529, 1.655526758451761e-01, 1.501548552549030e+00, 6.840468273995780e-02, -1.225372170976444e-04, -1.702331128684433e-03, 2.733433221951814e-02, 3.956584791089066e+03, -5.582972441046971e+05, -3.474793176040445e+03, -2.678469680304088e+04, -2.122829051817298e+02, 2.890044087426260e+04, 5.498473019154345e+05
530, 1.272148194182968e-01, 1.481492262369328e+00, 6.209114900112776e-02, -1.090530027352732e-04, -1.524046776241467e-03, 2.671852900376388e-02, -4.274277364213634e+04, -4.672243340771231e+05, 5.760786687376880e+04, -3.120509256071869e+04, -4.474312469226865e+03, 8.207140638640517e+04, 4.641534775647825e+05
531, 1.080634742115070e-01, 1.321884781284688e+00, 5.814267192423359e-02, -1.005784010367147e-04, -1.340916811880723e-03, 2.246477036496522e-02, -6.289989164071313e+04, -6.574431472636994e+05, 1.182757237974953e+05, -3.599507831549308e+04, -3.578864253726680e+04, 4.768444353749389e+04, 6.502560779285618e+05
532, 1.417612943408884e-01, 1.345104251004895e+00, 6.471544503940319e-02, -1.118640701497052e-04, -1.522412135633699e-03, 2.314360124468352e-02, -2.038042582106678e+04, -6.501994241034867e+05, 9.295206830463529e+04, -6.455758515617508e+04, 7.645204858337366e+04, 7.732607507561830e+04, 6.574138358970721e+05
533, 1.657929659438117e-01, 1.461077485551028e+00, 6.843844540829089e-02, -1.204296984690517e-04, -1.682171271688595e-03, 2.625630369394427e-02, -3.620445052081978e+04, -6.173223909533168e+05, 5.629575309404205e+04, -3.440833199200185e+04, 3.087319580881144e+04, 4.151262451380314e+04, 5.968936551214226e+05
534, 1.825032107737323e-01, 1.197876448458151e+00, 7.062742629658157e-02, -1.216685634181300e-04, -1.590606657470846e-03, 1.942678838352521e-02, -1.321650088212256e+04, -1.331472416582561e+06, 1.087635397790612e+05, -1.095132702417033e+05, -4.139507927024250e+04, 5.768840486041731e+04, 1.292571459487787e+06
535, 1.068598520998538e-01, 1.363612487512340e+00, 5.787373840219509e-02, -9.911380172862583e-05, -1.354310139648464e-03, 2.355436044132050e-02, -8.709246031624917e+04, -5.558704732714881e+05, 9.877520062373138e+04, -4.596075405970286e+04, 4.495596525909022e+04, 7.727856926051504e+04, 5.421945695329313e+05
536, 1.890048628994858e-01, 9.481148166075617e-01, 7.139837390717894e-02, -1.189580100253440e-04, -1.412259062874795e-03, 1.332802461333966e-02, -6.032933195162549e+05, -3.115657084974780e+06, 1.150675391221486e+05, -3.555205530150404e+05, -1.934062602378994e+04, 1.350733085778155e+05, 2.662975130493712e+06
537, 1.954833829979731e-01, 6.491837842304359e-01, 7.212363637347230e-02, -1.128974443615552e-04, -1.114913476847435e-03, 6.961385595163308e-03, -5.528147700053046e+05, -4.882727252284594e+06, -2.885738587462668e+04, -4.191168916033571e+05, -8.786579778309348e+04, 3.281189349645569e+05, 4.437742994732749e+06
538, 1.802797325289949e-01, 1.323988877239788e+00, 7.035372795120662e-02, -1.215952376404511e-04, -1.659372477430377e-03, 2.267437038010595e-02, -1.213503237268237e+04, -9.270344827054866e+05, 8.890268471660948e+04, -1.211157210882670e+05, 3.410361243017500e+04, 7.280513641990104e+04, 8.901198893343515e+05
539, 2.041111801105915e-01, 3.924845489564163e-01, 7.302533979312295e-02, -9.752693764331338e-05, -7.589663163025534e-04, 2.801297706273083e-03, -7.222516708919839e+05, -4.865976432332371e+06, -2.491353503031312e+05, -1.106029200464429e+05, 5.829985485197669e+04, 2.991740007275267e+05, 4.532547882024091e+06
540, 2.041111801100525e-01, 1.607515451041873e+00, 7.302533979306886e-02, -1.315941179712704e-04, -1.874587018447435e-03, 3.025373631383939e-02, -5.108443845189292e+04, -4.216159069434946e+05, 7.196088837654747e+03, -3.715795688529743e+04, 4.031296178153824e+04, 5.251667927317009e+04, 3.949081871135112e+05
541, 3.803629103839568e-02, 1.910447761193800e+00, 3.636619679820084e-02, -6.209005972440673e-05, -1.001878719973370e-03, 3.809765618001530e-02, -8.671333224885046e+03, -2.687012332537434e+04, 1.218997483480246e+04, 1.312982741920826e+04, 4.603888361941871e+03, 1.015106354702230e+04, 4.496384558769647e+04
542, 3.813173831412564e-02, 9.312700037869656e-02, 3.640887902853717e-02, -2.475206229588748e-05, -5.983434313895294e-05, 6.454392197325232e-05, -4.567149594804444e+05, 7.494259415758150e+05, -1.397770052031704e+05, -2.511367513474190e+05, -4.294635492260624e+05, -1.056434293246811e+06, 2.282361033973548e+06
543, 1.854196079771916e-01, 1.073334763481968e+00, 7.097862016868395e-02, -1.188564691655073e-04, -1.513046229292180e-03, 1.631597558169447e-02, -8.656107021139195e+04, -1.802124396127216e+06, 5.761520616705620e+04, -1.180458029551568e+05, 6.869787337069037e+04, 4.182258155382459e+04, 1.708654112202733e+06
544, 1.933807379495003e-01, 8.194632074728614e-01, 7.189290422019665e-02, -1.143731180535115e-04, -1.301575197211448e-03, 1.043527071315099e-02, -5.897650707039207e+05, -3.990065583904585e+06, 1.989778119456597e+05, -3.825484786731358e+04, 1.173187852445513e+05, 1.235184566786920e+05, 3.734614522034019e+06
545, 9.892132822031610e-02, 1.980196628924515e-01, 5.603282733402044e-02, -7.922757128444365e-05, -2.865502926706898e-04, 6.511930310279523e-04, -9.764875845004527e+05, -4.869461453435790e+06, -4.869597494963683e+05, -1.932395548569289e+05, -3.337434616040979e+05, -7.886236337331308e+04, 4.458933553766056e+06
546, 9.893681008968885e-02, 1.801979203168590e+00, 5.603653590427180e-02, -1.020581213163670e-04, -1.495306316473835e-03, 3.528329820677311e-02, 7.455460997749971e+03, -7.113097632251948e+04, 1.791585904841511e+04, 1.652222899604133e+04, 9.554851748360705e+03, 2.422772452543123e+04, 9.984150893686782e+04
547, 9.054297165125572e-02, 4.069850895806493e-01, 5.395429145136034e-02, -9.396403756778415e-05, -5.259329612529850e-04, 2.763432377375336e-03, -8.097921343604068e+05, -4.209706304951309e+06, -1.433788076925540e+05, 2.032750822910747e+05, -1.737007780691437e+05, 3.273611186074977e+04, 4.023116506633139e+06
548, 9.457903350431257e-02, 1.587705709777917e+00, 5.497373615791883e-02, -9.580477275864321e-05, -1.379798928354683e-03, 2.949058829699389e-02, -2.125496613735137e+04, -2.856848519924324e+05, 6.298622234620714e+04, 1.639209750798212e+04, 2.643088454695858e+04, 5.109638034600596e+04, 3.211316903086553e+05
549, 9.417986237517229e-02, 2.811216561356211e-01, 5.487446218216492e-02, -7.162828079001343e-05, -3.685916332552223e-04, 1.329779381461713e-03, -1.562914890795295e+06, -5.503835947203013e+06, -2.377165068343315e+05, -8.872784180706053e+05, 2.820484891482354e+05, 1.518296580560145e+04, 4.365643875633957e+06
550, 9.115478141416722e-02, 1.716109402715557e+00, 5.411109882202120e-02, -9.619938345421797e-05, -1.409669421452278e-03, 3.294407636084622e-02, -1.656796024707550e+04, -1.182423373699878e+05, 2.884569701751199e+04, 5.355621165885423e+03, 7.546867216351384e+03, 2.236889597679319e+04, 1.312081541484864e+05
551, 6.474043222187464e-02, 3.155500142322130e-02, 4.649936882987235e-02, -2.468775539879019e-05, -3.474682871782916e-05, 2.292072095896186e-06, -2.189841017903723e+06, -5.589815877931071e+06, -1.014268130643902e+06, -1.417634532275390e+06, -3.108561854011132e+05, -8.176659191528782e+05, 4.490374309087075e+06
552, 6.375916498932710e-02, 1.969459750510506e+00, 4.617832656265902e-02, -8.514842295125058e-05, -1.290498924978879e-03, 3.975025564970476e-02, 5.197122827626055e+03, -4.690435423273900e+03, 6.302838604824303e+03, 1.107041620758797e+04, 6.141648539278209e+03, 8.312062198490345e+03, 2.509860377513467e+04
553, 9.921305445929765e-02, 1.567469584834840e-01, 5.610262855063558e-02, -4.924488378486077e-05, -2.114291398087314e-04, 4.084342759053533e-04, -1.161731227715655e+06, -4.702863615176729e+06, -3.744385351388464e+05, -8.322498999761567e+05, -3.117783973771044e+05, 7.586052496795042e+04, 3.813713144210755e+06
554, 1.324108997867293e-01, 1.350249781687558e-01, 6.306336287046804e-02, -5.887705976726637e-05, -2.387215386655266e-04, 3.311122367884028e-04, -1.783933496326784e+06, -4.784669570741222e+06, -5.944902308829682e+05, -6.913680390458752e+05, -4.117130322158359e+05, 1.988974322697631e+05, 3.894107879897909e+06
555, 9.923386643357562e-02, 1.843256532405478e+00, 5.610760179454143e-02, -1.032437817675008e-04, -1.513121685243396e-03, 3.640190359196999e-02, 2.907072217083348e+03, -5.567821157258686e+04, 1.962219537248471e+04, 4.471529099953179e+03, 4.300242760661356e+03, 2.088591440905591e+04, 7.775325929973068e+04
556, 1.339337714694308e-01, 1.865913272846028e+00, 6.334079026210183e-02, -1.192515584197765e-04, -1.718655699507372e-03, 3.708847686068900e-02, 1.544974829308262e+04, -3.922656285078630e+04, 1.268386766298160e+04, 1.561451596649156e+04, 7.930131388710104e+03, 1.655601033749405e+04, 6.702344306549359e+04
557, 8.715229291190746e-02, 7.097723884306004e-01, 5.307021371536960e-02, -9.201304203834151e-05, -8.081083936006053e-04, 7.890546646016260e-03, -2.350966950930060e+05, -2.281375050827593e+06, 1.210943795403906e+05, -9.194652963498863e+04, 4.204846018097160e+04, 1.861271320836052e+05, 2.157289470003426e+06
558, 9.019681854712347e-02, 5.800627152378838e-01, 5.386520756264344e-02, -9.744840202612765e-05, -7.141992510704964e-04, 5.457274142141734e-03, -4.769882841728174e+05, -2.762817931935152e+06, 2.593635013547825e+05, -4.596594236849733e+05, 5.256829442920419e+04, -1.924888469652651e+05, 2.363510675651966e+06
559, 8.979020683589481e-02, 1.503661707926771e+00, 5.376022669015657e-02, -9.209760605607270e-05, -1.310859107282423e-03, 2.723052238427037e-02, -6.748088947626049e+04, -1.549684930197895e+05, 4.558835641022882e+04, -2.271538537964599e+04, 2.784266169158871e+03, 7.486968547587683e+04, 1.914393333415969e+05
560, 9.094030514154025e-02, 1.462695638004953e+00, 5.405622187024460e-02, -9.235533661911335e-05, -1.301011878529925e-03, 2.614098064144681e-02, -9.872858600820797e+04, -5.167592230204712e+05, 1.109193004976243e+05, -1.770093112734425e+04, -2.431555491143627e+03, 1.209361182759957e+05, 5.440503484860491e+05
561, 8.895663719458635e-02, 4.931686032797014e-01, 5.354386632899896e-02, -9.569538736221156e-05, -6.231827017940950e-04, 4.010058945868523e-03, -5.781309508970071e+05, -3.210812740154180e+06, -1.443237047450924e+05, -5.450019601446823e+05, 6.026043054440352e+04, -6.909469402634392e+04, 2.665901950206487e+06
562, 1.785181335306310e-01, 1.368513034503007e+00, 7.013312185246570e-02, -1.212160507935850e-04, -1.678749684354969e-03, 2.383670597962501e-02, -3.581866837900880e+04, -7.641925373612499e+05, 5.029898689805675e+04, -5.793639597733737e+04, 4.417847108010298e+04, 7.070745156847202e+04, 7.371238154870222e+05
563, 2.175265162571750e-01, 1.346279577409934e+00, 7.428765571230275e-02, -1.264444004045601e-04, -1.774606338333790e-03, 2.333436670108874e-02, 5.451962552244218e+04, -7.769451764958811e+05, 5.158410125714373e+04, -1.592701849796910e+04, 5.126966373819602e+04, 1.070593089495027e+05, 8.294432605013206e+05
564, 2.071408700400727e-01, 1.479241583764513e+00, 7.332499857111918e-02, -1.284128376933084e-04, -1.821574181826151e-03, 2.682648070884605e-02, 5.666268681230806e+03, -5.720641316456562e+05, -9.404955991364961e+03, -2.708151656186797e+04, 3.127105169598474e+04, 2.415488129026465e+04, 5.664581293497663e+05
565, 2.076601282234806e-01, 5.230344683332059e-01, 7.337548116303078e-02, -1.132367047217281e-04, -9.647731172428183e-04, 4.749765198269890e-03, -5.244183218377779e+05, -5.137400008775584e+06, -2.699089823831052e+05, -6.226367671438501e+05, -2.189399410498567e+05, 5.108490986802339e+05, 4.688435143205749e+06
566, 7.765648979072359e-02, 1.132849586146313e+00, 5.045059677046631e-02, -8.544739979887001e-05, -1.039412818548753e-03, 1.755250285523522e-02, -1.350272352668309e+05, -1.014179783728013e+06, 1.144818525329674e+05, -7.804377707438238e+04, 9.894614411894831e+02, 2.182294890912144e+05, 1.004214628936659e+06
567, 2.108646841066597e-01, 1.872649883320519e+00, 7.368151924999261e-02, -1.409033162089197e-04, -2.003618461508189e-03, 3.743280141525773e-02, 3.628548936529916e+04, -4.079221415474069e+04, 2.782964296525935e+03, 2.236120659849836e+04, 1.086842772031904e+04, 1.014836940931264e+04, 7.581673516335657e+04
568, 2.103502715747821e-01, 1.280051338324517e-01, 7.363302945986241e-02, -5.428951241859617e-05, -2.857995637022062e-04, 3.787272764268837e-04, -2.780577416404254e+06, -1.156828878951694e+07, -6.705067728721888e+05, -4.737861483142434e+05, -6.032168359066893e+05, 9.697930423989556e+05, 1.039607706203087e+07
569, 9.871157664550662e-02, 1.879043903490499e+00, 5.598253607701111e-02, -1.038365998827714e-04, -1.523460347199884e-03, 3.737072854938085e-02, 1.257028303619109e+03, -3.134262651001462e+04, 1.203397356225896e+04, 6.169880365304811e+03, 7.419566915959503e+03, 1.388973584239541e+04, 4.924839748435172e+04
570, 9.871662722411007e-02, 1.209464718072346e-01, 5.598374805732503e-02, -5.942747343162802e-05, -1.717326166627564e-04, 2.373435565731496e-04, -1.688982908012723e+06, -5.911787444603865e+06, -6.639774431638768e+05, -9.247013909708727e+05, -7.587992255281123e+05, 3.759131675855591e+05, 5.011733722646659e+06
571, 8.406557479009164e-02, 8.784021777204991e-01, 5.224275404081503e-02, -8.628499155954525e-05, -9.238226481628701e-04, 1.148773478301449e-02, -2.475705351619523e+05, -2.025432575010682e+06, 2.689102243881043e+05, -2.586186372191223e+05, -3.123252298521904e+04, 5.757039353152164e+04, 1.836050402490603e+06
572, 8.160017968147740e-02, 7.981236465648727e-01, 5.156550421890486e-02, -8.839128849962019e-05, -8.448431342306106e-04, 9.715019774420353e-03, -3.826489313284897e+05, -1.818763832151613e+06, 2.250615217038084e+05, -2.280941646395281e+05, 6.901688969496181e+04, 2.121968213642936e+05, 1.615426296537071e+06
573, 2.662001456607045e-01, 3.847206904177489e-02, 7.756852878299754e-02, -1.165403513376378e-05, -9.724387586817693e-05, 6.185387049437478e-05, -4.527105435483322e+06, -1.071831743717106e+07, -3.776358263581333e+05, -3.289153815827457e+06, -1.814722555905863e+05, 1.156709569567640e+06, 7.215857902097028e+06
574, 2.663441465341194e-01, 1.963823754843792e+00, 7.757543501967806e-02, -1.517927058279772e-04, -2.145407424893983e-03, 4.002294666539385e-02, 4.408942278848968e+04, -3.493230532406668e+03, -9.295595173219908e+03, 1.864449104071971e+04, 1.066574201691780e+04, 4.945806979374987e+03, 4.873086834642371e+04
575, 1.952416960752730e-01, 7.337486731193024e-01, 7.209733696215183e-02, -1.137418660589913e-04, -1.210108036462307e-03, 8.627072154049155e-03, -1.534429736128094e+05, -3.443351356962085e+06, 1.473318697157413e+05, -4.159677456177227e+05, -8.037303026716640e+04, 1.251366859868659e+05, 3.187508597716463e+06
576, 7.807645294298082e-02, 1.004707611604768e+00, 5.057120895411736e-02, -8.416533192212236e-05, -9.690315538537801e-04, 1.441051614567776e-02, -2.487077929577929e+05, -1.040498575488133e+06, 1.897528068956175e+04, -4.601676120195106e+04, -1.836922942860605e+04, 1.484736365961430e+05, 9.469587742840195e+05
577, 7.219367226410936e-02, 1.299494589781896e+00, 4.883853936911983e-02, -8.132151878975299e-05, -1.086270886184307e-03, 2.180314294133692e-02, -5.379075732707558e+04, -4.141740666157234e+05, 6.328963045976468e+04, -2.905830194866978e+04, 3.932246276320790e+03, 7.056367362827924e+04, 4.079237720950745e+05
578, 7.445109596752858e-02, 1.215535736569208e+00, 4.951470071117789e-02, -8.101338153763613e-05, -1.062840128113602e-03, 1.964273490269669e-02, -7.772104934633218e+04, -1.105825301562314e+05, 7.059271572643175e+04, -2.008192862645584e+04, 1.335905125992820e+04, 9.560065718713893e+04, 2.218109471469988e+05
579, 2.510790427554681e-01, 1.753092618198494e+00, 7.675492079091858e-02, -1.435084250855571e-04, -2.040598313301292e-03, 3.427947082048810e-02, -3.238574279522809e+02, -1.924642568403877e+05, -1.517632648946078e+04, -1.017952575785642e+04, -1.324310060083083e+03, 1.105123661425108e+04, 1.902209472583852e+05
580, 2.507555735598465e-01, 2.478920577340800e-01, 7.673556969385235e-02, -6.578248873850834e-05, -5.587872213710827e-04, 1.263037313066850e-03, -2.260684502398618e+06, -9.981867038479365e+06, -1.015720740014406e+06, -4.317376481793540e+05, -3.106043476462185e+05, -8.961465863813879e+03, 8.970399703039000e+06
581, 2.149819587036675e-01, 1.389481292859206e+00, 7.406090038116050e-02, -1.276527595404919e-04, -1.791594897663448e-03, 2.446427680363326e-02, -3.440145155448324e+04, -9.041963109987283e+05, -1.439743459433469e+04, -5.121521346336259e+04, 3.452457033850856e+04, 7.898965576143793e+04, 8.747097060286353e+05
582, 2.063115823196028e-01, 3.067670419484697e-01, 7.324384624825916e-02, -8.483829115304205e-05, -6.264517237517080e-04, 1.797579766997764e-03, -2.143196213284230e+06, -9.069022091389136e+06, -7.608610165309578e+05, -1.239145625186308e+06, -2.052353285259766e+05, -5.457456226424575e+05, 7.602780836732546e+06
583, 2.063115823190659e-01, 1.693232958050201e+00, 7.324384624820644e-02, -1.352668873793872e-04, -1.918391154240084e-03, 3.256734042267315e-02, -6.298736111457365e+02, -2.670473643665632e+05, 2.810493852484151e+03, -2.670100288479083e+04, -7.011660785174522e+03, 5.694047462770256e+04, 2.731483444215600e+05
584, 1.314499575742792e-01, 1.905077735180437e+00, 6.288656198846336e-02, -1.194063843201580e-04, -1.721074314579456e-03, 3.814494322195518e-02, 1.657300080580058e+04, -2.012628222323364e+04, 9.996905278855364e+03, 1.916760819752476e+04, 6.830584275731297e+03, 1.154443764523528e+04, 4.783718956127603e+04
585, 1.314499575751738e-01, 9.492226481896068e-02, 6.288656198862858e-02, -4.437638388296583e-05, -1.673295345618296e-04, 1.662122854915772e-04, -2.091234347200621e+06, -7.832128708430042e+06, -7.246937734144012e+05, -9.651414042268962e+05, -2.379942400638255e+05, 6.017923724963696e+04, 6.515141257250253e+06
586, 2.179184418425947e-01, 1.302525321741674e+00, 7.432206102501368e-02, -1.257091269365198e-04, -1.749427105993174e-03, 2.219266478645926e-02, -1.838340036600672e+04, -1.066735109035269e+06, 2.518637192533240e+04, -1.335819021321146e+05, 1.736062023414260e+04, 5.751364499454647e+04, 1.002134793924939e+06
587, 3.943790414033689e-02, 1.878580341299297e+00, 3.698700568408212e-02, -6.254575716087979e-05, -1.006856394221389e-03, 3.723636932983262e-02, -1.955803173444867e+04, -3.629001565737611e+04, 9.142844930913607e+03, 1.608625064945898e+03, 5.887944910801680e+03, 1.948715304434978e+04, 5.075601180906442e+04
588, 3.896228161136185e-02, 1.227744222194684e-01, 3.677775718209499e-02, -3.021775523705987e-05, -8.313777789596688e-05, 1.563640988107989e-04, -5.149642475270656e+05, -1.544032995212213e+05, -1.976985629943830e+05, -4.629230267863444e+05, -3.642130035330935e+05, -2.559031889380561e+05, 9.086337444654610e+05
589, 6.658692789116968e-02, 1.777969782566846e-01, 4.709492619590433e-02, -6.251949335877097e-05, -1.998001882150061e-04, 4.727894319257204e-04, -1.720782757840256e+06, -4.580049114861308e+06, -6.520408620237757e+05, -1.467700833149120e+06, -3.768555755698512e+05, -2.633259691098500e+05, 3.297368211713792e+06
590, 6.547189294057310e-02, 2.165526413364716e-01, 4.673661657385060e-02, -5.599653520926146e-05, -2.201012676823627e-04, 7.333734967120030e-04, -1.838907142972444e+06, -4.638884726871373e+06, -4.670580115502033e+05, -7.087561747722159e+05, -2.165662529550135e+05, -6.251468156809023e+05, 3.774794175359398e+06
591, 6.658481858292289e-02, 1.822187812097637e+00, 4.709425216996254e-02, -8.335480059388709e-05, -1.260303099269652e-03, 3.576357938325234e-02, -9.688775373383285e+03, -4.713260396765593e+04, 5.517484151749572e+03, 6.038401961002561e+03, 7.103937639255435e+03, 1.678178636543564e+04, 5.767045070026799e+04
592, 6.590085213684688e-02, 1.784186826699192e+00, 4.687493623335342e-02, -8.176778106151923e-05, -1.239773299764661e-03, 3.473302630801055e-02, 6.001416699736183e+00, -2.863375553864893e+04, 1.432883181316878e+04, 1.721204578262960e+04, 1.038934855617668e+04, 2.661366883397276e+04, 6.836435204150998e+04
593, 2.554425427962037e-01, 1.365895489448491e+00, 7.700791864369805e-02, -1.296561478395797e-04, -1.856894196799169e-03, 2.392726954625985e-02, -7.563598148709823e+03, -7.880372951327789e+05, -3.894747964996497e+04, 1.896223078751893e+04, 1.869672441033725e+04, 4.103164535747882e+04, 8.007469836637959e+05
594, 8.036552181268936e-02, 1.938498479891003e+00, 5.122068677858338e-02, -9.512676600134662e-05, -1.416063675364128e-03, 3.894478656584775e-02, 1.098294165394008e+04, -6.537124852702163e+03, 8.646698287544954e+03, 1.627578765925559e+04, 8.402819769890815e+03, 1.219820570971595e+04, 3.619675323766813e+04
595, 8.012159219961587e-02, 6.352878730279030e-02, 5.115210953818961e-02, -4.072927160482000e-05, -8.583554102670199e-05, 5.085927896112535e-05, -1.979328378200441e+06, -5.125736069142337e+06, -1.064807147003262e+06, -9.118176977589994e+05, -1.016140796233623e+06, -4.710118450068494e+05, 4.643588034508152e+06
596, 5.919013261391057e-02, 1.471086517734091e+00, 4.464032799593770e-02, -7.105980635126879e-05, -1.055188671160723e-03, 2.629675352624904e-02, -5.356829402103215e+04, -3.213333878510396e+04, 4.900267358231058e+04, -2.769494125278988e+03, 5.048578898494487e+03, 5.014714516212606e+04, 1.295205172166600e+05
597, 5.870722877609913e-02, 1.439285088987079e+00, 4.447344480319287e-02, -7.180273274913496e-05, -1.037116372280676e-03, 2.545035011013017e-02, -1.562423372579029e+05, -4.561169028347749e+05, 1.153422841308043e+05, 2.881749251253823e+03, -2.289584580412475e+04, 9.709570618400113e+04, 4.824203681136849e+05
598, 8.683240200802150e-02, 1.426386016818241e+00, 5.298547436297212e-02, -8.986265185680076e-05, -1.255036219742635e-03, 2.516810710834588e-02, -1.046453111219141e+04, -4.316432828583904e+05, 1.399828128545221e+05, 1.906806485336294e+04, 2.029922408405677e+04, 9.355542791350884e+04, 5.262906141164062e+05
599, 5.915548553472433e-02, 1.522792393761550e+00, 4.462838353222883e-02, -7.231431269891231e-05, -1.074192547810285e-03, 2.767668150971014e-02, -4.804639286976281e+04, -1.300312954663052e+05, 4.643129574147070e+04, -1.520146520910104e+03, 1.740625781149704e+03, 4.390992947142037e+04, 1.579923933414301e+05
600, 5.609612402529396e-02, 1.408019410100749e+00, 4.355575501045484e-02, -6.858657299493864e-05, -9.993384103914090e-04, 2.461561058518727e-02, -1.053924250683769e+05, -3.588217424770328e+05, 9.271880603315608e+04, 2.285912348111825e+04, 6.106157902696186e+04, 1.130036607306061e+05, 4.341231891123255e+05
601, 2.769201233109034e-02, 1.424714175470418e+00, 3.133249648685858e-02, -4.094490294681563e-05, -6.824887243890437e-04, 2.499753677365150e-02, -7.769253664017539e+04, -3.235021104415531e+04, 2.542993899527211e+04, -4.588587380135160e+04, 7.277598343131162e+03, 6.102022819856805e+04, 1.220440194433751e+05
602, 3.408702661277815e-02, 1.956536847656533e-01, 3.454487144662393e-02, -3.263763438454692e-05, -1.130241872901658e-04, 5.204493082371156e-04, -8.475946694301254e+05, -9.184831766908530e+05, -1.235532816352219e+04, -6.774735376698133e+05, 2.055227037721031e+04, -8.036107787757518e+04, 2.590846799505014e+05
603, 3.408702661172716e-02, 1.804346315233484e+00, 3.454487144612420e-02, -5.539726816750079e-05, -9.126764810943357e-04, 3.521402953557522e-02, -2.749988072202205e+04, 8.538017124902626e+03, 8.404893951194188e+03, -6.249370907533567e+03, 1.937349266316118e+03, 3.132218014318374e+04, 6.442758839976204e+04
604, 3.275055449136315e-02, 2.803967913335501e-02, 3.390250322338241e-02, -1.570344043581168e-05, -2.035679584003582e-05, -1.650171967657911e-05, -6.843581688733534e+05, -9.586795354652901e+05, -2.448294833323091e+05, -5.344368189140083e+05, -4.258581645395107e+05, -1.595500311962304e+06, 2.915408881443779e+06
605, 3.210175487616869e-02, 1.972782760151582e+00, 3.358549622192154e-02, -5.785923303408547e-05, -9.494213465854051e-04, 3.977631182517422e-02, -1.431095552532592e+04, -4.595437532197539e+03, 5.451566641272271e+03, 5.043872310851018e+03, 2.516673861248453e+03, 9.620523730492998e+03, 2.582211419302997e+04
606, 1.768690032286768e-01, 1.411673751773708e+00, 6.992356176737395e-02, -1.227108656396518e-04, -1.695412481752839e-03, 2.497045999025502e-02, -2.293338429671892e+04, -6.158588816914334e+05, 5.637916981110851e+04, -1.448815310705515e+04, 1.413418943602777e+04, 9.369659045502805e+04, 6.269861814919552e+05
607, 7.198498889890115e-02, 1.257374263116105e+00, 4.877530087849526e-02, -8.037115702661489e-05, -1.064045295838839e-03, 2.071362604439951e-02, -2.158646298553925e+05, -8.099703950649420e+05, 1.730113860985313e+05, -2.626668125669436e+04, 1.168408831776529e+04, -1.652800550865414e+04, 7.697909940492866e+05
608, 4.537764111706244e-02, 1.280031365918857e+00, 3.948823239154914e-02, -5.951389194962242e-05, -8.349134746011740e-04, 2.123767419891648e-02, -6.239338667577700e+04, -8.675109729145042e+03, 2.413080394460094e+04, -7.104792484921747e+04, -2.857869485572445e+04, 9.620973752340380e+04, 1.881263258199967e+05
609, 7.721325867598300e-02, 1.173545781530269e+00, 5.032280691504885e-02, -8.416112823073085e-05, -1.061068490354842e-03, 1.857891023000761e-02, -9.743083860397676e+04, -1.006634109342039e+06, 2.144041094370255e+05, -9.105861299574684e+04, -9.000529698787359e+03, 1.825653092368328e+05, 1.034710352026172e+06
610, 4.417654237625646e-02, 1.154114137997919e+00, 3.899838077900646e-02, -5.976329450013695e-05, -7.684912947943587e-04, 1.801167106047388e-02, -2.000542352644803e+05, -5.669300949580780e+05, 1.071908560907854e+05, -3.600317438323009e+04, -7.468934878802444e+04, 1.196570533607146e+05, 5.620103091662164e+05
611, 4.595143345404346e-02, 1.113426794768241e+00, 3.971957195344833e-02, -6.053815444943648e-05, -7.650971353964451e-04, 1.699180394728704e-02, -2.056037034302023e+05, -7.598105399529729e+05, 9.566161596851506e+04, -8.092075070810004e+04, 8.261604254752393e+04, 1.078027929853025e+05, 6.889014395677913e+05
612, 1.671208434768998e-02, 1.120641316602398e+00, 2.472358082091032e-02, -2.327013672757949e-05, -3.919948061847159e-04, 1.710375790245305e-02, -8.582448632413942e+04, 3.852939438418397e+05, 1.077457346472976e+04, -1.107660965792473e+05, -2.586894485361475e+04, 1.232221583456439e+05, 5.312552056959140e+05
613, 4.417189624360549e-02, 1.075636345714450e+00, 3.899647088367313e-02, -5.755726474487854e-05, -7.270542453493567e-04, 1.605128562178618e-02, -9.269074264511027e+04, -8.223228873841160e+05, 9.826618119866055e+04, 7.648583196033220e+04, 1.237781471760277e+05, 8.570603906555609e+04, 8.839620119974923e+05
614, 7.553398805368566e-02, 1.046600217324295e+00, 4.983398336865665e-02, -8.493864925438951e-05, -9.737592263973915e-04, 1.542016345315190e-02, -3.476523352585711e+05, -1.592918814461560e+06, 7.453175581605747e+04, -3.894594670232137e+04, -3.934224443323420e+04, 7.620843068431261e+03, 1.432442868794560e+06
615, 4.476818001920375e-02, 1.187443786179675e+00, 3.924063491037950e-02, -5.841662818584226e-05, -7.887125567915265e-04, 1.885855387371534e-02, -6.278518170422898e+04, -4.415220674784205e+04, 9.580798529531497e+04, 6.129918157944939e+04, -3.315273459193786e+04, 1.086993718873041e+05, 2.823358603712834e+05
616, 3.982357570322093e-02, 1.237917533417310e+00, 3.715565209740393e-02, -5.332579273740687e-05, -7.558895929538172e-04, 2.013961107701928e-02, -1.144981433916427e+05, -1.585110201361299e+05, 1.071872544578383e+05, -8.544558452950543e+03, 1.538744778317873e+04, 5.608534579484474e+04, 2.498818896928698e+05
617, 9.326999767045521e-02, 1.545742274332135e+00, 5.464693944149442e-02, -9.488560485372555e-05, -1.352022284603377e-03, 2.836360779093769e-02, -5.320662889909860e+04, -4.065461825912465e+05, 9.171396228772607e+04, 1.453974654758563e+04, 8.802937730481517e+03, 1.030795073954497e+03, 4.229017628754679e+05
618, 5.963493667764905e-02, 1.564090145234508e+00, 4.479327701591907e-02, -7.400362605002736e-05, -1.096538376017100e-03, 2.878359723011786e-02, -8.848837750402121e+04, -2.441051055207531e+05, 5.508089690911665e+04, -2.813097690194245e+04, -3.388054315400949e+04, 4.389164823247779e+04, 2.357477945161416e+05
619, 5.740610329235285e-02, 1.603808803917108e+00, 4.401942549573220e-02, -7.211172548937314e-05, -1.091859126622331e-03, 2.984570408670858e-02, -4.788856257421699e+04, -1.593347815694196e+05, 4.161434984443415e+04, 5.661993771623414e+03, 1.053671558207500e+04, 4.301243428299298e+04, 1.798178712382421e+05
620, 3.591589208741414e-02, 1.583149135141354e+00, 3.540206242191705e-02, -5.308248817532078e-05, -8.513881790580546e-04, 2.924603912544049e-02, -3.702872582501816e+04, 1.087478088749197e+04, 1.893523151618314e+04, -5.759168888838366e+03, -2.311800287235584e+04, 3.446366310527566e+04, 8.953656843874422e+04
621, 9.502518878813418e-02, 1.630217922648156e+00, 5.508430954846364e-02, -9.630366197950491e-05, -1.401499813208168e-03, 3.063550769357712e-02, -2.470112765010295e+04, -2.107872899923999e+05, 5.014004579893145e+04, 9.534746852984483e+03, 2.079168321304053e+04, 4.656346766974591e+04, 2.398216041851368e+05
622, 5.860101190186892e-02, 1.639719040771793e+00, 4.443662101985321e-02, -7.339985487498507e-05, -1.117678902407299e-03, 3.081510997232073e-02, -3.743038247520156e+04, -1.038468104978105e+05, 2.036390044429608e+04, 3.143310515386232e+03, 3.124063784891400e+04, 3.790280510570980e+04, 1.312782991300487e+05
623, 9.102162523660917e-02, 1.670031241448017e+00, 5.407704069480956e-02, -9.523435409577313e-05, -1.389884438481713e-03, 3.170000739615566e-02, -4.007888712832140e+04, -1.590070741107307e+05, 3.619414054485356e+04, -1.455863186030739e+04, 1.401044104496796e+04, 2.385418878631242e+04, 1.551008270459742e+05
624, 6.466648925505014e-02, 1.691709456457092e+00, 4.647528783712948e-02, -7.910705148236495e-05, -1.193293246274624e-03, 3.222976822197976e-02, -5.574824459225999e+04, -1.135192846158275e+05, 2.294808574245881e+04, -2.512956445362655e+04, 1.784394569519630e+04, 1.942143395835354e+04, 9.854191512873863e+04
625, 5.765253775513285e-02, 1.728668538268514e+00, 4.410591121320179e-02, -7.482799168551796e-05, -1.143314033429595e-03, 3.321421771803528e-02, -3.978781307275310e+03, -8.677529591487217e+04, 1.210574302367817e+04, 2.756612238973224e+04, 9.624404872472202e+03, 1.807091830695479e+04, 1.102694911362508e+05
626, 8.152263478005312e-02, 8.391902173245233e-01, 5.154395930505434e-02, -8.869879318268610e-05, -8.766379352529163e-04, 1.060815554790698e-02, -4.887854366945965e+05, -2.346689162903084e+06, 2.587668869604577e+04, -4.087153005608036e+05, -9.734906546738461e+03, 9.220514018891232e+04, 1.906509523905577e+06
627, 5.071739076276804e-02, 8.620268733735637e-01, 4.157915051642049e-02, -6.770047847787057e-05, -6.730174364327976e-04, 1.103988053560303e-02, -4.218181990129461e+05, -2.028368363982319e+06, 9.314358581560380e+04, -1.311905912516001e+05, -5.117840649101249e+04, 2.185435498841146e+05, 1.819215322699966e+06
628, 4.974046678553729e-02, 8.962294908606233e-01, 4.120669212947173e-02, -6.137076585690376e-05, -6.868793318853365e-04, 1.180928171781526e-02, -4.299659573861416e+05, -1.190173649717340e+06, 7.883980135396007e+04, -2.281825004819343e+05, 2.717553087074070e+04, 1.142638324153520e+05, 9.121737644468537e+05
629, 5.712641950791791e-02, 8.204428339988850e-01, 4.392098870423177e-02, -6.954238454481214e-05, -6.952303446179503e-04, 1.013469792334106e-02, -6.558846772441806e+05, -1.439651244489750e+06, 1.695482873117223e+04, -5.903706006272739e+05, 4.781795137725970e+04, 2.062579035738619e+05, 8.973733367650739e+05
630, 4.865807700078578e-02, 7.773245542266857e-01, 4.078887890061712e-02, -6.312366188014791e-05, -6.072680661250787e-04, 9.188379087892190e-03, -2.124725095218848e+05, -3.794624095164127e+05, 2.255206905655544e+05, -3.089281558811142e+05, -8.372121748037198e+04, 1.348797807460070e+05, 4.992657987748383e+05
631, 8.160445924158882e-02, 7.560224497846468e-01, 5.156669280779375e-02, -9.290766640792508e-05, -8.143846924583351e-04, 8.830140582692506e-03, -4.361353259103479e+05, -2.624397223579613e+06, 2.417200126061765e+05, -1.522089491618031e+05, -7.740033939727509e+04, 2.643503477326292e+05, 2.427614269674097e+06
632, 5.212564917522888e-02, 7.244395515203581e-01, 4.210848813111952e-02, -7.141971990269266e-05, -6.001802075390143e-04, 8.105018871878658e-03, -6.320006553177377e+05, -2.894234035678376e+06, 2.636574067837727e+05, -1.184761022116850e+05, -8.371047312015007e+04, 1.287871335642652e+05, 2.611981261654247e+06
633, 5.509884113292490e-02, 6.947440329671086e-01, 4.319825272518370e-02, -7.176406653229290e-05, -5.978466493592044e-04, 7.510641354618068e-03, -5.104155931963291e+05, -1.814971462760145e+06, 1.534098444562843e+05, -2.842814606005703e+05, -1.209359682372441e+05, 2.066545066048251e+05, 1.513474741908088e+06
634, 8.353182671097109e-02, 9.214054998336818e-01, 5.209739547033386e-02, -8.705922589208326e-05, -9.533283512370219e-04, 1.246740221341890e-02, -3.055325026268972e+05, -1.071519082447128e+06, 6.358649612689301e+04, -2.841944556429690e+04, 5.132330895342700e+03, 2.211581984246117e+04, 9.431161370978877e+05
635, 4.805952850691014e-02, 9.285996559132867e-01, 4.055546603276206e-02, -5.832216199158635e-05, -6.862250820769272e-04, 1.254768992241911e-02, -1.786974233206684e+05, -1.276023249438387e+05, -2.510259819679136e+04, -1.261159333544394e+05, 5.234983690159543e+04, 1.659003969461352e+05, 3.088197345747144e+05
636, 7.860563903457965e-02, 9.597688992079110e-01, 5.072254283873438e-02, -8.513401771398366e-05, -9.390553640162697e-04, 1.335031566735723e-02, -2.569867687081387e+05, -1.528672187285387e+06, 5.991484784138762e+04, 1.503013215450523e+05, -5.733183868824954e+04, -1.457038591825637e+03, 1.523694940879345e+06
637, 4.453698914955241e-02, 9.777307006670839e-01, 3.914619472705205e-02, -5.904995653594966e-05, -6.763657972763543e-04, 1.369065757911884e-02, -5.732952418069636e+05, -1.236721279191894e+06, 1.075794871973131e+05, -2.538199183379311e+05, -1.916182926921983e+05, 1.913818748235603e+05, 1.004440467021274e+06
638, 4.358672005092512e-02, 1.020200403690523e+00, 3.875498091676229e-02, -5.557673131211839e-05, -6.899689206488480e-04, 1.470089891266183e-02, -1.905123056681995e+05, -4.507797977294950e+05, -1.474303293766366e+04, -1.812229364623407e+05, 1.270684808220141e+05, 1.234551285585629e+05, 4.062732509632405e+05
639, 9.796465590224387e-02, 1.758865702110656e+00, 5.580274085479289e-02, -1.004014443708838e-04, -1.472127473921031e-03, 3.411455941013667e-02, 1.477548054929496e+04, -4.125672691560319e+04, 2.558557711319855e+04, 4.766455521925796e+04, 1.356913307777232e+04, 2.977091667786117e+04, 1.060155591735728e+05
640, 9.789815669042501e-02, 2.392691341359144e-01, 5.578667966535809e-02, -8.148539883427730e-05, -3.304573616313249e-04, 9.698301005878207e-04, -1.439535021879100e+06, -5.199206801611716e+06, -7.869433111627290e+05, -3.722467883299305e+05, -1.582347211011113e+05, -1.054677682123756e+05, 4.610120808996010e+06
641, 6.403205839050743e-02, 2.450754881417436e-01, 4.626793021379785e-02, -6.658587675680873e-05, -2.524697326473139e-04, 9.430578923064828e-04, -4.148651729844529e+05, -3.667568859161284e+06, 1.232356700881376e+05, -2.153998222587722e+05, 2.729955950191822e+05, -1.128736589702495e+04, 3.396791496031361e+06
642, 6.033513938009910e-02, 3.025067900123782e-01, 4.503258847867687e-02, -6.562373172851188e-05, -3.092577208723525e-04, 1.470317562117338e-03, -1.635562041609874e+06, -5.299893277615801e+06, 2.894712820997032e+04, -5.676746657619758e+05, 8.300381121908687e+04, 4.004616664670132e+05, 4.357188459106859e+06
643, 9.554140532461186e-02, 3.233824241857499e-01, 5.521174059394998e-02, -8.588055514002768e-05, -4.454256245140682e-04, 1.762024805151773e-03, -7.834299847995208e+05, -3.888196893669279e+06, -3.343893710069789e+05, 9.742257090984564e+04, 1.399786624861319e+05, -3.614772857387202e+05, 3.733168756749263e+06
644, 6.002970541863839e-02, 3.311494413194225e-01, 4.492841293037583e-02, -6.467484786074063e-05, -3.288646714484731e-04, 1.761634676094436e-03, -6.137603883901404e+05, -1.433749165238054e+06, -3.670939048339635e+04, -1.798664037971504e+05, 4.507368318687744e+04, -1.106863430235433e+05, 1.123977682217689e+06
645, 9.076591326039690e-02, 3.625128473477960e-01, 5.401152674384405e-02, -8.510212165285802e-05, -4.656306621455934e-04, 2.209428035798738e-03, -1.305250978838326e+06, -5.722824497502777e+06, -2.040257084867884e+05, 5.446709729703481e+04, 9.672190560413622e+04, -3.922808422812726e+05, 5.290088962698456e+06
646, 6.369527182337245e-02, 3.802262348010854e-01, 4.615731156021322e-02, -7.287110325421287e-05, -4.001370064286658e-04, 2.345328090021880e-03, -8.219408105318765e+05, -3.214580551182632e+06, -1.179589603569587e+05, 1.793852502933720e+05, 7.465857741792715e+03, -5.230737079857433e+05, 3.160050602940988e+06
647, 5.452797031875917e-02, 4.206414720218085e-01, 4.299182201792849e-02, -7.294106241317183e-05, -3.963615638806969e-04, 2.857315676499161e-03, -1.255166160901818e+06, -4.893165471013064e+06, -2.519057731195605e+04, -1.402755281622560e+05, -3.683332635102114e+05, 9.655586296467943e+04, 4.355556501148283e+06
648, 8.781921534530399e-02, 4.482618089394060e-01, 5.324613784397886e-02, -9.618801298015480e-05, -5.709455211295456e-04, 3.327740189827844e-03, -8.753429825228293e+05, -3.984067923266444e+06, 1.983312186240476e+05, -3.627964328748818e+05, -8.298071865118347e+04, 2.752884844973463e+05, 3.447644910642177e+06
649, 6.188219059824904e-02, 4.684490984462399e-01, 4.555523731744079e-02, -7.722452887308343e-05, -4.709982052305897e-04, 3.556382379903196e-03, -7.683825374918943e+05, -1.888218250773350e+06, -6.198308315661749e+04, -6.375802463297790e+05, 1.225236915135860e+05, 2.109829320840303e+05, 1.267959623476906e+06
650, 5.212954040871659e-02, 5.055791006533221e-01, 4.210993858628924e-02, -7.353571049714680e-05, -4.379533777287337e-04, 4.112783428907557e-03, -3.668838597720992e+05, -1.851368122177999e+06, -2.325845504487507e+05, -2.056014752897333e+05, -6.495817544972907e+04, 8.383324941641814e+04, 1.632530596516107e+06
651, 9.021087598551458e-02, 5.361801446940131e-01, 5.386883044587590e-02, -9.544310420834395e-05, -6.680624629206676e-04, 4.710291559273591e-03, -7.295637918094557e+05, -3.223780819414583e+06, -9.196564103435891e+04, -4.306396415624343e+05, -1.865389516388038e+04, -3.236280594119310e+04, 2.661881839664727e+06
652, 5.286047880656600e-02, 5.486690864210947e-01, 4.238123692677784e-02, -7.010237824464638e-05, -4.815081231555052e-04, 4.817691167963364e-03, -6.661153161618011e+05, -2.662184267077429e+06, -8.130397803121153e+04, -8.089224764902152e+04, 1.860188214347595e+05, 1.290011822958077e+05, 2.380858421780480e+06
653, 5.017753988289197e-02, 5.906945581340589e-01, 4.137386784405137e-02, -6.982777997932219e-05, -4.896166509856872e-04, 5.536859886144135e-03, -4.606115095143148e+05, -1.969969825680338e+06, 9.819231021897675e+04, -2.855017034489535e+05, 1.275495428861019e+05, 1.922847621141805e+05, 1.661860869339084e+06
654, 8.916818140919441e-02, 6.226307057121112e-01, 5.359892071992231e-02, -9.865038578828200e-05, -7.487188043984114e-04, 6.222854371504535e-03, -9.862359541727984e+05, -3.224426503673806e+06, 2.772212893235288e+05, -7.133114137806941e+05, -8.655045595130473e+04, 1.930888593863586e+05, 2.461649785114139e+06
655, 4.979945398298233e-02, 6.331698370930384e-01, 4.122930535137744e-02, -6.641709310337141e-05, -5.314134906731910e-04, 6.317404536827984e-03, -4.077993813310920e+05, -1.921808655641313e+06, 2.402505441224223e+05, -7.611283683426701e+04, 2.741253951617779e+05, 2.750210821919370e+05, 1.878808533792346e+06
656, 2.872217688565847e-02, 5.700601329912567e-01, 3.187505559587268e-02, -4.184957369007467e-05, -3.232282852938667e-04, 5.113847230812485e-03, -4.943997527180040e+05, -1.193549526518047e+06, 1.888660936615788e+05, -2.257585448403052e+05, 9.488974540826108e+04, 2.562855584350574e+04, 9.406342586124861e+05
657, 8.547227158381229e-02, 6.666917305998281e-01, 5.262257291683908e-02, -9.585702835875065e-05, -7.509956910771720e-04, 7.048365014025743e-03, -6.241378420798208e+05, -2.283308632814056e+06, 2.212245809588465e+05, -3.462080289058698e+05, -8.662077544568473e+04, 1.215935511385656e+05, 1.872140784952394e+06
658, 7.780039629487429e-02, 1.089798820013876e+00, 5.049197760224462e-02, -8.343917529982092e-05, -1.015423974659313e-03, 1.648092359257956e-02, -1.160820397055258e+05, -8.669687427233050e+05, 1.085452795965856e+05, 5.082020362904007e+04, 8.993412590041824e+04, 1.610973911444997e+05, 9.243806885131233e+05
659, 7.343040727462272e-02, 1.340944661580461e+00, 4.921076112649886e-02, -8.083055356702951e-05, -1.113990132902039e-03, 2.288774728801366e-02, -2.194577046162798e+04, -5.902308954279134e+05, 3.611896470113983e+04, -5.833270282156863e+04, -7.727914747187333e+02, 9.202968119065814e+04, 5.769902571227734e+05
660, 4.210350134112581e-02, 1.328454230774304e+00, 3.813437623396372e-02, -5.701998351551052e-05, -8.191802658552710e-04, 2.249271693609901e-02, -8.876211458184684e+04, -3.053960798522706e+05, 1.073425980826830e+05, -3.791520102054102e+04, -6.214407704727624e+03, 1.104556813215808e+05, 3.630638804969080e+05
661, 4.016369987672214e-02, 1.356161564918822e+00, 3.730362652599143e-02, -5.585895678864028e-05, -8.108085112141367e-04, 2.321442867018422e-02, -1.343011348171268e+05, -5.995083725250275e+05, 6.835793485725856e+04, -4.277227410119427e+04, -4.188331446592967e+04, 1.387946677015273e+05, 5.868970369979027e+05
662, 2.912897968369101e-01, 1.777041691787146e+00, 7.854165017626916e-02, -1.474881077967822e-04, -2.100155373408706e-03, 3.501181657303301e-02, 5.347525066289824e+04, -1.236246433205059e+05, -1.964797353854876e+04, 3.357629037637106e+04, -9.756262369674654e+03, 1.703887118928791e+04, 1.747881267858363e+05
663, 2.913269751278283e-01, 1.726930251007772e+00, 7.854275685027730e-02, -1.451690521308419e-04, -2.079213825932682e-03, 3.365585478445864e-02, 6.660024335191079e+04, -2.159206019698791e+05, -3.451945619403388e+04, 1.758657721360812e+04, 6.906632429059056e+03, 2.009010765108033e+04, 2.707428774290550e+05
664, 2.925576929084590e-01, 2.244172291418363e-01, 7.857884589441555e-02, -3.839402032223757e-05, -5.516222846354592e-04, 1.069207945367259e-03, -2.527884130926277e+06, -8.886997189450402e+06, -5.917986985364935e+05, -1.893848852729898e+06, -6.896807966654074e+04, -2.538140232149138e+05, 6.791938839844036e+06
665, 2.908140155188764e-01, 2.744793631933030e-01, 7.852740230732082e-02, -6.914855802277187e-05, -6.433559341659754e-04, 1.529664420771125e-03, -1.490709695098335e+06, -6.434437434734498e+06, -6.830175794889082e+04, -7.873942104512936e+05, -2.392426592590027e+05, -2.218105651307701e+05, 5.361473978917849e+06
666, 1.724037479208123e-01, 1.848476046027799e+00, 6.934127250046043e-02, -1.312562011432789e-04, -1.875230887949917e-03, 3.669669779196510e-02, 2.429669527112770e+04, -7.691986800704713e+04, 7.353121480429449e+03, 1.018948689946672e+04, 5.736882390356771e+03, 1.795390217406911e+04, 1.012121105208559e+05
667, 1.719676083459815e-01, 1.519083283186002e-01, 6.928322428717013e-02, -6.863325159452149e-05, -3.006106766433037e-04, 4.491417897749192e-04, -2.068394356393278e+06, -7.187296315855437e+06, -9.416596143229328e+05, -7.825524317159613e+05, -4.601851145950046e+05, 2.105013459193953e+05, 6.153621489038730e+06
668, 2.498814896736744e-01, 1.893039811016217e+00, 7.668286522840806e-02, -1.477734634021434e-04, -2.093630948923078e-03, 3.806812701875970e-02, 4.397593168243927e+04, -4.216699526846873e+04, -9.593540893561989e+03, 1.656454034287638e+04, 7.712458059234192e+03, 1.123602244895948e+04, 8.151067087841727e+04
669, 2.081289897570846e-01, 1.918256652643063e+00, 7.342084960208466e-02, -1.420011166216014e-04, -2.013783681108050e-03, 3.866367745107679e-02, 4.250539488708050e+04, -2.153813598460893e+04, 8.271507472786943e+02, 2.251907012815851e+04, 6.133849153561848e+03, 4.928952696525417e+03, 5.838527890331933e+04
670, 2.490773058873162e-01, 1.075283943283311e-01, 7.663384127127992e-02, -3.227556441757345e-05, -2.448652655511821e-04, 2.723857123262917e-04, -1.992039767685555e+06, -8.392125650439348e+06, -1.618806276648761e+05, -4.553816951867619e+05, -3.148450812222858e+05, 7.914241055968022e+05, 7.443938178674478e+06
671, 2.081102972278019e-01, 8.284324021707284e-02, 7.341904474930765e-02, -3.078936073245414e-05, -1.864996188891254e-04, 1.588322352574917e-04, -2.290774037914404e+06, -7.849280353701537e+06, -6.901173424587082e+05, -6.170249322566981e+05, -3.845859240988786e+05, 3.460533964531196e+05, 6.725603110792283e+06
672, 1.880564062520088e-02, 8.809056306049782e-01, 2.612673092949926e-02, -2.440309702491164e-05, -3.327649833732502e-04, 1.138063900695556e-02, -1.901389902368737e+05, 4.140464277672949e+05, 1.555222234631815e+04, -2.181963104258348e+05, -1.118674257958550e+05, 2.420369119373214e+05, 7.725239376318818e+05
673, 2.466172035337115e-02, 7.025480771540815e-01, 2.967134022062146e-02, -3.712853303491567e-05, -3.391916816442991e-04, 7.585923625034935e-03, -2.573726443697492e+05, -5.566308399263527e+05, 1.373591309312303e+05, -9.664682472144676e+03, -1.093542567641393e+05, 2.707721728810359e+04, 5.654383430169928e+05
674, 1.388235496517695e-01, 3.473230087567973e-02, 6.420938107903992e-02, -2.468633163228359e-05, -5.595989227954795e-05, 3.321760623777037e-05, -3.536147976515931e+06, -8.418706190271894e+06, -9.581090465034320e+05, -2.399695248354874e+06, -2.381766207171920e+05, 1.363977953770010e+05, 5.801690472197196e+06
675, 1.385260288547472e-01, 1.965850810749168e+00, 6.415747337858127e-02, -1.239104523306223e-04, -1.778545320699501e-03, 3.980772545809663e-02, 2.603784226070356e+04, 4.217754519328496e+02, 2.354563461287780e+03, 2.242597453192672e+04, 4.926716647823271e+03, 8.669185838138777e+03, 2.986001489532218e+04
676, 1.255014583020344e-01, 1.439614274655047e+00, 6.176178215682315e-02, -1.076513106907095e-04, -1.493915412332375e-03, 2.560150608395864e-02, -3.335407344003904e+04, -4.987225116347118e+05, 7.460628158546887e+04, -2.379218657895728e+04, 2.060954437526250e+04, 7.336639878838715e+04, 5.052023856143767e+05
677, 1.353093587984774e-01, 1.396753575885852e+00, 6.358849886855272e-02, -1.102317668902238e-04, -1.522525783324624e-03, 2.448904694649040e-02, 7.445721305796400e+03, -6.572043731545043e+05, 8.541931169116081e+04, -2.803937427980685e+03, 5.691261289196171e+04, 6.767294765554256e+04, 6.931073245939405e+05
678, 2.928667025726655e-01, 1.075346411858428e+00, 7.858774114752581e-02, -1.213364393325353e-04, -1.702309487450801e-03, 1.657922954098168e-02, -2.851175537505139e+05, -2.200860328101322e+06, -4.352406411469429e+04, -3.630776360698186e+05, -4.220673376336665e+04, 5.419265164792120e+04, 1.883251038920609e+06
679, 2.516376401680918e-01, 1.099159343628408e+00, 7.678814372235801e-02, -1.202727938211731e-04, -1.667947794196791e-03, 1.708881751026827e-02, -3.196445433553575e+05, -1.945291346495606e+06, 8.936356894595404e+04, -3.653384674270130e+05, 8.859780354304149e+04, 1.781101867441729e+05, 1.647182215869124e+06
680, 2.510091543393549e-01, 1.148927313182291e+00, 7.675074680873104e-02, -1.229314293323472e-04, -1.708387137895586e-03, 1.832919299554501e-02, 3.168323647362796e+04, -1.732337789117524e+06, -8.056053548446149e+04, -8.589825290964174e+04, 5.074548195502227e+04, 6.227313476894792e+04, 1.719595448723875e+06
681, 2.103611293525334e-01, 1.123231600675611e+00, 7.363405545160842e-02, -1.201581198461417e-04, -1.612881877700739e-03, 1.760292548767293e-02, -1.413616756478148e+04, -1.496337707649940e+06, 1.386420335072774e+05, -1.379601379646582e+05, 2.432680608793045e+04, 9.876252784398428e+04, 1.455137118287163e+06
682, 2.927527919232941e-01, 1.174156171919449e+00, 7.858446982181747e-02, -1.171484946600049e-04, -1.774864339200809e-03, 1.904694143145124e-02, 1.185978468269666e+05, -1.627856957095801e+06, -3.827617814579434e+04, -8.603847325176538e+04, 1.578626913785995e+05, 4.310005752447434e+04, 1.679083753624508e+06
683, 2.513449811887983e-01, 1.198019699269346e+00, 7.677076833506427e-02, -1.251419327050890e-04, -1.745282756164418e-03, 1.957097813981581e-02, 1.061821795078296e+05, -1.692147139808942e+06, -5.272258088945572e+04, -4.636141816661978e+04, 5.458230217226752e+04, 1.199525562429902e+05, 1.744527674678638e+06
684, 2.925442538424390e-01, 1.223615184382322e+00, 7.857845752287347e-02, -1.234608020380390e-04, -1.812500397828778e-03, 2.030402371230101e-02, -1.611339223538953e+04, -1.511939380686949e+06, -4.912527528678154e+04, -2.222164776855329e+05, 5.626763825558988e+04, 2.801352546475752e+04, 1.410947132330004e+06
685, 2.529378828351415e-01, 1.241403189418980e+00, 7.686452474548754e-02, -1.282111621582691e-04, -1.782027871802632e-03, 2.068621065604190e-02, -7.224149198961956e+04, -1.471662781324403e+06, -1.036161527426395e+05, -9.004003107116149e+04, -5.695542572433368e+04, 8.535842785097999e+04, 1.413360514882367e+06
686, 2.517869106949417e-01, 1.051511288189084e+00, 7.679698003199617e-02, -1.215062425957807e-04, -1.634198662008955e-03, 1.591609528695009e-02, -1.424648564327143e+05, -1.774626845986702e+06, -1.992266630524843e+04, -2.879707104254963e+04, -4.086359835302561e+04, 1.419426122927234e+05, 1.711444044891212e+06
687, 2.507680300037743e-01, 1.002978011180203e+00, 7.673631641294264e-02, -1.205568121549899e-04, -1.590480971313750e-03, 1.474738280666206e-02, -4.809819267096955e+05, -3.437630853253142e+06, -1.202992958903725e+05, -1.488454052079930e+05, -7.343025457721793e+04, 8.960650377294667e+04, 3.149250447122594e+06
688, 2.906027582099067e-01, 9.777044259988472e-01, 7.852102508168447e-02, -1.130647353456762e-04, -1.608953706049819e-03, 1.421714785134819e-02, -2.972285535695608e+05, -3.354164884852261e+06, -1.789419640209139e+05, -1.452004344391288e+05, -7.702650498211416e+04, 2.733749117087224e+03, 3.153822269928005e+06
689, 2.493910434967894e-01, 9.521590002168492e-01, 7.665302805723664e-02, -1.164695161771367e-04, -1.538275047722325e-03, 1.353806358866641e-02, -1.865067709575187e+05, -2.910360922851231e+06, 2.878486998445833e+04, -6.358546178766800e+04, -6.137501701394202e+04, 2.571506288056347e+05, 2.825150709151816e+06
690, 2.907919575664477e-01, 9.251829846503449e-01, 7.852673790766837e-02, -1.112758134006325e-04, -1.555909769565336e-03, 1.298173826318996e-02, -1.272689099908897e+05, -2.493980263013305e+06, -1.299156381082941e+05, -6.013044397276782e+04, -2.948872800423211e+04, 2.513616842416531e+05, 2.451023997255358e+06
691, 2.478998328430447e-01, 8.982956802543733e-01, 7.656113509873720e-02, -1.160101180273099e-04, -1.480820531808869e-03, 1.228960849608349e-02, -2.295381550172351e+05, -2.866710662839789e+06, -3.746446302939828e+04, -1.998031423783315e+05, -8.297013706361892e+04, 3.872126314766874e+05, 2.740190343693559e+06
692, 2.513605478529206e-01, 8.628269561775267e-01, 7.677169424022239e-02, -1.106892452836031e-04, -1.448460459512052e-03, 1.149382772480248e-02, -3.263790979466159e+05, -2.996926376349946e+06, 1.494964335231089e+03, -1.610472055829218e+05, 8.455571326108974e+04, 2.603854807043873e+05, 2.797416941104858e+06
693, 2.135576063882555e-01, 8.704965927672537e-01, 7.393140512252169e-02, -1.126472154863202e-04, -1.401623773490977e-03, 1.159265836003719e-02, -2.904111718888858e+05, -2.874039905151761e+06, 9.076382340022030e+04, -9.179449698980621e+04, 7.799896871742398e+04, 9.963171196958802e+04, 2.701940585844086e+06
694, 2.121278533602055e-01, 1.028562328113344e+00, 7.379955910020264e-02, -1.210475609911962e-04, -1.539278761249728e-03, 1.528252921488088e-02, -2.524473083580220e+05, -2.709500316983506e+06, -3.571535185633162e+04, -5.923633413455138e+04, -4.098192178438332e+04, 1.428291399623205e+05, 2.572787471936301e+06
695, 2.925450282277580e-01, 5.255608280732491e-01, 7.857847990502173e-02, -9.021536567512595e-05, -1.051174768843432e-03, 4.928680052632299e-03, -9.731844217601428e+05, -6.129695223974283e+06, -1.547783263824658e+05, -5.680494328827659e+05, -2.232052365031092e+05, 4.270312870160230e+05, 5.441619138004521e+06
696, 2.492590652824370e-01, 5.501954350077300e-01, 7.664496637410097e-02, -1.066479121911816e-04, -1.064841572207431e-03, 5.278579523802871e-03, -7.104996156715900e+05, -5.855586928065114e+06, 7.888362996109965e+04, -4.396675379632148e+05, -5.082070049403944e+05, 8.203100723866656e+04, 5.362127038084787e+06
697, 2.501341034427196e-01, 5.980052719711335e-01, 7.669815911610561e-02, -9.433459059575346e-05, -1.131552180731302e-03, 6.098400582129827e-03, -1.675748254817530e+05, -4.149925176513711e+06, 8.414300602062258e+03, 3.898991241983950e+04, -1.412208809754499e+05, 1.187598657729825e+05, 4.102042246977901e+06
698, 2.096999220949244e-01, 5.737674125060035e-01, 7.357137783355733e-02, -1.056302886077434e-04, -1.028245641082833e-03, 5.619165262934879e-03, -5.735988801134414e+05, -5.833439833826594e+06, -2.826340478708839e+05, -4.345420934894694e+05, -1.003428562348005e+05, 4.111493596527491e+05, 5.403116110052523e+06
699, 2.494029062322964e-01, 5.002414630003077e-01, 7.665375199743846e-02, -9.352099404252856e-05, -9.857192279267742e-04, 4.440919592233125e-03, -7.747492712755324e+05, -5.258298161703361e+06, -2.707096014703866e+05, -7.288901754719915e+05, -1.782746653936655e+05, 4.376446291329541e+05, 4.604315400339742e+06
700, 2.488551498501070e-01, 4.519652551090528e-01, 7.662020797426053e-02, -8.356067394670735e-05, -9.104948377998967e-04, 3.698618199277220e-03, -1.363370161251134e+06, -6.613882034073056e+06, -9.474723981854354e+04, -1.028074196993110e+06, 1.544877955973518e+05, 5.128027961911754e+05, 5.507104904594379e+06
701, 2.908970912706039e-01, 4.262538557643492e-01, 7.852990154153730e-02, -6.901157682505377e-05, -8.885135837809850e-04, 3.391120263088153e-03, -1.216586600310838e+06, -6.470851790005118e+06, 2.286879762556068e+04, -5.506599108155475e+05, 2.454857755557434e+05, 5.711707234568177e+05, 5.719334156406352e+06
702, 2.916176836186862e-01, 3.757860743334103e-01, 7.855137693135500e-02, -7.325573835814669e-05, -8.200183809322424e-04, 2.707156888544705e-03, -8.034772617009598e+05, -6.288485396735755e+06, -6.055129430524445e+05, -1.142487426628914e+05, -3.136098376423324e+05, 2.505778737570611e+05, 5.993674432477555e+06
703, 2.474631840346436e-01, 3.503427242919566e-01, 7.653389207459858e-02, -8.026990304299889e-05, -7.356805327642935e-04, 2.331524113648949e-03, -1.005461076186717e+06, -6.292687785784902e+06, -1.328044079016102e+05, -5.567134721000426e+05, -2.181813516726669e+05, 2.110204404188325e+05, 5.555004970907617e+06
704, 2.928724020074827e-01, 6.239726240250879e-01, 7.858790458842616e-02, -8.685987152984038e-05, -1.203051501018904e-03, 6.648254006653753e-03, -6.047496248283896e+05, -5.503285232803863e+06, -2.902880416386316e+05, -1.570484457477396e+05, -5.255046842541252e+04, 1.799073246801718e+05, 5.171784377638352e+06
705, 2.504362380856149e-01, 6.465294862507590e-01, 7.671638482278328e-02, -1.054465859177001e-04, -1.203249269755017e-03, 7.012395825625566e-03, -9.961539430554297e+05, -6.042274204743531e+06, -4.237953333571043e+05, -3.973423210680974e+05, -3.195795831029898e+05, 1.111180615644620e+05, 5.452139301874359e+06
706, 2.923292078863079e-01, 6.731578195043281e-01, 7.857222584157569e-02, -1.014823671739856e-04, -1.283457856843778e-03, 7.586007171290435e-03, -7.969722312406353e+05, -4.999465104525380e+06, -1.015366649071207e+05, -6.295650110982588e+05, -2.188529828153667e+05, 3.009985723112477e+04, 4.309273273811786e+06
707, 2.514340424850268e-01, 6.949638256342454e-01, 7.677606312002179e-02, -1.051055253536853e-04, -1.258530534943347e-03, 7.949544397133884e-03, -3.398667985781627e+05, -4.081526548692497e+06, 4.476581019377508e+04, -4.590199627073458e+05, -1.114828553885393e+05, 5.413842537033266e+04, 3.690592728215229e+06
708, 2.426956526042694e-01, 7.425686035899872e-01, 7.622636701157987e-02, -1.050119102861610e-04, -1.312062990156085e-03, 8.898626610470209e-03, -5.197339820665513e+05, -4.235927994121347e+06, -1.734922078428364e+05, -4.607094367579814e+05, 1.583973245814265e+05, 7.745676383486172e+04, 3.770476749784075e+06
709, 2.878654213459838e-01, 7.719677467269543e-01, 7.843554498376119e-02, -1.055744507985762e-04, -1.389928417650689e-03, 9.588298364030953e-03, -5.114348330618842e+05, -4.086236358951299e+06, -2.158221648431269e+05, -4.161623557245779e+05, -1.053181184743105e+05, 1.188511548307311e+05, 3.652978664263367e+06
710, 2.407304502794259e-01, 7.872480910272095e-01, 7.609420595214358e-02, -1.132903842830379e-04, -1.356572193455113e-03, 9.826689827521058e-03, -3.970636601505142e+05, -3.085099374350772e+06, -5.814453387227311e+04, -2.127723526584716e+05, -2.924837697115786e+04, 1.806824081334133e+05, 2.804554878075873e+06
711, 2.061982636571086e-01, 4.794891881055020e-01, 7.323270624631262e-02, -9.588077819146917e-05, -9.047940313304074e-04, 4.048834118108427e-03, -9.028568328602526e+05, -5.773216611978925e+06, -3.441397093426836e+05, -1.010469635858008e+06, -3.244373637338029e+04, 1.965379752723748e+05, 4.866436844333739e+06
712, 2.938178659191534e-01, 1.476019760546759e+00, 7.861470444450250e-02, -1.354171709749864e-04, -1.963391682702615e-03, 2.691710040399869e-02, 3.025772886216238e+04, -6.933352007739363e+05, 2.960647384904824e+03, -3.932053129972139e+04, -1.683400818329528e+04, 8.104243022390580e+04, 7.061597547865042e+05
713, 2.509246299074184e-01, 1.452320505032518e+00, 7.674569356100915e-02, -1.341204897862616e-04, -1.900614091850997e-03, 2.620128494820359e-02, -8.300383541785000e+04, -7.498081656756770e+05, -2.192382899987737e+03, -5.982461629062674e+04, -2.417103692679667e+04, 6.149638973872224e+04, 6.882832623966278e+05
714, 2.504141933367035e-01, 1.500005278563120e+00, 7.671505745590004e-02, -1.341746757079730e-04, -1.923141051485773e-03, 2.746888221672000e-02, 1.042211618410455e+04, -5.379086612402354e+05, -9.055275672504122e+03, 1.562437600558478e+02, -4.015986447625561e+03, 4.742085137752559e+04, 5.497122208303687e+05
715, 2.501342547308675e-01, 1.548005018241953e+00, 7.669816826034831e-02, -1.365762540610311e-04, -1.948702840551923e-03, 2.875174300229605e-02, 4.695573656597319e+04, -3.817081215893185e+05, 7.141296512017639e+03, 2.763176069821593e+04, -4.986429822648384e+03, 4.788602103468886e+04, 4.277258819710299e+05
716, 2.929048197047595e-01, 1.573931738202731e+00, 7.858883379019338e-02, -1.396950094606879e-04, -2.012065792621656e-03, 2.953463578818796e-02, 8.162154735778974e+04, -4.411825434072416e+05, -2.520108575816075e+04, 3.547267428866624e+04, 1.338011632794382e+04, 3.987681934973550e+04, 5.084681553989788e+05
717, 2.922286626629266e-01, 1.623882428313906e+00, 7.856930113702283e-02, -1.411439864823782e-04, -2.034524381600317e-03, 3.087631636967535e-02, 9.445968084159595e+04, -3.405141048771869e+05, -1.398315990990928e+04, 1.275731434736437e+04, 1.184412145073038e+04, 5.165474041765585e+04, 4.115229712202850e+05
718, 2.469834819127704e-01, 1.649170526416634e+00, 7.650378500123226e-02, -1.392363549158615e-04, -1.988210200389216e-03, 3.146368384995311e-02, -5.348988616194787e+03, -3.129258938302788e+05, -7.878227994766672e+03, 2.656257536059206e+03, 1.871577069125771e+04, 5.412626606501552e+04, 3.273467016866939e+05
719, 2.843937970431156e-01, 8.249546948819824e-01, 7.831949478096963e-02, -1.051120495495599e-04, -1.447669442622514e-03, 1.071594474567478e-02, -4.696717884663902e+05, -3.303983930853485e+06, -1.368969571140535e+05, -3.019569412255951e+05, -4.818165533442207e+04, 2.042013511791811e+05, 2.953826525079778e+06
720, 2.224584768414493e-01, 4.019636080275442e-02, 7.471057130941793e-02, -1.665924700112661e-05, -1.055091932845163e-04, 7.561948902846949e-05, -4.585685191820516e+06, -1.198399513393162e+07, -4.186440051745077e+05, -3.097558013885093e+06, -1.800600438734243e+05, 7.223697765225075e+05, 8.375419162191207e+06
721, 2.222693417770848e-01, 1.960905370405268e+00, 7.469474969953671e-02, -1.460261317252354e-04, -2.064754738916607e-03, 3.985014934801728e-02, 3.164993955780971e+04, -9.044201380573093e+03, -1.858233579000743e+03, 1.443362096949520e+04, 9.187744051306050e+03, 4.901985081766458e+03, 3.984347912719504e+04
722, 2.923976712646606e-01, 1.923555920689057e+00, 7.857421329850472e-02, -1.524817826048172e-04, -2.158210662891243e-03, 3.898595128806126e-02, 4.628119245918182e+04, -2.375936380447879e+04, -1.772472115699821e+04, 1.643349245347055e+04, 1.485456560461429e+03, 7.737635533431796e+03, 6.953233190801826e+04
723, 2.489249609908281e-01, 1.596092054310343e+00, 7.662449637333157e-02, -1.384081882475109e-04, -1.967539719405484e-03, 3.004015736853896e-02, -1.130410868056245e+04, -2.979480532936098e+05, -2.264688532206358e+04, 2.231585136076216e+04, 3.371851106512348e+03, 4.432175840131315e+04, 3.168564625313251e+05
724, 2.910139545985247e-01, 1.323645728585865e+00, 7.853340904841746e-02, -1.299727416186267e-04, -1.878372686513599e-03, 2.289037280581131e-02, 4.206502153444786e+04, -1.030253949817960e+06, -5.177879211129699e+04, 4.979637507455384e+04, -4.182312066048205e+04, 1.208859259163977e+04, 1.082565138751722e+06
725, 1.710972380107264e-01, 1.890974977472594e+00, 6.916675307921895e-02, -1.322360021026973e-04, -1.887170333915084e-03, 3.784583330283148e-02, 3.296423346818222e+04, -2.960703779689993e+04, 3.902437966914288e+03, 2.502389141571267e+04, 9.357962281662132e+03, 9.244749809226800e+03, 6.360953828392070e+04
726, 1.705859518539591e-01, 1.109599236213619e-01, 6.909794221216801e-02, -4.871988055714718e-05, -2.252432923612983e-04, 2.760749715298993e-04, -3.320951630398911e+06, -1.103210665033116e+07, -8.295067303984048e+05, -8.848390805267983e+05, -3.172827993239987e+05, 3.896657949609045e+05, 9.327570170306625e+06
727, 3.486690234676128e-02, 2.323604461469510e-01, 3.491340719904951e-02, -5.161329109179547e-05, -1.551528259549906e-04, 7.702387224908513e-04, -2.977967589738414e+05, -2.198396928550310e+05, 2.328162401588415e+05, -9.757113779352122e+05, -5.296613317614921e+05, -7.554179496606704e+04, 1.240905734545509e+06
728, 1.241845164969708e-02, 2.192402413095632e-01, 2.153436749853087e-02, -1.459221719677523e-05, -5.099837834740550e-05, 6.254551684872489e-04, -1.096089039126265e+06, -5.666680257319976e+05, -2.598979613050095e+04, -1.531843475327098e+06, -3.955865296243246e+05, -2.244937160597018e+05, 1.150456820014058e+06
729, 2.484455052163037e-01, 4.036634776655269e-01, 7.659496608992053e-02, -9.256833447971098e-05, -8.119209763390658e-04, 3.025022586669209e-03, -6.352426369272777e+05, -6.956206740441027e+06, 1.203203869339714e+05, -3.277900368987671e+05, 5.478656542449226e+04, 6.375930843510370e+05, 6.577577187757778e+06
730, 2.902495158485311e-01, 7.800557010962222e-02, 7.851029153897228e-02, -2.014607678395633e-05, -1.740033255249610e-04, 1.856269689462370e-04, -3.777507765374721e+06, -1.095504713873292e+07, -5.360265783015745e+05, -1.489679790690283e+06, -5.730208121587330e+05, 1.016755828994307e+06, 8.838586592009140e+06
731, 2.517280155929275e-01, 1.700200099644232e+00, 7.679349573823391e-02, -1.416720623397538e-04, -2.019465755646904e-03, 3.285055210682993e-02, 2.266787351314967e+04, -2.116202498375140e+05, -8.610604496169139e+03, -4.983110910075136e+03, 4.415649917923923e+03, 3.754744913839336e+04, 2.317057588101674e+05
732, 2.081420692955162e-01, 1.520900637024071e+00, 7.342211230172829e-02, -1.318280297123303e-04, -1.845820486702496e-03, 2.793979766471467e-02, 1.901159128017897e+03, -6.003378806139176e+05, 2.172184218310213e+04, -6.795691341671607e+04, -1.078828007990917e+04, 3.244967511660458e+04, 5.748255154841692e+05
733, 2.513464634666376e-01, 3.017811065420651e-01, 7.677085650918000e-02, -6.307072218345554e-05, -6.518523935597331e-04, 1.777412479211100e-03, -1.499574031725270e+06, -6.867187392700059e+06, 2.898897767956965e+04, -9.039768500325878e+05, -1.467475666219908e+05, -2.352549808904078e+05, 5.709299863510261e+06
734, 4.694961999356388e-02, 6.245466842361909e-02, 4.011808608823623e-02, -2.212838708248212e-05, -4.658252804345389e-05, 2.163393575461622e-05, -1.196678473790864e+06, -2.640785382352891e+06, -3.620710087606852e+05, -3.865043471042742e+05, -4.298812356922210e+05, -9.254538591364648e+05, 2.725597062135697e+06
735, 2.044809673249031e-01, 3.496199381450036e-01, 7.306238420825702e-02, -8.046486265960058e-05, -6.944244709662858e-04, 2.268733642090766e-03, -1.414202805037556e+06, -6.818058850982238e+06, -3.626037906728568e+05, -6.629943271338303e+05, 1.943409342716078e+05, -1.874957718358849e+05, 5.868441917089486e+06
736, 2.030379150578037e-01, 1.650379054219674e+00, 7.291708093175836e-02, -1.326877655304474e-04, -1.891281004365345e-03, 3.140447635908117e-02, 2.221953331788061e+04, -2.479209205682361e+05, 1.585932675114708e+04, 1.182932373558001e+04, 1.693556548823842e+04, 5.070897489238918e+04, 2.821457081413002e+05
737, 1.956010107954486e-01, 6.912325926548466e-01, 7.213641549559942e-02, -1.114470177823977e-04, -1.171718477534462e-03, 7.774108686872651e-03, -1.820913925357835e+05, -4.129047550852270e+06, 1.561384048707751e+05, -1.674974656426044e+05, -1.671213889157794e+05, -7.860632366583002e+04, 3.976397946720953e+06
738, 1.855163214804848e-01, 9.894417739385578e-01, 7.099011627585371e-02, -1.183597638641301e-04, -1.440955332361502e-03, 1.428645071951849e-02, -8.541355099757884e+04, -1.862862008104223e+06, 3.324132456071841e+04, -1.379182928519479e+03, -8.068889262673780e+04, 1.244412805159743e+05, 1.839852031170127e+06
739, 1.933868089942496e-01, 7.761790965398672e-01, 7.189357680464689e-02, -1.125595560822965e-04, -1.250840476341039e-03, 9.499375979627602e-03, -3.623175361657465e+05, -3.528880961515474e+06, 5.547853450143244e+04, -2.897577626144831e+05, -1.552793234141977e+04, 2.547654344871160e+05, 3.235247626662819e+06
740, 2.075997488364467e-01, 2.633105037023132e-01, 7.336962388621300e-02, -7.824624939762118e-05, -5.476050935078539e-04, 1.341803195108709e-03, -7.503697562945585e+05, -5.549158788589357e+06, -2.570899593297219e+05, -1.606420558751542e+05, -5.298883021055481e+04, -7.526755002370576e+04, 5.140995872409675e+06
741, 2.075997492635734e-01, 1.736689495504971e+00, 7.336962392765961e-02, -1.365861691014700e-04, -1.940640469803739e-03, 3.374427467489405e-02, 3.753507054500444e+04, -2.010217553976741e+05, 9.082162903102062e+03, -3.145340227708059e+03, -4.022412758064112e+03, 3.495784417233135e+04, 2.298299685032711e+05
742, 1.813055430925045e-01, 1.239966278324846e+00, 7.048065300068598e-02, -1.206737361181412e-04, -1.610467072777816e-03, 2.050119416452338e-02, 9.415490846915750e+04, -1.072065794755848e+06, 8.311404713115079e+04, -7.316847099223237e+04, -5.931237184402825e+04, 1.461797788972463e+05, 1.135039709795104e+06
743, 1.809302020923068e-01, 1.156470235735407e+00, 7.043434251191127e-02, -1.203909325223230e-04, -1.555266885038712e-03, 1.837657789602141e-02, -3.409733255576213e+04, -1.679240033044919e+06, 7.473469200381577e+04, -1.848122780014195e+05, 8.231794842390160e+04, 1.058357642852529e+05, 1.597482422710593e+06
744, 1.802447020970007e-01, 1.281810176196445e+00, 7.034937363121316e-02, -1.214320654267798e-04, -1.633145556320256e-03, 2.157832779242519e-02, 2.736035144234280e+04, -1.085200785962543e+06, 6.500085017037788e+04, -9.660802428683607e+04, 1.280111691242200e+04, 5.549424193006632e+04, 1.066603870026030e+06
745, 1.352500592595918e-02, 1.955774050894874e+00, 2.240343681411255e-02, -3.292366664572888e-05, -6.394752349918945e-04, 3.927874410491666e-02, -2.740561985308265e+04, -6.360318960895268e+03, 2.173463660694389e+03, -4.891736280638822e+03, 1.839966215325926e+03, 1.031526920710669e+04, 2.862709879539759e+04
746, 4.473278952524753e-02, 1.941296384000633e+00, 3.922619663738133e-02, -6.919936379405286e-05, -1.091101429473919e-03, 3.894769419579836e-02, -5.881276924724321e+03, -9.418347312116613e+03, 8.105238593957270e+03, 1.043266666564985e+04, 4.914573344446709e+03, 1.103820171797654e+04, 3.116775019373970e+04
747, 1.325495139069478e-02, 4.477611940290018e-02, 2.219474156696842e-02, -3.335172572411366e-06, -3.028746632695312e-06, -2.025379698068069e-05, -1.679708517929127e+05, 7.903719254031708e+05, 2.164602206923856e+05, 1.074050721397898e+05, -2.883844951943632e+05, -1.643235811492610e+06, 3.036623450399889e+06
748, 1.436968064948968e-02, 1.865656643405305e+00, 2.304298406890438e-02, -3.181353114441177e-05, -6.234865747789947e-04, 3.683651937015259e-02, -3.467927977072270e+04, -1.573599214928249e+04, 6.006484164157580e+03, -9.895579547716874e+03, -5.345765801419084e+02, 2.417181663744373e+04, 4.863657278293793e+04
749, 3.484345044218586e-02, 1.768755807400570e+00, 3.490239087154159e-02, -5.543872761368251e-05, -9.090111167783452e-04, 3.425205697521670e-02, -2.194970372255756e+04, -1.095681423329913e+04, 8.390638294945740e+03, -6.644169763150589e+03, 6.529647208497637e+03, 3.526455146240962e+04, 6.524365123322514e+04
750, 1.215332296757181e-02, 1.782252629667210e+00, 2.132043481935073e-02, -2.596741822616030e-05, -5.460757974362677e-04, 3.457281214934252e-02, -3.280260156103420e+04, 1.743929858356360e+03, 8.043503292826038e+03, -1.608792012575554e+04, 5.230099138525393e+02, 3.300212050316675e+04, 6.601320677043739e+04
751, 6.415116732198931e-02, 1.756158335446473e+00, 4.630696153274601e-02, -8.002442009611473e-05, -1.213687099931464e-03, 3.397107415848207e-02, 1.303718511882393e+04, -8.009554531109752e+04, 2.308377331645841e+04, 2.906101317367178e+04, 1.531973322284438e+04, 3.406864539559482e+04, 1.273086550414305e+05
752, 1.437515454428603e-02, 1.339771906629979e-01, 2.304706617528881e-02, -6.931013769789947e-06, -2.126894322691808e-05, 1.702866798271307e-04, -4.428852423123143e+05, 1.580154423735713e+06, -1.385360540614770e+05, -8.784678309827975e+05, -4.287608299086900e+05, -1.730249634408326e+05, 2.421264073415931e+06
753, 1.381365168767082e-02, 2.848989917532620e-01, 2.262419015921307e-02, -1.347434338883763e-05, -6.741149370526056e-05, 1.178532774517500e-03, -2.766651102397379e+05, 1.175122136124848e+06, 1.274769286063955e+05, -4.975578327240227e+05, -2.514277842301886e+05, -1.202364728987102e+05, 1.661005226706303e+06
754, 1.373172142379424e-02, 3.430288270992600e-01, 2.256176920902075e-02, -2.038313790647672e-05, -8.243458441712509e-05, 1.781487257096592e-03, -6.053119383542560e+05, 2.980903996034606e+05, -2.567343953572824e+05, -3.278005804881116e+05, -4.084072786403020e+05, 3.545641495758037e+04, 1.159457875719750e+06
755, 1.342677236066975e-02, 1.716431598619666e+00, 2.232776792388716e-02, -2.682626619241249e-05, -5.490449904673803e-04, 3.279458331254659e-02, -4.477934843315429e+04, 1.997171952864790e+04, 5.737667832084896e+02, -3.987037839841515e+04, -5.911252967806367e+03, 4.006510445920928e+04, 9.391694140328911e+04
756, 1.473367741036609e-02, 1.057805011661430e+00, 2.331275417688584e-02, -2.129384608828486e-05, -3.316530368360701e-04, 1.554513940617512e-02, -1.453080977232557e+05, 2.150370524539782e+04, 6.370322291172979e+04, -1.277573858816997e+05, -1.018391292102763e+05, 1.941562731169708e+05, 4.261272590730226e+05
757, 4.124438309846079e-02, 1.047318685593627e+00, 3.776917503053458e-02, -5.661870702270561e-05, -6.806638501442412e-04, 1.535272538909771e-02, -1.323582057854959e+05, -1.059691183808311e+06, 3.967249920683989e+04, 1.620612643916568e+05, 4.286366316655169e+04, -4.959140077567182e+04, 1.112324450935128e+06
758, 1.780325872846267e-02, 9.995784354026029e-01, 2.546545748726579e-02, -2.229667387039697e-05, -3.634610192127935e-04, 1.414478644490245e-02, -2.106512588320920e+05, 2.597717988012044e+05, 6.029012592664199e+04, -2.034170109690333e+05, -7.495587956109857e+04, 2.958910603097873e+05, 7.129946975291064e+05
759, 1.325495139068027e-02, 7.313432835802383e-01, 2.219474156695715e-02, -1.709231760878976e-05, -2.035125434505011e-04, 8.139240001399962e-03, -3.123552077484123e+05, -7.238847249839455e+04, 3.789901184611665e+04, -2.326774875482949e+05, -2.260746742276624e+05, 1.380877164841417e+05, 5.095640326238059e+05
760, 1.325495139067540e-02, 9.402985074602264e-01, 2.219474156695336e-02, -1.425362856486041e-05, -2.666549963814269e-04, 1.273880023027067e-02, -1.517404576416906e+05, -8.787745768015040e+03, 4.925481444025008e+04, -4.506098526533377e+04, -5.208582493072552e+04, 2.146393582926196e+05, 4.125444701831046e+05
761, 1.352499704516695e-02, 4.035352268833234e-01, 2.240342998581616e-02, -2.049692078406884e-05, -1.008137119509304e-04, 2.510033992038231e-03, -4.587451879247387e+05, -1.215717394882374e+06, -7.772999160619956e+04, 1.752533827586781e+05, -3.941127119026294e+05, -1.869310256795978e+05, 1.429618961791237e+06
762, 1.524104947772548e-02, 4.948262576401836e-01, 2.368325740571110e-02, -2.366465598428041e-05, -1.486206861708581e-04, 3.841218560388521e-03, -3.603969182861784e+05, 3.766171462948570e+05, 2.130167784209058e+03, -2.750811127547707e+05, -2.744865220497291e+05, 8.705805063573405e+04, 8.581194830574245e+05
763, 1.352499944754089e-02, 8.512964257921680e-01, 2.240343183296255e-02, -1.659475226029842e-05, -2.397272987112800e-04, 1.070814498609138e-02, -3.250035058673202e+05, -1.997683998516390e+05, -4.954892294130419e+04, -4.099774207522811e+05, -2.931056556604753e+05, 2.833250490340546e+05, 7.344817417020457e+05
764, 1.534703491190201e-02, 6.426773488040224e-01, 2.375986409050329e-02, -2.009292508082031e-05, -2.023208637328411e-04, 6.398478167042115e-03, -3.789553544758710e+05, 3.214305368693622e+05, 1.223022247005392e+05, -1.378874264508175e+05, 4.171920142022466e+04, 2.029911616351491e+04, 6.566161033859591e+05
765, 1.325495139067268e-02, 7.910447761173771e-01, 2.219474156695125e-02, -1.544106856419397e-05, -2.187578423862024e-04, 9.394880883838344e-03, 4.014237304617791e+04, 7.110485761325401e+05, 8.503624434098022e+04, -2.251392247090775e+05, -8.563082399477765e+04, 2.000630577192537e+05, 9.285664288282583e+05
766, 1.351540017395828e-02, 5.449772382267918e-01, 2.239604978694787e-02, -1.874506255995084e-05, -1.427815002188922e-04, 4.641649417776783e-03, -5.365772808993235e+05, -8.404881716056536e+05, -6.516286219064930e+04, -1.415384434466981e+05, -4.134727635069428e+05, 2.311159323446595e+05, 1.026808460426344e+06
767, 1.264838238978101e-02, 1.354426094964955e+00, 2.171805430722335e-02, -1.895222217975986e-05, -4.009280641872615e-04, 2.311002242652530e-02, -6.066761764011560e+04, 1.807750205094154e+05, -1.575916546219437e+03, -1.399207793306752e+04, -5.641679168740958e+04, 1.239202741911315e+05, 3.237721495716177e+05
768, 1.325495139080191e-02, 1.507462686565867e+00, 2.219474156705162e-02, -2.203374022653748e-05, -4.685125841295268e-04, 2.717310096526543e-02, -3.736460300534200e+04, 9.862027956166290e+04, 1.780958012022254e+04, 1.141986522793852e+04, 4.615956803542993e+03, 2.699483954889076e+04, 1.320586655028480e+05
769, 1.677605978681623e-02, 1.266652545377938e+00, 2.476774785468020e-02, -2.458190173033892e-05, -4.486143431929289e-04, 2.082959527398645e-02, -4.180438978127140e+04, 1.910550035606500e+05, 3.025656064545906e+04, -9.056949101511305e+04, -3.531857333990552e+04, 6.277679505986685e+04, 2.937146664775623e+05
770, 1.422000837700921e-02, 1.209714644040916e+00, 2.293106390217816e-02, -1.926456408554711e-05, -3.810657660372335e-04, 1.936141362662978e-02, -2.029160324684046e+05, -3.407433185773315e+05, 6.860345539278220e+04, -6.442409366746240e+04, -6.283007114438662e+04, 1.129352060060287e+05, 3.485535597928677e+05
771, 1.391422606204856e-02, 1.566345298236199e+00, 2.270056064194428e-02, -2.420193806383555e-05, -5.042013248334962e-04, 2.875078471697282e-02, -4.557388164610898e+04, 4.061155213416234e+04, 1.126378995647793e+04, -1.293195983569395e+04, -7.225029964360857e+03, 3.830255398096012e+04, 1.030468090511310e+05
772, 1.396722854532455e-02, 1.597973864850999e+00, 2.274069553524342e-02, -2.538421953781483e-05, -5.167782485507033e-04, 2.960050897419544e-02, -4.692541272107582e+04, 5.606866522533035e+04, 1.070954984897054e+04, -1.988915034429182e+04, -1.474938356708649e+04, 4.708055349401382e+04, 1.272816425623141e+05
773, 1.325495139080192e-02, 1.447761194028396e+00, 2.219474156705164e-02, -2.017226510733511e-05, -4.477121324723346e-04, 2.558113515821853e-02, -2.687400611575873e+04, 6.020596800644648e+04, 4.541070324625817e+03, -1.696934019799253e+04, -7.654985878592897e+02, 5.345972764819746e+04, 1.243220640604889e+05
774, 1.370719534803987e-02, 1.655902128312886e+00, 2.254304677197644e-02, -2.592769789245414e-05, -5.325591268125138e-04, 3.116063885466225e-02, -5.303884153559963e+04, 5.421459370333376e+04, 1.476156876036150e+04, -4.054760475522657e+04, -6.928173053458294e+03, 6.133330216599556e+04, 1.496750969864730e+05
775, 6.736112876685996e-02, 1.407998011408683e-01, 4.734135926749424e-02, -4.733567344140672e-05, -1.444330548186091e-04, 2.837911251312060e-04, -1.290351050038954e+06, -4.804097528288218e+06, -4.250073661373415e+05, -9.918058580739907e+05, -5.152469275461668e+04, 3.230547117810378e+04, 3.746671156910777e+06
776, 6.710698540936511e-02, 1.859613333484724e+00, 4.726067478173802e-02, -8.444964371959879e-05, -1.278860698709298e-03, 3.677867493212970e-02, -1.057502808497139e+04, -3.826669141903714e+04, 9.034230684445780e+03, 2.428109547912433e+03, 5.080487976059962e+03, 1.509501744431015e+04, 4.797763038603927e+04
777, 2.068512743397000e-01, 1.567891977651406e+00, 7.329673377279730e-02, -1.305932130051951e-04, -1.864752100366776e-03, 2.919525490129048e-02, 3.668293738123373e+04, -2.854677081712281e+05, 2.693935806604158e+03, 1.627798525276290e+04, 2.766977700223708e+04, 4.641810752990646e+04, 3.262000546735146e+05
778, 1.587953339166221e-01, 1.928833805943265e+00, 6.742755739485504e-02, -1.297171491458360e-04, -1.853902583510120e-03, 3.884644507147256e-02, 3.006344895690715e+04, -1.260433124353485e+04, 5.123335532667567e+03, 2.141934137788781e+04, 5.987224242100841e+03, 6.289567163144981e+03, 4.279482923760690e+04
779, 1.596399345492508e-01, 7.278227607582323e-02, 6.755262604246971e-02, -3.275509241337316e-05, -1.335072756614834e-04, 1.107135128931742e-04, -2.490066867420250e+06, -8.453799626658523e+06, -5.253881998276206e+05, -1.370388762290425e+06, -1.700208536270131e+05, 5.588273032720952e+05, 6.734161558523007e+06
780, 1.296951449311746e-02, 4.333476836821644e-01, 2.197181988877718e-02, -1.301966779772290e-05, -1.128332359977800e-04, 2.914146156954289e-03, -2.882191995353916e+05, 1.179624634603625e+05, -1.170534161856622e+04, -1.621898819525683e+05, -1.937181473285180e+04, 2.552290057755623e+04, 3.649208633243742e+05
781, 1.884749177542051e-02, 1.305228915670926e+00, 2.615394531419938e-02, -2.954106462736694e-05, -4.986090815259359e-04, 2.183678745142839e-02, -1.204537375516810e+05, 4.750180072755147e+04, 4.759407467653600e+04, -5.658874427182122e+04, -5.460426477868869e+04, 9.944116056269447e+04, 2.587806390612754e+05
782, 2.099381536165723e-01, 1.437601802623104e+00, 7.359400678339356e-02, -1.292207583876125e-04, -1.807867909687486e-03, 2.572596104157094e-02, -6.355826153066583e+04, -8.335140635802672e+05, -1.479433715405035e+04, -9.136915688851153e+04, 1.071347609304571e+04, 5.379845267225880e+04, 7.628079681313917e+05
783, 2.061196750676668e-01, 4.332595354944457e-01, 7.322497326019144e-02, -9.629046483628813e-05, -8.213015290491760e-04, 3.361513236824756e-03, -1.249878344881158e+06, -6.655599262309887e+06, 3.335802503850501e+04, -9.480578706896111e+05, 1.102130015190992e+04, 6.391186207525558e+05, 5.672177007222683e+06
784, 6.595780851936914e-02, 1.891053231648195e+00, 4.689325713838509e-02, -8.445525459002678e-05, -1.280678623774466e-03, 3.762853757247563e-02, -6.001320763652704e+03, -1.919128859514512e+04, 9.060420661409711e+03, 8.295911761961719e+03, 6.265961216135257e+03, 1.625336089798856e+04, 4.151556148472206e+04
785, 6.578054300247740e-02, 1.046827368456198e-01, 4.683620236948594e-02, -4.697620212566408e-05, -1.054092388930207e-04, 1.463097695769133e-04, -2.035503033972284e+06, -5.632807414114867e+06, -6.948258480153511e+05, -2.945520876619465e+05, -5.586060382643680e+05, -6.818221918976591e+05, 5.100328907520260e+06
786, 1.155302672083578e-01, 6.350373124407029e-02, 5.975395217255104e-02, -4.308946300714267e-05, -1.002847200113760e-04, 6.761230237938357e-05, -2.376297130714080e+06, -7.541578679432575e+06, -5.583093404698487e+05, -1.683417751529308e+06, -7.608737426977814e+05, -1.960539691234898e+04, 5.780328711685394e+06
787, 1.161273165087906e-01, 1.937202945775585e+00, 5.987869401533125e-02, -1.138426758516137e-04, -1.651276791339626e-03, 3.898398390224661e-02, 5.711353005997511e+03, -2.499458103822790e+04, 6.334779377460024e+03, 1.337610884971593e+04, 5.148114800196316e+03, 9.005720849555615e+03, 4.098979051429865e+04
788, 3.953989589362913e-02, 1.564945236653547e-01, 3.703169367071368e-02, -4.315153788963383e-05, -1.093708770238400e-04, 3.086858639351209e-04, -5.838141418920256e+05, -1.364881765372041e+06, -4.352829680720911e+05, -6.899735518602583e+05, -4.622740923437194e+05, -1.569943433272925e+05, 1.349765254578541e+06
789, 3.931762613189045e-02, 1.843408024287240e+00, 3.693422282219719e-02, -6.158282975536177e-05, -9.919555486388835e-04, 3.628282494907145e-02, -2.724464507599985e+04, -2.230308493132288e+04, 5.717096703766574e+03, -2.794561641361258e+03, 3.306786626116481e+03, 2.611507675071594e+04, 5.175186796058291e+04
790, 1.860844352909784e-01, 9.047497389275189e-01, 7.105745247337771e-02, -1.160824154100015e-04, -1.371061534390237e-03, 1.231581603649971e-02, -3.055059901349156e+05, -2.360585557411864e+06, 6.688279054578005e+04, -2.112744396015283e+05, 1.798406886545039e+04, 1.283170275859077e+05, 2.118884359507856e+06
791, 7.527209799926793e-02, 1.377089547071187e+00, 4.975706507561022e-02, -8.201947930251696e-05, -1.147416335569536e-03, 2.384009008593940e-02, -6.411949597035741e+04, -5.566893602132746e+05, 1.127054330702441e+05, -6.346193639524284e+04, 3.726666911710688e+04, 1.416045164139396e+05, 5.876894354962569e+05
792, 2.991426084816111e-01, 1.374999999998354e+00, 7.875408964805417e-02, -1.293809894115580e-04, -1.912407487895026e-03, 2.425206236687993e-02, 2.055263131421096e+03, -7.561114405079542e+05, -5.410787718823806e+04, 5.035870861274499e+04, -4.417750809696372e+00, 3.785669111325344e+04, 7.917413793366480e+05
793, 2.155142439574282e-01, 1.219685306748667e+00, 7.410881979569583e-02, -1.260774979537152e-04, -1.692324887606553e-03, 2.004906034713103e-02, -3.994682219580207e+04, -1.068845837386164e+06, 2.738679691495562e+04, -3.792981996203630e+04, -3.353453967213535e+04, 1.286629427676930e+05, 1.056408447468801e+06
794, 2.540890589407859e-01, 1.408459703917847e+00, 7.693104063689657e-02, -1.308024417214712e-04, -1.881527642359609e-03, 2.504475054043321e-02, -8.490026170776473e+04, -9.361223451861844e+05, -6.857422007213364e+04, -1.218372587697383e+05, 2.594627030107600e+04, 4.945403976641523e+04, 8.473286219097859e+05
795, 1.955049831308215e-01, 6.100130940419799e-01, 7.212598403295448e-02, -1.114946982812073e-04, -1.059800885637034e-03, 6.227311306237791e-03, -2.403719397094907e+05, -5.050497846711675e+06, -3.273725081445400e+05, -7.974312012308647e+05, -1.059048257998515e+05, 3.720202954153456e+05, 4.640955090359446e+06
796, 2.498688253348335e-01, 1.324099996150337e+00, 7.668209716708985e-02, -1.281327321528275e-04, -1.826227704600468e-03, 2.282093080307505e-02, -2.597278195082552e+05, -1.184563023397574e+06, -5.179386161391564e+04, -1.713669342057910e+05, 7.194899099251131e+03, 3.455690367045053e+04, 9.780760239238231e+05
797, 4.054342214438994e-02, 6.663530285630875e-01, 3.746800158831935e-02, -5.613861197575898e-05, -4.734940508901164e-04, 6.918246676204887e-03, -1.064095664433395e+05, 2.435629079027404e+04, 1.963311870944868e+05, 3.457937818134280e+03, 6.952304553017071e+04, -7.676015817154699e+04, 4.032594597012472e+05
798, 3.838974652550381e-02, 2.720472126067250e-01, 3.652395426411172e-02, -4.788367637975632e-05, -1.893534683244866e-04, 1.121289343824390e-03, -7.509620983670764e+05, -2.870824119948782e+06, 7.060740405294417e+04, -4.343210617337968e+05, -1.097034169986110e+05, -2.869836979794351e+04, 2.306261773860419e+06
799, 2.167425332902043e-01, 1.260447488268152e+00, 7.421841694846179e-02, -1.246893136482210e-04, -1.719373711010255e-03, 2.110397196774133e-02, -1.442682775678760e+05, -1.366440708543295e+06, -4.529231744914790e+04, -1.425400482815937e+05, 2.561211891975822e+04, 9.877703695722744e+04, 1.238229972605049e+06
800, 2.147229804588252e-01, 1.173403083738697e+00, 7.403749259169337e-02, -1.246370904903100e-04, -1.655869725586075e-03, 1.887540304415174e-02, -2.304566787404411e+05, -1.916804522184568e+06, 9.465364467352571e+04, -1.914100919896512e+05, -4.673171748403799e+04, 8.054123102643016e+04, 1.721635844096922e+06
801, 3.386477430012083e-02, 1.462686567162768e+00, 3.443900565387781e-02, -4.814176987229246e-05, -7.792970721658687e-04, 2.602005662860456e-02, -1.973959576731084e+04, 1.506367793466992e+05, -9.753328394264643e+03, 3.136733028953636e+04, -3.637484243780798e+03, 5.499613118500960e+04, 1.798093816749039e+05
802, 3.769716738934610e-02, 3.534099001381313e-01, 3.621405680706777e-02, -5.389709622668354e-05, -2.466450487521718e-04, 1.958783543997811e-03, -7.898360415303849e+05, -2.667214949384858e+06, -8.287695063741088e+03, -8.503530630212851e+05, -1.541524117753483e+05, -4.792288195910551e+05, 2.043300328941044e+06
803, 2.535024737338428e-01, 1.284917714397391e+00, 7.689727714539528e-02, -1.276078916280995e-04, -1.807167759157762e-03, 2.180682671925564e-02, -1.419194550157712e+05, -9.347806318477967e+05, 1.679405687074545e+03, -6.827498209252940e+04, -6.115157949068873e+04, 2.364394236566716e+04, 8.398489827662343e+05
804, 1.029268541460364e-01, 1.396919093222090e+00, 5.697664823977805e-02, -9.770681744163123e-05, -1.346770797693905e-03, 2.442364395521904e-02, -3.684264518244124e+04, -4.717867828374033e+05, 7.238503679717440e+04, 1.912815942687852e+04, 4.518497255813066e+04, 7.736171664185272e+04, 5.064105436211149e+05
805, 2.202369042766961e-01, 9.254163481050709e-01, 7.452275513157638e-02, -1.206611758730186e-04, -1.461276988269245e-03, 1.285980746512603e-02, -7.625485363395575e+04, -2.714001119689505e+06, 1.010324453099541e+05, -1.752372524328021e+05, -7.446576417054863e+04, 3.505141253684728e+05, 2.668754578055090e+06
806, 3.677121417718719e-02, 1.702590283545872e+00, 3.579469589513477e-02, -5.585141847791464e-05, -9.082138465175606e-04, 3.246669570836935e-02, -2.972793063902255e+04, -6.340265458060093e+03, 1.317125526790913e+04, -1.527919676777389e+04, -3.535848235257575e+03, 3.525569128528336e+04, 6.859060075013620e+04
807, 2.436332260832235e-01, 6.792388201434338e-02, 7.628830628945615e-02, -2.383298869995274e-05, -1.690742395285549e-04, 1.530179214758697e-04, -4.143562093510650e+06, -1.221183948367386e+07, 3.703369365599948e+05, -1.791850577612507e+06, -1.182691292449984e+05, 2.353710824260589e+05, 9.498500812780960e+06
808, 3.681861784419192e-02, 1.666862769653007e+00, 3.581630724213113e-02, -5.521262652567055e-05, -8.953094005142133e-04, 3.150225761084857e-02, -5.664865684746888e+04, -4.423431853628365e+04, 2.350398200211514e+04, -3.414943924156528e+04, 1.334901942612682e+03, 3.080981548753192e+04, 6.993861079596462e+04
809, 3.620177042653190e-02, 3.136708128739205e-01, 3.553386559390398e-02, -4.344732626607173e-05, -2.158891570387955e-04, 1.517647886663552e-03, -3.183999081683501e+05, 9.423202390419072e+04, -1.688581004555487e+05, 7.902441210846693e+04, -1.253076505875144e+05, -5.560957199761028e+04, 5.533025449371232e+05
810, 2.429414867995539e-01, 1.933305804213477e+00, 7.624267709412498e-02, -1.482576608777043e-04, -2.096854308791689e-03, 3.914545486394461e-02, 3.767683215306108e+04, -2.953956038767747e+04, -7.164270193593845e+03, 1.466241407195275e+04, 7.493969493221747e+03, 1.084152857216438e+04, 6.462070852154042e+04
811, 1.073325975032097e-02, 1.413366723925551e+00, 2.013267341693103e-02, -1.589027836026990e-05, -3.801755936115418e-04, 2.466162069933514e-02, -3.703661718502267e+04, 1.837878697009513e+05, 1.893455219706791e+04, -9.843551884971195e+04, -7.040457563170530e+03, 6.172679996476204e+04, 2.806180848057148e+05
812, 2.770364070801273e-02, 1.394657294155584e+00, 3.133867970252575e-02, -4.115069748936336e-05, -6.702937501139872e-04, 2.420020470520967e-02, -1.237835475657398e+05, -1.396078638769802e+05, 3.404414948632388e+04, -1.324338742688216e+05, -1.295768273008381e+03, 5.419273937180798e+04, 1.117182170628350e+05
813, 3.603570132351799e-02, 1.544872052736058e+00, 3.545737045230105e-02, -5.285874632945812e-05, -8.384959876360544e-04, 2.821999780002925e-02, -6.640823483268452e+04, -2.210608645233293e+05, 2.671043513315348e+04, -5.515881305631213e+03, -4.441270405279921e+04, 6.772218740884788e+04, 2.426090848885830e+05
814, 4.247415882314201e-02, 7.514706203928182e-01, 3.829062716127042e-02, -5.987874879268169e-05, -5.432482785823079e-04, 8.629677805147500e-03, -3.941862776125870e+05, -3.499145459012061e+05, 1.912776357064839e+05, -4.816553925229376e+05, -1.315232966942725e+05, 1.040732967554047e+05, 4.556682227863373e+05
815, 1.754092338158907e-01, 1.113809754482751e+00, 6.973560013657236e-02, -1.190808654441978e-04, -1.508105985158818e-03, 1.729567042725516e-02, 6.498984693030621e+04, -1.422341910590196e+06, 9.314891924265090e+04, -5.466214235065871e+04, 8.935346752272318e+04, 2.578818275134406e+04, 1.449305879727226e+06
816, 3.533147812723372e-02, 1.624760876110791e+00, 3.513080599993093e-02, -5.292626335505132e-05, -8.604741675038996e-04, 3.036414054117847e-02, -2.070681558251399e+04, 1.652866863572497e+04, 1.900215892518618e+04, -3.443396679416379e+03, 1.348036879507298e+03, 5.650055119714228e+04, 1.082004147568471e+05
817, 3.155418712791103e-02, 1.492537313431496e+00, 3.331521191286899e-02, -4.675878273223584e-05, -7.603966714457497e-04, 2.681178730324296e-02, -5.603773867159097e+04, 7.349493220257933e+03, 1.937774046323047e+04, -2.424717668217288e+04, 5.584728734043439e+03, 4.718895958705428e+04, 1.044696944377845e+05
818, 2.221411447441717e-01, 1.075418050887855e+00, 7.468400793438382e-02, -1.212621474735946e-04, -1.602099945218740e-03, 1.644432867334984e-02, -7.809481622559270e+04, -2.171781581799711e+06, 1.978249872166872e+05, -3.761346587819434e+04, 1.626157325161174e+04, 1.863923698914522e+05, 2.166181460357843e+06
819, 1.029618456059997e-02, 1.810335384495878e+00, 1.975153683429231e-02, -2.311116681988877e-05, -5.138458492821019e-04, 3.532981725249607e-02, -3.989416361945938e+04, 1.057633612304769e+03, 6.722750112810795e+03, -2.522870771253765e+04, 1.198053565048105e+03, 2.813254711009883e+04, 6.169085217303787e+04
820, 1.068210824153656e-02, 1.886128328317840e-01, 2.008847226361059e-02, -2.739235437851373e-06, -2.229889915281169e-05, 4.331143989401015e-04, -7.865253157202119e+04, 9.530157624912895e+05, -1.281413311036539e+05, 2.900535480365003e+05, -1.311121089902870e+05, -5.014727899042576e+05, 1.294278912978599e+06
821, 6.030735796825074e-03, 7.005138036215501e-01, 1.549858220783520e-02, 3.752015232380557e-06, -5.174739500089787e-05, 7.496032284131225e-03, -1.941769065939923e+05, 9.200786795778197e+05, -2.094630125185713e+04, 1.343932667030315e+05, -1.772299979390097e+05, -4.500341330448215e+04, 1.041650757112873e+06
822, 3.005774209486240e-01, 3.586479460117729e-02, 7.878831732367443e-02, -3.446978046682536e-06, -8.777596233495999e-05, 6.776575189924123e-05, -5.351010277852981e+06, -1.189944741541615e+07, -1.068559417687953e+05, -4.406905575228848e+06, -3.912356995116950e+04, 1.516490893996181e+06, 7.542801426745664e+06
823, 3.023575120480906e-01, 1.966147948494476e+00, 7.882883052079348e-02, -1.543349055948932e-04, -2.181400306026357e-03, 4.016262463102471e-02, 4.469058924528685e+04, 3.217128546296908e+03, -1.458022030540413e+04, 1.816083528949325e+04, 3.611186451741148e+03, 9.228223616294692e+03, 4.749679871142076e+04
824, 1.154282833753813e-02, 2.329660041734383e-02, 2.081877736747557e-02, -4.640111575181585e-06, -4.257941044975800e-06, -2.619796540920608e-05, 1.142325190136942e+05, 1.829082849126870e+06, 4.118530946355647e+05, 5.019599884400968e+04, -5.501734480774312e+05, -2.280666677821870e+06, 4.480612485802474e+06
825, 3.603917124794156e-02, 3.950273386888810e-01, 3.545897077108871e-02, -5.035874432182674e-05, -2.659336795104179e-04, 2.470111438224273e-03, -7.195199232751556e+05, -4.087235139308788e+06, -2.209558458900103e+05, 8.142432701519772e+04, -2.300143885914949e+05, -7.278518411581481e+05, 4.071223259621522e+06
826, 3.609359994879396e-02, 4.465673314982391e-01, 3.548406197443776e-02, -4.929748791660665e-05, -3.141817280362842e-04, 3.167142920892374e-03, -3.393303911228859e+05, -8.880858170640274e+04, -4.511276486959546e+04, -2.934252147647932e+05, -1.477052220229198e+05, 5.770298119403801e+04, 3.673051850764715e+05
827, 3.133940542508637e-02, 8.358616423586737e-01, 3.320849636590037e-02, -4.382105998063882e-05, -4.713040218916748e-04, 1.040720777993004e-02, -3.705780563958642e+05, -2.885774024615104e+05, -9.173017981464678e+03, -4.315399529293525e+05, -1.724180826174076e+05, 1.953350754060835e+05, 4.683408683044874e+05
828, 3.268756411431670e-02, 4.775209450000373e-01, 3.387187789170309e-02, -4.919435358227697e-05, -2.975478906447043e-04, 3.622314752378411e-03, -4.877262548787921e+05, -1.068430053212814e+04, -9.132487023852281e+04, -4.826496308010676e+05, -2.343773954241840e+05, 2.055782752369938e+05, 7.360565899612363e+05
829, 1.080396452246025e-02, 1.976990385380784e+00, 2.019359905263570e-02, -2.877601327352930e-05, -5.872850062409521e-04, 3.984910713873302e-02, -2.831552234653445e+04, -1.220159671543846e+04, 1.979703717933342e+03, -9.935279163893680e+03, 1.053212509388482e+03, 8.711710008311720e+03, 2.332554803171669e+04
830, 3.347484614906204e-02, 1.736345649160933e+00, 3.425235609626340e-02, -5.348492978211189e-05, -8.791127799271745e-04, 3.337235471415169e-02, -2.416636112546973e+04, 1.597632359098677e+04, 1.172270854714718e+04, -7.795324817818471e+03, -3.788881980045232e+03, 2.934818014553466e+04, 6.528053475298768e+04
831, 2.213069538792552e-01, 9.782002440598482e-01, 7.461375914997122e-02, -1.194072205778166e-04, -1.514602033916785e-03, 1.409480264352390e-02, -1.743737550502837e+05, -2.372193516210674e+06, 7.174513200899547e+04, -5.765524817780312e+04, -3.858454126159669e+03, 2.362788002897008e+05, 2.298593248618782e+06
832, 2.312163485396232e-01, 8.295139742005500e-01, 7.540921521228414e-02, -1.113764542174742e-04, -1.386748961216253e-03, 1.072974223936401e-02, -4.596448733526403e+05, -4.297419170935337e+06, 1.986254469027081e+05, -1.932025708465527e+05, -7.323400868507269e+04, -2.690470991096371e+04, 3.994829900621560e+06
833, 1.762015706022646e-01, 1.029629096981828e+00, 6.983791023219912e-02, -1.189205933988247e-04, -1.444215515053769e-03, 1.523469225555422e-02, -3.216977067077899e+05, -2.694166191904337e+06, 1.415201543818910e+05, -9.306846215013601e+04, -6.284213230934208e+04, 5.657836372908954e+04, 2.510941719558678e+06
834, 2.235280778175582e-01, 6.691699371873140e-01, 7.479945864412807e-02, -1.098910950434047e-04, -1.191365064613564e-03, 7.408068012010521e-03, -1.288684776597976e+06, -6.038743502376389e+06, 1.383043803609503e+05, -8.562062883615992e+05, 4.806163279191078e+04, 2.572427204027187e+04, 4.987052540221174e+06
835, 4.891503235951833e-02, 1.382306242147824e+00, 4.088856214392402e-02, -6.258852423676742e-05, -9.169824045726013e-04, 2.392015426653346e-02, -1.642125884639718e+04, -3.270521748297190e+05, 1.060956046522962e+05, -8.174941162324452e+03, 4.697335577584603e+04, 1.151190647145609e+05, 4.233989212977337e+05
836, 3.263367835622807e-02, 1.519407079809686e+00, 3.384565335352681e-02, -4.847684911124528e-05, -7.848582290171935e-04, 2.753155428649560e-02, -4.924966606077431e+04, -1.935097016924272e+05, 4.320248762786272e+04, 1.442061086673472e+04, -2.227984005268651e+04, -6.546008544657301e+03, 2.031428752783077e+05
837, 9.697587441582681e-02, 8.990222864739118e-02, 5.556301482498813e-02, -4.674139393251887e-05, -1.239406544287988e-04, 1.220615169665474e-04, -1.569392714743394e+06, -5.358333723567929e+06, -4.959486254746096e+05, -1.010259233029794e+06, -1.001157559498347e+06, -4.951606718832765e+05, 4.611683506496210e+06
838, 9.624591285321632e-02, 1.913319550553661e+00, 5.538478010338786e-02, -1.034059181505842e-04, -1.520008590286736e-03, 3.829487472492771e-02, 3.519947716369554e+03, -9.249835792414920e+03, 1.096512014674598e+04, 1.560761077380804e+04, 7.857593841530469e+03, 1.437121286955179e+04, 4.036159077490649e+04
839, 3.441507123536512e-02, 5.266173596246215e-01, 3.470044580939748e-02, -5.334299348442456e-05, -3.299089003491601e-04, 4.399598538037675e-03, -3.509578327960010e+05, -7.823066286201462e+05, -6.077509813575446e+04, 2.259550819529581e+05, -8.600306280517446e+04, 3.114091973034397e+05, 1.044958596561033e+06
840, 9.980044926723004e-03, 1.154279111066344e+00, 1.947080200475048e-02, -1.124035676479352e-05, -2.722862521645081e-04, 1.793879105422017e-02, -2.927439791975659e+05, -2.651461814065458e+05, 8.577765796149295e+04, -7.663765137000155e+03, -9.668355083967934e+04, 9.780917820780515e+04, 3.911281550079329e+05
841, 6.042051030047890e-02, 1.920885389521362e+00, 4.506164749076845e-02, -8.123887539590591e-05, -1.242052652330933e-03, 3.842615515240627e-02, -6.963286270770627e+02, -1.623902688002340e+04, 7.820227488930433e+03, 1.429006565681194e+04, 7.412251327732688e+03, 1.333616006654940e+04, 3.976114014968213e+04
842, 1.783442416221502e-01, 8.606084700428902e-01, 7.011116372493961e-02, -1.122409244723975e-04, -1.300639492998091e-03, 1.130265628995270e-02, -2.939191650543279e+05, -2.591370697524041e+06, 4.012241740312404e+04, 1.098197854764150e+05, 5.265972924698125e+04, 5.908429850519374e+04, 2.528335575871037e+06
843, 1.014147071024213e-02, 5.886912293204716e-01, 1.961469536414956e-02, -8.821869085226530e-06, -1.129989814489252e-04, 5.391575873242849e-03, -2.892265186346127e+05, 6.160604665541264e+05, 9.089619899242572e+04, -1.412841529746937e+05, -1.380653967601636e+05, -1.780257435024658e+05, 9.405068767900980e+05
844, 2.209008851888060e-01, 7.087950819704150e-01, 7.457934284428756e-02, -1.114463511926907e-04, -1.235196751667264e-03, 8.165749307703992e-03, -2.256389799996264e+05, -3.145731870712793e+06, 8.520350383946644e+04, -7.576925449593512e+04, -5.277399374928935e+04, -1.473956844126132e+04, 3.002969014837550e+06
845, 3.104309526119572e-02, 4.191026753082210e-01, 3.306061886154126e-02, -4.919032039335525e-05, -2.589212108750003e-04, 2.772964562057778e-03, -7.812769384786123e+05, -3.973175807758026e+06, -1.498064905843496e+05, 3.171705233841134e+05, -1.318786339949869e+05, 1.588045169907524e+05, 3.885369600139617e+06
846, 2.262414972888697e-01, 6.218567701982236e-01, 7.502048923446403e-02, -1.055682670068371e-04, -1.134171513999020e-03, 6.496436435438749e-03, -1.300625376035128e+05, -3.863465238873271e+06, -1.025704938890896e+05, -1.357874385318820e+05, -1.717862397138566e+05, 4.473112578575803e+05, 3.825873871820909e+06
847, 4.029703369186907e-02, 9.551024936804301e-01, 3.736144330105945e-02, -5.301364337535405e-05, -6.243713961862352e-04, 1.314756844870325e-02, -1.563036372791918e+05, -5.325600093759323e+04, 1.039716133435533e+05, -2.159984400324807e+04, -9.394710481516072e+04, 1.845642888905619e+05, 4.195037718894288e+05
848, 3.400263526550093e-02, 6.117667695949409e-01, 3.450471746507416e-02, -5.467125696793917e-05, -3.874437038332151e-04, 5.872987738957641e-03, -2.456822890691875e+05, -1.772856045464927e+06, 3.150427228384815e+05, 3.064226252382287e+05, -4.821283368730663e+03, 1.480783073041631e+05, 1.960573052904761e+06
849, 2.903961127580396e-02, 8.059701492516596e-01, 3.204015594541465e-02, -4.029096230206280e-05, -4.321850923287747e-04, 9.754688134913730e-03, -3.774584869199002e+05, -1.713529582276487e+05, 2.165393349311852e+05, -4.319711867635613e+05, -1.080970528274970e+05, 8.096715190064884e+04, 5.020720072773204e+05
850, 9.746995574043938e-01, 3.731343283574025e-01, 5.309227256591227e-03, -2.660006473078312e-05, 1.125891697628806e-04, 2.383255707579468e-03, -4.029834880836678e+03, 1.859891927852387e+06, -1.117612683827810e+05, 4.098161620600351e+04, 6.868253409173350e+04, 1.734410647474359e+05, 1.879947224974161e+06
851, 7.799026476822475e-01, 1.965027631371891e+00, 4.010146149073238e-02, -7.055981615269880e-05, -1.150883484952729e-03, 4.115294425411101e-02, 1.723337676739800e+03, 1.061717030352959e+04, -2.040126669726551e+04, -3.641092107733175e+01, 1.227246807489533e+04, 3.651779348919941e+03, 4.287574870671668e+04
852, 9.728087804014037e-01, 1.509726451686088e+00, 5.698216111968047e-03, 5.345377284610153e-06, -5.530004625720064e-05, 2.904115427418423e-02, 1.235472543533117e+04, 1.891324439703151e+05, -2.423218965916299e+04, 1.911842104890642e+03, -1.042207308196943e+04, 8.498082144886404e+02, 1.878699205934372e+05
853, 9.746995573960289e-01, 1.656716417909544e+00, 5.309227258314167e-03, 5.450784843347156e-06, -9.629316392774367e-05, 3.309811676335950e-02, 8.179811798065833e+03, 1.113845873214802e+05, -1.737979073888756e+04, 1.006913554259904e+04, -1.866982583888078e+04, 3.162797593981129e+03, 1.115422630078432e+05
854, 9.728197843762892e-01, 2.547397398768485e-01, 5.695955152021270e-03, -2.950419418980277e-05, 8.086578061405891e-05, 1.003843821828498e-03, -5.150489637630206e+03, 1.962241356581853e+06, -6.881553858800154e+04, 2.501730470379490e+05, 5.572532505228910e+04, -2.324969976566468e+05, 1.902415983195069e+06
855, 6.221708655198612e-01, 3.253746321489245e-02, 6.094740776401238e-02, 8.945509922168079e-06, -5.211532360827227e-05, 3.667747335684909e-05, -4.736373988231431e+06, -1.000892941829149e+07, 4.996523386960700e+05, -3.569435927201880e+06, 3.838116136923573e+05, 8.077292016703989e+05, 6.201814383256114e+06
856, 9.746995574043804e-01, 5.223880597002506e-01, 5.309227256593945e-03, -2.338778423984292e-05, 1.353814690214505e-04, 4.692518233095716e-03, -1.450611940320528e+05, 1.609344562772661e+06, -1.340032061729127e+05, -3.560712619816147e+04, 1.032292453787890e+05, -3.687357714028055e+04, 1.728528650885798e+06
857, 9.728731405891358e-01, 7.342327772600828e-01, 5.684991663338549e-03, -1.135754962836022e-05, 1.291549402891636e-04, 8.987962864093868e-03, 2.279573428736823e+04, 1.204310546854015e+06, -5.144701570620264e+04, 1.008631624209984e+05, 2.216589218670288e+04, 2.228699868102979e+04, 1.149233853689525e+06
858, 9.746995574042401e-01, 1.328358208953455e+00, 5.309227256622860e-03, 4.889819059376854e-06, 1.530695959209294e-05, 2.406492282508066e-02, -9.149382440504556e+03, 3.267347887540311e+05, -2.315672909576596e+04, -1.959114913106385e+04, 4.649635471974581e+03, 8.391517813479817e+04, 3.731397353577088e+05
859, 9.746995573960482e-01, 1.119402985072307e+00, 5.309227258310234e-03, 9.837264793588485e-07, 7.571047608906367e-05, 1.844045988492293e-02, -1.227530137110821e+05, 3.885405117875748e+05, -1.060536826753308e+05, 4.101027142859658e+04, 4.095554414353175e+04, 5.057821975001221e+04, 5.009561507006342e+05
860, 9.746995574043807e-01, 8.208955223859471e-01, 5.309227256593945e-03, -8.156358620290197e-06, 1.318430417521776e-04, 1.096643806560776e-02, 2.065627991225881e+04, 1.014063495450453e+06, -9.912080433441169e+04, 1.445859018918029e+05, 1.248143975626753e+04, 4.869431499217210e+04, 9.571621784747248e+05
861, 9.688537913690592e-01, 1.027270292176122e+00, 6.508261098112214e-03, -1.310423493588314e-06, 6.831784941557784e-05, 1.604787586139056e-02, 3.255660172532276e+03, 6.868152828279858e+05, -9.314271773074512e+03, 1.662796691992793e+04, 5.271424005625477e+04, 1.142676908547089e+05, 7.113787761581345e+05
862, 3.788278768870464e-01, 1.075445146935788e+00, 7.865785971166755e-02, -1.076482084778896e-04, -1.704061127107026e-03, 1.672625600743170e-02, -3.781596390513337e+04, -2.023344027662837e+06, -8.029036124705095e+04, -1.687376430766307e+05, -8.904895540937854e+04, 1.065049415023589e+05, 1.943366201542191e+06
863, 3.781487274049207e-01, 6.267537780127039e-01, 7.867486041101129e-02, -6.394332594251463e-05, -1.201526532229944e-03, 6.810878272746384e-03, -2.225588823067420e+05, -4.491288914321105e+06, -1.835728426677611e+05, -3.113087948403945e+05, 5.591765133454446e+03, 6.749491016464813e+05, 4.395331939099992e+06
864, 3.789535798967124e-01, 1.434995879783339e+00, 7.865468436791517e-02, -1.274750069465841e-04, -1.945942661752073e-03, 2.599257752959038e-02, -2.455922693287298e+04, -7.855239652636003e+05, -9.539705465472367e+04, -3.742643228265348e+04, 8.113388216622240e+03, 4.483424443325951e+04, 7.765120811303428e+05
865, 3.787823406289997e-01, 4.245238920485631e-01, 7.865900777744290e-02, -4.046914847585792e-05, -9.077253792115006e-04, 3.443341244591502e-03, -1.499053057666137e+06, -7.677361980488583e+06, 1.843270958969964e+05, -1.080980105273196e+06, -2.787955939189685e+05, 8.475397886951789e+03, 6.423752476008817e+06
866, 3.778632172384591e-01, 8.768562259797797e-01, 7.868192919199005e-02, -9.219823853668513e-05, -1.525157075325145e-03, 1.201634854466661e-02, -3.782974721891335e+05, -3.299154601430181e+06, -7.019217638775992e+04, -3.929125848942948e+05, -1.031711211941878e+05, 6.254366351873716e+04, 2.923590277378260e+06
867, 3.779507948929662e-01, 1.625181499066088e+00, 7.867976583307879e-02, -1.386736245918064e-04, -2.042174681721408e-03, 3.108672701685672e-02, 1.953027223087008e+04, -3.397815372501096e+05, -7.155108782512223e+04, 9.853054357481651e+02, -1.227924077535999e+04, 4.275405056754347e+04, 3.795789864293559e+05
868, 6.219888402255687e-01, 1.964502069755961e+00, 6.096763526589309e-02, -1.141958091677164e-04, -1.710651344505015e-03, 4.079990594862629e-02, 3.747688759159950e+04, 1.479546427080173e+04, -5.611724575752097e+04, 1.278371000320839e+04, 9.548830433899448e+03, 4.840665591223151e+03, 1.017614661919991e+05
869, 9.746995574041818e-01, 1.776119402984486e+00, 5.309227256634930e-03, 4.416780090407343e-06, -1.398816494102562e-04, 3.638995415210700e-02, -1.345413076957757e+04, 4.856024011432726e+04, -2.207988774832177e+04, -1.934700163395562e+04, -3.621341558821325e+02, 8.359269893569941e+03, 7.693205271108987e+04
870, 3.761817185105512e-01, 1.725283850863010e+00, 7.872261928584785e-02, -1.429205356319671e-04, -2.085953406678720e-03, 3.378732640391718e-02, 6.716442351320447e+04, -1.698945669420820e+05, -6.602068693022555e+04, 1.203167897061016e+04, 1.430101847167434e+04, 4.151514875142144e+04, 2.550042061181305e+05
871, 7.794642798527385e-01, 3.249644307920314e-02, 4.016835294376735e-02, 1.436168858083564e-05, -4.247512610321483e-05, 1.875479332230298e-05, -1.809554142386228e+06, -3.416058559550952e+06, 4.164738333631256e+05, -2.210405869040117e+06, 3.612655961730600e+05, -1.174140780314722e+05, 1.746658676260733e+06
872, 3.789551145760926e-01, 1.278040810353979e+00, 7.865464554550247e-02, -1.168884825466726e-04, -1.852082678003969e-03, 2.186681303915044e-02, -4.568848737147519e+04, -1.362879558887325e+06, -9.071865101524719e+04, -1.536198812012548e+05, 5.353592756803781e+04, 9.442845327308463e+04, 1.290160200237434e+06
873, 8.165319777507686e-01, 3.168200108195558e-02, 3.433622866626225e-02, 1.055567383046602e-05, -2.450518421283484e-05, 1.017845737518244e-05, -1.218712407711466e+06, -1.588863243634793e+06, 3.199724757444324e+05, -1.450494459338586e+06, 3.084880775834859e+05, -1.201022148074749e+05, 8.607297510658754e+05
874, 9.733882948405248e-01, 1.414660052624970e+00, 5.579096054105677e-03, 5.119288437311405e-06, -1.991504873360972e-05, 2.642538005427243e-02, -1.096085884428732e+04, 2.300755679840073e+05, -1.173275831329316e+04, -7.772990623157772e+03, -9.299036101694459e+03, 6.828105412279800e+04, 2.683274591301909e+05
875, 9.724566794030265e-01, 9.127253374389296e-01, 5.770541874780747e-03, -5.214703139435478e-06, 1.084615643832387e-04, 1.317354556726576e-02, -3.396708984596279e+04, 7.242238886843250e+05, -6.947686960046408e+04, 6.304476291049835e+04, 2.917828326190663e+04, -3.597920313550142e+04, 7.291296729492445e+05
876, 9.746995573961834e-01, 6.119402985059597e-01, 5.309227258282308e-03, -1.922967359549443e-05, 1.384952181501670e-04, 6.377765646359085e-03, -1.069378880266582e+05, 1.211939377590683e+06, -1.253269417406110e+05, 8.152502466947801e+04, 1.023896041600997e+05, 6.542792030088553e+04, 1.271931569944025e+06
877, 9.705001435257075e-01, 1.232669975878606e+00, 6.171689475302467e-03, 2.595684208306533e-06, 2.140135516975894e-05, 2.146195376869133e-02, -1.780679967625513e+04, 3.906534749325193e+05, -2.622754253954115e+04, -3.995283518106350e+04, 2.029933457790914e+04, 6.440778642886893e+04, 4.383160370551752e+05
878, 3.811838776812412e-01, 2.722999547644301e-01, 7.859685821517573e-02, -2.516631264848704e-05, -6.272984343145167e-04, 1.555992676124157e-03, -1.823656032588826e+06, -7.142600219585493e+06, -2.569199572519848e+05, -9.479740738810584e+05, -1.800562890506763e+05, 5.073163908520812e+05, 5.897718523071712e+06
879, 9.746995574042983e-01, 1.835820895521957e+00, 5.309227256610925e-03, 3.534082841372133e-06, -1.619170427514943e-04, 3.803255769241021e-02, -5.874189107747999e+03, 2.095390266310055e+04, -1.666839787609812e+03, 6.549250084186204e+03, -2.041318827092267e+03, 2.189569787902418e+04, 4.472015151799807e+04
880, 7.986972349321441e-01, 6.437843413675505e-02, 3.718654537533271e-02, 1.692321577853075e-05, -5.576797496992941e-05, 7.687602176387198e-05, -8.990132642964190e+05, -1.447286380823398e+06, 2.201192753682998e+05, -1.243708382562045e+06, 4.905269652104605e+05, -7.552192422961762e+04, 1.055816910358520e+06
881, 9.721743819297287e-01, 1.673207938832963e-01, 5.828501084827308e-03, -2.880677034561296e-05, 5.695159380778719e-05, 3.307629631988385e-04, 7.395847163071841e+04, 2.458953386903088e+06, -1.003986248343666e+05, 1.561013223077999e+04, 3.720181085335830e+04, 8.262101327814136e+04, 2.426032983838585e+06
882, 8.520227020040952e-01, 1.965808798199547e+00, 2.841661814128905e-02, -4.664502763745970e-05, -8.361248516411471e-04, 4.133017741524891e-02, -1.150563045028624e+04, 1.584515098886989e+04, -1.769961885261956e+04, 1.638196766838752e+03, 4.926090420315175e+03, 2.247749027525109e+03, 3.986373344156448e+04
883, 4.928692415811396e-01, 4.446595537473108e-02, 7.286798195052355e-02, 1.164338607406203e-05, -1.138705289122043e-04, 8.903489503273628e-05, -5.188504689281470e+06, -1.255510083102250e+07, 2.269853188215147e+05, -3.176796010903825e+06, 2.735226292666504e+05, 8.759511756611961e+05, 8.707125713350451e+06
884, 4.933504512730701e-01, 1.961607167714713e+00, 7.283333202203612e-02, -1.398571708255414e-04, -2.025246284874268e-03, 4.044645050998681e-02, 4.147672083012468e+04, 1.016495885740235e+03, -4.870416231372395e+04, 2.217698567572430e+04, 1.859116858015518e+03, 8.597224104806037e+03, 9.261225603186035e+04
885, 9.753727512701797e-01, 1.041345224826864e-01, 5.170518865615616e-03, -2.885639982258548e-05, 4.303835604632655e-05, 7.662301018573903e-05, -2.460667447228970e+05, 1.545827573247957e+06, 2.698219543149379e+04, -9.413311828045277e+05, 6.390165571306223e+05, -9.673020278874255e+04, 2.489055860279085e+06
886, 7.614373811076354e-01, 6.541272798733420e-02, 4.287632561415577e-02, 1.279547560786853e-05, -8.187294623773766e-05, 8.460418378862088e-05, -8.738813370786384e+05, -1.278964925136947e+06, -2.628703422143140e+05, -1.371808975578665e+06, 3.510594611323787e+05, -3.022502337808586e+05, 1.030251731258165e+06
887, 7.810445293002583e-01, 9.775197143801305e-02, 3.992697525389288e-02, 1.904741799521603e-05, -9.670103972969635e-05, 1.909871875155553e-04, -8.238023895825270e+05, -1.655931116734264e+06, 1.260725000024278e+05, -1.090770686503658e+06, 2.765316329296588e+05, -2.228190321767585e+04, 9.056157068211187e+05
888, 7.429002719232558e-01, 9.894752170705301e-02, 4.557401805080422e-02, 1.119706940612810e-05, -1.276461214396382e-04, 2.147898306796904e-04, -1.661756423752944e+06, -4.268141714200838e+06, 8.038711198247167e+04, -1.223313052317265e+06, 4.583707059827917e+05, 2.028330144425486e+05, 2.983513079759340e+06
889, 7.630984667460401e-01, 1.317304868837468e-01, 4.263027276057951e-02, 1.893405080515866e-05, -1.426744574708275e-04, 3.526005493421358e-04, -6.782956275955630e+05, -2.068691948998585e+06, -2.852609905312602e+04, -1.339955755612339e+06, 2.319926937963323e+05, -8.701665535463221e+04, 1.279705039217310e+06
890, 7.243962893847584e-01, 1.328629068295656e-01, 4.817822192927602e-02, 1.419385600691728e-05, -1.693398870319489e-04, 3.637135767668720e-04, -1.017293682121631e+06, -1.727358570181465e+06, 1.030614017812766e+05, -9.266945655266376e+05, 5.311353135866474e+05, 3.428079811602730e+05, 1.344419076863993e+06
891, 7.441897357376779e-01, 1.662410475213865e-01, 4.538922810917303e-02, 1.512126768154261e-05, -1.870038756071196e-04, 5.597702331230081e-04, -9.854290376711000e+05, -2.160622461887605e+06, -5.400056556652465e+05, -1.369971675668127e+06, 1.942729563510439e+05, 1.301263582614974e+05, 1.454607686545460e+06
892, 7.056664905142933e-01, 1.674140708885200e-01, 5.072404868177371e-02, 8.802801783308611e-06, -2.196039943604816e-04, 5.765006366266721e-04, -1.756589210525398e+06, -3.508732728558314e+06, 7.502735977723439e+04, -1.348502301104664e+06, 2.443894248632760e+05, 3.899900996460493e+05, 2.145672712024646e+06
893, 7.259062895549360e-01, 2.014711254430410e-01, 4.796903417061828e-02, 1.372025014000555e-05, -2.382268336729929e-04, 8.162132574445063e-04, -2.040064383980926e+06, -5.468758452362357e+06, 5.006853444689463e+04, -1.508755651500529e+06, -1.131910206406014e+05, 1.072341771963946e+05, 3.733682068074577e+06
894, 6.862135718355521e-01, 2.026469007884051e-01, 5.327156005084352e-02, 1.680827184779438e-05, -2.956632368408818e-04, 8.516220077719391e-04, -2.824824217216814e+06, -6.842141108548329e+06, 7.635098207348564e+05, -4.020745039699267e+05, 4.876438509786184e+04, -2.516953158464318e+05, 5.804096118760047e+06
895, 7.070712099497659e-01, 2.370985515130946e-01, 5.053628314136333e-02, 2.078649276521932e-05, -3.163352821121124e-04, 1.131293568325392e-03, -2.097677734931704e+06, -6.115468203021964e+06, -2.241626463556540e+04, -8.125353944086593e+04, -1.720793975194326e+05, 4.556118185352884e+04, 5.329797893137763e+06
896, 7.469480661523223e-01, 2.358590399601836e-01, 4.499250026067192e-02, 1.617633087052164e-05, -2.753398885887298e-04, 1.095045357728665e-03, -1.785767934703677e+06, -3.928158290844243e+06, -4.287290682689179e+04, -1.370565129625785e+06, 1.728763658916633e+05, 2.623354968664601e+05, 2.439956762668069e+06
897, 7.282802591057324e-01, 2.715665550982607e-01, 4.763893228163684e-02, 2.442799738562595e-05, -3.506609128215432e-04, 1.456435674094592e-03, -1.936653182577551e+06, -3.894295074199252e+06, 1.293549498241387e+04, -1.430017528315368e+06, 3.112072803239144e+05, 1.901288663991528e+04, 2.317970881443718e+06
898, 6.879481774687130e-01, 2.729241360000690e-01, 5.304838554947567e-02, 1.953052951823853e-05, -3.918925284465899e-04, 1.495559846275137e-03, -2.383672087875193e+06, -6.728860104798255e+06, -2.196201644542860e+03, -1.034637241522276e+06, -2.862062602092894e+05, 5.321997214925700e+05, 5.259071223951508e+06
899, 7.096363154588571e-01, 3.076250143366135e-01, 5.019212568009848e-02, 3.123786634307187e-05, -4.200137959849970e-04, 1.868868224872908e-03, -1.017333098955517e+06, -2.815465108806849e+06, -2.128655045782939e+05, -8.748933788481789e+05, 3.751246807662224e+05, 2.309847113362818e+05, 2.056172603894631e+06
900, 6.686733583331486e-01, 3.091767311594240e-01, 5.548320072697406e-02, 3.106720389152440e-05, -4.727462597896581e-04, 1.914257143103594e-03, -1.572869071959994e+06, -4.808917542506104e+06, -3.186716225645379e+05, -6.665436710609365e+05, 3.313749202458396e+05, 3.571561232619067e+05, 3.904242906758379e+06
901, 6.905832591560388e-01, 3.440912538166366e-01, 5.270785774028701e-02, 3.150602971340594e-05, -4.653518840376444e-04, 2.328628787836795e-03, -9.118776846123444e+05, -3.219990153728181e+06, -2.134209012976623e+05, -4.839460610823424e+05, 1.690429573621143e+05, 2.017545892973107e+05, 2.615857356822902e+06
902, 7.312630520627390e-01, 3.423518462782041e-01, 4.722208522857314e-02, 3.076035314463627e-05, -4.037025115575937e-04, 2.284899023467690e-03, -3.014509706673241e+05, -1.175954768160571e+06, -6.416248250416228e+04, -4.314729517564452e+05, 4.398079190634271e+05, 2.660491725588649e+05, 1.213650636439575e+06
903, 7.126790172167239e-01, 3.787704311492158e-01, 4.978161422532461e-02, 2.813653709987651e-05, -4.635854037688368e-04, 2.767804045359271e-03, -6.114656638134359e+05, -1.608398879369529e+06, 1.335880393066189e+04, -6.607953010434327e+05, 1.989778918220010e+05, 4.753235299991826e+05, 1.320696879402744e+06
904, 6.718768110890057e-01, 3.807262137303546e-01, 5.508535169654123e-02, 2.713936562293018e-05, -5.532794094187873e-04, 2.824232552592024e-03, -1.338236789719882e+06, -4.231986130149111e+06, -3.068262199478667e+04, -6.513920970129404e+05, 1.787420488219163e+05, 4.995722895981686e+04, 3.307454437741652e+06
905, 6.938877212989379e-01, 4.155842013693370e-01, 5.227833010050970e-02, 2.478026547159118e-05, -5.302335394880009e-04, 3.298565752719168e-03, -1.062591061601203e+06, -3.834183140661941e+06, 1.656163881180122e+05, -6.597266829792181e+05, -2.362886008604180e+05, 1.483865910613241e+05, 3.045724395763512e+06
906, 7.345614455650076e-01, 4.133695225821636e-01, 4.675848002699455e-02, 2.897155731208800e-05, -4.596002047570769e-04, 3.237124047785013e-03, -7.363767033659229e+05, -2.013159335753853e+06, -1.756615950228499e+05, -5.493708796660992e+05, 4.619769550462448e+04, 2.982782531474735e+05, 1.506583643323625e+06
907, 7.161323144699222e-01, 4.502639610827506e-01, 4.931271839276294e-02, 3.035958721685217e-05, -5.342310221025798e-04, 3.793819495483047e-03, -6.810545565339336e+05, -2.376613465633548e+06, -1.239822775136042e+05, -7.503891486201038e+05, 5.391517830498932e+04, 2.528188981727936e+05, 1.734576015962867e+06
908, 6.756028567384507e-01, 4.527600419774417e-01, 5.461916975865429e-02, 2.786773520529855e-05, -6.171120138246510e-04, 3.862731268502832e-03, -1.296018762586101e+06, -4.482738194152566e+06, -1.027668893148127e+05, -2.604765697811434e+05, -1.808623037433105e+05, 1.513957050355593e+05, 3.837458715673053e+06
909, 6.979015286911443e-01, 4.873115201115794e-01, 5.175280536892168e-02, 2.388013207124673e-05, -6.272093907342940e-04, 4.403636044533144e-03, -1.651298842220535e+06, -4.573034464848101e+06, -2.959985136463452e+05, -1.196012236742032e+06, -2.331406422943885e+05, -7.730343737064162e+04, 3.243129435774891e+06
910, 7.388437416800241e-01, 4.847300216978335e-01, 4.615250031983233e-02, 2.791480649649326e-05, -5.167939812124531e-04, 4.334026920682216e-03, -8.859020616878582e+05, -2.503613123255271e+06, 1.510641434537857e+04, -1.036726554553514e+06, -9.510841379150286e+04, 2.346963624035121e+05, 1.608979566639345e+06
911, 7.205804305934775e-01, 5.215750947104055e-01, 4.870420197104140e-02, 1.755191583863560e-05, -6.008084479708145e-04, 4.964387963961550e-03, -7.311677994146872e+05, -1.997616560942244e+06, -2.287055904245663e+05, -4.592424143891741e+05, -1.907727231248270e+05, 2.979121312996507e+04, 1.513598174473139e+06
912, 6.793542065672442e-01, 5.243274205132619e-01, 5.414616997981349e-02, 2.249112708992140e-05, -6.845041554720366e-04, 5.038560924810420e-03, -8.743816157334717e+05, -2.814757700535292e+06, -3.442074734887307e+05, -1.610444537046962e+05, 2.935049234642692e+04, 2.735196895759361e+04, 2.453225779670541e+06
913, 7.024907443760575e-01, 5.591864736952894e-01, 5.114668819932314e-02, 2.203391846676908e-05, -6.750870610940703e-04, 5.639420099987391e-03, -9.111540648248681e+05, -3.270414187529522e+06, -4.449013449298939e+05, -4.356987301767868e+04, 7.806842666451048e+03, 1.513219444395841e+05, 3.004722432509072e+06
914, 6.608567222130781e-01, 5.618022376607974e-01, 5.644237778210675e-02, 1.952641060858074e-05, -7.566781517415952e-04, 5.703153832920971e-03, -7.940729788756609e+05, -3.523015322084962e+06, -3.727009801501721e+05, -2.219709301862877e+05, 3.591691546952465e+04, 2.304716109512302e+05, 3.148904602970542e+06
915, 6.841561716455741e-01, 5.966311839714228e-01, 5.353523153332625e-02, 2.196177352444722e-05, -7.504865937854694e-04, 6.336647460482236e-03, -8.517042107935223e+05, -3.665674272866047e+06, -2.426476876908894e+05, -5.131091875975025e+05, 9.321258135665776e+03, 2.915160973571366e+05, 3.068828705231659e+06
916, 7.257078495348184e-01, 5.936850544159006e-01, 4.799655980447680e-02, 2.141403882939541e-05, -6.418886151021153e-04, 6.259172835477276e-03, -1.990144675897700e+05, -3.714891972949332e+05, -6.512634173456382e+04, -1.834914110899779e+05, 1.465510543847326e+05, 2.644872439826451e+05, 5.654045411204108e+05
917, 7.075849791249593e-01, 6.311399032208931e-01, 5.046748446409011e-02, 1.668961810807890e-05, -7.121405913337077e-04, 6.988537272366008e-03, -4.472745939287521e+05, -2.621047010156462e+06, -1.924782064715275e+05, -2.866567129445894e+05, -6.058378001238889e+04, 2.047938191620390e+05, 2.312619213939639e+06
918, 6.659182131799267e-01, 6.342352935262227e-01, 5.582315147234065e-02, 1.434374686226647e-05, -8.250026865183409e-04, 7.062369733484397e-03, -8.729207611439878e+05, -3.488291007897908e+06, -4.549580547360061e+05, -3.377710581598789e+05, 3.095149704360349e+04, 1.113331004962082e+05, 3.031036291595172e+06
919, 6.895899025288608e-01, 6.690598117162788e-01, 5.283643787960399e-02, 7.820269146733942e-06, -8.016519065621938e-04, 7.745966792245401e-03, -9.627071722358876e+05, -3.635190066164881e+06, -4.713490022691064e+05, -2.329125539879344e+05, -1.554416362028997e+05, 3.676561872836432e+05, 3.281712632951923e+06
920, 6.479028574267570e-01, 6.723237233896943e-01, 5.799611826097502e-02, 4.967083654175419e-06, -9.002588510215945e-04, 7.816174162737947e-03, -7.586018786127891e+05, -3.260337514665331e+06, -3.981331105975784e+05, -2.006789835800307e+05, 2.097115433568306e+04, 2.417370984345860e+05, 2.935625061490916e+06
921, 6.714947770099561e-01, 7.072661538798856e-01, 5.513294227564729e-02, 4.811399953938422e-06, -8.866641239757139e-04, 8.535411096625950e-03, -6.191100314189778e+05, -2.299106959383942e+06, -3.707055104378050e+05, -4.236085876124079e+05, -6.784117083675716e+04, 1.951196560545984e+04, 1.901649144217633e+06
922, 7.132109359080315e-01, 7.038166635749036e-01, 4.970959418685271e-02, 6.829592002016716e-06, -7.759915143670665e-04, 8.456866217765965e-03, -5.191283829094688e+05, -2.051445991073930e+06, -2.853494846077628e+05, -5.214285256720290e+05, -1.238461485546705e+05, 4.969134011155782e+04, 1.625476014025028e+06
923, 6.954292922752439e-01, 7.419846910266064e-01, 5.207700645365422e-02, 5.801426326952630e-06, -8.452178053799109e-04, 9.262968817773960e-03, -3.268772994359831e+05, -1.352383444837765e+06, -3.386002842387673e+05, -3.921507053130721e+05, -4.676239530425059e+04, -3.161674053368920e+04, 1.158660722585682e+06
924, 6.537653475641084e-01, 7.456099688175122e-01, 5.729861269890103e-02, -1.714599603068467e-06, -9.562283385965986e-04, 9.344165808504279e-03, -2.031493989645023e+05, -2.639325772066487e+06, -4.107915487168453e+05, 1.007154263545858e+05, -2.268881527673105e+04, 9.765428373647627e+04, 2.702583944096733e+06
925, 6.776643596310725e-01, 7.802851872573429e-01, 5.435968779742907e-02, -3.828251797502111e-06, -9.258199690812641e-04, 1.009755121097401e-02, -3.542662439610381e+05, -2.422892130429439e+06, -3.986347092139769e+05, -5.799317034829528e+04, -5.827983810952958e+04, -4.618783826188470e+04, 2.339484431199419e+06
926, 7.202028554245460e-01, 7.787851808365480e-01, 4.875604986345897e-02, 4.970290952826042e-06, -8.119497784170107e-04, 1.006731280921901e-02, -4.753328973318425e+05, -1.320124102863404e+06, -3.687872147074930e+05, -5.109508846057216e+05, -2.957408081267567e+04, -8.471301870047246e+02, 1.046656161499440e+06
927, 7.022765175422676e-01, 8.163444256347679e-01, 5.117510472434086e-02, -2.097431845337434e-06, -8.913998664035055e-04, 1.090241133978400e-02, -2.714580908740272e+05, -1.554353322123100e+06, -3.666383891163711e+05, -1.572025480841947e+05, -2.025994760524729e+03, -1.933887113765360e+04, 1.486559050056589e+06
928, 6.606485865319736e-01, 8.184980970215190e-01, 5.646769898391853e-02, -6.573699995803678e-06, -9.988164504927330e-04, 1.094224921008195e-02, -4.003216412509102e+05, -2.428773623529591e+06, -4.278794369209638e+05, -1.422059533939584e+05, 4.691745132282994e+04, 1.497174176204962e+05, 2.308226272740820e+06
929, 6.845423022522146e-01, 8.533655468399440e-01, 5.348583229603247e-02, -8.250185679351679e-06, -9.629011180239608e-04, 1.173995141551060e-02, -3.054566078121591e+04, -1.822864277911495e+06, -3.862496890554010e+05, -1.315907038156345e+05, -1.004332777930001e+04, 9.057569850480052e+04, 1.874564524869185e+06
930, 7.265928103391965e-01, 8.532292890632139e-01, 4.787372607475771e-02, -1.615270835820734e-06, -8.360469146138153e-04, 1.175001659265397e-02, -3.754512173752505e+05, -7.877921643224594e+05, -5.273482849414591e+04, -3.265063413299909e+05, 9.779328225402783e+04, 2.705073633227732e+05, 6.701931060251278e+05
931, 7.087722294803854e-01, 8.889717901073235e-01, 5.030824697244795e-02, -8.350374443868991e-06, -9.187183028708974e-04, 1.257760611846084e-02, -2.945073718735341e+05, -1.143363853204567e+06, -1.941040862070039e+05, -2.781856535734834e+05, 2.720501452383490e+04, 1.865760829192337e+05, 9.769134824519390e+05
932, 6.675641929206916e-01, 8.916276733241655e-01, 5.562030702236088e-02, -1.556596642672721e-05, -1.038890557272465e-03, 1.262557452155327e-02, -3.596113159152205e+05, -2.376902322555992e+06, -4.891249961824573e+05, -2.179699533168883e+04, -2.925148381796695e+03, 1.681061696896584e+05, 2.380669195731841e+06
933, 6.918828042582285e-01, 9.260598316472146e-01, 5.253926508550429e-02, -1.721363843745815e-05, -9.930044713398756e-04, 1.344705161403552e-02, -7.565575097764950e+04, -8.152773667390000e+05, -2.267590024283887e+05, -1.371411741779040e+05, -6.873450785587145e+03, 6.510080523289628e+04, 8.200363752690344e+05
934, 7.332605073063011e-01, 9.221772004070103e-01, 4.694166202099778e-02, -4.847641967228172e-06, -8.618233368830035e-04, 1.337357588821567e-02, -2.090299616007962e+05, -1.103474775453873e+06, -1.918720275717113e+05, -3.797892840038505e+05, 9.103327221697838e+04, 1.988649266010937e+05, 9.645740266132728e+05
935, 7.164199397199276e-01, 9.598553582158487e-01, 4.927352336273150e-02, -1.387654182398446e-05, -9.400843669567262e-04, 1.426950406960251e-02, -2.572768925036545e+04, -4.688250097786896e+05, -2.069266225365966e+05, -1.962258367082941e+05, 4.267452524487531e+04, 6.188736801986607e+04, 5.433847136895090e+05
936, 6.752717307785393e-01, 9.642600158316417e-01, 5.466074586785133e-02, -2.480888819016841e-05, -1.066953655769604e-03, 1.435533527503236e-02, -2.182689274622930e+05, -1.691963703123522e+06, -3.263839064526929e+05, -1.412096547374940e+05, -1.270212161913880e+05, 3.072661072506834e+04, 1.631591608227069e+06
937, 6.999255459159757e-01, 9.981971541546457e-01, 5.148616774442055e-02, -2.205296789988681e-05, -1.020536140942723e-03, 1.519939273230911e-02, -1.578931786508454e+05, -1.420602572934409e+06, -3.634660108498895e+05, -6.571929664710090e+04, -3.770759434172333e+04, 2.353858660543304e+04, 1.456561111649621e+06
938, 6.582184146666488e-01, 1.003062896412817e+00, 5.676250426212088e-02, -2.957562121581880e-05, -1.142199123995269e-03, 1.528900952854393e-02, -1.946132941611115e+05, -1.686705227069807e+06, -4.060884277819714e+05, -1.976297445350484e+04, 3.245906329546420e+04, 1.806114463475893e+05, 1.764525265224600e+06
939, 6.834400404940387e-01, 1.037046311709245e+00, 5.362674263552566e-02, -2.980634199241730e-05, -1.095111794227206e-03, 1.614980530770024e-02, -1.629949401455176e+05, -1.050174296980258e+06, -3.280799802367437e+05, -5.563653493795514e+04, 1.730732571584277e+04, 5.989543511431907e+04, 1.108345451361891e+06
940, 7.250760841506393e-01, 1.032966678984273e+00, 4.808412209901841e-02, -2.353048918653407e-05, -9.566420946290968e-04, 1.607868711000778e-02, -1.116850964461592e+05, -7.022368783570164e+05, -2.098157261110116e+05, -6.593599525903116e+04, -8.598920678845215e+04, 1.305951619115393e+05, 7.637258915155983e+05
941, 7.085255044505971e-01, 1.071449307317518e+00, 5.034136745429598e-02, -2.654507843481962e-05, -1.034760983972895e-03, 1.703186653679345e-02, -3.284085582631887e+04, -6.834549226680888e+05, -3.012730643735116e+05, -1.040913281698936e+05, 1.512273001954292e+04, 3.576523901142953e+04, 8.116887704108660e+05
942, 6.671825018789130e-01, 1.076568627539642e+00, 5.566741122609767e-02, -3.569227514046980e-05, -1.164845636060320e-03, 1.712453423645827e-02, -3.605938960038720e+04, -1.367416551758302e+06, -3.777288989071497e+05, -1.208533928847397e+05, 7.346867771398101e+03, 8.762817423668641e+04, 1.455350884154278e+06
943, 6.925301223849301e-01, 1.109852059586963e+00, 5.245512808164237e-02, -3.424766064034218e-05, -1.107416132694994e-03, 1.798727985558773e-02, 1.225222699220002e+05, -9.438320526516133e+05, -3.909612543646237e+05, -4.426179342570031e+04, -2.077310430752255e+04, 4.366403871694275e+04, 1.205256767594775e+06
944, 7.335330578721750e-01, 1.105448821252941e+00, 4.690332010436277e-02, -2.501525560491547e-05, -9.678906507187279e-04, 1.791406407618190e-02, -3.748581568329766e+03, -6.189311907299675e+04, -9.237742855925916e+04, -8.154193777331221e+04, 7.086029312315276e+04, 1.059459763617689e+05, 2.815089623115015e+05
945, 7.176839626939150e-01, 1.143744528822159e+00, 4.910102060505189e-02, -3.488019065321993e-05, -1.043586773164268e-03, 1.888013570565067e-02, -6.896247178646436e+04, -5.885301662550324e+05, -1.937426239467082e+05, -1.461588003110777e+05, -2.587593420533104e+04, 7.031555701693636e+04, 6.043602248908845e+05
946, 6.764885880902402e-01, 1.148747037345819e+00, 5.450781733094016e-02, -4.355858211968489e-05, -1.179787658660739e-03, 1.896544407634057e-02, -7.900045964270706e+04, -1.026193728598355e+06, -3.696458086122854e+05, -1.497316790342322e+05, -2.094105159064661e+04, 9.300620012357413e+04, 1.127990236403736e+06
947, 7.020645177403574e-01, 1.182066112591559e+00, 5.120321411465188e-02, -4.108384018412098e-05, -1.118759998845038e-03, 1.985409134688095e-02, -1.100019230799655e+05, -6.151077528106711e+05, -2.067706836850136e+05, -8.183466717264708e+04, -3.573267211986880e+04, 4.805427714640830e+04, 6.396664738916443e+05
948, 6.604636258691579e-01, 1.187706456343055e+00, 5.649019127310757e-02, -4.930301911022089e-05, -1.249263925819581e-03, 1.995231672627694e-02, -9.784911471552815e+04, -9.701320436358283e+05, -2.984396934294148e+05, -7.065774657855544e+04, -1.825348014858430e+04, 1.397022644933590e+05, 1.054553902555890e+06
949, 6.860493135657821e-01, 1.221233300071475e+00, 5.329265242464563e-02, -4.712208310496402e-05, -1.190456194230007e-03, 2.085525334247024e-02, -5.603206688563549e+04, -9.494691573756885e+05, -3.341073509255948e+05, -5.373545671917140e+04, -4.423210224401798e+04, 4.527738515133075e+04, 1.071069424939140e+06
950, 7.272667793059764e-01, 1.215898108833069e+00, 4.778003911083129e-02, -3.754944246331425e-05, -1.048242027749183e-03, 2.076298682952837e-02, -1.028739544166177e+05, -6.091340393317952e+05, -1.998261591218669e+05, -1.640180712725159e+05, 2.032395166835234e+04, 4.167865330723932e+04, 5.960914794558303e+05
951, 7.117177299427815e-01, 1.254925326913456e+00, 4.991157771319124e-02, -4.591546268233916e-05, -1.125471427667668e-03, 2.176891027658299e-02, -9.934613858354322e+04, -7.286798915516326e+05, -2.931209799679471e+05, -6.470319179874072e+04, -4.455418051095250e+04, -4.307262348848353e+04, 8.296648639531789e+05
952, 6.704699949319783e-01, 1.260452115337334e+00, 5.526040861386656e-02, -5.399483000378090e-05, -1.259886759043073e-03, 2.186270867750875e-02, -5.444963696534296e+04, -6.714795392286178e+05, -3.254151222980190e+05, -3.283382875828713e+04, -5.815356013613241e+04, 3.303123152651967e+04, 8.518417959782861e+05
953, 6.964105814792442e-01, 1.293733457613433e+00, 5.194852003636604e-02, -5.291708171997409e-05, -1.195943451982057e-03, 2.277553179150456e-02, -4.443696832682175e+04, -5.403761548304314e+05, -2.929198724679784e+05, -1.178267638653551e+04, -3.267864961623999e+04, 5.881906751224981e+04, 7.308935682190161e+05
954, 6.544597425388263e-01, 1.299863968298757e+00, 5.721536762621417e-02, -6.226298939757818e-05, -1.330737188263924e-03, 2.287961317823481e-02, -5.844524083972171e+03, -6.870625384604771e+05, -2.935446516797036e+05, 3.083626957364738e+04, -2.915571818792057e+04, 1.008734156981604e+05, 8.842923580117021e+05
955, 6.806361061188788e-01, 1.333130864752106e+00, 5.398369927256044e-02, -5.864635051973724e-05, -1.266225862835712e-03, 2.380022322429000e-02, 1.781952430797304e+04, -5.875589267370251e+05, -2.711540877179721e+05, 1.202135418334521e+04, -6.517243547976330e+04, 5.630307560483590e+04, 7.783525334851639e+05
956, 7.219768358005293e-01, 1.327386092581238e+00, 4.851214225223695e-02, -4.910475866026776e-05, -1.122798199091097e-03, 2.370399565916020e-02, 2.628975430179997e+04, -1.219893219752026e+05, -1.165022822280881e+05, -3.006452050442098e+04, -4.888669823005258e+04, 3.336728306552132e+04, 2.608342936809906e+05
957, 7.069491503849774e-01, 1.366188912373173e+00, 5.055261833571300e-02, -5.661516796162669e-05, -1.194647870667573e-03, 2.472057227027332e-02, 1.633676483564648e+04, -3.339096167307140e+05, -2.435158920217527e+05, 3.227288857771158e+04, -2.820846704778635e+04, 7.149941791033850e+04, 5.693256358558453e+05
958, 6.652455950271254e-01, 1.372492401012988e+00, 5.590582832352343e-02, -6.558224034589489e-05, -1.334364479650251e-03, 2.482627395461627e-02, 2.729103747127373e+04, -4.670955245659983e+05, -2.509611472998883e+05, 3.106003338608751e+04, -4.838195371111819e+03, 8.758699686025713e+04, 6.769968846371957e+05
959, 6.918138449132870e-01, 1.405654276776858e+00, 5.254822205868635e-02, -6.200716190575550e-05, -1.261867090174520e-03, 2.575536893170965e-02, -1.044333394103502e+03, -2.430256136527374e+05, -1.651725098523609e+05, 4.421361319530706e+02, 4.768576525617177e+03, 1.103799393854788e+05, 4.211675823724954e+05
960, 6.501538116005043e-01, 1.412129092291306e+00, 5.772942215968985e-02, -7.290044798896611e-05, -1.400661784328530e-03, 2.586310740315387e-02, 2.061383915526640e+04, -3.888567277520508e+05, -1.844378591249287e+05, -2.086894353527936e+04, 1.638202368634671e+04, 7.191332080615786e+04, 5.203581927307470e+05
961, 6.764313431045353e-01, 1.445215541278770e+00, 5.451502021416956e-02, -6.969407384036647e-05, -1.332769415525514e-03, 2.679604088112759e-02, -7.556293350785409e+04, -5.873950224102533e+05, -2.741206059171523e+05, 2.359977551580618e+04, 1.574095862657899e+04, 2.762273192364745e+04, 7.423063287142941e+05
962, 7.181544959783959e-01, 1.438764561926593e+00, 4.903670172921681e-02, -5.870216268998607e-05, -1.187251513021854e-03, 2.668940354436128e-02, -6.107422417328034e+04, -4.732224949759294e+05, -2.166020507138185e+05, -1.724097494180355e+04, 1.841507206641887e+04, 8.807723659906114e+04, 5.957288286770477e+05
963, 7.030569562820187e-01, 1.478095339652534e+00, 5.107152472051837e-02, -6.641589821855531e-05, -1.258290869678855e-03, 2.772689392548744e-02, -5.215423837738457e+03, -1.652003066769194e+05, -1.455022457390803e+05, 1.537632270083447e+04, 4.570854852040616e+03, 2.153582602973938e+04, 3.070509974188897e+05
964, 6.617382394498723e-01, 1.484904335280184e+00, 5.633500967543397e-02, -7.644996459778286e-05, -1.398911021136691e-03, 2.783889053790919e-02, 4.014054080005577e+04, -2.658732826454133e+05, -2.227274857401645e+05, -2.825901309728427e+04, 1.172038571907979e+02, 4.313445714720214e+04, 4.814521099816365e+05
965, 6.881980374897256e-01, 1.517494433267854e+00, 5.301617358813377e-02, -7.225149105061224e-05, -1.325521027937433e-03, 2.876749878817542e-02, 2.914290049212214e+04, -2.254665610167184e+05, -2.221317912122366e+05, 3.154638458978386e+04, -2.470750324475912e+04, 5.147009521010107e+04, 4.724935943179866e+05
966, 7.289462185838863e-01, 1.511023488258001e+00, 4.754606424514542e-02, -6.236210284432664e-05, -1.178068642204454e-03, 2.866272093785729e-02, -3.943591375907893e+04, -9.327317531672562e+04, -9.006481240151315e+04, -2.343661842271208e+04, -7.221128551903807e+03, 5.792077333530533e+04, 1.963967407412273e+05
967, 7.145770316107150e-01, 1.549910660929549e+00, 4.952428583984592e-02, -6.865613482512356e-05, -1.246557589903821e-03, 2.969338036411888e-02, -3.643292706306652e+04, -9.545011320038424e+04, -8.533655034550808e+04, -3.458555490859623e+04, -1.101960286936376e+04, 6.005159669395127e+04, 1.913774437153917e+05
968, 6.738449746868629e-01, 1.556773032304283e+00, 5.483956124871704e-02, -7.909769265408012e-05, -1.390224746865655e-03, 2.980745472548646e-02, -2.773595950512392e+04, -2.635481028210789e+05, -2.207210870731597e+05, -1.069375058901441e+03, 6.464169606446732e+03, 5.242039420972040e+04, 4.659712679813572e+05
969, 7.004304137059385e-01, 1.589037699414743e+00, 5.141948941212903e-02, -7.485974738280152e-05, -1.313385874165254e-03, 3.073063386111517e-02, 4.080533653513862e+04, -4.824543437566037e+04, -9.026297919185308e+04, 3.697823788065344e+03, -2.562553275960041e+03, 2.212175017959905e+04, 1.786969122677880e+05
970, 6.595801449478778e-01, 1.596175209939270e+00, 5.659750390457906e-02, -8.528899096189868e-05, -1.452600793525948e-03, 3.084896226849171e-02, 6.816265040956941e+04, -1.094427216978272e+05, -2.016534679013557e+05, 2.280009656540491e+04, -1.028165273632639e+04, 3.954310537463365e+04, 3.905704395936098e+05
971, 6.860762175716116e-01, 1.628200840065135e+00, 5.328919817591460e-02, -8.104316287961544e-05, -1.378712506107022e-03, 3.176992274187682e-02, 6.023360138372431e+04, -1.000133997955743e+05, -1.847123456092368e+05, 1.406440192347633e+04, -7.430390393829839e+03, 7.132668954119850e+04, 3.717476220418052e+05
972, 7.265162631930302e-01, 1.620653508129849e+00, 4.788435913142700e-02, -6.991641692230544e-05, -1.230890191520277e-03, 3.164059889566247e-02, 1.048544128914304e+04, -6.869081446920193e+04, -9.319134240079137e+04, -9.743027252134052e+03, 5.101261689569971e+03, 5.889377993240127e+04, 2.039946947071219e+05
973, 7.122782346512003e-01, 1.659727142789284e+00, 4.983582903238113e-02, -7.627391483658319e-05, -1.298639121957633e-03, 3.267827756771907e-02, 1.202697012451981e+04, -1.156735594507945e+03, -5.094608781235850e+04, -1.228741336519780e+03, 3.808921863159213e+03, 3.382024422781737e+04, 1.069402945112169e+05
974, 6.720715083512936e-01, 1.667260510081888e+00, 5.506108301905189e-02, -8.672809667700440e-05, -1.440612780082041e-03, 3.280579334059316e-02, 7.350262356774432e+04, -6.894744121647991e+04, -1.463177636202243e+05, -1.561893849872175e+03, -1.948768626601723e+04, 6.075578447946353e+04, 3.027763646764028e+05
975, 6.990491844163440e-01, 1.698514576876927e+00, 5.160175006584426e-02, -8.149175817769028e-05, -1.361023837158196e-03, 3.371052594010657e-02, 1.683359618615876e+04, -5.442114403504814e+04, -1.010084219899097e+05, -3.127702261862723e+03, 6.188229174595415e+03, 3.519594082159967e+04, 1.961953198598543e+05
976, 6.590794037321774e-01, 1.706146938925964e+00, 5.665823556954480e-02, -9.275272227342313e-05, -1.498220632789258e-03, 3.383961387026665e-02, 6.869359638618688e+04, -4.114658373536486e+04, -1.060481459246370e+05, 2.096344972383644e+04, -8.854286830717290e+03, 2.428632879424178e+04, 2.117631800144467e+05
977, 7.389039723975093e-01, 1.689147099474034e+00, 4.614394313632082e-02, -7.066524972630401e-05, -1.211573740748106e-03, 3.353256052197405e-02, 1.560273298306219e+04, 4.871088452141431e+03, -8.385563440803798e+04, 6.831526103879833e+03, -9.463178433812138e+03, 3.069542717517054e+04, 1.558478682647073e+05
978, 7.256378114043495e-01, 1.728749286949368e+00, 4.800627229591285e-02, -7.652967185362014e-05, -1.275813584169810e-03, 3.458751428534963e-02, -1.753060663561226e+03, -3.615406909396261e+03, -6.025765526926461e+04, 2.198924377398121e+03, 5.352650773668070e+02, 2.480210064815188e+04, 1.129853692088001e+05
979, 7.651024159702876e-01, 1.718949578578024e+00, 4.233254010432523e-02, -6.491652104958362e-05, -1.120131299583223e-03, 3.439790467775602e-02, 2.415590919461182e+04, 1.872797835639301e+04, -8.051826846623805e+04, 1.497537908102765e+04, 7.319775558814168e+03, 5.490682589983051e+04, 1.694653471601698e+05
980, 7.515262018712614e-01, 1.758744205806892e+00, 4.432979588168307e-02, -7.051817659328719e-05, -1.188630425903905e-03, 3.545815304438991e-02, 1.042033521528259e+04, 2.235860626909244e+04, -6.181846135539952e+04, 2.945527799588904e+03, 1.267195532450921e+04, 4.119235360078754e+04, 1.316220466808756e+05
981, 7.896201263943119e-01, 1.751661545883275e+00, 3.860567978614309e-02, -5.931861816646511e-05, -1.032678671888956e-03, 3.534128515218896e-02, -1.173078790266212e+04, 1.128109882827921e+04, -4.918095987225378e+04, -9.579885949806012e+03, 6.991450003614344e+03, 4.561480367211291e+04, 1.188686228635801e+05
982, 8.034284843312784e-01, 1.709669148035071e+00, 3.643841286990261e-02, -5.312143340236233e-05, -9.585691535406310e-04, 3.421967907377946e-02, -1.178387189256964e+04, 1.989103336346769e+03, -4.419340362729501e+04, -3.698741820794843e+03, 6.780036949920092e+03, 4.593373402517725e+04, 1.116714337637061e+05
983, 8.000569581521982e-01, 1.327126394513232e-01, 3.697210919184683e-02, 2.496156801727600e-05, -1.110916756615135e-04, 3.355033107498850e-04, -7.223952088026799e+05, -1.716309059294125e+06, 6.926394989443346e+03, -9.099099658744361e+05, 3.061673432007232e+05, 8.214416697141569e+04, 1.066890460903065e+06
984, 7.772043416535698e-01, 1.789820923255268e+00, 4.051237984893354e-02, -6.498087176901035e-05, -1.097624544282536e-03, 3.635978328686390e-02, 6.419157750825074e+03, 1.962443926753182e+04, -4.173329465356552e+04, 1.920642744421106e+03, -4.732066966897658e+03, 4.428516311957367e+04, 1.069099073664753e+05
985, 7.387390208137643e-01, 1.796796901232458e+00, 4.616737604907835e-02, -7.640268737935108e-05, -1.252330268804407e-03, 3.647199979208993e-02, 6.616004359301439e+03, -2.723658658602240e+03, -3.999246087255703e+04, 7.343111757282049e+03, -5.583848459799510e+02, 2.060564563924061e+04, 7.853313304585969e+04
986, 8.146552785281844e-01, 1.781833782351926e+00, 3.464001057137284e-02, -5.315873873198984e-05, -9.365883253569622e-04, 3.621777496888591e-02, 1.059477506586976e+04, 3.735361364939219e+04, -4.388154849660600e+04, 1.232680665992760e+04, -2.094199994296776e+03, 5.029053956045615e+04, 1.185328277145558e+05
987, 8.924421329353985e-01, 2.691415674090395e-02, 2.126656916420652e-02, 2.252236695705900e-06, -4.096287972363277e-06, -1.592704103041409e-06, -3.624009758440203e+05, -2.145917191862174e+05, 4.693751413376285e+03, -3.608952748930790e+05, -8.994994615838987e+02, -7.759353699464557e+05, 1.352006990794590e+06
988, 7.025270162537327e-01, 1.965970449206002e+00, 5.114187566930758e-02, -9.353997697464020e-05, -1.448347308271362e-03, 4.101239387449475e-02, 5.021635957458108e+04, 5.577541554400521e+04, -5.575070246469395e+04, 2.055714749600650e+04, 7.549851305928847e+03, 3.484404243097498e+03, 1.029917260913721e+05
989, 3.788787138981743e-01, 1.737629599567071e-01, 7.865657661326970e-02, -2.756107598596725e-06, -4.240234601933859e-04, 6.904022696517936e-04, -1.897800555302493e+06, -8.095470372711047e+06, -1.084562987433471e+05, -1.253841401441159e+05, 5.876827319350850e+04, 4.096400174839387e+05, 7.286047426570381e+06
990, 3.782773404989374e-01, 1.824919154048462e+00, 7.867166102356071e-02, -1.475707305505503e-04, -2.126287242345655e-03, 3.649158998347275e-02, 6.497041129021347e+04, -8.162598608093342e+04, -3.834803768189035e+04, 2.432280904560178e+04, -8.985181459250191e+03, 8.801064224189186e+03, 1.485605326920877e+05
991, 3.803127471309720e-01, 1.523910487181223e+00, 7.861977925285932e-02, -1.326014621789873e-04, -1.993040864754880e-03, 2.836885442544328e-02, 8.005690589167296e+03, -6.592947183062894e+05, -1.415006329673340e+05, 1.746068044821392e+03, -1.369791320683958e+04, 5.185578152392109e+04, 7.140372693386340e+05
992, 3.774279102928042e-01, 1.171525386913550e+00, 7.869261750863440e-02, -1.087428518550086e-04, -1.772784728934995e-03, 1.913211878204076e-02, -8.611123096496690e+04, -1.398621547613736e+06, -1.190452508575465e+05, -1.674101477347790e+05, 8.808409262625345e+04, 2.177125291499493e+05, 1.352987491297621e+06
993, 3.790482087254196e-01, 9.756064151003293e-01, 7.865228806803690e-02, -9.983635301331895e-05, -1.619946948606892e-03, 1.431052481044330e-02, -2.087659253109408e+05, -2.539617817680778e+06, -1.037825671238190e+05, -2.261185646706902e+05, 2.073525448484858e+04, 1.196366477369452e+05, 2.338646258942297e+06
994, 3.770655572019602e-01, 7.753388780653198e-01, 7.870143231758273e-02, -7.618307003481265e-05, -1.406353480886413e-03, 9.782165015760319e-03, -3.753695016025674e+05, -3.739734765087051e+06, -1.514632699985497e+05, -3.801947895820421e+05, 1.730240726947763e+05, 9.921024983070018e+04, 3.389823926838485e+06
995, 3.795760131163768e-01, 5.217544065577374e-01, 7.863882931289445e-02, -5.800698712550220e-05, -1.057062621019437e-03, 4.947656692800756e-03, -5.826168037336798e+05, -5.197574456462024e+06, 1.158574556590493e+05, -6.242975655413452e+05, 1.713192177853300e+05, 3.158656945803603e+05, 4.640565650433817e+06
996, 7.546724221049509e-01, 1.542734881317708e+00, 4.387120668378668e-02, -5.840881010901744e-05, -1.093159503886623e-03, 2.956929031218944e-02, 5.687362659724391e+03, -3.234792687999482e+04, -8.074202632909091e+04, -1.200444131619005e+04, -2.303193125675819e+04, 7.268940310568716e+04, 1.951595559602521e+05
997, 7.690382460205146e-01, 1.504917992384753e+00, 4.174474304083600e-02, -5.216895652819867e-05, -1.021159119429689e-03, 2.856514642318941e-02, 1.016451109301522e+04, -2.703829503832817e+04, -7.147859413582328e+04, -2.558497120074226e+04, -2.153965587066564e+04, 8.882809511988606e+04, 2.042616538685403e+05
998, 7.941388615921321e-01, 1.535687633231020e+00, 3.790194691009817e-02, -4.665820726108827e-05, -9.311639603026139e-04, 2.944666541440291e-02, 5.826235813736872e+03, -5.882752269765516e+04, -1.083198419446784e+05, 2.983381799252573e+03, -5.915186501057211e+03, 1.035551067852662e+05, 2.673572559448730e+05
999, 8.079710265737849e-01, 1.498981328535872e+00, 3.571474634126876e-02, -4.140693471115647e-05, -8.584371968813898e-04, 2.846991316509614e-02, -9.382211069209034e+03, 4.342038395929641e+04, -9.541112393631824e+04, 1.834662606151027e+04, -7.793836552457334e+03, 1.185090165951233e+05, 2.678023306708977e+05
1000, 7.475654596543608e-01, 1.359667126061442e+00, 4.490343581410270e-02, -4.684214734924225e-05, -1.043271487201882e-03, 2.460600214325713e-02, -1.657237627277291e+05, -3.321901307423486e+05, -1.730685559318573e+05, -6.610298028550934e+04, 1.053936406464654e+04, 8.200275877825500e+04, 4.056890790860908e+05
1001, 7.626049184688057e-01, 1.320863424782484e+00, 4.270345153650992e-02, -4.040394701125896e-05, -9.686577004196497e-04, 2.358633446600467e-02, -6.878115230087060e+04, -1.650227616505256e+05, -1.082700399193794e+05, -8.118044299385247e+04, -2.136494152398164e+04, 1.010023070135656e+05, 2.745247656704275e+05
1002, 7.874669278612842e-01, 1.353563134744379e+00, 3.893919648129496e-02, -3.734729886168547e-05, -8.854226133933919e-04, 2.449816975390377e-02, -6.197493353167364e+04, -1.528842615878875e+05, -1.432780851133357e+05, -7.500968227482117e+04, -4.044225945224224e+04, 1.046604031024060e+05, 3.265017432656719e+05
1003, 8.022081968448762e-01, 1.315869185227688e+00, 3.663190108099253e-02, -3.035698334429016e-05, -8.085749373683802e-04, 2.350405466668587e-02, -7.877120548494191e+04, -3.043623022514825e+03, -7.027093434965718e+04, -1.040121107874271e+05, 4.167931065341942e+04, 1.323281630426053e+05, 2.843254094154410e+05
1004, 8.260603526643995e-01, 1.347507073073764e+00, 3.277929030977580e-02, -2.823758378146801e-05, -7.210019644166461e-04, 2.438833418205316e-02, -3.024923608440545e+04, -5.382619841287004e+03, -1.335279616979918e+05, -2.349319041696085e+04, -1.447603098819081e+04, 1.109533161067925e+05, 3.025652391005376e+05
1005, 7.582216478742740e-01, 1.138252233269247e+00, 4.335071109462930e-02, -2.437648739933226e-05, -8.941839296653792e-04, 1.877716916232341e-02, -1.273436051147645e+05, -2.463693337766147e+05, -1.961900501236229e+05, -1.664861705982089e+05, 1.198114074493356e+04, 2.024167559492578e+05, 4.998601523506268e+05
1006, 7.743034853980642e-01, 1.100179992510756e+00, 4.095208929798513e-02, -1.878672757599925e-05, -8.136865153088729e-04, 1.781261150554164e-02, -1.665224775449798e+05, -4.085200821002147e+05, -1.811711475407332e+05, -3.244886545281685e+05, 5.995915852539316e+04, 2.909698534355323e+05, 6.391661288368303e+05
1007, 7.986069128742360e-01, 1.132266459590692e+00, 3.720077306500413e-02, -1.606500690769577e-05, -7.389444324618910e-04, 1.865642007054402e-02, -9.704757146759557e+04, -2.133485061449466e+05, -2.289877413899451e+05, -2.283905166714672e+05, 1.208016846368897e+05, 1.840975772832952e+05, 5.641476946774131e+05
1008, 8.134717837241072e-01, 1.095730976281881e+00, 3.483113229764603e-02, -1.123698426619760e-05, -6.642587512415625e-04, 1.772891587092615e-02, -7.036968941660495e+04, -1.132031846872812e+05, -1.291666888236589e+05, -1.492975495138880e+05, 5.697557038056954e+04, 1.690418153589012e+05, 3.875560768192311e+05
1009, 7.575921445435716e-01, 9.568148435602507e-01, 4.344326765039468e-02, -1.101096281026781e-05, -8.027341893566270e-04, 1.421765657528997e-02, -1.466295722361675e+05, -4.946252660590945e+05, -2.371069922876092e+05, -1.818556826835689e+05, -4.677931505975547e+04, 1.704387019101901e+05, 6.102913162454689e+05
1010, 7.740762295405426e-01, 9.172630602959214e-01, 4.098644758778268e-02, 3.837887045526900e-07, -7.208945507544591e-04, 1.326492031155815e-02, -1.412948929422302e+05, -1.679141174655406e+04, -1.465042730312128e+05, -8.688354767438839e+04, 1.320204695722192e+05, 2.973158559666196e+05, 6.273405640130593e+05
1011, 7.990578641939902e-01, 9.514130485629635e-01, 3.712971770543894e-02, -1.614106418856842e-06, -6.495296540109004e-04, 1.409921345476506e-02, -2.754811848029541e+05, -4.672620643928294e+05, -2.636296011576627e+05, -1.748649671063664e+05, 1.291493697988214e+05, 3.038142904260564e+05, 7.756607144556819e+05
1012, 8.134226343497362e-01, 9.142577534208560e-01, 3.483906178117473e-02, 7.995956390755010e-08, -5.777156828215037e-04, 1.320178539677505e-02, -2.577205623438616e+05, -2.183453857669168e+05, -1.905079883488844e+05, -2.732360148463218e+05, 1.083632220184504e+05, 2.772083194645062e+05, 6.140383205897337e+05
1013, 8.401947124894347e-01, 9.353905360790693e-01, 3.042616462973443e-02, -4.189959956178713e-07, -4.863194300294138e-04, 1.371737919057217e-02, -3.211743020353886e+05, -1.903632622729656e+05, -2.091656180137823e+05, -2.519167859471654e+05, 5.671324146094029e+04, 2.753101048050167e+05, 6.173616346511213e+05
1014, 8.181668315210571e-01, 9.948301431834630e-01, 3.407083215621978e-02, -7.374260537044292e-06, -5.990777136943466e-04, 1.517429630544945e-02, -6.802266393666006e+04, 1.798748998395141e+05, -1.008307717334198e+05, -1.107037155450673e+05, -3.633682319308620e+04, 3.523946799450065e+05, 6.934429047230131e+05
1015, 7.484281343867688e-01, 6.279355850196899e-01, 4.477882653825192e-02, 2.365996011039970e-05, -6.140791094997999e-04, 6.908160136535696e-03, -8.323976974423621e+05, -2.075285016715567e+06, -4.102172350899067e+05, -7.268938514553143e+05, 1.781987509193739e+05, 1.377942664555227e+05, 1.531042143843922e+06
1016, 7.661414293059653e-01, 5.914382603921609e-01, 4.217776841594181e-02, 1.810907574196358e-05, -5.381135171771620e-04, 6.200775769502096e-03, -3.036630404474009e+05, -8.538431834826487e+05, -1.366784078918170e+05, -4.221633275580178e+05, -1.146120683476607e+05, 1.019880055913240e+05, 6.149791890471964e+05
1017, 7.881252703284897e-01, 6.246089760256076e-01, 3.883734547774829e-02, 1.927413449820392e-05, -5.041165934180081e-04, 6.815904827990021e-03, -4.432275845826781e+05, -7.033282490802374e+05, -2.456412456532776e+05, -5.229668328908508e+05, -5.506345449971550e+04, 2.776838774825699e+05, 6.889922322676836e+05
1018, 8.053579423500505e-01, 5.891782338196393e-01, 3.613171280873247e-02, 2.188282784271189e-05, -4.290659762729854e-04, 6.128206044206885e-03, -3.963928894237844e+05, -1.274904456095519e+06, -4.184071352969634e+05, -4.139126840648831e+05, -1.043204954505429e+05, 2.160859563973444e+05, 1.206076069455908e+06
1019, 8.275300613748744e-01, 6.218255668067819e-01, 3.253705308029382e-02, 1.602568996526138e-05, -3.814051732087473e-04, 6.730449964038321e-03, -2.532275185688114e+05, -1.756718430430721e+04, -1.043321217971369e+05, -2.710199669176738e+05, -1.338683388293920e+05, 2.439555610701828e+05, 5.700930251803518e+05
1020, 8.103272285903349e-01, 6.570980311803007e-01, 3.533721733052556e-02, 1.682001046197923e-05, -4.542493830212817e-04, 7.452993109662895e-03, -5.853879718935599e+05, -7.528289012302357e+05, -1.743699103398819e+05, -7.737808582937905e+05, -3.709472974810492e+04, 4.339003289140519e+05, 8.319463952685316e+05
1021, 7.677242427124635e-01, 2.702696780003639e-01, 4.194143909615303e-02, 2.252710179347214e-05, -2.757337221982112e-04, 1.416008740490873e-03, -1.062154110262018e+06, -2.548847751696734e+06, -2.318409313604147e+04, -1.291272677617274e+06, 5.087003204589125e+04, 1.753815257576837e+05, 1.422594815786843e+06
1022, 6.282899402093560e-01, 1.266344909089090e+00, 6.026202653039966e-02, -6.531686531787632e-05, -1.389680880262575e-03, 2.196074850710159e-02, -6.567707226299631e+04, -8.405085324145001e+05, -2.215581014890712e+05, -5.819794667354508e+04, -3.508985424010140e+04, 4.879546785817774e+04, 8.742514823721033e+05
1023, 6.118966217223815e-01, 1.306220002043513e+00, 6.207466895999923e-02, -7.204812856107662e-05, -1.456860562479873e-03, 2.298559122149750e-02, -2.191367681229977e+04, -6.793844564451581e+05, -2.396348620602042e+05, -4.577941756932715e+04, 9.852093374728511e+03, 1.087351195554531e+05, 7.906846044539694e+05
1024, 5.849762010757654e-01, 1.272253658599683e+00, 6.488722878169216e-02, -7.386584074341521e-05, -1.508931471420661e-03, 2.205311013263597e-02, -6.164719481179878e+04, -9.598158039999444e+05, -2.271353231297125e+05, -6.154036194217793e+04, 3.150979122899468e+03, 1.561784312852875e+05, 1.017240912526806e+06
1025, 5.684490389545993e-01, 1.313100555619809e+00, 6.651031598368629e-02, -8.264659335341373e-05, -1.573669197209457e-03, 2.310001908862880e-02, 4.199425945509037e+04, -6.873251248981393e+05, -1.737810766758893e+05, -4.039695796229361e+04, -6.430032962298556e+02, 6.700683229348357e+04, 7.633322605861520e+05
1026, 6.333003982568438e-01, 9.686958722161780e-01, 5.969318229637161e-02, -3.225682711017336e-05, -1.185109934716511e-03, 1.443209751098636e-02, -1.409905476812696e+05, -1.744611984003503e+06, -3.914868223805000e+05, -2.123571386482143e+05, -2.730213554446583e+04, 1.672485686849211e+05, 1.734412918977677e+06
1027, 6.157375860594854e-01, 1.008723672656652e+00, 6.165664015621255e-02, -4.082238565593583e-05, -1.258509783767254e-03, 1.539062290009510e-02, -2.012860698096089e+05, -1.578058461441788e+06, -3.279030904333985e+05, -1.340882990457968e+05, -7.566793335138356e+03, 2.002901180495523e+05, 1.560645785474533e+06
1028, 5.899847459367568e-01, 9.728090078746142e-01, 6.437971775868884e-02, -4.143833194687578e-05, -1.295185161014473e-03, 1.449570501252415e-02, -2.693357173799735e+05, -1.696240285971169e+06, -2.791469478056682e+05, -2.120206787425895e+05, 2.107722247319861e+04, 8.319055529415900e+04, 1.541748540067660e+06
1029, 5.723344953377353e-01, 1.013986443155098e+00, 6.613599370525633e-02, -4.947396820849555e-05, -1.366449682130962e-03, 1.547756705967450e-02, -1.587499730562570e+05, -1.799954421861850e+06, -3.311644484586370e+05, -8.618857746289058e+04, -4.803901256185853e+04, 1.115848587924319e+05, 1.786390702577904e+06
1030, 6.348612473260997e-01, 1.154955419585332e+00, 5.951460477494688e-02, -5.210069260828953e-05, -1.305842904821945e-03, 1.907791909996995e-02, -1.040152369511271e+05, -1.017797632810915e+06, -2.512730630830624e+05, -9.098842602693780e+04, -1.273345533068511e+04, 1.017396869236457e+05, 1.033453146647781e+06
1031, 6.237815365577583e-01, 6.373917514971752e-01, 6.076801432780472e-02, 8.430965111614133e-06, -9.151682802290666e-04, 7.130998226598517e-03, -7.720292887273282e+05, -4.075013996195042e+06, -4.539467884609156e+05, -2.006646004884828e+05, 1.124785415826668e+05, -7.539861164467815e+04, 3.714375666447496e+06
1032, 6.049051765170332e-01, 6.764541982957849e-01, 6.282494103524608e-02, -2.604956667429104e-06, -1.005025702808714e-03, 7.899378036968163e-03, -4.101820939587216e+05, -2.935914030220708e+06, -3.414825080430876e+05, -9.497324728864108e+04, -4.038543705716943e+04, 5.495371813986766e+04, 2.763800838589679e+06
1033, 5.803432666511879e-01, 6.403506259301192e-01, 6.535031090588997e-02, -5.621307815110999e-06, -1.006446056853887e-03, 7.185080488500639e-03, -8.214203820917819e+05, -4.314687450315875e+06, -3.173269469633688e+05, -2.896447947547405e+05, -1.913390381449044e+05, -7.139945093824458e+04, 3.843247186078641e+06
1034, 5.612743351655725e-01, 6.802236826049652e-01, 6.718992004473616e-02, -1.002143842159658e-05, -1.079798650093992e-03, 7.967452520615270e-03, -5.022717828336295e+05, -3.390650749477990e+06, -4.920249475121389e+05, -1.104354854554570e+05, 1.782525176077581e+04, 1.482478466056360e+05, 3.228187044829512e+06
1035, 6.321887320926725e-01, 1.563221852411451e+00, 5.981997291483590e-02, -8.931513246343559e-05, -1.523379883841949e-03, 2.990565238750043e-02, 3.169129998791282e+04, -3.015398613391159e+05, -2.041912087139780e+05, -1.791925864132452e+04, -1.692697912490806e+03, 4.790588630412430e+04, 4.784852108429348e+05
1036, 6.174368722486120e-01, 1.603577238757451e+00, 6.147041120654139e-02, -9.539899938568012e-05, -1.584006723405026e-03, 3.097120156683530e-02, 4.779660409088602e+04, -1.732865082477131e+05, -1.532182452917786e+05, -8.687566751533937e+03, -1.376129634890970e+04, 3.947094537512415e+04, 3.394848837846400e+05
1037, 5.898886184511042e-01, 1.570105017714022e+00, 6.438952732804579e-02, -1.003881943620333e-04, -1.645935190220271e-03, 3.001310843885106e-02, 2.123892826456912e+04, -2.535518107205928e+05, -1.360790851992036e+05, -2.692324063154240e+04, -8.717395920413286e+03, 5.171362383932154e+04, 3.583273010745049e+05
1038, 5.747311924019006e-01, 1.611695855966326e+00, 6.590288095564349e-02, -1.060803640341168e-04, -1.703592030275355e-03, 3.111055643827518e-02, 3.407822514743460e+04, -2.794775079965441e+05, -1.721370331970348e+05, 8.938902552935768e+03, -3.002021750529603e+04, 2.980902717605975e+04, 4.304990753480006e+05
1039, 6.378533724388755e-01, 5.266447808894338e-01, 5.917035926435768e-02, 2.050631869888412e-05, -7.678297131476636e-04, 5.092667617942512e-03, -9.666566001188399e+05, -4.054421787683269e+06, -3.506004964848740e+05, -4.581873593103668e+05, 2.284027934195904e+05, 1.874907427333880e+05, 3.463176635902787e+06
1040, 6.470035006086805e-01, 2.743229149658999e-01, 5.810230558328128e-02, 2.393182213330375e-05, -4.457285754934093e-04, 1.526896981413589e-03, -2.077919348463351e+06, -5.598913254616051e+06, -2.275202880963114e+05, -7.887578003290102e+05, 1.485795944461694e+05, 2.498466572622046e+05, 4.359731611918205e+06
1041, 6.270098665044226e-01, 3.115664861332319e-01, 6.040626314652267e-02, 3.062937932103715e-05, -5.153529070125312e-04, 1.960266514776904e-03, -1.729225292203350e+06, -5.985713866215002e+06, -1.164851644928385e+04, -5.143291947436369e+05, 2.573033364699645e+05, 6.480583597118674e+05, 5.120919825892868e+06
1042, 6.045358255046165e-01, 2.756390353581386e-01, 6.286418637421035e-02, 2.411182679672857e-05, -4.875774794667123e-04, 1.564331739961056e-03, -1.730549860927028e+06, -5.444180847478738e+06, -2.966943396776631e+04, -1.371815588991065e+05, 4.230206178692099e+04, 3.475702194616240e+05, 4.755784261421508e+06
1043, 5.844131693043414e-01, 3.135905713268246e-01, 6.494383402032125e-02, 2.408233620472544e-05, -5.787558241939043e-04, 2.006132512895047e-03, -2.151164043344084e+06, -7.072448947085503e+06, -3.275031965832567e+04, -1.027249110945718e+06, 1.380041900181043e+05, 6.940807280492061e+05, 5.702537405384696e+06
1044, 5.614496195055385e-01, 2.761763754628522e-01, 6.717350003328645e-02, 2.351375449802240e-05, -5.344862601203218e-04, 1.592002161822439e-03, -1.358963060855691e+06, -5.485545813123823e+06, -1.769093180289660e+05, 9.513045354792001e+05, 1.993453052159109e+05, 4.294368290568542e+05, 5.715407801474350e+06
1045, 5.822382437268072e-01, 2.396820540630953e-01, 6.516164487088383e-02, 2.555799721570134e-05, -4.539668755354984e-04, 1.228344119104587e-03, -2.750788858793554e+06, -8.450579741094058e+06, -3.283159758447655e+05, -3.396368423354843e+05, 2.832379570863853e+05, 3.721251618604502e+05, 7.281744928032777e+06
1046, 8.330440183718160e-01, 1.529232739373428e+00, 3.162322017168850e-02, -3.615084877454933e-05, -7.610812095406316e-04, 2.933777367829326e-02, -3.966215478137583e+04, 8.860755931839776e+03, -7.064306725492619e+04, -7.952886274778563e+03, 4.486363240820920e+03, 1.187913693813193e+05, 2.432842043910458e+05
1047, 8.191656537082114e-01, 1.565699168144541e+00, 3.390832157298958e-02, -4.136802142821333e-05, -8.364118608028288e-04, 3.030997781452557e-02, -1.432100230063585e+04, -2.259873377008090e+04, -1.104481064667038e+05, -1.718180272120353e+04, 2.971382920537500e+04, 9.338805629975806e+04, 2.558556211271844e+05
1048, 8.569937572531101e-01, 1.559382034622438e+00, 2.756088141384543e-02, -3.021999827142879e-05, -6.640706685825948e-04, 3.020474937674189e-02, -1.068891505899784e+04, 5.160480015620761e+04, -7.146840760911696e+04, -3.285961362985439e+03, 2.433606614114947e+04, 8.481129277523652e+04, 2.053118397469961e+05
1049, 5.407930904704150e-01, 3.148869851964998e-01, 6.904433703421012e-02, 1.280638772598736e-05, -6.133083547480295e-04, 2.030492136879114e-03, -2.201183834022792e+06, -7.768549622809718e+06, -2.441844388174600e+05, -9.290324586974600e+05, 2.776298893922430e+05, 8.365979929728920e+05, 6.496634881653282e+06
1050, 9.212326341211516e-01, 1.973330288231952e+00, 1.590100880869912e-02, -2.075604615749127e-05, -5.002831418742040e-04, 4.168780428192803e-02, -1.089405992670276e+04, 1.547361148236461e+04, -1.639148979787412e+04, -6.731552861448368e+03, 5.394343331764252e+03, 5.064109304993787e+03, 3.966232701888971e+04
1051, 8.402623531689125e-01, 1.313785660177176e+00, 3.041478019896850e-02, -2.266106716746624e-05, -6.458984319962641e-04, 2.349918442736952e-02, -4.665807278180707e+04, 7.240521053833592e+04, -1.044700081599871e+05, -2.232229581698494e+04, 5.096009364813010e+04, 1.129328518957596e+05, 3.011063372440481e+05
1052, 9.746995573959993e-01, 1.895522388059427e+00, 5.309227258320259e-03, 2.819785101637606e-06, -1.839814264638640e-04, 3.967247573638136e-02, -9.637399102111682e+03, 2.008051112212919e+04, -8.800330674831868e+03, 1.643038775641693e+04, 1.555517116013779e+03, 2.693635479388128e+03, 3.239393348966082e+04
1053, 7.643346662902805e-01, 1.826753586691134e+00, 4.244672155446857e-02, -7.064917874801541e-05, -1.163382746879582e-03, 3.734284523461658e-02, 1.656141859176994e+04, 2.721901509163669e+04, -3.898251254118053e+04, 3.317110951349088e+03, -1.229239132258850e+04, 2.749180836692997e+04, 8.780526534317082e+04
1054, 5.642514295372802e-01, 3.526124191850680e-01, 6.690977966039316e-02, 2.310749938690126e-05, -6.538465689500447e-04, 2.495084749807015e-03, -2.050511734674049e+06, -6.937074043896474e+06, 8.019392791503679e+04, -1.150627561629421e+06, 3.171690482717069e+05, 5.763403855929852e+05, 5.513910530960722e+06
1055, 9.739993243901373e-01, 1.716575746292432e+00, 5.453395891339786e-03, 4.763918586588381e-06, -1.221420669211271e-04, 3.474708194036683e-02, -1.983453850572739e+04, 5.304520447960405e+04, -2.708263912697847e+04, -1.743512306674412e+04, 5.883921648419584e+03, 1.142217683179956e+04, 8.853255531396354e+04
1056, 9.746995573961713e-01, 3.134328358202632e-01, 5.309227258284803e-03, -2.964351778000918e-05, 9.984578931375443e-05, 1.628876014128533e-03, -3.364818906207852e+05, 1.619867149943062e+06, -9.566849810820913e+03, -1.113283013690476e+05, 1.729196321525348e+05, -1.634971375273546e+05, 1.899391695330905e+06
1057, 7.527314567138670e-01, 3.767115241102847e-01, 4.415443690105908e-02, 2.820252368634923e-05, -3.882673740591598e-04, 2.712985525035573e-03, -3.408735980222438e+05, -9.953451997356747e+05, -2.731603735989002e+05, -4.208605864602618e+05, 2.496904211740502e+05, 3.888529297635628e+05, 1.116641067970760e+06
1058, 7.497334591232945e-01, 3.059373688404123e-01, 4.458992456045507e-02, 2.866571793978465e-05, -3.511578404593041e-04, 1.828675280774836e-03, -9.987790772319887e+05, -1.938791061027340e+06, 1.551208886985810e+05, -1.054513597506331e+06, 3.055833247073874e+05, 1.509977256681467e+05, 1.120298917378996e+06
1059, 7.887995814748621e-01, 3.034706934189920e-01, 3.873291220864764e-02, 2.715846332597763e-05, -2.812465144834790e-04, 1.762087438250366e-03, -6.550718170307868e+03, -7.937505780979863e+04, 2.576276398196633e+05, -2.134774565179647e+05, 1.606542257439601e+05, 3.550119243174610e+05, 8.292758882189268e+05
1060, 8.067529876023836e-01, 2.685246667071310e-01, 3.590933493733477e-02, 2.314818778279687e-05, -2.238744941626125e-04, 1.366947265461119e-03, -6.198644739114315e+05, -1.250721079385287e+06, 2.391817126582770e+05, -4.319021408694782e+05, 4.000023424259015e+05, -1.025918375428390e+05, 1.111346807676468e+06
1061, 7.744990627254001e-01, 4.110359499290688e-01, 4.092250999449924e-02, 3.514942048293487e-05, -3.792095930806733e-04, 3.171891289492246e-03, -8.441365059407144e+05, -2.359954289249733e+06, -4.940816451444677e+04, -7.359931844374100e+05, 4.701942331355686e+05, 1.833911285651189e+05, 1.801330721704237e+06
1062, 8.274512330414108e-01, 3.007517521210413e-01, 3.255005897050069e-02, 2.744860711766496e-05, -2.105127544048749e-04, 1.695036109383846e-03, -7.924950864393394e+05, -1.176979922635417e+06, -2.921237420942154e+04, -5.768435898267707e+05, 2.718310363829463e+05, -2.519637399590227e+05, 8.318308072035058e+05
1063, 9.746995573960305e-01, 1.597014925372073e+00, 5.309227258313818e-03, 6.026904937235511e-06, -7.522428165696038e-05, 3.145135273231980e-02, 1.263718733836625e+04, 1.648808368641803e+05, -2.181619278976489e+04, 2.035607993767954e+04, -2.297970866096048e+04, 1.202509101168752e+04, 1.597135123267531e+05
1064, 7.262253816803232e-01, 1.834473187578773e+00, 4.792475090865838e-02, -8.191972203876186e-05, -1.313467677367910e-03, 3.747474390773181e-02, 6.377527246971104e+02, 1.103920194437731e+04, -4.144284080355239e+04, -4.972485305611351e+03, -9.514369686207618e+03, 1.752653516689403e+04, 8.089285926867240e+04
1065, 9.723762751776449e-01, 4.337977890210388e-01, 5.787052454065184e-03, -2.437127333246303e-05, 1.171191564265928e-04, 3.256368135245546e-03, 4.502295746756441e+04, 1.610944793686249e+06, -7.509127334240102e+04, 2.472150885620732e+05, 1.269328629272660e+05, -6.449570127080697e+04, 1.501368316352479e+06
1066, 9.746995573961925e-01, 6.716417910430990e-01, 5.309227258280454e-03, -1.581247936745939e-05, 1.394360941713024e-04, 7.618593426909293e-03, -2.634759983473639e+04, 1.399972146517492e+06, -5.709111042798139e+04, 1.222693503493253e+05, -6.487765828470205e+03, 4.762327640749557e+04, 1.364261013655200e+06
1067, 9.747690502595068e-01, 1.183248437401992e+00, 5.294913257212179e-03, 2.368801542293464e-06, 5.902826638601311e-05, 2.013739771603151e-02, -6.142071515229385e+04, 4.518823048218300e+05, -3.003204899433289e+04, -5.233593804126202e+04, 7.772721142086786e+03, 3.693854293233974e+04, 5.156352056512175e+05
1068, 9.746995573961605e-01, 9.701492537287958e-01, 5.309227258287107e-03, -3.435745427486647e-06, 1.090750895958933e-04, 1.460254939567260e-02, -4.875999879819799e+04, 6.540995625519217e+05, -2.453600211243010e+04, 1.475374397573240e+04, 3.413338575809260e+04, 7.268000764202181e+04, 6.888779122007727e+05
1069, 8.461116752598923e-01, 1.493059918584463e+00, 2.942551580207339e-02, -3.121779712864786e-05, -6.884912948619815e-04, 2.837215473522592e-02, -3.179961068148395e+03, 7.019765560993612e+04, -8.434166591576647e+04, 1.577213845294172e+04, -2.762480128416097e+04, 1.052739071924263e+05, 2.474480191569472e+05
1070, 8.220204428251010e-01, 1.462673791119724e+00, 3.344234913507198e-02, -3.592152363450507e-05, -7.847444148364295e-04, 2.750404165582960e-02, -5.206076126144595e+04, 2.076496673453470e+04, -9.384069817874339e+04, -4.214318702966863e+04, -1.414495137680465e+04, 1.080545967678619e+05, 2.583128856131227e+05
1071, 8.593455789502857e-01, 1.459821442491434e+00, 2.715368242607268e-02, -2.656043397727178e-05, -6.162165537288711e-04, 2.748595375878804e-02, -7.963115360089577e+03, 9.946003741161515e+04, -9.046338245046910e+04, -1.111606527650352e+04, -3.566713675008742e+04, 8.589873209915413e+04, 2.497828173010615e+05
1072, 6.648847663931129e-01, 1.666350140285178e-01, 5.595012918485059e-02, 2.200629642729046e-05, -2.623787334168348e-04, 5.862931431100241e-04, -3.558911763785732e+06, -7.547787129372772e+06, 3.230318140676283e+05, -7.851700445505308e+05, 4.236100004408950e+05, -4.666361922191812e+04, 5.960435995610395e+06
1073, 8.440035812040128e-01, 5.864845537484662e-01, 2.978312326931885e-02, 2.142579379739440e-05, -3.126710770342267e-04, 6.033687512095851e-03, -2.493620143109102e+05, -4.374743947008433e+04, -3.076380457907883e+05, -3.123266165486115e+05, 7.353114936079539e+04, 1.589891001872267e+05, 6.596703175139597e+05
1074, 8.374226920950321e-01, 1.126923891487565e+00, 3.089175134265911e-02, -1.099703177316613e-05, -5.804379127611267e-04, 1.854931488671244e-02, -1.434668854686953e+05, -5.953249284932920e+04, -1.969990640863127e+05, -1.776235842767245e+05, 7.435630559257278e+04, 1.027212975835148e+05, 4.192207692072036e+05
1075, 8.518245103274503e-01, 1.091241837354128e+00, 2.845059003585065e-02, -7.293233402240473e-06, -5.053680799993673e-04, 1.763734160385712e-02, -9.591432336300855e+04, 2.945191066940311e+04, -1.703474572915218e+05, -1.088115183424560e+05, -9.544747006703012e+03, 8.285963866937166e+04, 3.541541153262875e+05
1076, 8.292691153806195e-01, 1.059691666457805e+00, 3.224973352910274e-02, -8.843834903765613e-06, -5.857851844296852e-04, 1.681809268844084e-02, -6.385653692489751e+04, -5.015873342452840e+04, -1.541989616933955e+05, -8.815470533132521e+04, -7.753007823724177e+04, 1.361626008098427e+05, 3.822254863024912e+05
1077, 8.709938160412092e-01, 1.047614706729336e+00, 2.511539349712077e-02, -3.023504170543423e-06, -4.042774917384431e-04, 1.652979631651541e-02, -1.778689588964165e+05, -3.153340161984188e+04, -1.523349071065933e+05, -2.496884533171406e+05, 3.878844277198108e+04, 9.237810766262384e+04, 3.698843424845171e+05
1078, 8.220292178053112e-01, 1.163124018461765e+00, 3.344091349063940e-02, -1.625242746676470e-05, -6.613864699932248e-04, 1.947928340119329e-02, -1.019193211790321e+05, -1.804764936164181e+05, -2.181699653459147e+05, -7.455661751739320e+04, 3.941619466361586e+04, 1.170347950209934e+05, 4.445404636274892e+05
1079, 8.450039816522764e-01, 2.667621049746611e-01, 2.961356845677806e-02, 1.924504256306525e-05, -1.514735125548658e-04, 1.309440658861807e-03, -5.191205073484679e+05, -4.960294428479658e+05, -7.421624861982418e+04, -5.668677765452827e+05, 1.546251339274167e+05, -3.211351135552930e+04, 3.086427026301196e+05
1080, 8.246752835983217e-01, 2.346732125362238e-01, 3.300708660355908e-02, 2.088306965682823e-05, -1.672971652891889e-04, 1.015455476750859e-03, -6.501229223559583e+05, -1.186252757858682e+05, -2.052153675610832e+05, -1.085481085908618e+06, 3.157667800048748e+05, -2.657775858820486e+05, 1.157928112194494e+06
1081, 8.523199642872810e-01, 9.076384279943231e-01, 2.836564317568168e-02, 7.681376342077995e-07, -4.269002710447865e-04, 1.304640544710650e-02, -2.015575585985171e+05, -2.572682813192037e+04, -1.395137809292608e+05, -9.969655000519451e+04, -1.977491725927334e+04, 1.248288551417235e+05, 3.601304927305998e+05
1082, 8.291593332573182e-01, 8.779298978894674e-01, 3.226789517697655e-02, 4.223392460096786e-07, -5.038977090305458e-04, 1.233920572540556e-02, -9.174479908076042e+04, -1.032446125781915e+05, -1.432673196404094e+05, 8.477554476104924e+03, -8.240124858639794e+04, 2.428998928007421e+05, 5.198815729967743e+05
1083, 5.466249591471540e-01, 1.577815502925367e+00, 6.852934224428049e-02, -1.092062868702781e-04, -1.757881711632873e-03, 3.013951894978625e-02, 2.456648750796579e+04, -2.928024531693663e+05, -1.644314895330000e+05, -3.676792219496563e+04, -1.302032007455287e+04, 6.372854523208561e+04, 4.228770868380300e+05
1084, 5.621203412160374e-01, 1.535875841170359e+00, 6.711058335305270e-02, -1.032245723236024e-04, -1.703196503759980e-03, 2.903704270672242e-02, 4.727781338499644e+04, -3.798115338684040e+05, -1.721880539472224e+05, -3.533365132106520e+04, 1.079481144424214e+04, 3.969311978684286e+04, 4.979657428028963e+05
1085, 8.895683011000504e-01, 1.085940378559112e+00, 2.178955453057574e-02, -4.397956590584257e-06, -3.347022349194373e-04, 1.752081257565127e-02, -8.993134193326022e+04, 2.228609177719909e+05, -6.945080107483953e+04, -4.978360101352127e+04, -3.697026362067713e+04, 8.677150432750062e+04, 3.578427875537802e+05
1086, 5.458656780517929e-01, 9.777660968115128e-01, 6.859699553270443e-02, -5.176397534815969e-05, -1.397164100726281e-03, 1.457254242522026e-02, -1.125470401236583e+05, -2.124645385019928e+06, -3.146166178260962e+05, -2.038010041635124e+05, 9.444427646351025e+03, -5.211242799530959e+03, 2.042193672722968e+06
1087, 5.640115844344575e-01, 9.365349903611566e-01, 6.693244715808082e-02, -4.342603500449155e-05, -1.327263105582455e-03, 1.360606741369959e-02, -1.448809278263452e+05, -2.337135211111293e+06, -3.317850143242287e+05, -8.497265202969218e+04, 7.769281512673362e+04, 1.933815679653727e+04, 2.300081807021601e+06
1088, 8.615872087451890e-01, 2.328834225714769e-01, 2.676423771415759e-02, 1.163622482163590e-05, -1.142693639027623e-04, 9.621881747392813e-04, -5.020816830835078e+05, 3.551812015701758e+05, -1.151937943635205e+05, -8.528803795895268e+05, 2.006174498813118e+05, -1.801933813730913e+05, 1.190229372775189e+06
1089, 5.384473935374926e-01, 2.388035715288349e-01, 6.924846649372229e-02, 1.791215302532345e-05, -4.941945383286489e-04, 1.222684964924620e-03, -2.402386638513059e+06, -7.871439617005700e+06, -2.403929202793059e+04, -8.817470859716253e+05, 1.156065155284593e+05, 1.605094140061221e+05, 6.376398786328248e+06
1090, 5.597679033836882e-01, 2.009044120692284e-01, 6.733065202759256e-02, 2.636322818679038e-05, -4.082658241060279e-04, 8.743562573448570e-04, -1.695829259730951e+06, -6.100645918875397e+06, -6.419250659067853e+04, -2.107122533092147e+05, 2.434132446123358e+05, 1.336973395319669e+05, 5.328544589901051e+06
1091, 5.311522807970783e-01, 1.619789106953521e+00, 6.987253719291880e-02, -1.159714042083433e-04, -1.810894644262581e-03, 3.124524596224521e-02, -1.903282129314520e+04, -3.039420613358038e+05, -1.281017669519273e+05, -2.288409784279050e+04, -1.643631660302076e+04, 4.421484123582020e+04, 3.687768231239077e+05
1092, 5.410203436272295e-01, 1.277893830496921e+00, 6.902447062711847e-02, -8.536487755170415e-05, -1.616241598622635e-03, 2.213681473067048e-02, -1.115196085027573e+04, -1.369873243790535e+06, -2.988960847347248e+05, -5.380691996665733e+03, -4.452506486942629e+04, 9.553266867138750e+04, 1.468108273610816e+06
1093, 5.242115446073430e-01, 1.319731737589078e+00, 7.045068842031341e-02, -9.365450379304752e-05, -1.678812075553253e-03, 2.320479946658027e-02, 2.626953491757322e+04, -9.210520991114251e+05, -2.536636325027653e+05, 1.981772046664285e+04, -4.130662707492772e+04, 1.300531431729369e+04, 1.044035345707636e+06
1094, 8.485093902511439e-01, 6.536337445751047e-01, 2.901735015535840e-02, 1.316584484940299e-05, -3.359020169745007e-04, 7.353318841091902e-03, -2.835790808834522e+05, -3.650424509451375e+04, -2.871938899332476e+05, -3.277011226475664e+05, -1.255152744964320e+05, 1.527166425050769e+05, 6.622420536389182e+05
1095, 8.322437668923006e-01, 6.888450439985158e-01, 3.175635987497314e-02, 1.360848446976121e-05, -4.045793805584675e-04, 8.099539913012710e-03, -5.242614058826603e+05, -8.176052437986145e+05, -3.487112750387322e+05, -4.672999010751627e+05, -8.372544894082501e+04, 2.113387200358360e+05, 7.910911470143596e+05
1096, 8.437451446828088e-01, 1.595114688448813e+00, 2.982688086526071e-02, -3.646092258627331e-05, -7.381444636990423e-04, 3.115934049209668e-02, 1.413342623675162e+04, 5.222021216762951e+04, -5.332140119529283e+04, 1.961452936512617e+03, -1.478762621689324e+03, 7.492159500859914e+04, 1.656446903068991e+05
1097, 5.362121275295156e-01, 6.429269389246541e-01, 6.944143164066099e-02, -1.079241113470519e-05, -1.073865355153726e-03, 7.227454647599163e-03, -8.689466928320415e+05, -4.365731405977326e+06, -3.504108539469872e+05, -3.581432072358190e+05, -4.554555459233563e+03, 4.064291520894933e+05, 3.890831896839084e+06
1098, 5.165544370796866e-01, 6.834274379367731e-01, 7.107076062906117e-02, -2.272531904702960e-05, -1.148849423013548e-03, 8.015035738368745e-03, -2.530418680107168e+05, -3.627602851014296e+06, -2.656837660085352e+05, -3.109920742580931e+04, 3.663578951648821e+04, 3.728660400642870e+05, 3.580329146985374e+06
1099, 5.421855251893466e-01, 7.209610259265986e-01, 6.892235149251109e-02, -2.263781470197845e-05, -1.158037523044858e-03, 8.797906079759464e-03, -6.500510383692435e+05, -4.767459673965507e+06, -5.633852198541270e+05, -2.339390949466550e+05, 1.640533319285341e+05, 1.848671713540813e+05, 4.469338066123294e+06
1100, 5.278069504843694e-01, 1.019052378222087e+00, 7.015313494297504e-02, -5.831573824470818e-05, -1.464181459578183e-03, 1.555526076613575e-02, -2.105610005554353e+05, -2.012598621535173e+06, -3.191691413982993e+05, -1.270126090817065e+05, 5.030792710705918e+04, -5.150118630670808e+04, 1.930293725674248e+06
1101, 5.198478812505944e-01, 3.543001379025328e-01, 7.080632483086485e-02, 1.392436440319361e-05, -7.103638994178270e-04, 2.525584922572446e-03, -1.739631417349041e+06, -7.191390045326225e+06, -3.255156558803516e+05, -9.857221637714277e+05, 1.023302840179568e+05, 2.550471323669226e+05, 5.911397929863479e+06
1102, 5.437217047553352e-01, 3.923969430843330e-01, 6.878705819733757e-02, 1.724484817247976e-05, -7.376689177829125e-04, 3.022576730152479e-03, -1.395287158063156e+06, -5.555582714993082e+06, -1.464570757893464e+05, -8.487608565176043e+05, 9.465423780378704e+04, 4.148742505446963e+05, 4.526372752436686e+06
1103, 8.227250098629209e-01, 5.542982156888929e-01, 3.332701303189151e-02, 2.513765389905442e-05, -3.592698020183777e-04, 5.460913444446865e-03, -1.457594020591367e+05, -2.458507450211166e+05, -1.391829145893151e+05, -3.837975877757874e+05, 2.407258207934754e+04, 3.593669989130294e+05, 7.001020865548801e+05
1104, 8.609401044133861e-01, 5.520249664297765e-01, 2.687679035052164e-02, 2.091090983857846e-05, -2.486578994509644e-04, 5.375577215988345e-03, -4.411996820845152e+05, -3.213923802857192e+05, -1.989236122925451e+05, -4.343777478372032e+05, 8.190235078125747e+04, 1.755896574862295e+05, 4.948878560213316e+05
1105, 8.401450545170881e-01, 5.201193770150054e-01, 3.043452173214421e-02, 2.290277708796862e-05, -2.909255320312359e-04, 4.829726843681464e-03, -1.181424189047093e+05, 1.737547583049660e+05, -2.804747739008782e+04, -4.774802048259985e+05, 6.634133065571895e+04, 1.713303567306821e+05, 6.502638423476543e+05
1106, 8.769711372193445e-01, 5.180985030855371e-01, 2.405539078719105e-02, 1.284547686462682e-05, -1.838786536469753e-04, 4.751774764747502e-03, -5.965271401882037e+05, -2.349042369575070e+05, -1.374087322462434e+04, -4.057868610003964e+05, -1.060873223650984e+05, 1.043777899627036e+05, 4.064370658858776e+05
1107, 8.573409996709189e-01, 4.898030599216215e-01, 2.750085113974961e-02, 1.708633727562359e-05, -2.357671025451924e-04, 4.295855664187807e-03, -3.734796846654514e+05, -1.493665513491448e+05, -1.658275101678464e+04, -6.493415586820614e+05, 5.274380127971221e+04, 5.831089732913110e+04, 4.555457275239446e+05
1108, 8.675314580680464e-01, 8.745884708279010e-01, 2.572510736851906e-02, 1.165605594859870e-06, -3.536820465817603e-04, 1.225453339934912e-02, -1.606200306848590e+05, -1.531993297140085e+04, -1.367976019364739e+05, -9.521638009791722e+04, -6.423855740421634e+04, 7.121015452288528e+04, 3.156260221605526e+05
1109, 8.455233344191591e-01, 8.434425178664458e-01, 2.952543888515165e-02, 3.582970326015955e-06, -4.256301417065959e-04, 1.152089661439205e-02, -1.304240986934282e+05, -1.757297112736048e+04, -1.534265069067809e+05, -1.560136727895435e+05, -6.358034126136397e+04, 2.198246178153806e+05, 4.939565384005499e+05
1110, 8.644777281924816e-01, 1.341738784603215e+00, 2.626017182465323e-02, -1.937905035602483e-05, -5.470111660308696e-04, 2.428480293157542e-02, -4.820755859431445e+04, 1.169316855449850e+05, -1.078967565384041e+05, 2.465234362132749e+04, 1.512269237174704e+04, 1.417064526687165e+05, 3.411757318419728e+05
1111, 5.192012012016444e-01, 9.413217997992189e-01, 7.085852038206088e-02, -5.520505510533957e-05, -1.414460806982237e-03, 1.367622047646230e-02, -5.078821443958994e+05, -2.656922741984225e+06, -3.292426218556584e+05, -3.610679809311375e+05, -1.052719821406834e+04, 1.602035359813256e+05, 2.314728835723965e+06
1112, 5.375922198486123e-01, 8.996444104179412e-01, 6.932247161631855e-02, -4.570134056133823e-05, -1.337689638449048e-03, 1.272228028445677e-02, -3.283799470685360e+05, -2.299666439062456e+06, -3.753246170032081e+05, -6.237492315819344e+04, 3.078791168140129e+04, 2.396155456076950e+05, 2.253618742532497e+06
1113, 8.783870621131327e-01, 1.307816121143427e+00, 2.380283148261787e-02, -1.535539480428116e-05, -4.702089393975803e-04, 2.338662745679726e-02, -3.127743662283396e+04, 1.584658525085037e+05, -7.985141710988252e+04, -5.446892186502584e+03, 2.408620871380227e+03, 1.227966713498936e+05, 3.100835026659267e+05
1114, 8.603562745697383e-01, 1.158186265601262e+00, 2.697824799013404e-02, -1.059403118486291e-05, -4.927050693255622e-04, 1.938270290415783e-02, -7.947726519582298e+04, -4.663229909135523e+03, -1.247448211749251e+05, -3.117629746731854e+04, 1.144438278882098e+04, 1.644143687128992e+05, 3.639910986484326e+05
1115, 8.647243940184666e-01, 2.981444195888105e-01, 2.621704864198615e-02, 1.858091674389328e-05, -1.266906932518332e-04, 1.616078041485517e-03, -4.826947688994546e+05, -3.152582114529471e+05, 4.248458060867354e+02, -3.488524954426180e+05, 1.379874200998564e+05, 5.914152526628396e+04, 3.019171264718061e+05
1116, 8.482103842858245e-01, 3.320949386684273e-01, 2.906833180809284e-02, 1.861086313782734e-05, -1.874540551345264e-04, 2.039628346954703e-03, -5.594688092099540e+05, -4.266865943611761e+05, 5.327901640509962e+03, -2.511406305268427e+05, 4.741843873283128e+02, -5.646230520829221e+04, 2.853185829434069e+05
1117, 8.698350180898464e-01, 6.859158029014737e-01, 2.531980575634639e-02, 9.680097498063200e-06, -2.752980199225256e-04, 8.008587484324592e-03, -9.471392281239273e+04, 6.589755583121886e+05, -1.154945574938841e+05, -1.258943995644044e+05, -3.599397677447175e+04, 6.486653407435381e+04, 8.056346148754222e+05
1118, 8.536040646432825e-01, 7.203851734101827e-01, 2.814515076113856e-02, 9.797564265265346e-06, -3.455539982639699e-04, 8.755641717394291e-03, 1.044343303295261e+05, 4.341437439140293e+05, 6.329338208837318e+03, -1.432010799777060e+05, -1.966008389117128e+04, 2.023264767913304e+05, 6.129984238594020e+05
1119, 5.596852166191326e-01, 1.652913944781391e+00, 6.733835663827598e-02, -1.120582491730554e-04, -1.758780243437895e-03, 3.219761260326187e-02, 5.310748277379360e+04, -1.685008891811414e+05, -1.292189614126139e+05, 1.989255022536220e+04, -1.305013309670905e+04, 4.280325580238648e+04, 3.145674635862801e+05
1120, 5.159719099740585e-01, 1.662145724378759e+00, 7.111717082291545e-02, -1.207712237309318e-04, -1.861805191282970e-03, 3.236163363662815e-02, 4.412916907401793e+04, -1.720626150093168e+05, -7.637022752251835e+04, 8.045509652652692e+03, 7.838086369720968e+02, 3.908191840472317e+04, 2.496421325374667e+05
1121, 5.449891518733576e-01, 1.695711822710372e+00, 6.867487292484431e-02, -1.171293516654820e-04, -1.810998800557170e-03, 3.332947858573890e-02, 3.116014139692329e+04, -1.525051838225886e+05, -1.191624251501225e+05, 1.352518164635290e+04, -2.838329147651905e+03, 4.442978414634722e+04, 2.816917625232795e+05
1122, 6.999747413552777e-01, 1.804391059338032e+00, 5.147967340797789e-02, -8.751887102278338e-05, -1.397760757234211e-03, 3.659974010462336e-02, 3.366666970032697e+04, 5.984832558642596e+03, -1.241081959396193e+05, 1.334558758083204e+04, -4.038006557293391e+03, 4.418308671491464e+04, 2.296314230332499e+05
1123, 6.870666652196447e-01, 1.842443339218397e+00, 5.316189981378953e-02, -9.282363391753534e-05, -1.456612771015442e-03, 3.761105898677930e-02, 1.956987564477638e+04, 1.419986205377936e+04, -8.679895162603252e+04, 2.519864297420356e+03, -4.667706699781982e+02, 3.041201799404274e+04, 1.600171281156192e+05
1124, 6.607581259088873e-01, 1.811869555169174e+00, 5.645437414221742e-02, -9.815685430500376e-05, -1.533115679991787e-03, 3.672335799264133e-02, 1.945858994474164e+04, -3.317171479719800e+04, -1.009410645656148e+05, 1.675775016947083e+04, -6.767740706495481e+03, 2.210266442714247e+04, 1.865620092793707e+05
1125, 6.474067504790852e-01, 1.850632121136988e+00, 5.805471992177166e-02, -1.032826250877303e-04, -1.590541493234669e-03, 3.775156677891589e-02, 2.867770065445840e+04, 1.426998577349260e+02, -7.921526303046457e+04, 1.093416566542283e+04, 3.391210426985941e+03, 1.562108756927962e+04, 1.421776960894569e+05
1126, 6.204078297232418e-01, 1.819404307316367e+00, 6.114292787143453e-02, -1.083964904894305e-04, -1.661110293876738e-03, 3.684503976437165e-02, 3.096302081781364e+04, -4.669090969217193e+03, -8.613758647116566e+04, 2.300220642600157e+04, -2.245935134827523e+04, 2.032767657256112e+04, 1.614351988587492e+05
1127, 6.066059893362732e-01, 1.856943425415426e+00, 6.264370980170146e-02, -1.130112921470666e-04, -1.715204195151514e-03, 3.783866257772484e-02, 2.043659155167955e+04, -2.370494946755877e+04, -7.532929257099556e+04, 1.783256042694565e+04, -5.096746737000186e+03, 1.724495502688218e+04, 1.408329277414367e+05
1128, 5.789274861294301e-01, 1.826706218751091e+00, 6.549058630793510e-02, -1.176046673113176e-04, -1.779267937145647e-03, 3.695856586565624e-02, 6.378865090813738e+03, -8.251982221393235e+04, -1.024130372207599e+05, -9.533625916406509e+02, -4.599925644194601e+03, 1.757221100063543e+04, 1.993991701983632e+05
1129, 5.520124281790133e-01, 1.354105122359239e+00, 6.804424356626329e-02, -9.086277364334441e-05, -1.634981888688793e-03, 2.415730333675344e-02, 7.178068488552926e+04, -6.676822226663883e+05, -1.765492336861929e+05, -3.312534848045904e+04, -2.838562078583666e+04, 1.069371328929388e+05, 7.813253639496118e+05
1130, 5.560717842612000e-01, 6.023983422269508e-01, 6.767299119659263e-02, -9.572591054811223e-06, -9.999902679542275e-04, 6.462581143038409e-03, -8.383825834582729e+05, -4.535359411037476e+06, -1.793746632105901e+05, -3.693609888832782e+05, -1.974101444679041e+05, 8.205690786288574e+04, 3.981861248187783e+06
1131, 5.111318090573364e-01, 6.053116098351483e-01, 7.149850694928644e-02, -1.823580770604454e-05, -1.059191189391318e-03, 6.500427383110220e-03, -8.545846013237889e+05, -4.594959147926339e+06, -1.808688881196652e+05, -3.828139127443046e+05, 5.525120057087284e+04, 4.225548174916110e+05, 4.076827795944962e+06
1132, 5.293753102681625e-01, 5.648147668016023e-01, 7.002202957596801e-02, -1.364757874635497e-05, -9.865749810303998e-04, 5.776298776476528e-03, -1.122792304176328e+06, -5.068085292664735e+06, -4.537448146820643e+05, -3.331144869295410e+05, -2.090132667723737e+05, 3.539511796142663e+05, 4.519844598642763e+06
1133, 5.581608885242330e-01, 1.236146517986522e+00, 6.748001480269866e-02, -7.711147505594373e-05, -1.549629542818733e-03, 2.107262014995813e-02, 4.929139973643853e+04, -1.091552321310703e+06, -2.969697667215885e+05, -2.187200789895077e+04, -5.813500687035979e+04, 1.449832592314085e+05, 1.250269930916271e+06
1134, 5.132728938847402e-01, 1.242151369765201e+00, 7.133076532601017e-02, -8.998803796769241e-05, -1.650234148312196e-03, 2.116314139341670e-02, -7.233931991661221e+04, -1.188702070638726e+06, -1.922305352842874e+05, -6.411596771996350e+04, -2.853577857938245e+04, 7.928583946762950e+04, 1.177995331011251e+06
1135, 5.295754450337540e-01, 1.204535469131131e+00, 7.000524288565439e-02, -8.154962750514527e-05, -1.592029160793823e-03, 2.021368611822910e-02, -8.416774243946925e+04, -1.142550895470414e+06, -2.433852996593987e+05, -1.758005043425946e+05, -3.441527633846989e+04, 1.343578064493636e+05, 1.125614230844056e+06
1136, 8.456823700619127e-01, 1.193736199987852e+00, 2.949843754134224e-02, -1.449180771207446e-05, -5.729876425840490e-04, 2.030486966413912e-02, -8.631420395080284e+04, -1.409854602039321e+05, -1.704733682035232e+05, -6.963738723554504e+04, 2.719977293816577e+04, 2.037735902587080e+05, 4.670683290489440e+05
1137, 5.153452763272339e-01, 2.009369949765540e-01, 7.116697253332610e-02, 1.774236860669492e-05, -4.341634985760272e-04, 9.148680473647156e-04, -3.385753630643847e+06, -1.028978534309571e+07, -1.385018561766054e+05, -1.372693137362629e+06, 2.924545998607251e+04, 6.880528519839307e+05, 8.191255354675517e+06
1138, 5.548303971885715e-01, 1.055428673408652e+00, 6.778703790245873e-02, -6.054278358379617e-05, -1.434046519061219e-03, 1.647955901897789e-02, -2.449535875492246e+05, -1.884043879047476e+06, -3.750737809392596e+05, -8.269530705216498e+04, -4.966760476788944e+04, 1.337574725971045e+05, 1.860649221726831e+06
1139, 5.075339833238512e-01, 1.361993454843002e+00, 7.177694542601742e-02, -9.997351053746360e-05, -1.734638397991487e-03, 2.429192385447790e-02, 9.212482822956954e+02, -6.907882308056364e+05, -1.257277594312442e+05, 2.450974853069747e+03, -1.911948674949573e+04, 6.366200756684850e+04, 7.349830585195253e+05
1140, 5.351479109647725e-01, 1.393351734181336e+00, 6.953276482986710e-02, -9.731677510337045e-05, -1.692529978649656e-03, 2.517154387549615e-02, -3.416847320568486e+04, -6.510522121167238e+05, -2.016365935541657e+05, -1.907142131010550e+04, 6.920472066838502e+03, 9.052736143150319e+04, 7.326580580415374e+05
1141, 5.179127600309099e-01, 1.543307766724244e+00, 7.096211840562187e-02, -1.125833726668725e-04, -1.804223114801610e-03, 2.915416856317303e-02, 8.955391395063325e+03, -4.408543241384621e+05, -1.502226582542470e+05, -4.080975181823486e+04, 2.334539216381137e+04, 7.580213629516322e+04, 5.186462759151242e+05
1142, 5.366740543621165e-01, 1.622308014673882e-01, 6.940167977431511e-02, 1.668942274900970e-05, -3.555373657458047e-04, 5.901640522448914e-04, -2.044651439871219e+06, -7.261634328619855e+06, -2.783090605791302e+03, -6.556859931878324e+05, 3.845931924865619e+04, 5.368704395826984e+05, 6.104219413092152e+06
1143, 5.097640074793168e-01, 1.060800931728079e+00, 7.160486980015673e-02, -7.031547219231047e-05, -1.531566596379895e-03, 1.655874096478504e-02, -1.169331298343452e+05, -1.508182739918549e+06, -1.522988174289338e+05, 8.544798405184754e+04, 4.720977078534402e+04, 7.531713378774549e+04, 1.533422749038703e+06
1144, 8.739834303646191e-01, 9.401154742317952e-01, 2.458645253840834e-02, -1.141210450472663e-06, -3.527482296231746e-04, 1.383739730507838e-02, -1.642276741833294e+05, 1.770024983952755e+05, -1.582847023444654e+05, -7.694290719731992e+04, 1.720723861823308e+04, 1.095882686580979e+05, 4.542594403835412e+05
1145, 8.571630115041933e-01, 9.759370077342107e-01, 2.753162525638986e-02, -2.861556316260255e-06, -4.358165909709721e-04, 1.471991229622130e-02, -6.516569849604546e+04, 1.438917285934908e+05, -1.326810512544049e+05, -6.523929240655552e+04, 3.670686454212724e+04, 2.377255006375605e+05, 5.197264716661464e+05
1146, 8.831498943761678e-01, 1.188512611254431e+00, 2.294936035050608e-02, -8.983362328714509e-06, -4.029308649284857e-04, 2.019931664074245e-02, -8.281935056733256e+04, 1.089655427272713e+05, -1.086451708819127e+05, -2.133324823791105e+04, -3.245181302163874e+02, 1.422299068478446e+05, 3.533688655089858e+05
1147, 8.854652113933973e-01, 3.299972003457663e-01, 2.253234012132842e-02, 9.886617431720951e-06, -1.042102787389716e-04, 1.957067315344129e-03, -4.164914060023237e+05, 1.348543861639158e+05, -1.938613614128478e+04, -2.159404742155847e+05, -1.206414384009922e+05, 6.958326016743823e+04, 5.412448369386492e+05
1148, 8.690901509218699e-01, 3.632380260982355e-01, 2.545101604209195e-02, 1.114205501784316e-05, -1.503440495232503e-04, 2.411791774915833e-03, -1.553082252960156e+05, 6.420858842241166e+05, -1.160012066418596e+05, -5.457236071097203e+04, -1.084111137317628e+05, 9.547497728355537e+04, 8.176998579578215e+05
1149, 5.005508690240303e-01, 1.704640564011285e+00, 7.230539758696047e-02, -1.256458119956872e-04, -1.910921347771710e-03, 3.348193018900267e-02, 9.794559235050756e+04, -1.316790447718502e+05, -1.033260781705745e+05, 1.010555967170058e+04, -2.735519626979476e+03, 4.100756346066182e+04, 2.781532939982298e+05
1150, 8.129639248686831e-01, 7.251895755381854e-01, 3.491303795619095e-02, 1.554596728742252e-05, -4.831895377311064e-04, 8.884043357869686e-03, -4.161309345678937e+05, -1.009453334251049e+06, -4.084687427286244e+05, -4.097834014261624e+05, 1.727997907315103e+05, 4.505799933438121e+05, 1.247006146870610e+06
1151, 8.813176664731530e-01, 5.848349119089689e-01, 2.327837954531835e-02, 1.231216220879544e-05, -1.979209553326332e-04, 5.955210967090230e-03, -5.273941843454527e+05, -1.192894274025195e+05, -2.546785208340888e+05, -6.099574731073829e+05, -6.975570841573211e+04, 1.135470857692636e+05, 6.744779505185998e+05
1152, 8.777127508648990e-01, 8.404849829321426e-01, 2.392317777768417e-02, 2.790829353352398e-06, -2.978266199718457e-04, 1.144635651720272e-02, -3.708071575117897e+05, -6.633070107732562e+04, -1.960748154178672e+05, -3.905481469706139e+05, -1.079120963785104e+04, 1.655924511088378e+05, 5.450268026777483e+05
1153, 7.517779862458206e-01, 1.863992442040459e+00, 4.429319532488684e-02, -7.574069533362177e-05, -1.226741411551990e-03, 3.833408100713984e-02, -5.695904725701243e+03, 1.606039408815969e+04, -3.892035976877306e+04, -5.633576219289956e+03, -9.813823815204027e+03, 1.651745626918604e+04, 7.825458515220572e+04
1154, 7.898483981933491e-01, 1.854475347996801e+00, 3.857025496818055e-02, -6.352838610785075e-05, -1.069298950837745e-03, 3.815369022884181e-02, 3.343498720841213e+03, 2.401806334673436e+04, -4.154614855143603e+04, -2.273508629566816e+03, 2.982913529303166e+03, 2.219571846234074e+04, 8.519394360773099e+04
1155, 5.646500933439238e-01, 1.866062243390767e+00, 6.687206448236574e-02, -1.226436754655225e-04, -1.831121549116035e-03, 3.799891100662672e-02, 6.364064670632395e+04, -1.146056401118355e+04, -9.103254281774863e+04, 1.383003605175484e+04, 2.404488666101941e+03, 1.399232638272044e+04, 1.727597275522096e+05
1156, 5.366350815798393e-01, 1.834696555724170e+00, 6.940503616784026e-02, -1.266658664625595e-04, -1.886268236039997e-03, 3.708752206061128e-02, 5.684453326208542e+04, -4.388575271278714e+04, -7.846696912509724e+04, 1.656946506411971e+04, 5.902395390763979e+03, 1.486052095924118e+04, 1.641644550087368e+05
1157, 4.973551204196307e-01, 7.241922137277150e-01, 7.254187920999522e-02, -3.883528839085729e-05, -1.226188614504062e-03, 8.831707122899872e-03, -4.508554038821397e+05, -3.556623921822704e+06, -3.185453961998303e+05, -2.673257517562544e+05, -9.006661936434764e+04, 3.635217589523959e+05, 3.312804784424877e+06
1158, 5.232518611633490e-01, 7.593791955536727e-01, 7.052941094616716e-02, -3.173673889510231e-05, -1.228606607602416e-03, 9.582786448353628e-03, -2.583613179422334e+05, -3.187256555411967e+06, -4.135936123448430e+05, -2.527974690137416e+05, -5.213167137453220e+04, 1.983518231206290e+05, 3.038768944543260e+06
1159, 8.805537676388764e-01, 1.588687118046115e+00, 2.341530261087542e-02, -2.483451894252919e-05, -5.629149262400546e-04, 3.104996047991604e-02, 2.107653262750361e+04, 7.148844579541578e+04, -4.102392089195889e+04, -3.666963990954614e+03, 8.895791787722226e+03, 7.942137594964885e+04, 1.691464604447992e+05
1160, 8.676344801114109e-01, 1.623922031779957e+00, 2.570701140587171e-02, -2.994938294257482e-05, -6.380724145630054e-04, 3.199304791107280e-02, -1.421740478951229e+04, 6.094740567504265e+04, -4.377746855644653e+04, -8.238765347880226e+03, 3.989536781121653e+03, 6.532605148455566e+04, 1.543882704086795e+05
1161, 8.930596084035889e-01, 4.846881766770178e-01, 2.115391982581261e-02, 7.461661422430987e-06, -1.241709573975847e-04, 4.163183348448229e-03, -3.843630770952278e+05, 7.028848215628758e+05, 2.844205854657945e+04, -3.358949676174195e+05, 1.643231320827333e+05, 2.751568819778889e+05, 1.200969340568716e+06
1162, 4.994144131332087e-01, 3.937432934090887e-01, 7.238988583920199e-02, -2.629947317860093e-06, -7.941224799644098e-04, 3.046838438739151e-03, -1.092661155059220e+06, -5.673663573735386e+06, -4.105181395498089e+05, -2.658519411405940e+05, -1.709754635878878e+05, 3.974749679161097e+04, 5.104392666275957e+06
1163, 5.234099721516483e-01, 4.288801386813845e-01, 7.051646075847896e-02, 6.296203821948287e-06, -8.256552841065384e-04, 3.552992144882985e-03, -1.589955688951016e+06, -6.229273312473762e+06, -2.319912124333430e+05, -1.283970961194009e+06, -8.912081021791116e+04, 5.613288587829655e+04, 4.819875001758116e+06
1164, 8.930433436904861e-01, 1.551971452134086e+00, 2.115688832407170e-02, -1.964831999229366e-05, -4.887704678023241e-04, 3.006479429277083e-02, -1.882757734523734e+04, 8.038342796430108e+04, -6.226850508859441e+04, -2.758133498967149e+04, 1.905579324309796e+04, 6.372954912780612e+04, 1.889279153167776e+05
1165, 4.921141808673870e-01, 1.627180655216617e-01, 7.292219083457925e-02, 1.528957505241794e-05, -3.552226392107213e-04, 6.161153258303631e-04, -3.086879305761282e+06, -8.554665680748664e+06, -1.613006340675240e+05, -9.022588420122466e+05, -1.478253445396401e+05, 9.932445939140487e+05, 7.051064286366228e+06
1166, 4.759169824015038e-01, 3.549565045068244e-01, 7.403861878258446e-02, -5.014668047267912e-07, -7.441774158887249e-04, 2.547965425041598e-03, -1.999367929033106e+06, -8.511115665059105e+06, -5.962384892143774e+05, -3.789578233846570e+05, 4.198038826877982e+04, -5.494213105168716e+03, 7.526763444616134e+06
1167, 4.950581889422943e-01, 2.392450797618667e-01, 7.270971822683253e-02, 1.610940547615812e-05, -5.071438594226839e-04, 1.231798677073882e-03, -1.822253229340248e+06, -7.387863462228906e+06, -3.737687504555909e+05, -5.968885374118182e+05, 8.696342127509473e+04, 3.424522413309603e+05, 6.331749830830805e+06
1168, 7.043593501671833e-01, 9.686051419489290e-02, 5.089832077944649e-02, 1.298299304497083e-05, -1.424848257525896e-04, 2.122685196316414e-04, -2.350842100217699e+06, -7.928750179301896e+06, 3.863311815260958e+04, 4.241962257475628e+05, 5.217346099951379e+05, 6.219213950807784e+05, 7.501617304001274e+06
1169, 5.679437952036902e-01, 4.299580772347535e-01, 6.655867076325322e-02, 1.383263593842179e-05, -7.524695621535724e-04, 3.561546424157576e-03, -1.554875002808192e+06, -5.938862824463313e+06, -2.068514732206722e+05, -1.221390985780421e+06, 6.225502486887629e+04, 6.811508476459238e+05, 4.724874577322768e+06
1170, 4.898346713609123e-01, 1.404475906226025e+00, 7.308470292190863e-02, -1.057455708496913e-04, -1.790001177959466e-03, 2.538720809561540e-02, 1.152226385020510e+05, -6.569682335266018e+05, -1.602863267164871e+05, -4.219687218230229e+01, -1.213341991728884e+04, 6.306495061923598e+04, 7.810292021426812e+05
1171, 4.614994361231081e-01, 1.368483042823177e+00, 7.495567006538001e-02, -1.091717879640481e-04, -1.816777815569250e-03, 2.438479791984579e-02, 1.738989485130935e+03, -1.036668144608133e+06, -1.962935087935745e+05, -3.905139005635152e+04, -1.194854925459445e+04, 7.205872347956874e+04, 1.081293353924151e+06
1172, 8.310559032709282e-01, 1.630446089661375e+00, 3.195366888720449e-02, -4.120070901158027e-05, -8.082740174525302e-04, 3.210349703400290e-02, -3.436918447055812e+04, -8.555297824591021e+02, -6.334033779850835e+04, -3.872169315409250e+04, -2.168903194481273e+03, 7.344634307454036e+04, 1.718172907160338e+05
1173, 4.932772266154820e-01, 9.049771821157395e-01, 7.283860981475208e-02, -5.628224389390285e-05, -1.423423240496519e-03, 1.280268700490012e-02, -1.301976465816640e+05, -2.632988696181205e+06, -2.504300215309691e+05, -3.118732327156774e+04, 8.689724528665944e+03, 1.320940026610854e+05, 2.600439737944766e+06
1174, 9.010572903115839e-01, 2.966787639844104e-01, 1.968507337055477e-02, 5.523484372479959e-06, -6.049767805892114e-05, 1.538899741269251e-03, -5.131493230044732e+05, 6.802568636477115e+05, -2.328268802242240e+05, -5.256711043668678e+05, 3.793694217036460e+04, -4.014522256528775e+04, 1.269289688206354e+06
1175, 8.904631896746513e-01, 7.172038236271635e-01, 2.162693500905086e-02, 7.941477940975883e-06, -2.073503852220090e-04, 8.667510345881452e-03, -2.865355656486254e+05, 2.259794449748918e+05, -2.311584803173742e+05, -2.019305139424489e+05, 4.714386404822736e+04, 7.702967963651581e+04, 6.412794768035650e+05
1176, 8.211866457613626e-01, 1.273680894619639e+00, 3.357867100800654e-02, -2.535763947678071e-05, -7.123685344681586e-04, 2.239983349105495e-02, -1.646174963143100e+05, -1.075034522033884e+05, -1.595781710439853e+05, -1.146803002643830e+05, 9.508433451558738e+03, 1.351977673933094e+05, 3.666138843958403e+05
1177, 8.552396379721738e-01, 1.659323016546403e+00, 2.786362952522243e-02, -3.475709165152822e-05, -7.090761314084496e-04, 3.294043796274815e-02, -2.003619600982259e+04, 6.272761098573350e+04, -4.533180993485881e+04, -1.025757671766070e+04, 1.075297769659958e+04, 4.676590328383311e+04, 1.385969013999912e+05
1178, 8.910193467561602e-01, 1.652504123736315e+00, 2.152576229373942e-02, -2.325886980369951e-05, -5.355227214463108e-04, 3.282147102094948e-02, -2.037583743097162e+04, 5.835493964039919e+04, -3.960869851833180e+04, -1.451234466337972e+04, 1.260346470416074e+04, 5.284549630781486e+04, 1.390406662326019e+05
1179, 8.790648294259781e-01, 1.687331685350600e+00, 2.368174352952738e-02, -2.873162466576068e-05, -6.066973700230849e-04, 3.375491476109782e-02, -3.039341445218330e+03, 5.778734726112638e+04, -7.798718661206412e+04, 2.217222076526436e+03, -5.561755386766876e+03, 3.399753964613386e+04, 1.587894186271465e+05
1180, 4.852654486552370e-01, 5.674275847054522e-01, 7.340522319418792e-02, -2.351565692217984e-05, -1.044884738144285e-03, 5.803571554187585e-03, -8.394325004353193e+05, -5.430116292171052e+06, -1.917070069112424e+05, -4.480852811315606e+05, 1.081553025115141e+05, 3.397876127000957e+05, 4.849308812756157e+06
1181, 8.695558488678017e-01, 4.573927967937435e-01, 2.536899919511435e-02, 1.578462201889952e-05, -1.851923136505507e-04, 3.755671397990407e-03, -6.864321575869786e+05, -6.178466528951167e+05, -2.266270786517327e+05, -6.055049705880329e+05, 3.786587976429171e+05, 6.271771108750006e+04, 7.757127279926150e+05
1182, 4.842845232423880e-01, 1.023110339287898e+00, 7.347311013739624e-02, -7.254823116730619e-05, -1.542952920904214e-03, 1.559836647797314e-02, -1.712347723453774e+05, -2.119339161297189e+06, -1.750400609094515e+05, -2.084924917564328e+05, 5.557238468142243e+04, -5.470490891114995e+04, 1.958079860722243e+06
1183, 5.936010117671162e-01, 1.789577795669255e+00, 6.400871221902518e-02, -1.125866207574711e-04, -1.725707264381544e-03, 3.597815510529387e-02, 1.884907632556199e+04, -5.331228691187593e+04, -1.055404194823117e+05, 1.276889685951897e+04, -4.231439089776260e+03, 2.796564099015321e+04, 2.015484154723515e+05
1184, 8.746641362537311e-01, 7.511499298972466e-01, 2.446568429215435e-02, 6.545626369700843e-06, -2.777241326456341e-04, 9.419424964351109e-03, -1.296739621268213e+05, 2.231011869450097e+05, -3.433536582433199e+05, -1.930323649132759e+05, 5.537883521797504e+04, 1.050954932392111e+05, 7.394773161830845e+05
1185, 4.834690840111431e-01, 1.206672412729776e+00, 7.352929321862828e-02, -9.124624170385454e-05, -1.681974570156841e-03, 2.020127668000776e-02, 3.643503661129167e+04, -1.233327817121584e+06, -2.499480975472513e+05, -4.742051873209370e+04, -3.398204628474906e+04, 4.989054952987042e+04, 1.308130912117123e+06
1186, 4.726391965204910e-01, 6.879731354983598e-01, 7.425351383101049e-02, -3.761519803492826e-05, -1.223374974352022e-03, 8.086172834664722e-03, -5.809461867328425e+05, -5.374420178406923e+06, -2.607331515335587e+05, 2.395218947094772e+04, 1.739063315027408e+05, 3.514081641487926e+05, 5.187291995555672e+06
1187, 8.949788150706682e-01, 9.713768573804595e-01, 2.080313737648556e-02, -1.914360824542549e-06, -2.727732939079922e-04, 1.461461982784090e-02, -1.028850320509311e+05, 3.294597032784160e+05, -7.745550383489516e+04, -7.394028339212999e+04, 4.314512478033044e+04, 5.689331493485028e+04, 4.566604618275726e+05
1188, 4.878080037536121e-01, 1.627285588181943e+00, 7.322773680782671e-02, -1.235431381132399e-04, -1.902375271874347e-03, 3.136249678692966e-02, 1.518540918673384e+04, -2.770695170109488e+05, -1.179175577353042e+05, -3.469445745509508e+04, 2.295653985950036e+03, 3.909373049938686e+04, 3.458868700606943e+05
1189, 9.077379676361218e-01, 8.739687558301055e-01, 1.844476650614142e-02, 2.252761105436818e-08, -1.838428086721605e-04, 1.223610750751369e-02, -1.618712675272466e+05, 1.636881233155483e+05, -1.252517583277704e+05, 3.043329557680884e+04, -2.487207489746407e+04, 1.320948972268180e+05, 4.261812529639566e+05
1190, 8.404358647299569e-01, 2.013562683239644e-01, 3.038557139151960e-02, 2.039602570289012e-05, -1.246210109579551e-04, 7.372323760310162e-04, -1.317665605076845e+06, -2.430239811400672e+06, -9.358395954922386e+04, -9.073586482390926e+05, 5.248281685356577e+05, -2.225055551206267e+04, 1.648260614660636e+06
1191, 8.785899587990933e-01, 1.999125207480188e-01, 2.376659559903930e-02, 1.147206690889357e-05, -7.161408817827524e-05, 6.795606510858199e-04, -7.212467900600100e+05, -1.081963785748995e+06, 1.032580635705119e+05, -2.380452553944694e+05, 4.139808956160135e+05, -1.644102699337924e+05, 1.079406744207249e+06
1192, 4.734679120431680e-01, 4.290520963849503e-01, 7.419952997027339e-02, -9.304433999442197e-06, -8.651608619277898e-04, 3.566004017373635e-03, -1.578284639232992e+06, -7.243001497527882e+06, -3.282027588489372e+05, -8.274543104225526e+05, 5.083043369268763e+04, 3.095595589955227e+05, 6.125715321662959e+06
1193, 5.343560625727992e-01, 1.503018665334114e+00, 6.960049589914433e-02, -1.066986854643126e-04, -1.750483153966529e-03, 2.810147789290705e-02, 8.461548063127122e+04, -5.021331235901327e+05, -1.706930488572283e+05, 2.010523405924402e+04, -1.185348904599225e+03, 7.190862796324029e+04, 6.430469015567265e+05
1194, 4.889385910772348e-01, 1.508323651034787e+00, 7.314811413251061e-02, -1.146455527163762e-04, -1.845215896048206e-03, 2.816025461631785e-02, 6.371223994066513e+03, -5.292965864133072e+05, -1.290030396259091e+05, 5.059610264383887e+04, 2.022055309418313e+04, 6.658657122944316e+04, 6.140349878588591e+05
1195, 9.541717876994397e-01, 2.730925412392569e-02, 9.474819162434273e-03, -6.583905817173982e-06, 1.321638188712948e-05, -2.160792481581408e-05, 3.324874769246878e+05, 2.193580662456511e+06, -1.481220614842060e+05, 3.785854929626950e+05, 2.546205368087047e+04, -6.196661476210455e+05, 2.144696704933174e+06
1196, 3.801997634602108e-01, 1.920630745379515e+00, 7.862272065249119e-02, -1.514099862656403e-04, -2.161595232481980e-03, 3.909270052952005e-02, 4.309902716171305e+04, -2.519023822200332e+04, -3.106396207757876e+04, 1.236062268686605e+04, 2.498354067340294e+03, 1.691690366471825e+04, 8.533082469697167e+04
1197, 3.800331271466473e-01, 7.883923876856040e-02, 7.862704566399147e-02, -5.559008717841152e-06, -1.979786845285082e-04, 1.708341625878796e-04, -3.604998167180849e+06, -1.005756678132872e+07, -5.598129456074454e+04, -1.170966836029664e+06, -1.141305990140881e+05, 7.915832684163240e+05, 8.074292273876173e+06
1198, 5.370103320266533e-01, 1.097270510157377e+00, 6.937269972745891e-02, -6.817971588411048e-05, -1.502623827934953e-03, 1.749843011124272e-02, -9.760716078593326e+04, -1.447788951226759e+06, -2.026193428428765e+05, -7.801114370963693e+04, -2.819027311813260e+04, 1.861037134655110e+05, 1.441972503836134e+06
1199, 4.945887055236042e-01, 1.104645636294026e+00, 7.274380177462322e-02, -7.777662741029201e-05, -1.585929733584443e-03, 1.762681589148773e-02, -1.717907917562956e+05, -1.834319884540149e+06, -1.463579618517901e+05, -1.987119718028930e+05, 1.093204699891352e+05, 2.330362051919036e+05, 1.727137215888524e+06
1200, 8.969060976389760e-01, 1.151996958263030e+00, 2.044977075600402e-02, -5.301923687528465e-06, -3.246654863094875e-04, 1.924718406964718e-02, -3.269545928830231e+04, 1.736649465769422e+05, -1.655400362393386e+05, -6.323069248021427e+03, 4.412838621139453e+04, 1.016835864092277e+05, 3.961174224788849e+05
1201, 8.975638751217107e-01, 2.319662016610515e-01, 2.032891857345021e-02, 4.760122607552070e-06, -5.045065291297071e-05, 9.092817914263529e-04, -4.499158487186240e+05, 2.380150025611511e+05, 6.426320996458096e+04, -6.277295711728752e+05, 2.930081848384379e+05, -6.558380827294022e+03, 9.472432782457544e+05
1202, 8.583665718109121e-01, 1.686001662846709e-01, 2.732336606409044e-02, 1.608305587601222e-05, -8.138036228165155e-05, 4.786798112103169e-04, -7.318314195530064e+05, -4.771902186468090e+05, -3.658852941561987e+04, -4.426669890678203e+05, 4.056573555192280e+05, -2.741066421955865e+05, 8.932626807500909e+05
1203, 8.941186904478372e-01, 1.675331548910362e-01, 2.096047958540886e-02, 3.312796536231177e-06, -4.007208953177299e-05, 4.300186942350070e-04, -5.346000333636244e+05, 1.977135368964137e+05, -8.058234484609446e+04, -3.517671348470874e+05, 3.443144603426342e+05, -4.289700616137349e+05, 1.167477557934971e+06
1204, 8.753372352174182e-01, 1.368697314210752e-01, 2.434613298563535e-02, 1.138139054685655e-05, -4.928733658818296e-05, 2.808347866772309e-04, -8.950464449547294e+05, -3.797537398743819e+05, -7.034992571349131e+04, -8.927174722129079e+05, 2.694520834689366e+05, -5.159444369047461e+05, 1.138239206528515e+06
1205, 8.836363010909598e-01, 1.486534896354031e+00, 2.286187417905080e-02, -2.081829949387645e-05, -5.115882862391508e-04, 2.825603584627501e-02, 8.935487281333873e+03, 1.167226118281458e+05, -6.578729503661062e+04, -3.451388849433429e+03, -1.560221659672047e+04, 5.378133490534373e+04, 1.884094814071182e+05
1206, 8.966292083700048e-01, 1.453980872385620e+00, 2.050060574925915e-02, -1.564516995571173e-05, -4.359091908912194e-04, 2.738606152832965e-02, -3.155081722581542e+04, 5.158301824602561e+04, -9.373457743173698e+04, -5.367316579757967e+04, 1.150160757713338e+04, 1.061156240993440e+05, 2.641527958899534e+05
1207, 8.856084039003752e-01, 6.513980715570260e-01, 2.250649833970014e-02, 1.032013200664983e-05, -2.065289923923810e-04, 7.276650942087015e-03, -3.228317875151901e+05, -8.245459633163374e+04, -2.168804834665269e+05, -1.637475861504667e+05, 1.325866879319973e+05, 2.112136911582400e+05, 6.103536314742754e+05
1208, 5.096029856576256e-01, 8.629497385772729e-01, 7.161735001851481e-02, -4.682048640740344e-05, -1.361638776006840e-03, 1.185502194011340e-02, -2.129295708544079e+05, -2.694565303948383e+06, -3.763855923045538e+05, -1.291551079644339e+05, 5.146198138243460e+04, 2.442209353096532e+05, 2.642973083031157e+06
1209, 5.551840961361643e-01, 8.630437233679714e-01, 6.775458930409482e-02, -3.615266630885294e-05, -1.276242934733648e-03, 1.189420740326612e-02, -1.456873681844115e+05, -2.271375920925761e+06, -2.797238401845545e+05, -1.022222113351550e+05, 1.674159399068627e+04, 2.125739739450976e+05, 2.232481721286958e+06
1210, 6.747363131755547e-01, 1.876503446262288e+00, 5.472791225283526e-02, -9.777050354252588e-05, -1.511079569373082e-03, 3.851398542147111e-02, 2.871332063986782e+04, 1.929401105133757e+04, -8.853908324435964e+04, 2.986995456577015e+03, -5.688531171764775e+03, 1.944685137434146e+04, 1.589256713377135e+05
1211, 8.686959721755779e-01, 1.223541634729556e+00, 2.552039246055885e-02, -1.296997275354594e-05, -4.831461043615544e-04, 2.111604712867321e-02, -1.124428409231359e+05, 3.027419644654668e+04, -1.329228052695431e+05, -1.382613060490756e+05, 2.328765352297274e+04, 1.100064247021429e+05, 3.400824636444560e+05
1212, 9.013914357495171e-01, 1.335785184133277e+00, 1.962332039344007e-02, -1.090079345761157e-05, -3.697608896034155e-04, 2.417218018337085e-02, -1.567061755069650e+04, 1.622367969396973e+05, -9.138785200478730e+04, -2.370142534679062e+04, 2.483509820063275e+04, 9.724644214179687e+04, 2.973557777705899e+05
1213, 9.145698889733520e-01, 1.302864733850927e+00, 1.716349131426374e-02, -7.531389905557351e-06, -2.931706116364209e-04, 2.329735957383824e-02, -2.244708407223944e+04, 1.581830467671944e+05, -5.594450329299785e+04, -3.472282170876906e+04, 3.693204113362839e+03, 1.028501252976558e+05, 2.759710717343919e+05
1214, 8.872051472471236e-01, 1.370594754396341e+00, 2.221793643457149e-02, -1.537038386823647e-05, -4.508812547376478e-04, 2.509738077490391e-02, -3.738843088478713e+04, 9.294773564638222e+04, -7.189190317440678e+04, -1.179810508795365e+04, 1.612381055976319e+04, 1.417174647418726e+05, 3.014030931848473e+05
1215, 9.269429996516363e-01, 1.366061023613875e+00, 1.480929198158039e-02, -6.374878896209246e-06, -2.520253922892318e-04, 2.502907320652886e-02, -3.020439764357324e+04, 1.891403069305090e+05, -2.869137455714984e+04, -4.884763600883211e+03, 1.242570802476900e+04, 9.929847396473937e+04, 2.751595828253014e+05
1216, 4.766503720587265e-01, 7.685114994982684e-01, 7.399003634859902e-02, -5.339358314790377e-05, -1.299541999931778e-03, 9.747421372471157e-03, -5.591066997966011e+05, -3.838726116330744e+06, -4.249167296543216e+05, -5.258026659684594e+05, -2.540200106834877e+05, 4.228593254455718e+05, 3.483950119938689e+06
1217, 5.227732384573774e-01, 1.876276932486824e+00, 7.056856558933523e-02, -1.310606002061093e-04, -1.933024331928691e-03, 3.818892034900384e-02, 3.848243273473964e+04, -2.237390787045195e+04, -6.835218337500430e+04, 8.484911846725870e+03, 2.103101966497606e+03, 2.003708890917882e+04, 1.342072759901925e+05
1218, 4.944825095516437e-01, 1.843290283329696e+00, 7.275150087378868e-02, -1.344043541812445e-04, -1.977998487580818e-03, 3.723307832681422e-02, 6.422575446583790e+04, -3.823612165453553e+04, -6.935825438518828e+04, 3.051268898699943e+04, -3.075495177301613e+03, 2.135459273508587e+04, 1.549478530404305e+05
1219, 9.083937487592764e-01, 1.053875300977035e+00, 1.832233674405193e-02, -2.021642534495716e-06, -2.369239706105780e-04, 1.670553817306669e-02, -1.648920368516981e+05, 1.815958015924135e+05, -1.234157177515183e+05, -3.820501904996137e+04, 4.592489696277802e+03, 1.307405795130898e+05, 4.350227582041773e+05
1220, 9.295488868063959e-01, 1.075483501369245e+00, 1.430806098554766e-02, -1.903606392569118e-06, -1.415354542705916e-04, 1.727065347675091e-02, -2.951618267359189e+04, 5.141517258022652e+05, -6.844183962462288e+04, -3.052018671698686e+04, 2.020588410351634e+04, 2.071145365490610e+05, 6.633917626483048e+05
1221, 7.732800242331602e-01, 1.393560699699486e+00, 4.110672107771122e-02, -4.364104763899049e-05, -9.602285874472233e-04, 2.555505424563487e-02, 5.985802534139109e+03, -6.999685975871990e+04, -1.369257373479911e+05, -3.387778376086651e+04, 4.578314935707816e+03, 5.135950630384263e+04, 2.618315895328951e+05
1222, 4.785096805864993e-01, 1.886256966522760e+00, 7.386602382780758e-02, -1.387919211442712e-04, -2.024034217789725e-03, 3.836748031286902e-02, 4.313279736461170e+04, -5.659289224651000e+04, -6.067351510528418e+04, 2.180932945753708e+04, 1.626996290610055e+02, 1.472061076463449e+04, 1.413060535614704e+05
1223, 8.069079676308775e-01, 1.202038134183491e+00, 3.588459798278424e-02, -2.307373077315225e-05, -7.379201650317482e-04, 2.048473313801335e-02, -8.575175259990677e+04, -1.637393772178799e+05, -1.791611126624683e+05, -1.200243528404549e+05, -1.897700951712751e+04, 2.002197129621635e+05, 4.714065506084047e+05
1224, 8.174836167336195e-01, 4.878894147337414e-01, 3.418183379442744e-02, 2.379643474032314e-05, -3.380940316301054e-04, 4.310308059675527e-03, -6.451906612627922e+05, -5.751147174313044e+05, -2.991764294357368e+05, -7.545215654045453e+05, -6.418394536924824e+04, 2.099546795314274e+05, 6.615486357726699e+05
1225, 5.808787778015210e-01, 1.635577386104774e-01, 6.529710022737455e-02, 2.794441891015853e-05, -3.264754633147890e-04, 6.143420372814873e-04, -3.478216845725055e+06, -9.743345087404378e+06, 1.381230658819492e+05, -1.096618205158587e+06, 6.300453818243158e+05, -4.036510971093707e+05, 7.847405494228464e+06
1226, 5.579717716467121e-01, 1.243395885032776e-01, 6.749753979328935e-02, 2.242678402927280e-05, -2.607504571662880e-04, 3.604362745494791e-04, -3.224677667366508e+06, -9.443109670861833e+06, 2.089301193352870e+05, -1.406148197888475e+06, 2.413859067355364e+05, 5.310918771532688e+05, 7.378094636415221e+06
1227, 6.011176635983025e-01, 1.256802566785811e-01, 6.322554050893316e-02, 1.986286526224970e-05, -2.579513057306138e-04, 3.532250737081633e-04, -2.736989925531288e+06, -7.263708881605865e+06, 2.625463204456858e+05, -9.699852397426214e+05, 2.908859664630472e+05, -4.738462467994190e+04, 5.663885170894487e+06
1228, 8.071612599224829e-01, 8.467924969720426e-01, 3.584415520429986e-02, 3.184342607708847e-06, -5.709082258463782e-04, 1.160366001585624e-02, -3.507207909707924e+05, -6.164867521905480e+05, -3.203895760428437e+05, -3.813523077000456e+05, -4.641182589312410e+04, 1.504585622745209e+05, 6.676473413540372e+05
1229, 8.215878653404449e-01, 8.117895368180547e-01, 3.351309647977655e-02, 8.874491631505332e-06, -4.940948286248359e-04, 1.079903815400565e-02, -3.260586259108442e+05, -9.858069472571656e+05, -2.933850595560530e+05, -1.959487748891608e+05, 4.125887173838417e+04, 2.630216950649674e+05, 1.004444461322972e+06
1230, 8.354084314983425e-01, 6.358588608413429e-02, 3.122885586443386e-02, 1.382538655105015e-05, -3.497256649865818e-05, 5.727574318558238e-05, -9.642520063836765e+05, -7.260982223939495e+05, 8.059230496432568e+04, -1.144698580420651e+06, 4.506394790380742e+05, -1.114447347202743e+05, 8.934344917660839e+05
1231, 5.581100875454598e-01, 1.902689801186195e+00, 6.748472348922477e-02, -1.257443991627165e-04, -1.861052556113463e-03, 3.898159388719763e-02, 4.378481126074889e+04, -2.435977668189968e+03, -6.530304292866721e+04, 1.776063804623171e+04, 1.377664808420492e+03, 1.864120751703342e+04, 1.243076871508630e+05
1232, 5.086911913880161e-01, 1.802860812037138e+00, 7.168785562561934e-02, -1.297679927510301e-04, -1.934207220107276e-03, 3.616457844216224e-02, 6.492220480834025e+04, -6.432436571786476e+04, -7.998441587220908e+04, 2.093667454063783e+04, -2.174130625018453e+03, 2.295142623983739e+04, 1.836884011154396e+05
1233, 5.466873034943265e-01, 4.623455406603807e-01, 6.852377932763974e-02, 3.011997417413231e-06, -8.335222195820571e-04, 4.059184719165873e-03, -1.007568961493274e+06, -4.630626813497702e+06, -1.654345056676019e+05, -7.257090934264704e+05, -7.235291413966470e+04, 3.137709626838688e+05, 3.823657281057310e+06
1234, 9.105712752082457e-01, 1.353010705034914e-01, 1.791496012434258e-02, -1.481626712790396e-06, -1.530491314331167e-05, 2.322082163486727e-04, -6.038503785976844e+05, 4.508505538278671e+05, -6.158004735526239e+04, -5.406383955857140e+05, 2.918521488894037e+05, -6.808913418636825e+05, 1.645438686076797e+06
1235, 8.920309387349716e-01, 1.053338954826027e-01, 2.134153149117390e-02, 3.568452682515405e-06, -2.336130934142699e-05, 1.292820307196921e-04, -7.498044215709380e+05, 7.799381622935770e+04, -3.734749854141085e+04, -9.053394877455796e+05, 2.086443794538459e+05, -6.661700298391811e+05, 1.517999406176924e+06
1236, 9.053453877438754e-01, 3.608922084930359e-01, 1.889041235565159e-02, 2.771862872744113e-06, -6.516173769895162e-05, 2.322871225896427e-03, -3.066915637073918e+05, 3.406070611459669e+05, -2.443495933723593e+05, -2.857176515883710e+05, -1.448362427185596e+05, -1.954339445688352e+04, 8.056411397223213e+05
1237, 5.681416755380239e-01, 7.573077690823089e-01, 6.653974130537639e-02, -2.223512036321831e-05, -1.157445314176820e-03, 9.564930698290192e-03, -4.903218456257847e+05, -3.162351208203513e+06, -4.102913750856890e+05, -2.939501759385702e+05, 9.499201144190400e+03, -1.092179429962960e+05, 2.871251823440294e+06
1238, 9.049672416590508e-01, 1.218250259372729e+00, 1.896069544494708e-02, -7.361854112541977e-06, -3.109861021115302e-04, 2.101067307682522e-02, -6.836444541368406e+04, 1.972878956327029e+05, -8.790679898763208e+04, -9.299138500424438e+04, 1.419808016724651e+04, 1.211046548081181e+05, 3.814530655620769e+05
1239, 9.177126283260928e-01, 1.680971883910753e+00, 1.656948993584604e-02, -1.517087996580346e-05, -4.115820100995043e-04, 3.365564725543446e-02, -8.290148050114807e+03, 7.850303078744523e+04, -2.970773353951501e+04, -4.483451877810374e+03, 1.101168120464056e+04, 5.442633501292483e+04, 1.382579077689721e+05
1240, 9.023680945099445e-01, 1.714684956582936e+00, 1.944266479917176e-02, -2.163657875216274e-05, -5.018596582807358e-04, 3.455243937846648e-02, 9.650406978867381e+03, 5.590825365494583e+04, -3.498283317711353e+04, -2.936192331057432e+03, -4.040016850598881e+03, 4.115520430297594e+04, 1.080835483584788e+05
1241, 8.273657705020196e-01, 1.741483066222319e+00, 3.256415773260220e-02, -4.743135401394372e-05, -8.660579547944722e-04, 3.513813435714552e-02, 1.160459581462571e+04, 4.162845788953796e+04, -5.195042995968036e+04, 9.815014524818309e+03, -5.067843437832226e+03, 5.034649353812633e+04, 1.293687129949707e+05
1242, 8.520384585674927e-01, 1.774954573154739e+00, 2.841391682830141e-02, -4.097959683948757e-05, -7.664564352043712e-04, 3.610570840314390e-02, 1.869502862392367e+04, 6.913854319519982e+04, -4.827021715669455e+04, 2.672038675186391e+04, -4.261566383927393e+03, 3.679071075987475e+04, 1.153660300849660e+05
1243, 8.395295345147586e-01, 1.810399117733672e+00, 3.053805989495036e-02, -4.592976125080556e-05, -8.367195501598479e-04, 3.705105607518955e-02, -3.015427025250660e+03, 2.335593097015272e+04, -2.964989592385698e+04, -4.209847697782167e+03, 1.138492800332570e+04, 3.375857123372481e+04, 8.469649222638406e+04
1244, 8.753943593179760e-01, 1.803567965557788e+00, 2.433598096290120e-02, -3.367372482107611e-05, -6.663658769964637e-04, 3.693822997997077e-02, -3.009671347256515e+03, 3.681184300081460e+04, -3.239959239352564e+04, -1.389737403214620e+04, 6.879041126682993e+03, 3.963227641269905e+04, 1.007034074231721e+05
1245, 8.638619374808050e-01, 1.838037496605370e+00, 2.636775138966272e-02, -3.881563905703406e-05, -7.339751327479060e-04, 3.785898240473774e-02, -2.252373945516680e+03, 2.852003008439283e+04, -2.621240247456788e+04, -9.999111202514554e+03, 6.824361855669797e+03, 2.897579217297728e+04, 7.723415039687506e+04
1246, 8.993515345006365e-01, 1.830970762452037e+00, 1.999986035004854e-02, -2.583943160749079e-05, -5.590096821651014e-04, 3.774000443589054e-02, -5.825260506323106e+03, 3.484398614922255e+04, -3.242811779912381e+04, -4.951950205373700e+03, 1.086511364668682e+04, 3.960531802411973e+04, 9.916590959295446e+04
1247, 8.875604329907718e-01, 1.865152749185453e+00, 2.215363095690588e-02, -3.096458162132193e-05, -6.298828899739123e-04, 3.865206487304662e-02, -2.823033309097647e+03, 3.155053449112309e+04, -2.728236031576185e+04, -3.275375059487325e+03, 1.531105173971395e+04, 2.275228262140079e+04, 7.540928947403935e+04
1248, 8.529132950767327e-01, 1.872345379846408e+00, 2.826382142846653e-02, -4.358487930061772e-05, -7.976184394347108e-04, 3.877534886939926e-02, 5.571687873615951e+03, 2.130490391128864e+04, -2.436705481112410e+04, -4.125801481353222e+03, 2.718795935592611e+03, 2.173474288807994e+04, 6.094900213685676e+04
1249, 8.763344498693462e-01, 1.899164438971354e+00, 2.416877514793304e-02, -3.606708082508348e-05, -6.967967130235529e-04, 3.955962029916979e-02, -9.256343316072853e+03, 5.025748207174016e+03, -2.485511511539443e+04, -1.080912989602691e+04, 1.160184399388875e+04, 1.881398476269119e+04, 5.956175775460888e+04
1250, 9.106649250045326e-01, 1.891849042956616e+00, 1.789741119235717e-02, -2.311052319087237e-05, -5.242376700257227e-04, 3.943321071559586e-02, -9.875718079547934e+03, 3.884165941086485e+03, -1.183917562415823e+04, -6.163574863196140e+03, 8.911285559261412e+03, 3.012350608339234e+04, 5.943941353175221e+04
1251, 8.418724117366851e-01, 1.906616446627701e+00, 3.014341911869248e-02, -4.849531654453620e-05, -8.611142757423522e-04, 3.968974788408100e-02, 1.147533072844440e+04, 4.383611902815729e+04, -1.726996675870124e+04, 1.550555733739755e+04, 3.338685103511659e+03, 1.057877932982259e+04, 4.687184082511119e+04
1252, 7.775775106852777e-01, 1.891997338637069e+00, 4.045566357840462e-02, -6.902370439004768e-05, -1.133872492024415e-03, 3.915361440956794e-02, 5.206801128983481e+03, 1.774201987179022e+04, -3.467100454048085e+04, 1.323532633698025e+04, 2.676672799137238e+03, 9.045818341203862e+03, 6.319936308244182e+04
1253, 7.395671740843746e-01, 1.900085723116609e+00, 4.604965545759657e-02, -8.070630403166079e-05, -1.287204206599467e-03, 3.929399198450090e-02, 2.626868299769116e+04, 2.838168691032071e+04, -3.143758163901099e+04, 2.194774211774038e+04, 8.653394904709180e+02, 9.987695879997862e+03, 5.743464758150886e+04
1254, 8.401629939716211e-01, 1.420008008972380e+00, 3.043150271159779e-02, -2.900843977744153e-05, -6.880650082987938e-04, 2.637143919566903e-02, -3.387006432365551e+04, 4.337178816477640e+04, -8.567066241670845e+04, -4.066187930135942e+04, -9.291195481620656e+03, 1.079435631316510e+05, 2.525269282651429e+05
1255, 9.111227728505833e-01, 7.483063849495416e-01, 1.781158207428378e-02, 1.564650668597900e-06, -1.355240765124333e-04, 9.337898724833718e-03, -1.984191107251878e+05, 3.403472621192363e+05, -1.571561679581862e+05, -1.650598282286588e+05, 2.457493300465055e+04, 4.978930953776879e+04, 5.972872659085159e+05
1256, 9.140211266945495e-01, 1.797420019652565e+00, 1.726690866915674e-02, -1.962531137292278e-05, -4.728023144343757e-04, 3.685005720783568e-02, 3.076637606859185e+01, 4.790228422212215e+04, -1.885519759739245e+04, -1.076316777127775e+04, 1.590690448600080e+03, 3.032224181335508e+04, 8.220325182016082e+04
1257, 5.779169483995880e-01, 1.496100260351277e+00, 6.559035088588773e-02, -9.587304005706510e-05, -1.643531151191410e-03, 2.799514438284863e-02, 2.331110510419280e+04, -4.792796775599906e+05, -1.683412393720885e+05, -6.224378111370186e+04, 1.990407374838675e+04, 9.116884440461823e+04, 5.727636037627679e+05
1258, 9.141507103637734e-01, 9.371634548323409e-01, 1.724249637311874e-02, -2.531292146557007e-06, -1.758678768321448e-04, 1.377124813306143e-02, -1.236568992790128e+05, 2.608767784501030e+05, -6.721411164548177e+04, -1.085804550734158e+05, -5.769210351728761e+03, 6.387470352454692e+04, 4.101085746097922e+05
1259, 4.736073378840468e-01, 9.466733666802144e-01, 7.419042432329334e-02, -6.625738470581160e-05, -1.487154892005215e-03, 1.375356181225992e-02, -2.330559200599373e+05, -2.405969262669935e+06, -3.157558606845460e+05, -1.771667407141076e+05, 8.511590202248777e+03, 3.049134939727266e+05, 2.329025050737277e+06
1260, 4.728234260918578e-01, 1.551477242383464e+00, 7.424153328039720e-02, -1.210769545364893e-04, -1.894741267031826e-03, 2.928809160544407e-02, 4.781185852308123e+04, -3.831736099851257e+05, -1.064687112801818e+05, -5.261352356952580e+04, 7.777233429028608e+03, 3.938993153862451e+04, 4.374868760621927e+05
1261, 9.100134447018353e-01, 4.510448180270483e-01, 1.801944279156248e-02, 8.314228866074247e-07, -7.167521939118945e-05, 3.605977587289089e-03, -3.025431129945108e+05, 4.371733716228934e+05, 9.860339036985344e+03, -1.138524715756399e+05, 2.068552335711484e+05, 1.157311456107633e+05, 7.823343874849551e+05
1262, 4.676256581509225e-01, 1.248403967778754e+00, 7.457500372180315e-02, -9.823469391837328e-05, -1.732544253703450e-03, 2.125138881835290e-02, -1.047836699908924e+05, -1.207065777542009e+06, -2.070917599270360e+05, -4.769388855984728e+04, 1.538691848372714e+04, 1.149284279474461e+05, 1.204247078422174e+06
1263, 4.597709626641293e-01, 1.813645501954487e+00, 7.506059590409465e-02, -1.381284325804744e-04, -2.027168140628586e-03, 3.635635356480461e-02, 3.891562320490483e+04, -1.137507280622359e+05, -6.851555392992366e+04, 2.198519146007316e+04, -3.610764991395853e+02, 1.753212380006742e+04, 1.897751503831252e+05
1264, 7.615126080551728e-01, 5.203101923926735e-01, 4.286519709293816e-02, 2.470525399490570e-05, -4.848944434608857e-04, 4.913834034462120e-03, -4.732656543056861e+05, -1.510372798725687e+06, -2.219476331432585e+05, -5.762539682273129e+05, -1.197335090019387e+05, 6.013027163181546e+05, 1.501623578235820e+06
1265, 8.317150050011851e-01, 3.678990621952102e-01, 3.184423666706799e-02, 2.092662173303061e-05, -2.323194015338495e-04, 2.516226508288241e-03, -5.651262601387497e+05, -7.013411236378312e+04, 1.152410704608979e+05, -4.161870006404299e+05, 8.536828044232677e+04, 9.818272517188446e+04, 5.330109294172019e+05
1266, 7.850795850890622e-01, 8.150149804380757e-01, 3.930762109015914e-02, 6.819432689264548e-06, -6.286897050910289e-04, 1.087794176904225e-02, -2.968924445650836e+05, -7.735824240877990e+05, -2.273571823049345e+05, -4.045379763658812e+05, -2.740523494335338e+04, 1.814107641479941e+05, 6.660059703443398e+05
1267, 5.814727427093185e-01, 1.090426749334254e+00, 6.523798405131989e-02, -5.695029190419185e-05, -1.402531448744596e-03, 1.737810025464273e-02, -5.240142006380012e+04, -1.207837998469567e+06, -2.785732774219437e+05, 8.392435428931791e+04, -4.504952263284998e+03, 1.042719144631943e+05, 1.332899914712668e+06
1268, 4.665335238493653e-01, 6.100000465428442e-01, 7.464385877252905e-02, -3.072829205168215e-05, -1.131337131167002e-03, 6.563851042766118e-03, -4.171559192377382e+05, -4.308835887484319e+06, -1.379514802738298e+04, -2.494503171496103e+05, -2.094231619287213e+03, 2.308625965555010e+05, 3.998303561217321e+06
1269, 4.607480487222477e-01, 8.722537430046683e-01, 7.500141481889877e-02, -6.524932777514370e-05, -1.435561433937124e-03, 1.201618683480454e-02, -2.050498182612232e+05, -3.185325058329192e+06, -1.898719613481699e+05, -1.775129151665869e+05, 5.627230184042949e+04, 1.822537537314867e+05, 3.030209469872478e+06
1270, 8.035427477472188e-01, 2.002980808206945e-01, 3.642027683563234e-02, 2.369011249076305e-05, -1.657165551146311e-04, 7.572297213899459e-04, -1.055963548423266e+06, -1.808536098815075e+06, -1.839881924960386e+05, -1.366138613421772e+06, 3.276794664437547e+05, 6.369163101285602e+04, 9.300489823229155e+05
1271, 9.140172900717610e-01, 5.151591120626100e-01, 1.726763137095509e-02, 2.716333164579088e-07, -6.359504593521186e-05, 4.646402835580155e-03, -4.235591230415296e+05, 6.044389038979830e+05, -8.428450772816225e+04, -4.043400466414477e+05, 4.330258521817999e+04, 4.495972611559439e+05, 1.292571936789503e+06
1272, 7.528412748594440e-01, 1.248695214154412e+00, 4.413843914969260e-02, -3.578614355287391e-05, -9.705995196025632e-04, 2.165451936334473e-02, -1.594203237054954e+05, -3.098295372054246e+05, -1.182846521659268e+05, -2.005597946344099e+05, 1.164788946838763e+04, 1.373662399638944e+05, 3.422234365943658e+05
1273, 9.746995574042843e-01, 1.955223880596897e+00, 5.309227256613782e-03, 2.040901510874660e-06, -2.062813130718488e-04, 4.131059763616091e-02, -8.701406778099659e+03, 6.227134544133733e+03, -1.226593772152300e+04, -1.209833821652232e+04, 6.277285171665394e+03, -2.551186020283549e+03, 2.956704217246974e+04
1274, 9.002313567049164e-01, 1.920343221189542e+00, 1.983758993515838e-02, -2.782558472080865e-05, -5.873630796270901e-04, 4.019102024801821e-02, -1.831030385878025e+04, 3.018418731202482e+03, -1.217350218929195e+04, -2.284922829406955e+04, 1.634411517054362e+03, 1.800441374313868e+04, 4.469226795396018e+04
1275, 9.226144809514422e-01, 1.480775442872597e+00, 1.563770474737883e-02, -9.373845705845651e-06, -3.149508554105562e-04, 2.816202928503342e-02, -1.662647045106331e+04, 1.271721775035387e+05, -5.545668438297907e+04, -1.033806130330293e+04, -1.863884045665544e+04, 5.928608489257906e+04, 2.015599184971660e+05
1276, 9.165127439919093e-01, 1.582260590105528e+00, 1.679661462899987e-02, -1.319190771025686e-05, -3.819559621771884e-04, 3.093853928622911e-02, 2.610627238014994e+03, 1.012056539569830e+05, -4.895693743958334e+04, -8.573432317757248e+03, 1.160922515747469e+04, 4.617400175892442e+04, 1.579225694590520e+05
1277, 9.289418878719514e-01, 1.548195925653451e+00, 1.442497433160568e-02, -8.764607863726015e-06, -3.054797484547105e-04, 3.002477555265756e-02, 1.945465382141765e+03, 1.238421560598968e+05, -4.950015652249000e+04, 3.519457436483020e+04, -2.913302865966527e+03, 4.706681248117187e+04, 1.610387006057556e+05
1278, 5.919354917068900e-01, 4.629427277003400e-01, 6.418005959396635e-02, 1.972614574313747e-05, -7.677766946936511e-04, 4.057969876084120e-03, -1.019242577134198e+06, -4.822255744942336e+06, -2.039597989613595e+05, -9.551045815480552e+05, 2.476702191664349e+05, 5.349016675722809e+05, 3.984735909925344e+06
1279, 6.120640024498897e-01, 4.237100781288914e-01, 6.205653727540760e-02, 2.467219601734461e-05, -6.890886182419204e-04, 3.461736475286637e-03, -1.580423125506955e+06, -5.499684557170657e+06, -1.722212697635225e+05, -7.953660895053571e+05, 3.019556057857894e+05, 4.595430816935714e+05, 4.477702544277595e+06
1280, 5.646872301280174e-01, 1.129872357867167e+00, 6.686854878890594e-02, -6.362630584910017e-05, -1.467995314119671e-03, 1.835795474298985e-02, -1.708279634226404e+05, -1.902011618918692e+06, -3.663618906733936e+05, -2.973604181001175e+04, -2.988621287648122e+04, 5.072171316732405e+04, 1.916825643232284e+06
1281, 9.165241926208325e-01, 8.354267881394399e-01, 1.679444945019195e-02, -6.500836470246796e-07, -1.336726320939384e-04, 1.131989300090069e-02, -2.243520497244833e+05, 3.719271460589464e+05, -1.124828489574562e+05, -1.065368485775166e+05, 4.508232790868884e+04, 1.558572273103191e+05, 6.450638699127368e+05
1282, 6.312247674843967e-01, 1.675013233446677e+00, 5.992965058041768e-02, -9.758907998372660e-05, -1.572608275637707e-03, 3.293822079434042e-02, 2.839161612031773e+04, -1.618439362338131e+05, -1.430953431057266e+05, 6.906487529401795e+03, -1.627838633063504e+04, 3.234399714517463e+04, 3.129315141039062e+05
1283, 6.173960746346878e-01, 1.714795077819409e+00, 6.147489147030893e-02, -1.032325456002889e-04, -1.629494894526101e-03, 3.399199281449866e-02, 8.657346137211411e+04, -4.840727410021165e+04, -1.243729880720123e+05, 2.897052245746965e+04, -6.605877257769733e+03, 2.851706289128474e+04, 2.504777683087691e+05
1284, 8.890975437145978e-01, 3.939233217173119e-01, 2.187501397728936e-02, 6.140599877371700e-06, -1.112848232859842e-04, 2.792949421073013e-03, -2.926370020149554e+05, 5.308960793976368e+05, -1.324869002751594e+05, -2.420941414867037e+05, -4.264183595343507e+04, -1.022042274144364e+05, 8.535736794883052e+05
1285, 9.233154297514821e-01, 3.902952854571522e-01, 1.550392257945217e-02, -5.951413265883887e-06, -2.198956293741894e-05, 2.688388111452777e-03, -1.927213177609530e+05, 1.128589835464789e+06, -2.580895540983482e+05, -3.747318252512811e+05, -5.734435374179715e+04, 2.621197818077051e+04, 1.493733739308839e+06
1286, 6.231773454710352e-01, 1.379489221874726e+00, 6.083539371707036e-02, -7.636166827947391e-05, -1.464027809179220e-03, 2.494767620736972e-02, 1.791398625792980e+04, -6.328474733901367e+05, -2.446735371716310e+05, -2.414634449986274e+04, -1.824943455626812e+04, 7.219328523277496e+04, 7.707908035314906e+05
1287, 6.079732955066925e-01, 1.418967143052091e+00, 6.249741032327250e-02, -8.340409283236205e-05, -1.526629263527479e-03, 2.597581834787464e-02, 9.793236965928135e+04, -5.020148873307853e+05, -2.361481357413292e+05, 1.219543070359425e+04, -1.437647846093398e+04, 6.634801253837488e+04, 7.049637893301421e+05
1288, 5.781758080708538e-01, 9.000637003406660e-02, 6.556482380286338e-02, 1.169380479480731e-05, -1.957025313830078e-04, 1.976548970335917e-04, -3.558843442753434e+06, -1.037112295992258e+07, 4.051896373526678e+04, -1.655337722769985e+06, 4.112571465455721e+05, 2.045508999339344e+04, 7.969396287439242e+06
1289, 9.417973575411892e-01, 8.641978139166487e-01, 1.192568055882793e-02, -3.012375360711417e-06, -2.757824749853588e-05, 1.199697238779164e-02, -3.843370332678637e+04, 6.807666063548400e+05, -1.041139545915655e+05, 1.084725791585885e+05, 7.747284437089720e+04, 1.785299180042208e+05, 7.611304512084501e+05
1290, 6.455354252139879e-01, 2.038685163821085e-01, 5.827518500986711e-02, 2.224425088151114e-05, -3.462391151698926e-04, 8.711771401351629e-04, -2.223356519760998e+06, -5.947535443187994e+06, -3.688023698794432e+05, -8.605646233719659e+04, 2.477920141291296e+05, -1.497827954111723e+05, 5.201615218789912e+06
1291, 8.950193840400618e-01, 7.812350139444275e-01, 2.079571052025054e-02, 3.059116095785464e-06, -2.092331441842996e-04, 1.008086374263700e-02, 5.993637271025737e+04, 4.836401963597442e+05, -6.911607886494897e+04, -2.060791990836389e+05, 6.646112176123385e+04, 3.553202635451740e+04, 6.279896045415594e+05
1292, 9.299139934916412e-01, 7.775601467773666e-01, 1.423768778998802e-02, -1.242485947555022e-06, -6.315722934371881e-05, 9.985897074060820e-03, -1.161151368147560e+05, 5.822663035810334e+05, -1.380900425453266e+05, -8.218323249978725e+04, 1.263031085591703e+04, 1.925133501881488e+04, 7.238698734692301e+05
1293, 6.188753794571280e-01, 5.648384636339296e-01, 6.131215295780507e-02, 1.483732070995574e-05, -8.476209368754178e-04, 5.770568079616220e-03, -8.833103374449997e+05, -3.977214772491532e+06, -2.334455158409130e+05, -7.439150033986730e+05, 2.822408580515776e+04, 2.572487060718985e+05, 3.222943137656870e+06
1294, 6.183146058546716e-01, 1.193094879083306e+00, 6.137391282811505e-02, -5.833722194897471e-05, -1.375882644413844e-03, 2.004057060286568e-02, -1.432341107999146e+05, -1.226135217399845e+06, -2.952046497029816e+05, -8.878520897963186e+04, 8.961956183346148e+03, 1.851193676111705e+04, 1.223645637683453e+06
1295, 6.740043654451078e-01, 1.774167383929812e+00, 5.481961128460688e-02, -9.269055224983558e-05, -1.474910685373386e-03, 3.572255138328095e-02, 2.699071014244015e+04, -3.085612127944106e+04, -1.192404839433509e+05, 5.056882905735564e+03, -3.960437143483714e+03, 4.707925394461874e+04, 2.278373300238233e+05
1296, 7.034759299741629e-01, 3.380880275057046e-02, 5.101585349426605e-02, 3.381890123659026e-06, -5.007400496794857e-05, 2.944734376921290e-05, -2.926268921099375e+06, -5.621455460030663e+06, 6.744201307501186e+04, -2.976459946201542e+06, -2.733318143303099e+04, 4.836619436645059e+05, 2.801597518284749e+06
1297, 5.711062030604367e-01, 5.067954494881641e-01, 6.625479485899463e-02, 1.272265525920774e-05, -8.556017828845949e-04, 4.771179563882150e-03, -7.769865389255523e+05, -4.515305610075263e+06, -3.121577263785151e+05, -9.282178399967602e+05, -3.223007325513213e+04, 2.079724733287549e+05, 3.722600011747568e+06
1298, 5.050040629888609e-01, 5.264379272838934e-01, 7.197022668586592e-02, -6.397300168145548e-06, -9.659292588692844e-04, 5.100046220128916e-03, -1.167288503608325e+06, -5.015517555849561e+06, -4.705311833002658e+05, -4.641136855324794e+05, 6.925443086886362e+04, 2.254750518800932e+04, 4.323125247889861e+06
1299, 4.602229899782094e-01, 5.294230088740302e-01, 7.503325892232879e-02, -2.325473437545834e-05, -1.019458802324510e-03, 5.135353801420189e-03, -8.200192509033030e+05, -5.834730687827812e+06, -2.844811665601562e+05, -5.943024645747333e+05, -2.151252622115553e+05, 2.756867959876365e+05, 5.190358203372146e+06
1300, 9.204364654003410e-01, 7.235638245425509e-01, 1.605247555484409e-02, 1.855421507546140e-07, -9.155163743705674e-05, 8.785666402613024e-03, -4.796273552646915e+05, 5.254388648581926e+05, -3.215111080643359e+05, -1.731075354266095e+05, 2.452065851918631e+04, 1.463502664632842e+05, 1.082685068456567e+06
1301, 9.227527364833406e-01, 1.655118140547586e+00, 1.561132908234441e-02, -1.309390442481850e-05, -3.763932251896335e-04, 3.295397962984949e-02, -1.953532764581544e+04, 7.301066406212292e+04, -3.787053332511234e+04, -6.419895098764533e+03, 1.602993637241949e+04, 4.940191249308808e+04, 1.411313210367480e+05
1302, 9.294195200018999e-01, 1.920218774564667e+00, 1.433298613187748e-02, -1.631754492061044e-05, -4.380394203135074e-04, 4.025129005094474e-02, -1.803226046154300e+03, 7.974670954249747e+03, -1.293879254123843e+04, 7.747119665201826e+02, 5.753475635910814e+02, 2.160809982422980e+04, 4.450849680185119e+04
1303, 9.115236000903979e-01, 1.399321856737871e+00, 1.773639675231598e-02, -1.066044640686548e-05, -3.424355384774036e-04, 2.591426875326239e-02, -3.221309632210573e+04, 1.550687574541890e+05, -5.050028076758925e+04, 1.990109267081429e+03, 9.491069980832126e+03, 9.966708798616874e+04, 2.599237847187407e+05
1304, 9.321741592765219e-01, 1.448388180104988e+00, 1.380107565677733e-02, -6.016995058522739e-06, -2.534711435146983e-04, 2.728825119211013e-02, -5.736664907572531e+04, 1.103626753830526e+05, -4.506135848101974e+04, -3.061833445146768e+04, 1.511658900098612e+03, 1.139919503798115e+05, 2.635204917133287e+05
1305, 9.254420772700477e-01, 1.039284633957886e-01, 1.509715220103489e-02, -7.782044930321197e-06, 3.988827026112866e-06, 9.120490607204823e-05, -6.003453197873783e+05, 1.086359700191868e+06, -5.398495233942616e+03, -4.403484957275016e+05, 3.855264393209691e+05, -6.067447792475325e+05, 2.037425429492134e+06
1306, 8.915845293067683e-01, 1.252846737710150e+00, 2.142286429839192e-02, -1.036728915713818e-05, -3.866640790455844e-04, 2.192371040546703e-02, 9.890645765891401e+03, 1.843439123434430e+05, -8.597277667419396e+04, 2.878900532262024e+03, 1.828474342807854e+04, 1.458495352579218e+05, 3.445279959161165e+05
1307, 9.260134459336449e-01, 1.247312489240567e+00, 1.498764408848923e-02, -4.107046179993579e-06, -2.150582361237219e-04, 2.181158824534690e-02, -9.459279872023337e+03, 2.616916394665378e+05, -9.276954182629415e+04, -3.315916131241265e+04, 5.002312354673875e+03, 1.913549341856005e+05, 4.650317361744262e+05
1308, 5.370929137604552e-01, 9.023113041391853e-02, 6.936557763172933e-02, 7.958237621136927e-06, -1.827971916244335e-04, 2.029259238299705e-04, -3.597231384367315e+06, -9.549453846395947e+06, 5.298727023500542e+04, -9.629271697069030e+05, -1.465467588022422e+05, 9.176471441336228e+05, 7.787654030871633e+06
1309, 7.984052230069645e-01, 7.808497265902290e-01, 3.723253608850079e-02, 6.469537052730678e-06, -5.588814504554757e-04, 1.010234573951167e-02, -1.865054578598741e+05, -7.532855151369236e+05, -1.205893755741958e+05, -5.171375021636427e+05, -6.310963124659054e+04, 4.338231891762723e+05, 9.291625695285660e+05
1310, 5.326186800662074e-01, 1.736078339184599e+00, 6.974842051295632e-02, -1.225534565816727e-04, -1.856158661256975e-03, 3.439986655072333e-02, 1.443877619415029e+04, -1.797038554735137e+05, -1.045853284254887e+05, -1.489449897984647e+04, -1.137019032691650e+04, 5.307405344625142e+04, 2.729645492056207e+05
1311, 4.379267752360723e-01, 1.214011997021865e+00, 7.629287070053575e-02, -1.039952702355205e-04, -1.749850135487440e-03, 2.031730438316224e-02, -1.901312374054019e+05, -1.610043815382564e+06, -1.806641194097436e+05, -1.359745329924509e+05, -7.087639085672835e+04, 9.117275592072867e+04, 1.494626655136267e+06
1312, 4.562235530322896e-01, 1.167237963419069e+00, 7.527261075453158e-02, -9.682694076853376e-05, -1.695840007441619e-03, 1.915031579119475e-02, -8.116786507736947e+04, -1.515723299151605e+06, -1.424416359929495e+05, -3.167137439887225e+05, -6.187133780580902e+04, 6.328675850983489e+04, 1.363780122184181e+06
1313, 4.887446340209266e-01, 1.744000723044332e+00, 7.316180419987503e-02, -1.304142746290978e-04, -1.949116442169503e-03, 3.452565226423865e-02, 5.501645184502211e+04, -1.299984932728012e+05, -8.032687942806090e+04, 1.231073059847968e+04, -4.491287172912506e+03, 4.720667943772257e+04, 2.329297346399973e+05
1314, 4.620178538970730e-01, 1.715683875423587e+00, 7.492398690870571e-02, -1.328536142481563e-04, -1.983915259502055e-03, 3.370405870813985e-02, 3.608583798509458e+04, -2.266777316232434e+05, -8.439864816281752e+04, 1.201062129220688e+04, -2.380655249141050e+03, 2.567307621898106e+04, 2.943839978936079e+05
1315, 4.452977747725059e-01, 1.758759708942126e+00, 7.589680882289550e-02, -1.376902701177088e-04, -2.027421530250026e-03, 3.483683588192045e-02, 3.339738351000843e+04, -1.132039780121504e+05, -4.079876354514996e+04, 2.225359514344222e+04, 3.850223205568427e+03, 2.847548459305557e+04, 1.656897652763182e+05
1316, 9.393558274054372e-01, 1.223383110332257e+00, 1.240399567815768e-02, -2.533681872890492e-06, -1.406542107882658e-04, 2.118236784054006e-02, -6.138762369725137e+03, 3.638395344998121e+05, -6.133261038966290e+04, 4.487849427868742e+04, -2.509208115445955e+04, 1.076214113784758e+05, 4.105270178290090e+05
1317, 9.078907337271926e-01, 7.685820090983421e-02, 1.841625686469840e-02, -1.585442309343793e-06, -6.354033235398890e-06, 3.696842262396194e-05, -6.711438453501572e+05, 4.197332747704958e+05, -1.076955746232601e+05, -1.020022804280285e+06, 2.976096270776299e+05, -8.066431466207739e+05, 1.986162750610896e+06
1318, 9.407192191585808e-01, 7.528113226571280e-02, 1.213711255204151e-02, -1.183191085498900e-05, 1.296313764098667e-05, 1.259938244854014e-05, -5.018769365592558e+05, 1.610941483198947e+06, 1.987613222591228e+05, -1.516412712114115e+05, 2.625829944628330e+05, -5.852380083467297e+05, 2.280254500491279e+06
1319, 4.457456591357222e-01, 1.411146840677715e+00, 7.587209594311320e-02, -1.172411130718615e-04, -1.864987727723921e-03, 2.548591029074351e-02, 9.846353148343533e+04, -8.504925512220081e+05, -1.649131362426460e+05, 4.240769392582774e+04, -2.858488579322717e+04, 5.033853624550377e+04, 9.706222721038896e+05
1320, 4.179503767395810e-01, 1.373461575307337e+00, 7.726206659421381e-02, -1.187274522413823e-04, -1.876971212749750e-03, 2.443817532449413e-02, 5.849518412055356e+04, -1.194359451661864e+06, -1.554182343275509e+05, 5.890395089603060e+04, -1.830226336800884e+04, 5.924738217108173e+04, 1.286140423492480e+06
1321, 4.343370691209861e-01, 1.332295680554380e+00, 7.647839080782731e-02, -1.132164451799166e-04, -1.831848033027971e-03, 2.338304018196662e-02, -4.281951401956478e+04, -1.112046947149266e+06, -1.154815352545337e+05, -1.104798616103195e+05, -3.675376226033436e+04, 6.909302813737725e+04, 1.064830004414218e+06
1322, 8.177519638018671e-01, 1.669317550716279e+00, 3.413825103926166e-02, -4.663776767008243e-05, -8.816870317866418e-04, 3.314273136786663e-02, 9.247056036206408e+03, 2.796936091757107e+04, -6.999352519375211e+04, -8.656993119582037e+03, 3.215492651962539e+03, 5.637551904372899e+04, 1.589628292137144e+05
1323, 7.930240328270834e-01, 1.639739011318117e+00, 3.807607385581843e-02, -5.320926249666180e-05, -9.763021299115972e-04, 3.228637058308552e-02, 1.119345505653529e+04, 3.065547795601817e+04, -6.045455027547304e+04, -1.027457722256943e+04, -1.085801434324548e+04, 6.568671325287406e+04, 1.597486724466242e+05
1324, 8.796591289394874e-01, 1.009054977013527e+00, 2.357546597889171e-02, -1.672665654138886e-06, -3.521048143727279e-04, 1.555478178334047e-02, -8.908582086854079e+04, 2.950921211237250e+05, -4.958743593795008e+04, -2.377907176319787e+05, 9.388836843801237e+04, 1.737268858984598e+05, 5.926212026936546e+05
1325, 9.170223463194358e-01, 9.993571053259247e-01, 1.670020186528513e-02, -1.511643520399342e-06, -1.808348514830450e-04, 1.532316769927564e-02, -1.417815801690732e+05, 3.046025475121732e+05, -6.373046703902986e+04, -1.128883023864175e+05, 9.341775503839477e+04, 9.131790981369920e+04, 5.005780063710532e+05
1326, 9.379083033784904e-01, 1.038646317480283e+00, 1.268672642832491e-02, -1.279165630002632e-06, -8.992427561128891e-05, 1.632714140419167e-02, -1.051791011779724e+05, 3.557737228760897e+05, -6.567792808632154e+04, -4.681781762278899e+04, 5.933004909964784e+04, 5.806772181892318e+04, 4.718032034596602e+05
1327, 9.614145697267580e-01, 1.075245743030361e+00, 8.019358448649594e-03, -5.141768682909165e-07, 1.760226341829263e-05, 1.727971639304399e-02, -2.230091628726896e+04, 5.961391646276925e+05, -3.598609537660224e+04, -5.808163777344236e+04, 2.208202907991220e+03, 7.010808257573447e+04, 6.515532836171025e+05
1328, 9.277399981047921e-01, 1.652907447996763e-01, 1.465618460732448e-02, -7.194968243681710e-06, 3.159736343488762e-06, 3.727301252410024e-04, -7.748686526177316e+05, 7.477604616062418e+05, 1.637655189133858e+05, -4.548345507528828e+05, 2.057814069430684e+05, -1.594934276110434e+05, 1.489072819923075e+06
1329, 5.499833128478460e-01, 1.465100416869623e+00, 6.822798250524241e-02, -1.001264048230421e-04, -1.696512075389220e-03, 2.711189752464171e-02, 6.195071543179534e+04, -4.707995625891832e+05, -1.792460878770146e+05, -1.799383692303237e+04, -2.219319013490193e+03, 1.120282756661767e+05, 6.177999413433538e+05
1330, 4.408504754385421e-01, 1.518493736253425e+00, 7.613817742441607e-02, -1.243919946258658e-04, -1.927056084595091e-03, 2.834101323037105e-02, 2.120658214771573e+04, -5.594968430102965e+05, -1.159974481064097e+05, -1.140033407328010e+04, 4.370997933109964e+03, 7.315162956095926e+04, 6.130430282900053e+05
1331, 4.248417209873157e-01, 1.561268842679602e+00, 7.694515524929404e-02, -1.299648125430777e-04, -1.968026357936567e-03, 2.945807183907628e-02, 3.125367862776848e+04, -3.792495506861219e+05, -7.039021088677230e+04, -4.126483294100786e+04, -4.378422000167468e+03, 4.065983469485318e+04, 4.048262296210433e+05
1332, 8.563122966887142e-01, 1.045198934336118e-01, 2.767859605436306e-02, 1.252740747852144e-05, -4.796175316504683e-05, 1.616790840398286e-04, -8.024035540425926e+05, -4.816784979031526e+05, -8.646376835423236e+04, -6.505322849764011e+05, 3.329311297124347e+05, -2.938447537830273e+05, 8.313916656982201e+05
1333, 4.049619316782745e-01, 1.478941618635286e+00, 7.780869267424849e-02, -1.264364602892726e-04, -1.949017963066249e-03, 2.721435562948426e-02, 3.528854659383567e+04, -7.997914143314171e+05, -1.501056189223608e+05, 3.171443219210229e+04, -2.595264933267673e+04, 4.354711067173231e+03, 8.741048250418949e+05
1334, 4.743250392569143e-01, 1.445837415940926e+00, 7.414344707463261e-02, -1.141091020703221e-04, -1.839591566648300e-03, 2.646045001586063e-02, 4.103526251027463e+04, -5.888307494354454e+05, -8.641008297487853e+04, -3.282262948720165e+04, -1.937263356443970e+04, 7.966893405564716e+04, 6.310570707987355e+05
1335, 5.486020194049261e-01, 7.947419554886965e-01, 6.835234909894750e-02, -2.978889809431354e-05, -1.225527184988133e-03, 1.036558727852428e-02, -4.993097715629677e+05, -3.280401053411252e+06, -4.138803543955174e+05, -6.237590994629456e+05, 7.132608146483876e+04, 1.160620716116630e+05, 2.823723729171857e+06
1336, 5.938261308795020e-01, 7.911482647445167e-01, 6.398549033959829e-02, -1.895877374891164e-05, -1.136936012697723e-03, 1.031265255779512e-02, -2.394972459318202e+05, -2.653801969097157e+06, -1.860447793117282e+05, -1.761866258112818e+05, -1.115850883786806e+05, 9.863855674462419e+04, 2.481150344155895e+06
1337, 9.338010205124546e-01, 1.829350448529658e+00, 1.348582613022585e-02, -1.275787881328122e-05, -3.817620701549709e-04, 3.776835667176065e-02, -2.446257651821186e+04, 1.127777589529933e+04, -8.165453661300303e+03, -3.029416195888489e+03, 9.898054330009505e+03, 2.466578331737428e+04, 5.735734815882125e+04
1338, 8.626818993836759e-01, 1.740338806076715e+00, 2.657360149107708e-02, -3.592148375593240e-05, -7.040244336864350e-04, 3.517803037598471e-02, -1.614364715352609e+04, 3.686717639175528e+04, -4.963000520152200e+04, 1.949955772125949e+04, 4.277480260063075e+03, 4.620154605747892e+04, 1.266458098707903e+05
1339, 4.791369542936169e-01, 8.179421269406698e-01, 7.382390933812527e-02, -5.481317994593393e-05, -1.356901843930239e-03, 1.081661528350226e-02, -5.244454349133156e+05, -3.320743620829297e+06, -3.566007143402983e+05, -4.293979258675695e+05, -1.039250975779581e+05, 1.287254266672964e+05, 2.925355182399069e+06
1340, 4.322544276408865e-01, 8.262394553087167e-01, 7.658375861594018e-02, -6.822767032533747e-05, -1.417981221235144e-03, 1.095099663925155e-02, -3.414663587784095e+05, -3.276360642058481e+06, -1.885200410891730e+05, -1.029891426166083e+05, -5.249804913703336e+04, 8.002240020134627e+04, 3.082933596727713e+06
1341, 7.985087739019906e-01, 1.428732305361618e+00, 3.721622972825449e-02, -3.947756836971891e-05, -8.711033586705080e-04, 2.654431375295287e-02, -7.533765331096220e+04, -1.457820827806460e+04, -1.083150210101038e+05, -6.854601951354214e+04, 6.543195556089073e+03, 1.062557161634812e+05, 2.692970177252289e+05
1342, 6.210976919015887e-01, 8.702890255773840e-02, 6.106652792351790e-02, 2.096969059875789e-05, -1.547650162558450e-04, 1.856044640213481e-04, -3.738149526733328e+06, -9.034537432955965e+06, 1.299467486035625e+05, -1.274530895547997e+06, 7.560122137803936e+05, -3.364609564204884e+04, 6.995580003880223e+06
1343, 6.431649442990568e-01, 1.250211030436666e-01, 5.855312190802853e-02, 2.096554167868581e-05, -2.018110490084671e-04, 3.390222112269053e-04, -3.306627537608392e+06, -7.825361764469308e+06, 2.981524620226505e+05, -1.219582990971351e+06, 5.449591470133639e+05, 3.155283392875413e+05, 5.971751339831199e+06
1344, 9.234597002716369e-01, 4.458816163828348e-02, 1.547636919090067e-02, -3.136000357603641e-06, 3.546066192156028e-06, -1.160645382522474e-05, -2.689019524624965e+05, 8.948710425599763e+05, -7.169931091518150e+04, -3.454387019278016e+05, 1.404166008643499e+05, -7.193824176189882e+05, 1.753967755520855e+06
1345, 8.772522218518963e-01, 1.405432075605973e+00, 2.400529772070355e-02, -1.902475895485933e-05, -5.110705020431316e-04, 2.603065187392394e-02, -3.192171148181158e+04, 8.338803634847634e+04, -1.096506765080464e+05, -3.266464145708558e+04, 1.352217796116516e+04, 1.657561182147449e+05, 3.639040939602845e+05
1346, 8.602686368261735e-01, 7.847654181941546e-01, 2.699347023749105e-02, 4.951691213783693e-06, -3.429457746600903e-04, 1.017513826828483e-02, -1.212051551575434e+05, 2.453750395861142e+05, -1.076697413582571e+05, -1.156244277677884e+05, 6.235423425483047e+04, 2.548757662682711e+05, 6.113050297982546e+05
1347, 9.365524745310115e-01, 1.712248033003861e+00, 1.295098217395134e-02, -9.364154589554252e-06, -3.244622782876405e-04, 3.455338450243518e-02, -1.711504345038763e+04, 4.691009567867190e+04, -2.178605034185109e+04, -2.616045285254910e+04, -5.724865419769558e+03, 4.429967196855004e+04, 1.103166918352825e+05
1348, 9.254585642763604e-01, 1.739549814898793e+00, 1.509399360272106e-02, -1.386259916670574e-05, -3.928624873888262e-04, 3.528256671729953e-02, 7.344515851383662e+03, 5.646764881330769e+04, -3.202123984523499e+04, -9.800687236891725e+03, 7.352479947995106e+03, 3.626896838213686e+04, 1.036042313916094e+05
1349, 9.506079320686063e-01, 1.456377233018176e+00, 1.018520635234645e-02, -1.064444535093037e-06, -1.585956937667221e-04, 2.753655771978029e-02, -2.705487692945930e+03, 1.897504307733518e+05, -1.450032144301045e+04, 1.107344228243787e+04, 9.503570030471004e+03, 9.748303615097563e+04, 2.529582205573459e+05
1350, 7.795624654589270e-01, 1.678976808432211e+00, 4.015337514076504e-02, -5.868768713130496e-05, -1.046594023065242e-03, 3.333373626638376e-02, -6.063140096673433e+02, 6.639988049299133e+03, -6.025594307236940e+04, 2.145636342729544e+03, -6.075601069651069e+02, 5.632161986176886e+04, 1.430033519425348e+05
1351, 8.447699162189691e-01, 1.703398129699831e+00, 2.965326366536646e-02, -4.027708197934521e-05, -7.734902929330371e-04, 3.412895889732294e-02, -1.197416989268547e+04, 2.707361877838675e+04, -5.187117989845337e+04, 7.330353763303168e+03, 2.133805103731244e+02, 5.270211621149193e+04, 1.324693516968327e+05
1352, 8.446400237545100e-01, 1.024473684687305e+00, 2.967528580162507e-02, -4.355965459383604e-06, -5.068494773717847e-04, 1.593064947558422e-02, -4.110550776821112e+04, 1.715204267389333e+05, -1.318625162034010e+05, -2.227404399059296e+05, 5.711379812552486e+04, 2.184529702271847e+05, 5.673936567616157e+05
1353, 8.063836210480689e-01, 1.028352666895249e+00, 3.596826498917381e-02, -1.174704374362623e-05, -6.621061752529191e-04, 1.601187800332787e-02, -8.885368694586148e+04, -1.105754948738783e+05, -1.251650870407449e+05, -1.873961663548066e+05, -1.668551486736343e+05, 2.410665458697587e+05, 5.593764331364303e+05
1354, 7.813606108216136e-01, 9.921089112305419e-01, 3.987861417063995e-02, -1.099831359506476e-05, -7.409017087409570e-04, 1.509248658822554e-02, -2.362335714816532e+05, -3.809811415581537e+05, -1.901189481150250e+05, -1.954608673868813e+05, -7.343388657797885e+04, 2.573443926189424e+05, 5.931337807894504e+05
1355, 9.224134722494148e-01, 9.103230730754219e-01, 1.567604190214787e-02, -9.542257917195818e-07, -1.278110799593779e-04, 1.311288828834845e-02, -8.055229335184720e+04, 4.688561499305319e+05, -1.263419494675762e+05, -1.248874738109400e+04, 1.813288198527101e+04, 2.205861095620491e+05, 6.811281531490596e+05
1356, 5.578136612361175e-01, 5.097343021397460e-02, 6.751218299995715e-02, 1.190963548780739e-05, -9.467777771454732e-05, 7.710144226158022e-05, -4.738235474853897e+06, -1.073115569426678e+07, 1.552889195795594e+05, -3.020069459416559e+06, 1.908095852115017e+04, 5.842695700038050e+05, 7.089539339966890e+06
1357, 8.591594098576523e-01, 1.259010154370911e+00, 2.718596877373358e-02, -1.752108144481568e-05, -5.410536920739256e-04, 2.205210654058132e-02, -1.980030965929869e+04, 1.415078544507989e+04, -1.845407154032210e+05, -5.710303982895710e+04, -1.146597964084986e+04, 6.461242369655406e+04, 3.448117862781665e+05
1358, 9.065550784152655e-01, 1.515998117120692e+00, 1.866529791950849e-02, -1.474194091570166e-05, -4.085100060600977e-04, 2.910166620303870e-02, -3.413877795461944e+04, 1.179449237017549e+05, -3.765023711369846e+04, -3.004279633196872e+04, -7.445538060803659e+03, 5.390900903192280e+04, 1.888405948610588e+05
1359, 9.413353366391530e-01, 1.511798600800335e+00, 1.201632774540292e-02, -4.207195337953273e-06, -2.275169530861210e-04, 2.904524287842325e-02, -2.458675273712806e+04, 1.638587895408843e+05, -4.000676700443461e+04, 5.333098470219280e+03, -1.013625772637489e+04, 4.998004740501178e+04, 2.082607214801377e+05
1360, 9.116468298752127e-01, 1.114758317270980e+00, 1.771327341294852e-02, -2.897741344126681e-06, -2.416439386266761e-04, 1.828230602232539e-02, -9.662137096919838e+04, 9.551341795557801e+04, -1.305088887826818e+05, 8.790307049520903e+03, 2.673326254938072e+04, 1.419776467025823e+05, 3.761499928148888e+05
1361, 9.454704120165716e-01, 1.397046094092021e+00, 1.120295001415853e-02, -2.212219965130879e-06, -1.654935977438397e-04, 2.590187140634469e-02, -1.799674251919966e+03, 2.228619718359543e+05, -3.931524894568530e+04, 1.832317575613812e+04, -3.380753720626743e+03, 7.681825625433701e+04, 2.621668172682873e+05
1362, 4.798667780082240e-01, 4.894334216868922e-01, 7.377473521737768e-02, -1.000998746933379e-05, -9.468998507227988e-04, 4.479190894107754e-03, -8.135875665218565e+05, -4.689273054693533e+06, -2.580376340802432e+05, -8.443538588729032e+05, 1.968510933705886e+05, 3.693380933232980e+05, 3.953211010989371e+06
1363, 4.295448363565860e-01, 4.931272408856734e-01, 7.671831565098797e-02, -3.687439749077044e-05, -9.818289031770138e-04, 4.526139153667424e-03, -7.905987305375224e+05, -5.793782521886999e+06, -5.017256687245821e+05, -5.005691392537416e+05, -1.844232395292883e+05, 5.106030296759268e+05, 5.310970218285413e+06
1364, 9.431480183599319e-01, 3.771842391955902e-01, 1.166034140747728e-02, -1.330694282614120e-05, 2.701499355502179e-05, 2.483162650148474e-03, -1.248207911504602e+05, 1.142013670651046e+06, -1.032169018148334e+05, 4.284297704257932e+04, 7.222313211759845e+04, 7.888941976547145e+04, 1.219368198610389e+06
1365, 7.837924303280596e-01, 5.559162120159715e-01, 3.950565423069224e-02, 2.227950787507191e-05, -4.678695458546767e-04, 5.527654033895352e-03, -1.898593121748202e+05, -6.860050571805134e+05, -1.904756958135426e+05, -3.561716665601875e+05, -1.513811821183310e+05, 3.434564159932965e+05, 8.501669957042263e+05
1366, 6.626605020296996e-01, 8.427984304773004e-02, 5.622246301246373e-02, 7.347722130089662e-06, -1.393508535631922e-04, 1.666026501341332e-04, -3.027543266654598e+06, -7.901361050033079e+06, 1.110346187186853e+05, -9.761691905759212e+04, 5.055054750722070e+05, 2.551637417068244e+05, 6.900537250513060e+06
1367, 8.187397515106506e-01, 9.935562312761047e-02, 3.397765036858735e-02, 2.131585717207729e-05, -6.561624170676669e-05, 1.734762993781669e-04, -7.585860747258099e+05, -9.191156510563639e+05, 2.364865134127077e+05, -6.408257456629127e+05, 4.291868764579524e+05, 7.156788230795982e+04, 8.912288588766176e+05
1368, 8.706466642954713e-01, 7.312555413074520e-02, 2.517666747856474e-02, 7.620070422521830e-06, -2.440292808740356e-05, 5.556245994445264e-05, -9.727379764287930e+05, -5.042020529042671e+05, -7.795199136168500e+04, -1.360055328960274e+06, 2.502607389662918e+05, -5.196492210017538e+05, 1.251894375180749e+06
1369, 8.392969692941350e-01, 1.362499951583447e-01, 3.057715622165232e-02, 2.237002909176444e-05, -7.761370946383905e-05, 3.233454475572717e-04, -1.303804942805159e+06, -1.992104918539621e+06, 1.999714744703373e+05, -8.383066102730498e+05, 5.352307946018293e+05, 1.871002885013536e+04, 1.411127217151974e+06
1370, 9.233432368782177e-01, 1.188087310851804e+00, 1.549861233645387e-02, -4.117788092949937e-06, -2.106212139005234e-04, 2.022266088968111e-02, -5.505320298238789e+04, 2.684409999301755e+05, -9.792967619579096e+04, -2.685467561594992e+04, 1.049727111606300e+04, 1.010612253794663e+05, 3.950480382151571e+05
1371, 9.318886238029342e-01, 1.152457891633706e+00, 1.385632410774874e-02, -1.824641098231890e-06, -1.559421098432656e-04, 1.928466917098792e-02, -6.148487380666255e+04, 2.581456356217301e+05, -1.033914678079981e+05, -1.509749810720018e+04, 1.626478695012331e+03, 7.719721746512692e+04, 3.734222609248927e+05
1372, 9.492768222364989e-01, 1.128618095456610e+00, 1.044964249541189e-02, -5.839972604740340e-07, -6.013570397087054e-05, 1.866681327082853e-02, -1.173596223455524e+04, 4.546422650033911e+05, -3.363081704843308e+04, 1.037738679290873e+04, -1.041423323125918e+04, 6.523105460222874e+04, 4.734640454248611e+05
1373, 9.550003877963904e-01, 1.181181488192687e+00, 9.309084973218456e-03, -2.744925936548626e-08, -4.577357360369128e-05, 2.006519697322595e-02, 2.404489590210541e+04, 4.372324142395497e+05, -4.083982066198771e+04, 2.983454421689785e+02, 3.333326604929213e+04, 1.168694677983009e+05, 4.800125128204900e+05
1374, 7.925595355289974e-01, 3.739758026325217e-01, 3.814852529494198e-02, 2.940289010204978e-05, -3.077389153057228e-04, 2.644205223251039e-03, -5.181307775579502e+05, -9.584421691727554e+05, -2.310786862723473e+05, -5.879200275958638e+05, 1.524056018456003e+05, 3.745592734299970e+05, 9.048613635854478e+05
1375, 8.138444349906488e-01, 4.066334439189947e-01, 3.477099103501483e-02, 2.865956790945590e-05, -2.847762860658312e-04, 3.060039141966129e-03, -6.260109136675515e+05, -2.135997852451574e+05, -6.254300816721890e+03, -5.967595550257807e+05, 2.313438146626487e+05, 3.895920157276546e+05, 8.802829327801423e+05
1376, 8.011771945517689e-01, 4.495116607023384e-01, 3.679509235049452e-02, 2.285430291026902e-05, -3.495151259895954e-04, 3.718166092492370e-03, -5.606078567666973e+05, -1.054228127649842e+06, -1.079178530780137e+05, -5.561158917064473e+05, -1.059775205801760e+04, 4.381019070249004e+05, 9.257289254896417e+05
1377, 8.516238064235102e-01, 3.989329985834913e-01, 2.848498109681134e-02, 1.618171342395933e-05, -1.951091997436788e-04, 2.912704333610142e-03, -4.290865673841839e+05, -1.749823534359912e+05, -1.306975942092251e+05, -4.816210471580871e+05, 2.317762870932598e+05, 2.328870025749973e+05, 6.751247654152662e+05
1378, 8.400719650109819e-01, 4.349045900399978e-01, 3.044682111758778e-02, 2.309541673831128e-05, -2.436639050616141e-04, 3.446824198456211e-03, -7.310335636456732e+05, -8.587055478270847e+05, -2.668021364783157e+05, -6.081192387306634e+05, 2.900684573516415e+05, 2.648708140808251e+05, 8.506113665800209e+05
1379, 7.798702273324084e-01, 4.852527931911295e-01, 4.010641036661508e-02, 2.874570170269264e-05, -4.147963390742256e-04, 4.304400801490318e-03, -8.258302891028393e+05, -1.148771296782610e+06, -4.429516241000158e+05, -1.018779872871076e+06, 2.615650645872194e+04, 6.320629326035067e+05, 1.366890876400523e+06
1380, 5.760719027938093e-01, 1.724270929905140e+00, 6.577172282541255e-02, -1.126688347783400e-04, -1.747046930695113e-03, 3.416688932028283e-02, 3.936778701051864e+04, -9.620135242198482e+04, -1.031613714563479e+05, 1.191694420276204e+04, -4.211169970727146e+02, 3.157574618785622e+04, 2.243423146532557e+05
1381, 9.439896870926026e-01, 7.449548245586506e-01, 1.149474368415475e-02, -4.471670302852102e-06, 1.585287164436455e-06, 9.243802013612246e-03, -9.948488154543728e+04, 9.057611273397487e+05, -5.918364138528156e+04, -1.122381639796152e+05, 9.063867276090386e+03, 1.149415902264409e+05, 1.036287435822607e+06
1382, 9.618803271305502e-01, 7.672806832322983e-01, 7.925208456156484e-03, -6.719737278240712e-06, 7.871929449176918e-05, 9.737103164628266e-03, -2.592047996132288e+04, 9.990186501273038e+05, -7.916098687871944e+04, 6.040165253230109e+04, 2.849136010142852e+04, 1.013436093617756e+05, 1.010704229419868e+06
1383, 9.223603762005826e-01, 3.232191591739944e-01, 1.568616655621637e-02, -4.423039105149601e-06, -2.039072129270125e-05, 1.814993800983183e-03, -2.123596281732651e+05, 1.606029059608626e+06, -1.938406970018355e+05, -4.346069695916410e+05, 1.597582713495255e+05, 1.051113440874170e+05, 1.995620028800395e+06
1384, 9.390784406809107e-01, 2.967814528060053e-01, 1.245822522682158e-02, -1.225274418671131e-05, 1.397752330836027e-05, 1.484670443705566e-03, -4.211238917653090e+05, 1.074975454510882e+06, 3.594759942326646e+04, -1.343261174509434e+05, 2.636920684050401e+05, -1.280659676623276e+05, 1.467367759413593e+06
1385, 9.208425749393256e-01, 2.600374298806734e-01, 1.597523385854908e-02, -3.286520043430108e-06, -1.443024218016585e-05, 1.128555771566342e-03, -5.596643661196270e+05, 5.552514059560893e+05, -5.985398207213694e+04, -4.314439058473252e+05, 3.155946643643219e+05, -3.604396650564030e+04, 1.195812538985512e+06
1386, 7.625002990446175e-01, 7.828232868168165e-01, 4.271895590352575e-02, 3.559417335806739e-06, -6.802465519759743e-04, 1.015085662447457e-02, -1.005983255247531e+05, 2.073137055208281e+04, 1.368839630018187e+05, -2.481456865939466e+05, -1.618650576252993e+05, 2.912005634667872e+05, 6.660321677633461e+05
1387, 7.818790882815303e-01, 7.489353548711903e-01, 3.979922831911088e-02, 1.069519642920777e-05, -5.917186672013131e-04, 9.405904456624023e-03, -1.855195812175314e+05, -7.533002827454681e+05, -2.472757222975072e+05, -3.144812093021380e+05, 8.662903737829103e+03, 5.466014576964570e+05, 1.160070924455128e+06
1388, 7.423560301459718e-01, 7.403051985485064e-01, 4.565188201760513e-02, 8.070645165593471e-06, -7.202416842076037e-04, 9.226242216780492e-03, -2.814786523732441e+05, -1.005721323710098e+06, -1.469733993204491e+05, -3.469177526508226e+05, -3.653672070376109e+04, 1.222662883031192e+05, 7.714087152764153e+05
1389, 7.542152750095432e-01, 6.964974926538973e-01, 4.393800587780546e-02, 1.503852269810050e-05, -6.497727005745878e-04, 8.295924125901091e-03, -5.331906222346636e+05, -1.040590720265741e+06, -3.192109053383015e+05, -4.420074855761947e+05, 2.524296716169973e+04, 2.562583060174176e+05, 9.036807749503893e+05
1390, 7.713902983399827e-01, 6.602706955604130e-01, 4.139153424223487e-02, 1.854269206277848e-05, -5.719666000569903e-04, 7.538799141695880e-03, -4.795080437474988e+05, -1.002643998656009e+06, -1.405905229585138e+05, -7.089964168304283e+05, 1.556698819528166e+05, 4.081177144551633e+05, 9.154010869232815e+05
1391, 9.106088416697161e-01, 6.904518662771184e-01, 1.790792086714345e-02, 1.971209528973950e-06, -1.260722126790875e-04, 8.073553864368255e-03, -3.296563988002785e+05, 6.260593687327637e+05, -1.901479651574894e+05, -2.560139914324326e+05, 7.739117780078344e+03, 1.082183223515676e+05, 9.961007309825993e+05
1392, 9.222356506130303e-01, 6.517680097980689e-01, 1.570994659124802e-02, -4.966703339159828e-07, -7.174970002417347e-05, 7.243670807733082e-03, -1.046041510693553e+05, 8.520334227536747e+05, -5.286924358992426e+04, 9.274417930785078e+04, 6.485856248611052e+04, 1.315207408585243e+05, 9.155378032321437e+05
1393, 9.017470196227085e-01, 6.160749293734463e-01, 1.955757442263011e-02, 4.161261743638404e-06, -1.369016496612363e-04, 6.543005893460907e-03, -1.195838382782970e+05, 4.865846414452982e+05, -1.110244314543746e+05, 7.795009001773581e+04, -6.727742928519125e+03, 2.861222348567086e+05, 7.546084403064093e+05
1394, 9.369331055795933e-01, 6.173484721447501e-01, 1.287684165891631e-02, -5.957508089515784e-06, -9.975019558974840e-06, 6.526777368473846e-03, -2.506857891079671e+05, 6.716030167994557e+05, -1.883375771916591e+05, 8.818416856813636e+03, 1.002219359404326e+05, 2.450326610745044e+05, 9.976425729820853e+05
1395, 9.276069525916819e-01, 9.719128290451057e-01, 1.468175525762885e-02, -2.713227489015580e-06, -1.219435036381444e-04, 1.463655886512150e-02, 1.458132967278777e+04, 6.190360577582396e+05, -4.184731221302632e+04, 5.525248920622760e+04, 4.542045945179757e+04, 5.494246055984250e+04, 6.024404167980903e+05
1396, 9.485425917663717e-01, 9.248241985388999e-01, 1.059529465171385e-02, -3.224147529790056e-06, -1.108787149216306e-05, 1.346896353508531e-02, -1.149963082376991e+05, 5.413731851825521e+05, -5.185049673450504e+04, -7.259028630601421e+04, 4.986932496586930e+03, 1.592177391716330e+05, 6.992682313521467e+05
1397, 9.525721446292226e-01, 9.938900220005477e-01, 9.794163375188958e-03, -2.304282077092434e-06, -7.414719647588774e-06, 1.519485563729095e-02, -1.733134773882525e+04, 5.652723853031936e+05, -1.863231514564579e+04, 3.584408430975174e+04, 6.083511211893977e+04, 1.284712654114949e+05, 6.106826928302044e+05
1398, 9.599453298699283e-01, 1.351435576549524e+00, 8.315917942657000e-03, 1.459745938112156e-06, -7.290206919526032e-05, 2.467577932604498e-02, 1.024932720611655e+04, 2.789508238723540e+05, -4.428705690431900e+04, 2.343964239507847e+04, -1.139370193273639e+04, 5.193551550544410e+04, 2.884364646920889e+05
1399, 9.368599590554170e-01, 1.330049318324881e+00, 1.289109203795103e-02, -3.278249771684894e-06, -1.885068656495709e-04, 2.406265859948565e-02, -2.864974405908610e+04, 2.263083398980322e+05, -4.434722161897177e+04, 1.163769042702024e+04, 2.113508764619713e+03, 6.034606745678897e+04, 2.705429122612356e+05
1400, 9.492445931805991e-01, 1.299762417041489e+00, 1.045603910940945e-02, -5.562438293027494e-07, -1.129517134295585e-04, 2.325467923685432e-02, -3.755361516251511e+04, 2.515390729233235e+05, -4.432330979762147e+04, -5.282415419844273e+04, 3.244077367872335e+04, 1.313805638072738e+05, 3.860774653477997e+05
1401, 9.801208119475679e-01, 1.298177596392428e+00, 4.188115242652479e-03, 5.561374046983772e-06, 5.442739994436507e-05, 2.324916427171278e-02, -4.181324915913175e+04, 3.612259849419045e+05, -5.873247348877103e+04, 4.518431395486511e+04, 2.427916896083876e+04, 3.275369917779600e+04, 3.876610992845491e+05
1402, 9.535449047632774e-01, 1.973771907781932e+00, 9.600064854259509e-03, -7.338257949136839e-06, -3.296401745421368e-04, 4.177174773911702e-02, -6.317431177622491e+03, 3.847102678691881e+03, -5.300917137174454e+03, -4.320062356012790e+03, 1.605826669124050e+04, 5.924237490981366e+03, 3.240675287853028e+04
1403, 8.980744263949076e-01, 5.501026252749373e-01, 2.023503104826920e-02, 8.653952180109892e-06, -1.262358593379573e-04, 5.284418129345270e-03, -2.829650017131933e+05, 4.429759964424969e+05, -1.608761537437881e+04, -1.068504445611861e+05, 2.949466604312703e+04, 2.828787117543707e+05, 8.207345669625336e+05
1404, 9.317983969534115e-01, 5.462860545592889e-01, 1.387377691682595e-02, -4.106781793362935e-06, -1.433196222791477e-05, 5.169696189264439e-03, -2.448835180978934e+05, 7.576737795962873e+05, -1.494525187905460e+05, 9.701486395540061e+04, 2.480785091652887e+05, 1.707478960624819e+05, 1.057518065609274e+06
1405, 9.205932586392478e-01, 5.833511738012506e-01, 1.602265821374225e-02, 4.251777214747676e-07, -6.026800618344139e-05, 5.871535563393815e-03, -2.348828244389172e+05, 7.225907893051927e+05, -1.364657376086874e+05, -8.876323046136006e+04, -9.934936109806804e+02, 2.811817031262962e+05, 1.044634914841920e+06
1406, 9.532833696295556e-01, 5.689934668298707e-01, 9.652280261060017e-03, -1.303913220585678e-05, 5.865000488426350e-05, 5.564017716064740e-03, -2.110206287413365e+05, 1.206776976094781e+06, -7.139977191880785e+04, 5.522022725911553e+04, 1.559038796624377e+05, 4.782188659450346e+04, 1.341130580376077e+06
1407, 9.166086838698763e-01, 1.988186394258979e-01, 1.677846920041954e-02, -2.175526933351213e-06, -1.518551023770021e-05, 6.158370854130318e-04, -6.147894067280689e+05, 3.834478800140993e+05, 5.932602836889838e+04, -2.072221996769470e+05, 2.645816581919268e+05, -3.885479578246115e+03, 9.881064271168021e+05
1408, 9.496043395555225e-01, 1.843941304770029e-01, 1.038462263779339e-02, -1.913829658807716e-05, 3.419323186454326e-05, 4.664392861996602e-04, -2.149367448641498e+05, 1.522334742962600e+06, -1.814676046920778e+05, -2.568128958408967e+05, 2.105822240071543e+05, 1.224610802853140e+05, 1.835601351046464e+06
1409, 9.280735212092168e-01, 2.301922682660686e-01, 1.459206236884006e-02, -6.507391532462048e-06, -1.626639420323345e-06, 8.514529632595025e-04, -5.296557085196394e+05, 8.332489552968615e+05, -2.768806642931022e+04, -3.957835085005200e+05, 4.772144018905102e+05, 5.547252877492507e+04, 1.545221049027706e+06
1410, 8.903242681221546e-01, 9.071744552256080e-01, 2.165219395835418e-02, 1.326415389121816e-07, -2.708164306099298e-04, 1.303610065224087e-02, -4.240648011438688e+04, 2.215916081350571e+05, -1.363267454983831e+05, -4.728339392308166e+04, 5.214043622207826e+04, 1.910522162470615e+04, 3.687982092859555e+05
1411, 9.246393488847917e-01, 1.860738760682729e+00, 1.525084613178867e-02, -1.697876256656259e-05, -4.411979083013828e-04, 3.861028193415140e-02, 5.196362779943818e+03, 3.933082587895443e+04, -1.830395057797874e+04, -6.380734903072398e+02, 1.322037732795082e+04, 2.728849256753859e+04, 7.184554264120379e+04
1412, 9.430692931932985e-01, 1.890562442743040e+00, 1.167582083489609e-02, -1.025107087727212e-05, -3.549253894354135e-04, 3.946789390985644e-02, -9.950939241563584e+02, 1.942813444294871e+04, -1.339455626201125e+04, 1.098252401223261e+03, 3.926366817165285e+03, 2.657119474258649e+04, 5.550958581525329e+04
1413, 9.506054392383780e-01, 1.846267450072983e+00, 1.018570200896787e-02, -6.351716977104349e-06, -2.984178092826917e-04, 3.826852390730856e-02, -2.768725856825900e+04, -7.512327648771523e+03, -7.249004284810006e+03, -1.435591248854492e+04, 5.784920198103516e+03, 2.131458210552697e+04, 4.400872601132415e+04
1414, 9.230725536515954e-01, 4.899429319370165e-01, 1.555029415431788e-02, -4.085230209525947e-06, -3.414738353618718e-05, 4.214524809542208e-03, -6.677589346920761e+04, 1.136690979393047e+06, -3.889146097031931e+04, -2.680803262712117e+04, 8.336468607382235e+04, 3.198630677362789e+05, 1.316872713530543e+06
1415, 9.483495723509970e-01, 5.096922697643240e-01, 1.063355879217626e-02, -1.283624617190449e-05, 4.386775784687852e-05, 4.507092554362657e-03, -9.657091214346119e+04, 1.244416242961609e+06, -1.194193971085137e+05, -7.555785838183810e+04, 4.194317258854763e+04, 7.051851026136255e+04, 1.354063924143693e+06
1416, 9.717601561946299e-01, 4.930057892885000e-01, 5.913499928762314e-03, -2.191379708435526e-05, 1.209933192759249e-04, 4.199977874591032e-03, -6.520509688920561e+04, 1.660663818672817e+06, -1.405761812176807e+05, 8.339641385600921e+04, 1.320390303686194e+05, 4.310269970908546e+04, 1.691567506032260e+06
1417, 7.688531407076499e-01, 8.509140298556875e-01, 4.177247928635129e-02, 1.489524220996824e-06, -7.005056994059677e-04, 1.170065047529960e-02, -6.327142018882366e+04, -4.058631137487588e+05, -2.772618611422838e+05, -2.310127846546590e+05, -9.900579806362228e+03, 1.502945895101293e+05, 6.218692065044951e+05
1418, 7.709009109356236e-01, 3.394573250072024e-01, 4.146514381452500e-02, 3.067688904556665e-05, -3.292252636344743e-04, 2.225168339379399e-03, -2.255945768472923e+05, -2.466090669755234e+05, 4.783161071799650e+04, -1.522036423918438e+05, 1.926235017008708e+05, 3.736790906191827e+05, 7.378708075234425e+05
1419, 9.422433043735482e-01, 1.330997252452628e-01, 1.183812969045441e-02, -1.530362448295269e-05, 2.289334548777333e-05, 1.883544378907809e-04, -1.089483464976403e+06, 5.589619227758511e+05, 6.050316010373613e+04, -2.195030357816109e+05, 2.722364152450550e+05, -2.958910559955415e+04, 1.508664759864612e+06
1420, 8.703135018010806e-01, 1.522587411912398e+00, 2.523544315248384e-02, -2.551968580430386e-05, -5.878577915790911e-04, 2.922020564042957e-02, 5.589010979706272e+04, 1.144649161995466e+05, -4.813782106066344e+04, 1.926701489827286e+04, 7.286387795825972e+02, 8.752396794657562e+04, 1.919690777358919e+05
1421, 8.575791796371786e-01, 3.689045254715077e-02, 2.745965665171371e-02, 6.558501272447420e-06, -1.309533740353336e-05, 8.959561576274422e-06, -8.378356541543790e+05, -6.837765827481194e+05, 5.482224108300024e+04, -1.019646560957488e+06, 3.381624118195266e+05, -4.358744348360618e+05, 1.003412415846345e+06
1422, 9.077699017440418e-01, 1.621924294546234e+00, 1.843880741261105e-02, -1.735307429223676e-05, -4.405362600864854e-04, 3.201257099288146e-02, -5.181477510186587e+02, 6.678604156565381e+04, -4.216650223685634e+04, 1.661195898203759e+03, -5.794034511179439e+03, 6.352023025585993e+04, 1.480781471941677e+05
1423, 9.420204573739472e-01, 1.607910901677661e+00, 1.188188729611258e-02, -5.585425057422211e-06, -2.580143523532863e-04, 3.169096268465643e-02, 8.224318770729189e+03, 1.287775102216750e+05, -4.726687612955430e+04, 8.616303067386736e+03, -5.950075106605786e+03, 1.460370234848652e+04, 1.481028627273920e+05
1424, 9.499193283589590e-01, 1.571695538673426e+00, 1.032206232870103e-02, -2.401143976402814e-06, -2.028280171714192e-04, 3.070863694525167e-02, -1.225867176151854e+04, 1.286373868493991e+05, -3.054254121376929e+04, 1.585855228082610e+04, -5.127517879974780e+03, 2.043605171155029e+04, 1.442601226679649e+05
1425, 9.735451541072693e-01, 1.561223740577367e+00, 5.546836853331792e-03, 5.494102296145498e-06, -6.907463336977560e-05, 3.046241670663473e-02, -1.744875783418194e+04, 1.325368264070372e+05, -1.181675886906389e+04, 5.075411452948154e+03, -2.178671697579509e+03, 1.142110193891250e+04, 1.430006465100078e+05
1426, 8.746359832151767e-01, 1.120837122413335e+00, 2.447068178180617e-02, -7.339340110233683e-06, -4.157575581081041e-04, 1.841720941142633e-02, -8.255086839875171e+04, 1.405735784984689e+05, -1.149951932058091e+05, -7.827163725436566e+04, -3.220293219288184e+04, 1.098509407726152e+05, 3.575366932397417e+05
1427, 3.782274297153643e-01, 1.576659948319986e+00, 7.867290372291626e-02, -1.360234829320163e-04, -2.020571256557650e-03, 2.977977456195581e-02, 6.257961941900244e+04, -3.107900871428027e+05, -6.440175155012590e+04, 2.344070633815540e+04, -3.404175744062448e+04, 2.378972586429623e+04, 3.793950995074412e+05
1428, 7.619311547343122e-01, 1.928634596445336e+00, 4.280325483688961e-02, -7.491272635890694e-05, -1.210347727735513e-03, 4.012095560002374e-02, 2.066681827190274e+04, 2.996194258009320e+04, -2.939008221230453e+04, 2.134321796642360e+04, 7.354729159408000e+03, 7.274972671304500e+03, 5.470788092840323e+04
1429, 8.041963327392868e-01, 1.924363999654257e+00, 3.631647752929403e-02, -6.138072346995732e-05, -1.034127364955761e-03, 4.009438368425765e-02, -1.031455977640238e+04, 1.614745609677617e+04, -2.784289164355652e+04, -5.405368704785842e+03, 7.318863500572162e+03, 4.592518201991851e+03, 5.607211564886597e+04
1430, 8.168362766190598e-01, 1.961145193449509e+00, 3.428688660563513e-02, -5.850257567487083e-05, -9.928166187054828e-04, 4.112638824290297e-02, 1.089845501308745e+04, 1.832370425995888e+04, -1.577955171594874e+04, 9.635519993508427e+02, 6.789494433318217e+03, 1.714926219077972e+03, 3.349183680019250e+04
1431, 7.437002404348390e-01, 5.566198631206090e-01, 4.545942734135513e-02, 1.958357902373531e-05, -5.757007700942646e-04, 5.571504521605999e-03, -7.674316347709043e+05, -1.841769604019492e+06, 1.162587224116585e+05, -7.628524427681835e+05, 4.044162960390621e+04, 2.739197752303146e+05, 1.195697962956235e+06
1432, 8.862666651959636e-01, 1.770521562017840e+00, 2.238762644783336e-02, -2.897398171579357e-05, -6.020515329353548e-04, 3.605424928688439e-02, 1.761264310267050e+04, 6.370813543643228e+04, -4.911894589110991e+04, 1.022314057282038e+04, -4.503393232917309e+03, 3.170218918624068e+04, 1.132870800406576e+05
1433, 7.680245853802626e-01, 1.209653321431206e+00, 4.189652016909978e-02, -2.966173345420736e-05, -8.953958820680195e-04, 2.064451875159518e-02, -1.543622265074487e+05, -3.079940024717592e+05, -1.518939402510077e+05, -1.766932508191259e+05, -1.299827684925209e+04, 1.849554277783853e+05, 4.393385322968925e+05
1434, 7.927755946758870e-01, 1.240326116806893e+00, 3.811483207383296e-02, -2.875309576281029e-05, -8.130731506975006e-04, 2.147978229886753e-02, -1.339114777795775e+05, -1.744726465683116e+05, -1.631736274506113e+05, -1.655406460525094e+05, -4.800673875776011e+04, 1.801064842006770e+05, 4.306606234660956e+05
1435, 8.819916796788427e-01, 2.639940097518483e-01, 2.315744323943856e-02, 9.554827472793570e-06, -8.669003894828248e-05, 1.228899601027379e-03, -5.294240466929566e+05, 5.825140033554166e+05, -6.306276169605837e+04, -7.338877160179123e+05, -9.177799549859803e+04, 5.058419802015466e+04, 1.245166323578332e+06
1436, 8.029089227104470e-01, 1.817861321709874e+00, 3.652083855181407e-02, -5.808486462196422e-05, -1.000461311898295e-03, 3.717951959397721e-02, 9.306956988915426e+03, 2.492035813385218e+04, -5.438210776118750e+04, 2.027678115434755e+03, 3.417961360446713e+03, 4.732171158664484e+04, 1.266323101464617e+05
1437, 7.663925696423945e-01, 1.030458028604816e+00, 4.214031517629435e-02, -1.599154916913023e-05, -8.142964146262630e-04, 1.604183196736060e-02, -2.151742199274102e+05, -3.211304087360116e+05, -7.219518529013815e+04, -2.262727670661607e+05, -3.030888566049863e+04, 2.002034301764923e+05, 3.857596301970659e+05
1438, 3.787293715083956e-01, 1.256298893981301e-01, 7.866034176162040e-02, -2.309320914943742e-06, -3.106131330027079e-04, 4.279448390715739e-04, -4.553061423309042e+06, -1.362629977725727e+07, 3.518024168176028e+03, -9.188516274197327e+05, -1.304158469790854e+05, 6.999907891014039e+05, 1.140290358188846e+07
1439, 4.203542562415082e-01, 9.999240207404331e-02, 7.715365775005247e-02, -3.962866388512731e-06, -2.511676961826663e-04, 2.631885790722321e-04, -3.623232702896477e+06, -1.099635571093725e+07, -2.829412176626338e+05, -8.882112661060753e+05, -2.857611679903415e+05, 7.751823825132101e+05, 9.181329062086526e+06
1440, 4.223291901096575e-01, 5.426246693891398e-02, 7.706286825689530e-02, 1.471291142488007e-06, -1.246895413595100e-04, 1.026445665549521e-04, -5.263233115818087e+06, -1.248760109796271e+07, 1.442028607084822e+05, -4.102925099132947e+06, -1.322791559940225e+05, 6.821310402975113e+05, 7.964363408900873e+06
1441, 4.586021714532987e-01, 7.496298279996769e-02, 7.513094504599641e-02, 1.363945539509248e-05, -1.786137506073759e-04, 1.585756280496065e-04, -3.707694290519594e+06, -1.112708726306389e+07, -2.326371314890118e+05, -1.663502655122856e+06, 3.402074077603105e+05, 3.721525424753551e+05, 8.678585625999313e+06
1442, 4.640802878804652e-01, 1.237662565774993e-01, 7.479696384066983e-02, 2.862674934905884e-06, -3.061997961495874e-04, 3.912383949196754e-04, -3.392219932910874e+06, -1.064406815771511e+07, -3.399359450225328e+05, -1.153855411661044e+06, 6.276160759438670e+04, 7.009866725226152e+05, 8.698533872380923e+06
1443, 3.786742779133129e-01, 1.874082979873271e+00, 7.866172756021529e-02, -1.496720300855001e-04, -2.144953792214664e-03, 3.782586463274959e-02, 5.543208966916750e+04, -3.334869563856735e+04, -4.572850667299732e+04, 1.231914788643681e+04, 2.181906952791124e+03, 1.319208824460325e+04, 1.127954673684228e+05
1444, 4.277546897494036e-01, 1.894692032978389e+00, 7.680564321531401e-02, -1.461497082948151e-04, -2.104780032364735e-03, 3.848917126978281e-02, 5.146664620156880e+04, -3.796428838097693e+04, -4.570687929928536e+04, 1.331284071052052e+04, -5.526632291546624e+03, 5.523016826366575e+03, 1.117674954300239e+05
1445, 4.235165593200951e-01, 1.946149848603074e+00, 7.700754542442112e-02, -1.484004683363306e-04, -2.129585647686574e-03, 3.987765208111285e-02, 5.235544547778598e+04, -3.640015740615298e+03, -3.950857557691748e+04, 2.087584198474088e+04, 2.586226941189228e+03, 7.561317519948752e+03, 8.507708919687376e+04
1446, 4.207135193676242e-01, 1.848438109861239e+00, 7.713725707047792e-02, -1.448323686286182e-04, -2.095435779886273e-03, 3.721857817288200e-02, 5.665082234735040e+04, -5.852782551352977e+04, -4.412799917576466e+04, 2.060251531064519e+04, -3.026444629595305e+02, 2.334972683771905e+04, 1.337585550388523e+05
1447, 8.650091261341657e-01, 6.189704029895443e-01, 2.616724912453965e-02, 1.382818710148276e-05, -2.662696449828028e-04, 6.638521989759311e-03, -1.672535363384447e+05, 1.332858529605778e+05, -2.014670687001693e+05, -1.426720480875088e+05, 1.027359951256446e+05, 9.809351709859188e+04, 5.155952640428961e+05
1448, 7.415015426921366e-01, 1.965742104521709e+00, 4.577397571261586e-02, -8.227467650473441e-05, -1.303844306572342e-03, 4.108990415345937e-02, 2.078727318245644e+04, 2.946961664481960e+04, -2.176551243411970e+04, 1.552288737422825e+04, 1.349210716957846e+04, 1.034658281537841e+03, 4.603627990081340e+04
1449, 4.197993396778509e-01, 1.480714081816754e-01, 7.717888905180360e-02, 4.159868022966980e-06, -3.605805684001248e-04, 5.360704601303362e-04, -2.984838518818952e+06, -9.886693376637537e+06, 3.081813099888260e+05, -5.765360381854703e+05, 7.673741405597827e+04, 2.569005837144226e+05, 8.399872753383936e+06
1450, 4.259922644366581e-01, 1.990426586629453e-01, 7.689043787980533e-02, 2.071880709234031e-06, -4.588230373791906e-04, 8.983305694231919e-04, -2.465822889078959e+06, -9.900579263828840e+06, -4.474588255654722e+05, -6.539443774115050e+05, -3.404820604611920e+04, 4.012466261184430e+05, 8.550819493795123e+06
1451, 3.807547865245198e-01, 2.229699209718494e-01, 7.860820194338322e-02, -2.958388117173943e-05, -5.338118327132017e-04, 1.098918667083802e-03, -2.291341503852908e+06, -9.363003825711980e+06, -2.696973318927183e+05, -1.048208439681850e+06, -4.190946394004307e+05, 2.426651443083608e+05, 7.827298070227780e+06
1452, 4.240784439492655e-01, 2.504314269645578e-01, 7.698117422123528e-02, -1.571167156527720e-05, -5.788657416549419e-04, 1.351424880726149e-03, -1.906970580907374e+06, -8.937589446769696e+06, -1.339978114295238e+05, -4.709979578030547e+05, -1.576365973555643e+05, 1.306541381284015e+05, 7.859199760057940e+06
1453, 4.236263653849145e-01, 3.004531051902198e-01, 7.700240147935260e-02, -1.247451150033010e-05, -6.806000489553692e-04, 1.867819084479227e-03, -2.129722541351578e+06, -7.548329212042650e+06, -2.191434822429690e+05, -1.311550953999527e+06, -9.418155972776940e+04, 1.284760741911651e+05, 5.889333868947268e+06
1454, 3.808864950832056e-01, 3.246378487570958e-01, 7.860473106616346e-02, -1.521918983488080e-05, -7.154502237507396e-04, 2.142475114529863e-03, -1.820348075774828e+06, -7.912934808191046e+06, -4.194842706209362e+05, -1.107029236297956e+06, 2.199794815275821e+05, 3.939327006286983e+05, 6.566050315889645e+06
1455, 3.797050785343444e-01, 3.753486101822434e-01, 7.863551419938614e-02, -4.414787618998994e-05, -8.078793672111201e-04, 2.769540413130371e-03, -1.531052480340652e+06, -7.545198978254824e+06, -6.494075458304484e+05, -8.936545116460775e+05, -2.326431879075840e+05, 4.854580977943983e+05, 6.522592028066588e+06
1456, 4.219294360472578e-01, 4.023987712843894e-01, 7.708136964703623e-02, -3.214974823902150e-05, -8.555775461236322e-04, 3.147116945602324e-03, -9.311275506378058e+05, -6.313686624843862e+06, -1.890699629485458e+05, -6.473673221418849e+05, 8.659761492957146e+04, 1.981613103748358e+05, 5.552239346027375e+06
1457, 3.839473506505735e-01, 1.327588528299872e+00, 7.852122602664617e-02, -1.208269051297117e-04, -1.881819075458653e-03, 2.316900852389817e-02, -4.176795022099319e+04, -1.145818789203942e+06, -7.896266565287537e+04, -1.023726222924461e+05, -2.154121457305136e+04, -7.542624567400289e+03, 1.084416246338108e+06
1458, 5.879675725090707e-01, 3.886928431500586e-01, 6.458498825885560e-02, 2.050221716267536e-05, -6.751096972088672e-04, 2.962457162404614e-03, -1.472769414749707e+06, -5.522882108362006e+06, -1.555526345857283e+05, -4.938844043488967e+05, 1.978602895788586e+05, 4.866776506004151e+05, 4.714533344509952e+06
1459, 7.427684145512050e-01, 1.176085210494283e+00, 4.559288982249566e-02, -3.228414530447032e-05, -9.705598680817355e-04, 1.974298133496954e-02, -2.968996682352803e+04, -3.890962806811757e+05, -1.284393028827720e+05, -7.069251078005100e+04, -7.753785911194844e+03, 1.214261220922862e+05, 4.582802313120958e+05
1460, 7.307950770247594e-01, 6.646470522530860e-01, 4.728763704692632e-02, 1.616855921066085e-05, -6.996646011747654e-04, 7.642610402658651e-03, -2.567950163603098e+05, -1.282483757768796e+06, -2.664764471954798e+05, -2.812193996902221e+05, 1.647578617771390e+05, 2.442797797220212e+05, 1.225179379470963e+06
1461, 7.374882274944055e-01, 1.287913123987340e+00, 4.634482417177509e-02, -4.357548567664182e-05, -1.049654206333087e-03, 2.267496391185425e-02, -6.642857477315530e+04, -2.253210914448382e+05, -9.958840486423568e+04, -5.838975894404056e+04, -4.098632045672830e+04, 8.654161203580242e+04, 2.895691635474387e+05
1462, 7.780879333074825e-01, 1.281121218608314e+00, 4.037803130888779e-02, -3.374952611068238e-05, -8.881418482913073e-04, 2.254582912172683e-02, -1.028433931172993e+05, -2.510186955537780e+05, -1.374251633737989e+05, -1.434818867745212e+05, -2.129836641173179e+04, 1.851376518598085e+05, 4.224115582693142e+05
1463, 8.122259673945402e-01, 1.387378432093377e+00, 3.503193651350384e-02, -3.362416976789712e-05, -7.961502128508435e-04, 2.544554196004783e-02, 1.781823879162085e+04, -3.108483171870299e+03, -8.068210994013109e+04, -6.897984464031206e+02, -4.881374523288586e+03, 9.677104055171291e+04, 2.192882976778266e+05
1464, 7.584122381965201e-01, 1.432916763350311e+00, 4.332266829061842e-02, -4.841742197418588e-05, -1.032355184128503e-03, 2.659434595464933e-02, -8.584409593747313e+04, -1.642285796266500e+05, -1.202465707878363e+05, -1.448581527887106e+05, 3.643987245802713e+04, 9.317227754291668e+04, 2.800098676710324e+05
1465, 8.852621360507565e-01, 1.971563769703823e+00, 2.256897866771768e-02, -3.461415679158197e-05, -6.801532737104269e-04, 4.156012178610141e-02, -1.551910694439774e+03, 1.538720492427900e+04, -1.197748010649849e+04, -1.946346839080527e+02, 1.000822978022673e+04, -2.689817297628368e+03, 3.191181930310763e+04
1466, 7.573617046335104e-01, 4.487064407705768e-01, 4.347712389513754e-02, 3.192858426445677e-05, -4.486200997871996e-04, 3.739196797077904e-03, -3.983046554630898e+05, 3.824358068956505e+04, -1.599085528605947e+05, -4.436593027105054e+05, 2.313279135608505e+05, 4.769536671038467e+05, 1.064018489536106e+06
1467, 7.436620482025776e-01, 1.472118615715299e+00, 4.546490193293438e-02, -5.565591291882555e-05, -1.106639845061930e-03, 2.763194172198041e-02, -1.172216945244673e+04, -1.368249447960385e+05, -8.064744665006499e+04, -5.397425377226279e+04, 8.629538670538343e+03, 7.669920914438252e+04, 2.225619797544562e+05
1468, 7.406366427522855e-01, 1.580487594839771e+00, 4.589736113376978e-02, -6.387755601149070e-05, -1.161785819943324e-03, 3.057232733338834e-02, -2.057470801973694e+04, -4.527353166101839e+04, -7.475439992884680e+04, -1.879643932983987e+04, -2.684309252010570e+03, 5.470235999343343e+04, 1.625436474143359e+05
1469, 7.806342967023790e-01, 1.572902370855970e+00, 3.998970166707039e-02, -5.266850885603247e-05, -1.002083321418716e-03, 3.043815042960608e-02, -2.860463940600192e+04, -7.497080366266785e+04, -1.345105505481004e+05, -2.857415876496980e+03, 7.427953417592148e+03, 7.249880842392542e+04, 2.724326714502588e+05
1470, 6.236564140031439e-01, 1.652627928010801e-01, 6.078197642232946e-02, 2.663704145238963e-05, -3.045836383372691e-04, 5.950674321938713e-04, -2.883548468279875e+06, -7.801952540343297e+06, 1.645875899191620e+05, -7.018901096452412e+05, 2.750952482746152e+05, -3.197857068834429e+05, 6.347889198069468e+06
1471, 7.327855511028583e-01, 1.399713645389119e+00, 4.700843312216094e-02, -5.274664388423000e-05, -1.116228167470638e-03, 2.565864724950549e-02, -4.177854004502002e+04, -7.404300013548038e+04, -8.283663368352117e+04, -4.081434603402954e+04, 3.819750081812859e+04, 7.576850739458197e+04, 2.079867910202994e+05
1472, 3.758967820569578e-01, 1.774709543159047e+00, 7.872935465097043e-02, -1.454131240421447e-04, -2.107252984390309e-03, 3.512558152502607e-02, 8.797263988625261e+04, -1.677218302422971e+05, -6.711195978748360e+04, 1.637079750119051e+04, 1.156342570215712e+03, 2.933529865240639e+04, 2.613350852897977e+05
1473, 9.451493522789397e-01, 4.447079700693828e-01, 1.126627498817186e-02, -1.223384094796443e-05, 3.373484470035881e-05, 3.458310913091456e-03, -2.081278131386032e+05, 9.117865441307914e+05, 6.030711618191787e+04, 2.759985924021107e+04, 5.139124040461599e+04, 1.252836611028287e+05, 1.054373230509967e+06
1474, 7.646873990788067e-01, 1.996595019377537e-01, 4.239428039040036e-02, 2.096733050979682e-05, -2.142219180176833e-04, 7.807059025748304e-04, -5.801398289873188e+05, -1.508999013936142e+06, -2.883161217901018e+05, -9.108105652478435e+05, 1.560205752691602e+05, -1.615315383740760e+05, 1.032307658770481e+06
1475, 9.452765607111870e-01, 1.778798177053162e+00, 1.124118897553756e-02, -7.147007202876199e-06, -3.024410425391255e-04, 3.640308198641784e-02, -1.799610080834836e+04, 4.282808435488254e+04, -2.271239845145587e+04, 4.234131578129811e+03, -5.037332381357975e+03, 1.491364676301645e+04, 7.164190689785575e+04
1476, 3.770719356717210e-01, 1.675211256701413e+00, 7.870127779769005e-02, -1.399822218034127e-04, -2.064487857666109e-03, 3.243531442176203e-02, 2.602703513715204e+04, -2.659044779664034e+05, -6.552483154512997e+04, -7.116601425286844e+02, 1.913227482815249e+04, 4.326631205327810e+04, 3.126142385436188e+05
1477, 4.166980734646584e-01, 1.649910801309704e+00, 7.731761588991426e-02, -1.354431160674463e-04, -2.019110844173676e-03, 3.183162485016744e-02, 4.970984743902252e+04, -3.044371713796067e+05, -8.321030971669825e+04, -2.515881145506135e+04, -1.184210939908118e+04, 5.176743594619108e+04, 3.657090244173194e+05
1478, 3.810858166740894e-01, 8.264852118597524e-01, 7.859945977894146e-02, -8.233202772352580e-05, -1.461103351098725e-03, 1.089298743486316e-02, -2.606629896294761e+05, -3.982909539505848e+06, -2.218949607091102e+05, -2.275587702853815e+05, -4.706149436446195e+04, 1.057023729585068e+05, 3.763949093985167e+06
1479, 3.794966902127008e-01, 4.724484500400419e-01, 7.864086208419099e-02, -4.440822066316148e-05, -9.997377848880440e-04, 4.161597856480875e-03, -8.826117085446585e+05, -6.567211544158214e+06, -9.155513059468474e+04, -9.037890051355015e+05, 1.766015267677846e+05, 2.201826543923665e+04, 5.684620044282040e+06
1480, 3.853157558688265e-01, 5.730337769843451e-01, 7.848209887364103e-02, -4.746352465042426e-05, -1.130450679440781e-03, 5.838979333952971e-03, -1.042437771331573e+06, -5.782657349171427e+06, -3.575713534459366e+05, -6.756096484243018e+05, 1.884617795287026e+05, 3.021330495394717e+05, 5.010695445955194e+06
1481, 3.848993955797438e-01, 1.221646589624319e+00, 7.849411943332453e-02, -1.113017288215737e-04, -1.807917838628867e-03, 2.042499016288285e-02, 7.979685248513699e+03, -1.243791409787524e+06, -1.146178262133840e+05, 7.152102474029351e+04, 4.361718075316463e+04, 1.177234013823883e+05, 1.318030007107249e+06
1482, 3.780921247222059e-01, 1.123839968526679e+00, 7.867626548530507e-02, -1.042944152670269e-04, -1.742078387364260e-03, 1.793101159018198e-02, -2.846683993847595e+05, -1.976084037912092e+06, -9.445813184476842e+04, -2.579433536873525e+05, 5.107552131519940e+04, 1.469731078072695e+05, 1.733839864710278e+06
1483, 4.203030700519060e-01, 1.097467613898362e+00, 7.715599026199019e-02, -9.523179945234578e-05, -1.688936432688370e-03, 1.734006894624074e-02, -6.835239387395640e+04, -2.033929725136593e+06, -2.704274061226206e+05, -2.136626478960483e+05, 7.712264006611236e+04, 1.653046500115762e+05, 1.979445454291921e+06
1484, 4.203336329397510e-01, 1.049571959699577e+00, 7.715459766231438e-02, -8.932828334633908e-05, -1.649474263290821e-03, 1.615742885467468e-02, -4.784624119747439e+04, -2.209952648298021e+06, -2.336487053751018e+05, -1.007044119438555e+05, 1.111315431494079e+05, 4.165010628137457e+04, 2.183859683789222e+06
1485, 3.787922715998700e-01, 1.025083744154117e+00, 7.865875749685709e-02, -9.503834290117488e-05, -1.660242971865682e-03, 1.549488444348886e-02, -1.895658310533881e+05, -2.292481406850776e+06, -1.049537843152697e+05, -2.935651830438375e+05, 1.871025167887416e+04, 5.247104024753917e+04, 2.063182897429617e+06
1486, 4.187972439595880e-01, 1.002357275007498e+00, 7.722414042056365e-02, -8.945405713752224e-05, -1.607692182310917e-03, 1.501103228280276e-02, -1.551933676924450e+05, -2.931985567514728e+06, -5.716746387219529e+03, -3.020803547387450e+05, 7.344459037442555e+04, 1.063302908626853e+05, 2.715598428978454e+06
1487, 4.261918067952854e-01, 9.499721612674282e-01, 7.688089656836916e-02, -7.617155885669691e-05, -1.552695628086270e-03, 1.377098136086608e-02, -1.503894721209104e+05, -2.499812972383110e+06, -1.829510926058101e+05, -1.417640094140591e+05, 1.366469718221685e+05, 1.256795353607300e+05, 2.396653202985834e+06
1488, 3.792050633353301e-01, 9.254483913366851e-01, 7.864830483525370e-02, -8.697895617532092e-05, -1.569811774245391e-03, 1.313312186705484e-02, -1.978581911045470e+05, -3.128658357235801e+06, -1.123947097638843e+05, -3.385031652160513e+05, 1.261168127561567e+05, -1.717054757147138e+04, 2.878136003715954e+06
1489, 4.197385555779605e-01, 9.013688832792048e-01, 7.718164534295548e-02, -7.669773493999138e-05, -1.514412199522465e-03, 1.262872283886602e-02, -3.503543155656337e+05, -2.786426723874496e+06, 1.342051089019804e+04, -4.821574820593389e+05, 3.574046804889729e+03, 9.187787013846643e+04, 2.378369625779675e+06
1490, 8.508014216061937e-01, 1.377436874069074e+00, 2.862579364555191e-02, -2.394671735401598e-05, -6.239681473685088e-04, 2.523206278023851e-02, 5.319053678779646e+03, 8.871091307678624e+04, -1.154933902846279e+05, 2.852252876281599e+04, -8.421404507009476e+03, 1.143248510621762e+05, 2.915425646610968e+05
1491, 9.451232227466064e-01, 6.810408560186212e-01, 1.127142714399712e-02, -6.471434763018202e-06, 1.338519052210274e-05, 7.843228758659615e-03, -1.000591271700119e+05, 9.600120407085271e+05, -7.247366471065643e+04, -2.615015590295444e+04, 1.473610838504052e+03, 5.879809248082490e+04, 1.037786155895323e+06
1492, 6.627021917260998e-01, 1.965231765479845e+00, 5.621737029437775e-02, -1.042513757234069e-04, -1.583775502777815e-03, 4.090709308409041e-02, 3.455161027411537e+04, 2.378879601937877e+04, -5.518495055371548e+04, 2.008530100715091e+04, 4.784675055942726e+03, 4.038252799971116e+03, 9.707292197594489e+04
1493, 6.429774510063506e-01, 1.929494446251489e+00, 5.857504100146751e-02, -1.080672041280095e-04, -1.633784664839710e-03, 3.989137572701881e-02, 3.139044639278702e+04, 1.750844869953654e+04, -5.190623133593798e+04, 1.222240476415416e+04, -2.428234854774631e+03, 1.163074056228312e+04, 9.380999347761716e+04
1494, 6.013504252980653e-01, 1.927850600891865e+00, 6.320103617529316e-02, -1.177760375088146e-04, -1.756540856764965e-03, 3.975809482921533e-02, 3.344495740494625e+04, 1.361020212931359e+04, -6.695285362421897e+04, 1.465109151141246e+04, -4.492475149991318e+03, 1.394824952527839e+04, 1.202751720017207e+05
1495, 6.634437569510577e-01, 4.175172224949680e-02, 5.612670766050728e-02, 1.035859155503784e-05, -6.207419333690309e-05, 5.006324783558835e-05, -2.915575041634417e+06, -6.390902755964210e+06, -2.672141364548646e+05, -1.967123595683269e+06, 3.884794727459237e+05, 3.011773758302632e+05, 4.148822120151764e+06
1496, 8.697798398221427e-01, 1.935624346583925e+00, 2.532953053747942e-02, -3.933278850446961e-05, -7.414204122328963e-04, 4.054329456960623e-02, -8.595431236225579e+03, 1.530855924532301e+04, -1.777738150370210e+04, -1.990012593145966e+03, 8.357866817138000e+03, 1.222171689255331e+04, 4.541932667940176e+04
1497, 5.826037058001255e-01, 8.957333804800319e-01, 6.512513984843643e-02, -3.392237090602251e-05, -1.249323415287676e-03, 1.266969788775643e-02, -3.449415040530585e+05, -2.959583270698275e+06, -5.633645959241944e+05, -5.208022351373662e+04, 8.240457251512549e+04, 1.579340560276105e+05, 2.955534922167687e+06
1498, 6.014242805186030e-01, 8.612079368076890e-01, 6.319325784130923e-02, -2.515977444619844e-05, -1.177956272557928e-03, 1.188014253627324e-02, -1.620544065976777e+05, -2.428765316449443e+06, -4.559296671109755e+05, -1.145146484229144e+05, -3.767996229182566e+04, 1.373866482067460e+05, 2.435671870758036e+06
1499, 5.357747786170617e-01, 1.965178647525924e+00, 6.947900801798948e-02, -1.327279047415031e-04, -1.937577056690780e-03, 4.063392871442570e-02, 3.966389116120807e+04, 3.284147611597292e+03, -5.081555445493704e+04, 1.181550776827947e+04, 1.211397871934450e+03, 1.233846779084648e+04, 9.640372758667929e+04
1500, 5.987453717773346e-01, 1.049144297409494e+00, 6.347443165092134e-02, -4.901084021965985e-05, -1.330996541972898e-03, 1.637417353721375e-02, -2.819579334707599e+05, -2.160733982363302e+06, -3.372119161087275e+05, -1.051698500237346e+05, -2.459424766847242e+04, 6.210780402561377e+04, 2.061000020224642e+06
1501, 7.138988338883381e-01, 1.870034431364293e+00, 4.961634369940328e-02, -8.690911881462787e-05, -1.372214179889947e-03, 3.841979905006276e-02, 5.582845831189397e+03, 7.677735668270068e+03, -4.895834719473608e+04, -2.141119551655195e+03, -1.205892275449000e+04, 1.137396469157035e+04, 8.997412080026053e+04
1502, 8.156444830006269e-01, 1.668199318242859e-01, 3.447999644213201e-02, 2.816443183177586e-05, -1.221215364535927e-04, 5.145389078777193e-04, -6.389629906610477e+05, -1.091971484846205e+06, 4.959385738981616e+04, -6.119033957854756e+05, 5.183163704516449e+05, 1.052171753130149e+05, 1.031868856713890e+06
1503, 5.864227075911512e-01, 7.154671858974015e-01, 6.474139126838765e-02, -7.686820295865759e-06, -1.075993926892321e-03, 8.701479740256549e-03, -7.225455745861587e+05, -4.108154035020180e+06, -4.630635771988751e+05, -1.771195589503166e+05, 9.558293496246639e+03, -2.244531838035819e+05, 3.794881885729695e+06
1504, 7.410176783467336e-01, 9.948211205599853e-01, 4.584302751291554e-02, -1.465166051947686e-05, -8.798733265666242e-04, 1.514013015156396e-02, -2.426849665462952e+05, -7.792621929353941e+05, -2.521353471190188e+05, -1.788013752573957e+05, -5.854794840126220e+04, 1.431608729824878e+05, 7.673070484406858e+05
1505, 6.075309564540475e-01, 3.487151080857534e-01, 6.254479857738277e-02, 2.532547202661883e-05, -5.931390787096077e-04, 2.429289238462223e-03, -1.734610576677704e+06, -5.849432275802790e+06, -1.875142905612281e+05, -6.159413161368582e+05, 1.086462621220974e+05, 4.693606457557569e+05, 4.856757991001146e+06
1506, 3.782321091018563e-01, 7.256553954996988e-01, 7.867278727371843e-02, -6.585168369376698e-05, -1.346843990640889e-03, 8.751837679313257e-03, -9.033703880371604e+05, -4.873379847547604e+06, -1.033531568322897e+05, -7.995252032673112e+05, 1.592709819803903e+05, 2.787410240780968e+05, 4.065127591424420e+06
1507, 4.213673474492432e-01, 7.521040765924163e-01, 7.710727771749974e-02, -6.261400660719299e-05, -1.347241839390195e-03, 9.343371456504051e-03, -8.006023500260963e+05, -3.769598027085717e+06, -2.039119807045438e+05, -4.994234823834274e+05, 5.347587097659547e+04, 2.434044634607333e+05, 3.179764030430328e+06
1508, 4.260560980370542e-01, 6.960482747666944e-01, 7.688738726522326e-02, -5.298692543852582e-05, -1.272658530456959e-03, 8.202497403574510e-03, -6.977805454283854e+05, -4.833675331018722e+06, -2.787745284273469e+05, -4.760418402012102e+05, 1.681743666760102e+05, 3.653595265274205e+05, 4.334782347751166e+06
1509, 3.789962222249502e-01, 6.767643213777126e-01, 7.865360515831871e-02, -7.594796479153294e-05, -1.284185186454116e-03, 7.763681343787368e-03, -6.365851197470207e+05, -4.832179508794023e+06, -1.274209148958667e+05, -7.303902588592340e+05, 1.897094899020212e+04, 3.293862396702018e+05, 4.194462684329337e+06
1510, 4.137561667039885e-01, 6.520882685649718e-01, 7.744557416963563e-02, -5.109402572569654e-05, -1.215180449830593e-03, 7.333878060671793e-03, -7.261821151607529e+05, -5.153542888361795e+06, -3.943241211232489e+05, -6.639323377822601e+05, 3.063209450381986e+04, 3.654157078498243e+05, 4.555312953589374e+06
1511, 6.831068148345915e-01, 1.932402158374589e+00, 5.366927667406014e-02, -9.772614696357089e-05, -1.503517967628695e-03, 4.005570668031463e-02, 4.577473589031823e+04, 2.546813885350903e+04, -7.316644734766697e+04, 1.144379129413457e+04, -3.687854103733413e+03, 1.241796467686855e+04, 1.321258202567907e+05
1512, 6.078500644586204e-01, 9.336116513301733e-01, 6.251061782539274e-02, -3.254431283820913e-05, -1.222421358158483e-03, 1.357442066194901e-02, -1.181338667211418e+05, -1.691691899773804e+06, -3.172535244622402e+05, -9.549860060237056e+04, 3.032406484414034e+04, 1.389241439003967e+05, 1.695530282784957e+06
1513, 7.899669047586746e-01, 1.063745676214783e+00, 3.855185927380685e-02, -1.538271925459814e-05, -7.396371913790042e-04, 1.689829905467749e-02, -3.014348105720584e+04, -7.998637313933467e+04, -1.250693788935513e+05, -1.146184389177552e+05, -2.739593787091688e+04, 2.036645156255441e+05, 4.231149037900540e+05
1514, 4.279006940855399e-01, 3.525026456681123e-01, 7.679856595843597e-02, -9.748355667762998e-06, -7.671267771221790e-04, 2.498220857881393e-03, -1.385672848915763e+06, -7.317927248038388e+06, -5.338118125846485e+05, -4.466361979923666e+05, 2.206504418861166e+05, -6.125610723526406e+04, 6.531172814232069e+06
1515, 5.200211590789079e-01, 1.135680714484981e+00, 7.079231656154793e-02, -7.504317896122074e-05, -1.565311022032209e-03, 1.844733410358482e-02, -2.552098968518158e+05, -2.236192881060139e+06, -2.252159223298165e+05, -2.095191934457169e+05, 8.624723718368575e+04, 1.993806243953351e+05, 2.076206642657598e+06
1516, 7.417617231531919e-01, 3.302854592270332e-02, 4.573682008107583e-02, 9.103203224225531e-06, -5.189086727052880e-05, 2.392415746144171e-05, -2.234103125649758e+06, -4.410003984948259e+06, 1.138845789412083e+05, -2.735431513636936e+06, 1.724132292802240e+05, 7.863696528841709e+04, 2.010391306604118e+06
1517, 6.052260795946250e-01, 1.530448200918461e+00, 6.279081124774441e-02, -9.283445543871449e-05, -1.585803515147609e-03, 2.896979984489267e-02, 1.916271357616321e+04, -3.260346491154666e+05, -1.635461170656018e+05, -6.347984644096364e+04, 2.891437001380658e+03, 7.811989907375173e+04, 4.427620721231992e+05
1518, 7.862002488310738e-01, 2.355340159014483e-01, 3.913485591055179e-02, 2.485103950911061e-05, -2.150983046525987e-04, 1.061780752401431e-03, -6.082347689401858e+05, -1.345292190052731e+06, 2.321441288650231e+04, -1.092505766497170e+06, 1.872998446998571e+05, -1.417498052387988e+05, 7.667959003147061e+05
1519, 6.448451527781255e-01, 1.635834790806616e+00, 5.835627377579326e-02, -9.188653188095443e-05, -1.514534010782706e-03, 3.189916680426005e-02, 3.375544557059827e+04, -1.442901073798302e+05, -1.583668009129681e+05, -3.192802615151311e+03, -1.934153613837700e+04, 6.572168930003820e+04, 3.403048015805681e+05
1520, 5.806278826331944e-01, 1.967021639294487e+00, 6.532204061656485e-02, -1.237045481367154e-04, -1.827594288225154e-03, 4.077991812264969e-02, 4.249472593656451e+04, 8.046361304410080e+03, -5.278779895132616e+04, 1.129206102546919e+04, 7.168441910462540e+03, 1.107337598177088e+04, 9.983531010910182e+04
1521, 6.350659919522961e-01, 1.451824186763001e+00, 5.949112971281789e-02, -7.987982828842888e-05, -1.464980584504422e-03, 2.690349082912765e-02, 1.790177486135844e+04, -4.914837121110969e+05, -2.326957598066579e+05, 1.690751248926063e+04, -9.370100346327532e+03, 4.755030127455505e+04, 6.545659170508634e+05
1522, 6.385285086723904e-01, 1.339704137064514e+00, 5.909233624267412e-02, -6.944924644063794e-05, -1.399101919115173e-03, 2.391346918666737e-02, -5.058667286886216e+03, -6.966509603819126e+05, -2.654547373237509e+05, -4.166793942000435e+04, -8.285118759044093e+03, 1.136494440890642e+05, 8.394489972107596e+05
1523, 6.414644296713284e-01, 1.042698046096312e+00, 5.875157383263398e-02, -3.698433419585014e-05, -1.213892321776280e-03, 1.625225815128623e-02, -1.304968332261995e+05, -1.560541103450521e+06, -4.435862374601562e+05, -1.489311751493543e+05, -3.636243357758989e+04, 1.935103664076556e+05, 1.650944042165540e+06
1524, 6.434150509295686e-01, 8.560174639483068e-01, 5.852386818356592e-02, -1.738759198104470e-05, -1.074315462062054e-03, 1.178265973398635e-02, -1.036140950839763e+05, -1.664330086700488e+06, -2.963814141260934e+05, 1.683229371477068e+04, 2.756171388718620e+04, 9.214368325757058e+04, 1.711607575182172e+06
1525, 6.294241747248339e-01, 7.108823075471382e-01, 6.013384860444727e-02, -1.029116496135268e-07, -9.769560806245220e-04, 8.609565236436481e-03, -4.398968899599792e+05, -3.105379017804735e+06, -5.580259136362839e+05, -7.024995964179732e+04, -5.728810837535521e+04, 6.309336752850117e+04, 3.030295031075360e+06
1526, 6.356950277048455e-01, 7.840750362945057e-01, 5.941893268936949e-02, -8.224746410989692e-06, -1.027962281038880e-03, 1.016987224355270e-02, -2.217236378396082e+05, -2.234239736471598e+06, -2.803278806073024e+05, 2.610950024562553e+03, -3.214837063283604e+04, 2.622693874475392e+05, 2.235448821610201e+06
1527, 5.151520101599031e-01, 1.923496756269508e+00, 7.118230668085877e-02, -1.344499502370852e-04, -1.967051849026805e-03, 3.945674917317601e-02, 4.394278456659308e+04, -1.457112066522824e+04, -4.996140765515007e+04, 1.888200203614092e+04, -1.396635814071386e+03, 1.519352037727883e+04, 1.037898039130197e+05
1528, 4.655467608042048e-01, 1.929578887609675e+00, 7.470570314394925e-02, -1.426872280057244e-04, -2.062967093288134e-03, 3.951671505235155e-02, 6.045702951422247e+04, 4.882132815481629e+03, -4.616167920357960e+04, 2.483039256620770e+04, 1.498114800300452e+03, 1.727990897764672e+03, 9.373511891157653e+04
1529, 6.568352609323527e-01, 4.897240407618719e-01, 5.692959560152120e-02, 2.566456092901754e-05, -6.949876151565587e-04, 4.475089907096406e-03, -1.541983866054112e+06, -4.728426979427534e+06, -6.372434244043638e+05, -3.021708925321869e+05, 5.835304023119662e+04, 1.098692417573966e+05, 4.111668270183485e+06
1530, 7.128180766887995e-01, 1.766563249527814e+00, 4.976279330295914e-02, -8.216056273683409e-05, -1.337715095752857e-03, 3.559403844708037e-02, 8.725791510482064e+03, -2.198000772140559e+04, -8.688391263876155e+04, 2.361606508798956e+04, 6.636287098576886e+02, 2.302019629835417e+04, 1.608083842744482e+05
1531, 6.664662914624864e-01, 2.384903210534613e-01, 5.575569075975695e-02, 2.089304193363985e-05, -3.766384851199775e-04, 1.170648108260841e-03, -2.497462477694070e+06, -6.536906869170824e+06, -9.239671631274236e+04, -4.920404224448620e+05, -5.049084262584112e+04, -8.173323106442284e+04, 5.337875971155304e+06
1532, 6.254907137385274e-01, 2.402392671496196e-01, 6.057685304030476e-02, 2.487703963931914e-05, -4.158457937205179e-04, 1.208630312165331e-03, -2.462013365343770e+06, -6.744454138861995e+06, -7.015241873719267e+04, -3.495809580183218e+05, -1.018209460395779e+04, 2.573500706770757e+05, 5.662313892216681e+06
1533, 6.534788450830307e-01, 4.193127798970144e-01, 5.733292052952980e-02, 2.621099286799098e-05, -6.223772849875634e-04, 3.377637246938708e-03, -1.540823158758083e+06, -4.633974973536365e+06, -1.056834317743707e+04, -5.978510655244790e+05, -4.799423704624488e+04, -9.519752258343017e+04, 3.661689975171835e+06
1534, 6.495404118336776e-01, 3.459521212590488e-01, 5.780223108976319e-02, 2.896684367716682e-05, -5.389679894561260e-04, 2.382045463671663e-03, -1.779016328465119e+06, -6.313298394707333e+06, -2.418278628281958e+05, -3.068969461880340e+05, 3.485429359889370e+05, 9.408286300759061e+04, 5.474330761114716e+06
1535, 7.238904836880257e-01, 6.530712110636955e-02, 4.824815693619992e-02, 1.220539030142957e-05, -8.428237358424490e-05, 8.834143276011813e-05, -1.028998745332850e+06, -2.629077725205191e+06, -1.915732634569323e+04, -9.701570171708844e+05, 2.624494626564480e+05, -2.031392070763982e+05, 1.728989093757600e+06
1536, 6.336037138788521e-01, 1.892446442990952e+00, 5.965853078037445e-02, -1.085737317257501e-04, -1.649116345574270e-03, 3.886186790765817e-02, 3.056204908174755e+04, 1.262542708485644e+04, -6.629951851225671e+04, 1.328740593173712e+04, -2.676252487562042e+03, 1.890395866266887e+04, 1.207920997692692e+05
1537, 5.142850931560086e-01, 1.255762579278029e-01, 7.125094027347408e-02, 1.253345200426942e-05, -2.776856217193541e-04, 4.054438112739006e-04, -4.162119024764812e+06, -1.244702014993266e+07, 1.543972042174364e+05, -8.103551812459027e+05, -2.479352689251820e+05, 1.319528889699074e+06, 1.063589865549628e+07
1538, 8.317383410631163e-01, 1.231202388801819e+00, 3.184035996069148e-02, -1.934834116623999e-05, -6.485734185969622e-04, 2.128099041120306e-02, -7.993110181025266e+04, 2.730222455777839e+02, -1.850680334368379e+05, -1.070011018264262e+05, 3.242981995759721e+04, 1.547460093605289e+05, 4.325288487059979e+05
1539, 8.277944271825943e-01, 1.845328948515225e+00, 3.249342435473512e-02, -5.114357650962478e-05, -9.022982925476833e-04, 3.798300602671789e-02, -1.840874445792321e+04, 2.099617958181632e+04, -3.301944772498889e+04, -1.131455661544378e+04, 1.078168224861161e+04, 2.184416490561813e+04, 7.984120507893714e+04
1540, 8.378993709746407e-01, 7.552182322609240e-01, 3.081182433331184e-02, 9.499982363575521e-06, -4.136817653225544e-04, 9.524771170837720e-03, -3.198369821228840e+05, -2.053532484160550e+05, -1.891318438102806e+05, -4.549291662475831e+05, 8.950988735209749e+04, 2.568729060587707e+05, 6.132878390772660e+05
1541, 8.059720084723154e-01, 1.602346411936549e+00, 3.603389192620861e-02, -4.760711174198878e-05, -9.077208312063996e-04, 3.128793421025475e-02, 7.309662067106639e+03, 4.466499368237414e+04, -3.050628174350153e+04, -1.431124028719601e+03, -1.598747608484943e+03, 7.018291524722001e+04, 1.391934967655863e+05
1542, 7.664131979802378e-01, 1.610515762964609e+00, 4.213723806917058e-02, -5.877657955483812e-05, -1.073633433057962e-03, 3.143820193835058e-02, -2.632234341510398e+04, -2.266053542705960e+04, -8.722174109796567e+04, -1.227640949363209e+04, -4.641353321589059e+03, 7.507552367296428e+04, 1.998894424205367e+05
1543, 6.028815455006986e-01, 1.643879880234914e+00, 6.303947480300451e-02, -1.023389919380391e-04, -1.642505308494279e-03, 3.203682115070230e-02, 6.120899877747431e+04, -1.347360329893755e+05, -1.231127124094207e+05, 1.484218008688513e+04, -1.301879904291662e+04, 3.388207848002833e+04, 2.843970157556099e+05
1544, 7.829716860863790e-01, 1.169573152746258e+00, 3.963170334001431e-02, -2.165656684569722e-05, -8.190450370426381e-04, 1.961156336149628e-02, -1.455931518836501e+05, -4.115489741169678e+05, -2.239355941535173e+05, -1.951007893352013e+05, 5.845333198926206e+04, 1.633955233103336e+05, 5.484549017765804e+05
1545, 6.250689304709109e-01, 1.083662991931243e+00, 6.062410275874465e-02, -4.820405575642686e-05, -1.289047330578056e-03, 1.725948374157963e-02, 1.435804215742847e+04, -1.383535879210887e+06, -4.217971610841486e+05, -1.073798866758270e+05, -2.424505138234737e+04, 9.466322628782807e+04, 1.536598909956116e+06
1546, 9.490601499656413e-01, 1.662208197877138e+00, 1.049264059294240e-02, -3.908868669454460e-06, -2.395037343647377e-04, 3.319989350549934e-02, -2.416301695572829e+04, 8.177861289217061e+04, -5.105352408239011e+03, -3.179213898972585e+04, 1.351040080201273e+04, 2.671135602652076e+04, 1.218866290529266e+05
1547, 7.940851342702098e-01, 6.903353523866220e-01, 3.791034633507565e-02, 1.837121038375522e-05, -5.214914820888886e-04, 8.149203136954948e-03, -3.676641388205682e+05, -6.091403754732157e+05, -1.703512251369192e+05, -3.798852130422326e+05, 1.361743298742064e+05, 4.758696178686669e+05, 9.367783474283472e+05
1548, 5.958466950425054e-01, 1.346411929102743e+00, 6.377640827881322e-02, -8.089621418425758e-05, -1.521157909029155e-03, 2.402436453815515e-02, -3.982852151336112e+04, -7.013513366140778e+05, -2.053735789950615e+05, -7.235761320572002e+04, -2.061357651047466e+04, 1.205891369668977e+05, 7.671940691355439e+05
1549, 8.097530909143180e-01, 3.368260202009262e-01, 3.542934410413223e-02, 2.802005257485085e-05, -2.667157631593767e-04, 2.147591020854100e-03, -6.394607158647845e+05, -1.069973855145251e+06, -3.732690689093275e+05, -5.968158834905960e+05, 2.903737439270488e+04, -3.429426873589020e+04, 7.934522649998611e+05
1550, 5.739033814092221e-01, 5.554536507418490e-01, 6.598359383980057e-02, -4.387018880114280e-08, -9.121491042742985e-04, 5.606953456202018e-03, -7.380564333468038e+05, -4.312533079035394e+06, -3.207774714790564e+05, -7.326775926426809e+05, -2.233883354810153e+05, 2.363615835451061e+05, 3.663623992909005e+06
1551, 6.342779170503399e-01, 1.782298199457458e+00, 5.958142103818136e-02, -1.031526732808430e-04, -1.605495646343130e-03, 3.586331058950282e-02, 3.722768765449018e+04, -2.555426229234454e+04, -9.605596201713596e+04, 1.420794690541163e+04, -6.742944036302530e+03, 2.786251345520981e+04, 1.821314411622871e+05
1552, 8.010600310268999e-01, 5.198297294252859e-01, 3.681362086099770e-02, 2.472707989955962e-05, -4.003786894203297e-04, 4.870907598689439e-03, -4.793262007352260e+05, -1.048119444644306e+06, -2.891254767147484e+05, -6.743137254994130e+05, 3.656411988776101e+04, 3.662455186099097e+05, 9.528048438948406e+05
1553, 9.540535920632683e-01, 6.500291063673129e-01, 9.498443078678188e-03, -1.167683275538067e-05, 5.335820988923608e-05, 7.182365393761270e-03, -1.099375321129566e+05, 1.153123181617338e+06, -9.827799307797142e+04, -3.275687458925318e+04, 1.645387751915459e+05, -8.637939162570247e+04, 1.279208458139014e+06
1554, 6.442821691857796e-01, 1.226918347246906e+00, 5.842231548117476e-02, -5.826500348420777e-05, -1.320853953157610e-03, 2.095069088677149e-02, -5.714787540356080e+04, -8.380231061617269e+05, -2.410909378472645e+05, -7.810640343772933e+04, -2.690507223733260e+04, 9.676483925613647e+04, 8.935747660466091e+05
1555, 6.504352847581851e-01, 9.299022068292833e-01, 5.769597663373781e-02, -2.393705036526569e-05, -1.113986604152178e-03, 1.351328396683641e-02, -1.018568019153003e+05, -1.692257214911495e+06, -4.054035526152239e+05, -1.685418700936469e+04, -6.302073946308419e+04, 1.279479734415361e+05, 1.796070746379834e+06
1556, 6.422758285394287e-01, 5.995703205508996e-01, 5.865698056018712e-02, 1.467344543430553e-05, -8.398154322549686e-04, 6.407212052037869e-03, -8.259330426535747e+05, -4.000808020137082e+06, -5.192348037592508e+05, -4.595541390865958e+05, 1.589355350520052e+05, 5.389992335250920e+04, 3.502939237164447e+06
1557, 6.469912166333951e-01, 1.523845913921840e+00, 5.810375448952933e-02, -8.310368804559376e-05, -1.461586470476390e-03, 2.886625663468065e-02, 2.228134767426549e+04, -2.433004620153944e+05, -1.958699390890722e+05, -7.068612306999134e+03, 3.353144944483437e+03, 5.962998714000804e+04, 4.351968959690228e+05
1558, 7.831120077142135e-01, 1.466054170084570e+00, 3.961016539258985e-02, -4.545868205318299e-05, -9.492164301723796e-04, 2.753258168597425e-02, -7.939341706616903e+04, -7.225364938580975e+04, -1.146241703051288e+05, -7.476350918796967e+04, 1.793113611229016e+04, 1.086108646326872e+05, 2.753343309376583e+05
1559, 7.907539105049499e-01, 8.820288848361199e-01, 3.842960631937966e-02, 6.810766580156447e-07, -6.486951726071138e-04, 1.243147586262354e-02, -4.383701790807098e+05, -8.025792874530368e+05, -2.359376630278574e+05, -3.385722082641775e+05, 1.472929833216106e+05, 2.263045177619818e+05, 7.514531623194157e+05
1560, 4.793576973217557e-01, 1.326136215148126e+00, 7.380905586884490e-02, -1.031107771140918e-04, -1.761219117384277e-03, 2.329927724808097e-02, 1.629539705646715e+04, -9.501545618988255e+05, -2.567518762422350e+05, -5.714954828314939e+04, -2.855339264682748e+04, 7.958871012376652e+04, 1.042905735743087e+06
1561, 8.156697250371998e-01, 1.883082731687006e+00, 3.447591010656497e-02, -5.653688267363930e-05, -9.697938716689792e-04, 3.899050504478152e-02, -5.512253326322135e+03, 1.383469829237028e+04, -3.533259751752025e+04, 5.213141061612546e+03, -1.504587743129220e+03, 7.543328243881921e+03, 6.484218559871650e+04
1562, 5.175764136647898e-01, 2.775651062491366e-01, 7.098907538602552e-02, 2.699537252193185e-05, -5.718896722920613e-04, 1.622587774206262e-03, -2.393096754166359e+06, -8.687117972253336e+06, -2.807612384672141e+05, -3.706867786468356e+05, 4.413769559210432e+05, 5.244203348922792e+05, 7.621017519601794e+06
1563, 4.680971879637237e-01, 2.761632673674829e-01, 7.454514412671534e-02, 1.756844401329567e-06, -6.084468698194165e-04, 1.609009586210977e-03, -1.918099609790116e+06, -8.555259060829036e+06, -1.126541334153558e+05, -1.050181324036669e+06, -3.143839814206440e+04, 2.027560624624761e+05, 7.122502918555683e+06
1564, 5.018193402825883e-01, 9.825215989516476e-01, 7.221058862128395e-02, -6.246158885012121e-05, -1.481680971217754e-03, 1.464079847513794e-02, -3.121472143947976e+05, -2.375906763355381e+06, -2.466719315036501e+05, -4.778872157131573e+05, -2.696055494594670e+04, 4.038423881082671e+04, 2.033258496545555e+06
1565, 4.963870529847537e-01, 1.284175056430733e+00, 7.261283598510085e-02, -9.627238496297263e-05, -1.707324838397986e-03, 2.223049267859519e-02, -1.220835954117346e+05, -1.404646333179495e+06, -2.413366206911292e+05, -7.493311474423387e+04, 3.212404007127020e+04, 7.646157329143200e+04, 1.379503122718985e+06
1566, 4.928110404767643e-01, 6.473754489557382e-01, 7.287216731671564e-02, -2.657572875042766e-05, -1.141970035223247e-03, 7.298186745649332e-03, -5.653494314490601e+05, -5.075175987130382e+06, -3.667972034209644e+05, -1.921827632273727e+05, 2.174370267008887e+04, 2.494612109310406e+05, 4.769951518941119e+06
1567, 5.028381784437199e-01, 1.585354657337181e+00, 7.213405385261429e-02, -1.177783532368692e-04, -1.855438915934399e-03, 3.025924479331366e-02, -1.861591684181183e+04, -4.010962919950156e+05, -1.227436028642658e+05, -6.842208710791654e+04, 1.388251033848817e+04, 4.734694177141457e+04, 4.268762776064058e+05
1568, 4.654388281965011e-01, 1.670043974937728e+00, 7.471244645469464e-02, -1.301180352689946e-04, -1.959063257947480e-03, 3.247411637278175e-02, 4.270145208128096e+04, -1.826547104692937e+05, -7.411701814190210e+04, -4.952230856788859e+03, 1.562688454336197e+03, 4.211579239069075e+04, 2.532306565272109e+05
1569, 4.397656237949542e-01, 5.705629707949785e-01, 7.619594960571928e-02, -3.773659487042377e-05, -1.100700830435349e-03, 5.831268640228537e-03, -1.028905534723474e+06, -4.806971232442599e+06, -2.484744781609256e+05, -5.731158405244830e+05, -1.142415456565595e+05, 4.019665365213672e+04, 4.053732536156711e+06
1570, 4.147950851158458e-01, 1.795492674795981e+00, 7.740079622553969e-02, -1.427640819371065e-04, -2.081463512457582e-03, 3.576963552466023e-02, 7.151256632881032e+04, -8.337752540929322e+04, -5.049618667733137e+04, 3.748943229758817e+04, -1.003915218796168e+03, 2.492884987182687e+04, 1.714515343430393e+05
1571, 5.750275205945946e-01, 1.198986160422680e+00, 6.587393834418626e-02, -6.977307353339636e-05, -1.488343168236102e-03, 2.013656020291586e-02, -5.191070122071369e+04, -1.390853965818552e+06, -3.222644343189854e+05, -6.263744944927566e+04, -8.645414902587927e+02, 1.080850342867900e+05, 1.457783963670512e+06
1572, 5.517399926088383e-01, 1.797497273690057e+00, 6.806898472442613e-02, -1.214983173941989e-04, -1.836347602138973e-03, 3.610764214919082e-02, 3.242429521756846e+04, -6.481291745596843e+04, -8.224102287758075e+04, 6.470051314586432e+03, 5.787551324052817e+03, 2.924577255912144e+04, 1.748203946669167e+05
1573, 4.731680708078039e-01, 2.010523856776232e-01, 7.421908941701312e-02, 6.910133672117375e-06, -4.442150134153396e-04, 9.100682666201149e-04, -2.736488976209624e+06, -8.691232353411751e+06, -5.016927551285278e+05, -1.179463233587777e+06, 8.271958713634427e+03, 7.271962450180926e+05, 7.035390668213375e+06
1574, 6.858547610924207e-01, 1.336704969185857e-01, 5.331762561609944e-02, 1.663713873965161e-05, -2.027242895641379e-04, 3.710723971510066e-04, -1.277582333739443e+06, -3.109861033517134e+06, -1.751195606861949e+05, -8.622677120039983e+05, 3.943739606924909e+05, 3.529038908286499e+05, 2.285370892548076e+06
1575, 9.746995573949913e-01, 1.925373134328163e+00, 5.309227258527862e-03, 2.463203190972152e-06, -1.951506904291356e-04, 4.049181793616174e-02, 1.920817977514484e+03, 1.633630999918111e+04, -8.484657244911532e+03, 1.112962248796051e+04, -7.813318917993356e+03, 5.549457234958911e+03, 2.552176625609098e+04
1576, 4.219915466449393e-01, 1.258069633552839e+00, 7.707849917212925e-02, -1.061743166759534e-04, -1.798984533406312e-03, 2.142626286846275e-02, -2.206535630005788e+05, -1.551082723795361e+06, -1.931875309727538e+05, -1.727839470521845e+05, 4.692280101561602e+04, 1.031410192605419e+05, 1.409433967483315e+06
1577, 4.644719740940133e-01, 1.066027107186664e+00, 7.477266491387283e-02, -7.756518486074643e-05, -1.610183700530218e-03, 1.662701832436156e-02, -2.553947630446732e+05, -2.299334781350724e+06, -1.888467567888493e+05, -1.280998284359365e+05, 1.729690549501476e+05, 1.173355894913923e+05, 2.166131368598948e+06
1578, 9.738645666536546e-01, 7.744740879840718e-02, 5.481126650555980e-03, -2.495932915852483e-05, 3.390508132026290e-05, 7.650711719708880e-07, -5.307530502997142e+04, 2.111127600330060e+06, -2.282370758924493e+05, 4.073251637862088e+05, 2.512667697513876e+05, -3.121939898552595e+04, 2.061055114452938e+06
1579, 9.697503535459768e-01, 1.318252703225067e-01, 6.325061376397448e-03, -2.858176481249780e-05, 4.504586073442174e-05, 1.569644394290859e-04, -5.662852449082090e+04, 1.998464583650352e+06, -4.986379743148282e+04, 2.788032480484616e+05, 4.031598725278598e+05, -4.356479276316942e+05, 2.170488154089630e+06
1580, 9.724238897180022e-01, 1.973497296784297e-01, 5.777275308250715e-03, -2.809031442797469e-05, 6.475867176051336e-05, 5.307381226251628e-04, -7.865911163383600e+04, 1.633061077346705e+06, -1.239022303929518e+05, 4.784264533246314e+04, 1.791149632761587e+05, 5.323039968771336e+03, 1.694650374295314e+06
1581, 7.501574027591066e-01, 1.068119376000399e+00, 4.452848183481086e-02, -1.898585732217073e-05, -8.900009852580021e-04, 1.697856579293210e-02, 9.800900560904531e+04, -2.895140109167102e+04, 5.054157857497235e+04, -8.327225446692646e+04, 3.133053109623206e+04, 2.170663292711971e+05, 4.218149257180940e+05
1582, 9.721185589275547e-01, 1.866318183443457e+00, 5.839959215811130e-03, 2.158574823496462e-06, -1.876456163753051e-04, 3.886514349039794e-02, -1.420336456100051e+04, 3.556202288531603e+04, -1.079227087424587e+04, -2.036703507242499e+03, -3.822958314070689e+03, 1.724837836196156e+04, 5.748849327165881e+04
1583, 9.746995573959858e-01, 1.746268656715750e+00, 5.309227258323047e-03, 4.779639711141592e-06, -1.289635222252727e-04, 3.556727462672593e-02, -1.508027615981194e+04, 5.682814707295595e+04, -2.330363906097743e+04, -2.910092972702390e+04, 9.463452263195839e+03, 1.262192360749919e+04, 9.354887269397036e+04
1584, 9.687119910530079e-01, 1.805288539701881e+00, 6.537216757000572e-03, 1.516778411758679e-06, -1.840516733259828e-04, 3.718031487926989e-02, -8.006414727269977e+03, 3.229610188182553e+04, -1.707258842365673e+04, 7.005373419942948e+03, 1.172738137079163e+03, 9.882908227496817e+03, 4.915480834091956e+04
1585, 7.504842384259439e-01, 8.858562035519296e-01, 4.448108276631944e-02, -1.880143903509879e-06, -7.797340417711532e-04, 1.251501682684435e-02, -1.727837722483117e+05, -7.088318245503920e+05, -1.696653038021275e+05, -2.692709082823837e+05, 5.080999144467766e+04, 3.264445012771690e+05, 8.116264469142003e+05
1586, 9.669742424983294e-01, 1.686086221474300e+00, 6.891605587856130e-03, 2.298730920835546e-06, -1.500396489621178e-04, 3.389277738143665e-02, -2.039179005208594e+04, 6.102164513523674e+04, -1.257918577657032e+04, -1.943407375858245e+03, -6.003128493225031e+03, 2.763951252402724e+04, 9.133012866665321e+04
1587, 9.708896822961433e-01, 2.838883864021902e-01, 6.091929678749655e-03, -2.889047600175554e-05, 8.543014459633583e-05, 1.298930667918585e-03, -4.518847965977015e+04, 2.158341500424389e+06, 4.626089118988772e+04, -1.546143530380795e+05, 2.031819019923114e+05, 3.004375456682323e+04, 2.289458087648342e+06
1588, 9.583966917094465e-01, 3.437745970735585e-01, 8.627718674030452e-03, -1.917222273657704e-05, 6.557508538810458e-05, 2.021349476556078e-03, -2.305692575191855e+05, 1.243361648485501e+06, -1.137667283406337e+05, -1.806838810345944e+04, 1.418709186388676e+05, 4.372032316494182e+04, 1.417519810889701e+06
1589, 9.721691037241531e-01, 1.626427378304811e+00, 5.829584523258361e-03, 4.775792709049709e-06, -9.972025285469310e-05, 3.225775022643823e-02, 1.851923249666826e+04, 1.479813036734803e+05, -2.039430867597974e+04, 3.108176872836470e+04, -1.810024395953689e+04, 1.220996276083977e+04, 1.340513438027924e+05
1590, 9.740225615322232e-01, 4.041822526574039e-01, 5.448613622727654e-03, -2.720522244735457e-05, 1.160701713722179e-04, 2.816542169934877e-03, 4.890596564431686e+04, 1.902540444175582e+06, -6.698121734472306e+04, 1.569152417215889e+05, 9.407405218250417e+04, 9.208830714853882e+04, 1.820128310541342e+06
1591, 9.458095371275245e-01, 4.174179865030656e-01, 1.113602365033736e-02, -1.390107301117716e-05, 3.690666133007725e-05, 3.045483972020258e-03, -1.165634551061611e+05, 1.443600830418509e+06, -5.622357192268800e+04, -1.309625979690341e+05, 1.247821230886745e+05, 8.983924181867378e+04, 1.592856941014215e+06
1592, 9.125746738757098e-01, 4.231073232735533e-01, 1.753904227858498e-02, -3.210555873794929e-07, -5.719667801780404e-05, 3.178209789433672e-03, -5.378857663417232e+05, -2.502875972483611e+04, -7.295190481557301e+04, -4.875770495853823e+04, 3.971130668998961e+04, -1.219447363661322e+05, 5.627826199547764e+05
1593, 9.740052506229950e-01, 4.639143567286286e-01, 5.452176269294682e-03, -2.346684613001304e-05, 1.247225118782419e-04, 3.719202570956370e-03, 2.022584854008481e+04, 1.610253607589120e+06, 1.584220826548986e+04, 2.419061150515629e+05, 7.331562478270760e+04, 7.043630906016161e+04, 1.502203357679157e+06
1594, 9.746995573960323e-01, 1.477611940297132e+00, 5.309227258313431e-03, 5.998789339309307e-06, -3.375186780088524e-05, 2.815976335222035e-02, -1.972582022634531e+04, 2.030889067101666e+05, -2.447102169432372e+04, 6.137170109877615e+04, 6.761593446506504e+02, 2.255379578767098e+04, 2.036599465568824e+05
1595, 9.664239486438087e-01, 1.441636336418692e+00, 7.003642374527639e-03, 3.299431459805394e-06, -6.743764644515093e-05, 2.715637181172798e-02, -8.799990935495054e+03, 2.404604352986752e+05, 8.748593573580056e+02, 1.504355685233881e+04, 1.063245799818742e+04, 6.571418144455519e+04, 2.646743782985795e+05
1596, 9.746995573960360e-01, 1.388059701490926e+00, 5.309227258312742e-03, 5.352262467644975e-06, -3.867852211930645e-06, 2.569785806172623e-02, -5.142711031785057e+03, 2.658442634159107e+05, -3.122489676253542e+04, -9.146308670690149e+03, -7.892146062914631e+03, 4.190326787892125e+04, 2.879485786458569e+05
1597, 9.734952940396180e-01, 8.518891357014202e-01, 5.557091665077321e-03, -7.317419939964487e-06, 1.223041675118414e-04, 1.170172037354544e-02, 4.446907214978328e+04, 9.213735714077362e+05, -5.928591691234360e+04, 1.236527606101914e+05, 3.594211566226171e+04, -4.567561104068971e+04, 8.523343099144463e+05
1598, 9.739792842326240e-01, 5.535125128299042e-01, 5.457520099908393e-03, -2.237543413050047e-05, 1.349326691770930e-04, 5.253531271260825e-03, -1.640149417133977e+05, 1.339752529416651e+06, -5.328056411408402e+03, 3.517280577272408e+05, -4.390688035298264e+03, -1.455146210092707e+05, 1.347373896303868e+06
1599, 9.739812413578077e-01, 7.949828819855316e-01, 5.457117333567836e-03, -9.036699037900942e-06, 1.310616447397772e-04, 1.036295302170837e-02, 3.611112127242754e+04, 1.184656740452314e+06, -4.377273441672159e+04, 9.155265330680014e+04, -1.991367694518245e+03, -2.602452986663508e+04, 1.125320201546254e+06
1600, 9.746995573961599e-01, 9.999999999974079e-01, 5.309227258287159e-03, -2.410524512913570e-06, 1.032681023007097e-04, 1.535699855014061e-02, 1.230169523521161e+04, 7.624208994329934e+05, 1.653893058808076e+04, 5.512156227725228e+03, 6.241740474280666e+04, 1.562790923548965e+05, 8.084526900101812e+05
1601, 9.648761631122820e-01, 1.054122247614132e+00, 7.318239825799280e-03, -1.103558308405278e-06, 4.018744773549420e-05, 1.673500720058274e-02, -3.953534734265746e+04, 4.487384462799989e+05, -6.468239161308563e+04, 9.596860887627074e+04, 3.617508916684496e+04, 9.377462510276976e+04, 4.831852403150323e+05
1602, 9.739792842316582e-01, 7.027662441748734e-01, 5.457520100107147e-03, -1.356610283100371e-05, 1.353651627915148e-04, 8.292791860709553e-03, 4.412632460910214e+04, 1.365134867843532e+06, -8.879622027661189e+04, 2.312288232901081e+05, 2.562849347839601e+03, -1.848969450284449e+03, 1.247634234843517e+06
1603, 9.720340680736277e-01, 1.207967297453556e+00, 5.857299728372803e-03, 2.419591920890807e-06, 3.676100715280239e-05, 2.079745775753039e-02, 2.486903179491654e+04, 3.896810919047732e+05, -3.718459142730792e+04, 2.227249586679830e+04, -1.726681876269811e+04, 3.899967487939022e+04, 3.790082629086116e+05
1604, 9.617905604214179e-01, 1.153725978284894e+00, 7.943359184419005e-03, 7.885738759760841e-07, -2.265721044850122e-06, 1.933985334343813e-02, -5.080759014922794e+04, 4.133557033018905e+05, -9.503845054191543e+04, 8.067752664026394e+04, 2.914459818355408e+04, 4.006586627621155e+04, 4.540553920516488e+05
1605, 9.543216690325782e-01, 1.106139152816389e+00, 9.444855931048119e-03, -1.076151777412715e-07, -2.742375752523563e-05, 1.808077568656798e-02, -6.633712545339463e+04, 3.325456097156962e+05, -6.865551857414652e+04, 6.880462878967159e+03, 1.172346268913634e+04, 7.064589800377907e+03, 3.872541858678273e+05
1606, 9.746995573962094e-01, 9.402985074602261e-01, 5.309227258276983e-03, -4.735042743259088e-06, 1.146666439879596e-04, 1.385548032750893e-02, 3.626769831722405e+03, 7.288909909835943e+05, -1.267162521762386e+03, -5.220591885295717e+04, 5.077733276595418e+04, 8.657994491772873e+04, 7.744979156456231e+05
1607, 4.970046589429923e-01, 3.166233251195255e-01, 7.256760383328022e-02, 7.451870869545213e-06, -6.652399319971858e-04, 2.049986764968162e-03, -1.472624777291353e+06, -6.325922982420713e+06, -2.915845417010694e+05, -5.361151803489899e+05, 1.018608149438651e+05, 3.991770336681270e+05, 5.453524774250889e+06
1608, 6.015986905992136e-01, 1.232212392539201e+00, 6.317488325100409e-02, -6.768377883129267e-05, -1.444550974101830e-03, 2.103129900862728e-02, -2.517065382045831e+04, -9.570649503238581e+05, -2.706330231585527e+05, 3.120747288756579e+04, -8.270552699460288e+03, 7.997519413742142e+04, 1.078547137858637e+06
1609, 4.565222157489292e-01, 1.593686886347924e+00, 7.525493421311354e-02, -1.266831180560882e-04, -1.939832015865535e-03, 3.039359469841071e-02, 4.305708353145028e+04, -3.330886829942224e+05, -7.156629453490027e+04, -3.183939131642538e+04, 7.576418649692471e+03, 3.968961682353758e+04, 3.730768481532077e+05
1610, 6.000542659883452e-01, 6.025083075573527e-01, 6.333730103993959e-02, 6.050723723782792e-06, -9.205592291488054e-04, 6.461304445347218e-03, -5.605212807905870e+05, -3.707244620991675e+06, -3.368124110135377e+05, -5.539211681443787e+05, -3.672604103431814e+04, 5.417038857846755e+04, 3.205597849024369e+06
1611, 9.591632848085824e-01, 1.535747329305646e+00, 8.473479598186645e-03, 8.189481897347139e-07, -1.398196662805995e-04, 2.973466978862224e-02, -2.118494447020103e+03, 1.498779814958037e+05, -2.348192795300989e+04, 1.022920176114060e+04, -2.549092223089326e+03, 2.841698594010731e+04, 1.596084574684271e+05
1612, 6.866229518771594e-01, 1.736228864211400e+00, 5.321896056813423e-02, -8.723533380353143e-05, -1.418275540990561e-03, 3.471369173409761e-02, 3.970119836614237e+04, -2.013550777446337e+03, -1.290778611567408e+05, 1.045460709314804e+04, 9.424881459224818e+03, 2.277633663909350e+04, 2.306111914131531e+05
1613, 6.511633269144966e-01, 1.115823030400890e+00, 5.760936538494552e-02, -4.417864279370690e-05, -1.234749297489244e-03, 1.809809839149670e-02, -4.001998707622909e+04, -1.023301455959131e+06, -3.450859105725526e+05, -1.177354401124682e+05, -4.958008060876277e+04, 9.203563804892589e+04, 1.134242064152343e+06
1614, 4.206009441320343e-01, 4.467230082422073e-01, 7.714240175452057e-02, -2.055245877058062e-05, -9.217374495371355e-04, 3.798100573030566e-03, -1.662582952400986e+06, -6.770327794584102e+06, -4.228580208242922e+05, -1.116518195544508e+06, 2.412459743878565e+05, 2.865231779876121e+05, 5.489418521959709e+06
1615, 6.114740569597894e-01, 7.508298967445524e-01, 6.212040890820451e-02, -1.225629324352884e-05, -1.053976696102868e-03, 9.443916655230422e-03, -3.152437307204457e+05, -2.880775360566636e+06, -2.755201868294783e+05, 5.576698496595488e+04, -8.473099126321918e+04, 8.314377658842175e+04, 2.818058201395044e+06
1616, 5.887490691693484e-01, 1.684511402808611e+00, 6.450560616847051e-02, -1.078604507062236e-04, -1.697567232273628e-03, 3.311224510239542e-02, 2.881959786076246e+04, -1.331891655014245e+05, -1.259055386757846e+05, 1.732886610158938e+04, -1.325927867151268e+04, 2.208539363418215e+04, 2.721481404242759e+05
1617, 9.653989197990731e-01, 1.269347872187315e+00, 7.212074906437896e-03, 2.116764109071079e-06, -1.728973033842697e-05, 2.244815209601941e-02, -4.966629427422349e+04, 3.387565229171013e+05, -6.772231236741476e+04, 1.697471732447798e+04, 4.055673449353993e+04, 4.232935244078116e+04, 3.917872165165314e+05
1618, 5.807339229707620e-01, 1.386301135073963e+00, 6.531150184069363e-02, -8.674168594557941e-05, -1.582050430942460e-03, 2.506163395827074e-02, -5.342540096119550e+04, -8.512271581990449e+05, -2.004959357346125e+05, -4.503691379447484e+04, -2.192092433906494e+04, 5.433995799286194e+04, 8.798558376148061e+05
1619, 7.518118269297112e-01, 1.649889887964499e+00, 4.428827475575886e-02, -6.508770123109936e-05, -1.146524549958387e-03, 3.248559604738280e-02, -1.420310233498137e+04, -3.102003640187339e+04, -6.892122601716356e+04, -3.092860226541804e+04, -1.638701608586723e+03, 5.432497325317541e+04, 1.529488488438364e+05
1620, 6.258915804833517e-01, 8.945909199481430e-01, 6.053190064514211e-02, -2.384753944332640e-05, -1.148836841604217e-03, 1.267126964289508e-02, -3.156421378662830e+05, -2.605676960497657e+06, -3.753812038661618e+05, -1.435516839517577e+04, -6.206367738162477e+03, 2.365133770383500e+05, 2.572091641589601e+06
1621, 6.034650758123792e-01, 2.016307145822784e-01, 6.297773322151637e-02, 2.416906352541159e-05, -3.750717257769709e-04, 8.723291928787145e-04, -2.533256305302020e+06, -7.145810187052811e+06, -1.943618689217743e+05, -2.418993004570542e+05, 2.855359032925953e+05, 1.149397193474410e+05, 6.123114662049988e+06
1622, 6.204473619319247e-01, 1.490448954925060e+00, 6.113855348839208e-02, -8.585308313234508e-05, -1.525364764129157e-03, 2.791746219464822e-02, 1.824253745096436e+04, -3.084562206629326e+05, -1.991909866006273e+05, -1.685707878951768e+04, -1.388583958844898e+04, 7.864821469072573e+04, 4.844205638197965e+05
1623, 6.307106171457888e-01, 3.847905286919253e-01, 5.998804750603663e-02, 2.410706866790707e-05, -6.115757029041624e-04, 2.894534300597801e-03, -1.305785142984637e+06, -4.456723818231624e+06, -2.528803321932688e+05, -4.093417789881586e+05, 2.609083467261820e+05, 3.805586847480726e+05, 3.793046654975631e+06
1624, 4.522535646017380e-01, 1.290877115541357e+00, 7.550451116245321e-02, -1.058375073765688e-04, -1.784460153847457e-03, 2.232905750191812e-02, -9.894280199961569e+04, -1.144108334494055e+06, -2.447562859322524e+05, -1.900890663201578e+05, 4.615691676710221e+04, 9.448454423282397e+04, 1.103768991516593e+06
1625, 9.739483196606110e-01, 2.260664101278131e-01, 5.463892318333592e-03, -2.940933019197900e-05, 7.556415094483321e-05, 7.550795338258087e-04, -2.181993133065526e+04, 2.154464206120738e+06, -4.967133497935891e+04, -3.942957635505809e+04, 1.323952031673876e+05, 2.256857357522960e+05, 2.233301521434233e+06
1626, 9.562868198799399e-01, 1.042398277756804e-01, 9.051372837616017e-03, -2.236305446597781e-05, 2.838538465063656e-05, 7.712004476785606e-05, -9.420761241842662e+05, 8.329536620213375e+05, 1.373446696569297e+05, 3.103322849260749e+05, 6.133191466500253e+05, -1.814409948015500e+05, 1.944229832102667e+06
1627, 7.448338643869914e-01, 8.155980143498262e-01, 4.529675832205252e-02, -2.447776876173674e-07, -7.586174559520015e-04, 1.088932461715950e-02, -7.840997386699519e+04, -2.415785783468860e+05, 1.254704379919899e+04, -2.321159644412625e+05, -2.874867682118465e+04, 1.731747694392984e+05, 3.436419350667140e+05
1628, 9.472625332319264e-01, 8.085764799457384e-01, 1.084884406500349e-02, -4.010948203771181e-06, 7.172370488191943e-06, 1.068580882660508e-02, -7.913076354144030e+04, 8.158712562286465e+05, -1.318904972953276e+05, -8.454403383779479e+04, 1.069074954551694e+04, 1.543036777424101e+04, 9.269009017654159e+05
1629, 9.146214046852644e-01, 8.085906296797740e-01, 1.715377808607528e-02, 3.621104779708006e-07, -1.336800486266415e-04, 1.069654963815146e-02, -2.352125563858495e+05, 3.648402900386043e+05, -1.118660236124037e+05, -4.236421318933698e+05, 5.989252360210638e+04, 1.384014326951718e+05, 7.838399461273585e+05
1630, 8.834583334400026e-01, 8.120568464039131e-01, 2.289389055712813e-02, 4.258260633549504e-06, -2.635072511111003e-04, 1.078686802142606e-02, -1.566106327773352e+05, 1.972123868444564e+05, -2.666766471917430e+04, -1.918767292182398e+05, 5.387723569303477e+04, 2.046021225473848e+05, 5.247287220656334e+05
1631, 4.174422054476215e-01, 1.143490342505398e+00, 7.728468497453501e-02, -1.026317381318045e-04, -1.731010922116555e-03, 1.849041036150925e-02, -2.258015231202468e+05, -1.906198797430236e+06, -3.522937664584306e+05, -3.985446768284106e+05, -5.610611576367585e+04, 7.785025997105037e+04, 1.721411177865973e+06
1632, 9.816626625110733e-01, 4.316906519984423e-02, 3.867678975119056e-03, -1.831280758822496e-05, 2.601808741352352e-05, -3.624700199605924e-05, -1.621176176914168e+05, 2.433578138986654e+06, -1.113980512067319e+05, 1.358021309104393e+05, 7.626407304436530e+04, -2.983186910330493e+05, 2.524825328369477e+06
1633, 6.470829697360030e-01, 1.743902413401458e+00, 5.809293116960093e-02, -9.708091701732952e-05, -1.550971077603405e-03, 3.484320999594057e-02, 3.944883130467920e+04, -3.116399968535569e+04, -1.053475942908192e+05, 2.933832327877460e+03, -1.237527575591559e+03, 3.172854545985980e+04, 2.001502752494690e+05
1634, 6.086112588265068e-01, 1.122594623616384e+00, 6.242896614042623e-02, -5.468966521769356e-05, -1.355417894247923e-03, 1.822691024444080e-02, -2.480965906872175e+05, -1.669883923624345e+06, -3.277971568116332e+05, 3.492436284915245e+04, -4.801997889709943e+04, 3.510558393584868e+04, 1.684322883584540e+06
1635, 9.486334083658489e-01, 1.752542811216874e+00, 1.057728740760093e-02, -5.607939561058650e-06, -2.748153875359663e-04, 3.568708870652841e-02, -1.017259041584414e+04, 4.438458438089900e+04, -2.292699517725203e+04, -2.211969114696508e+04, 4.453041418747348e+03, 1.950714294644447e+04, 8.092610540232061e+04
1636, 9.729355220699888e-01, 5.828963872234341e-01, 5.672172604723767e-03, -2.007859648368512e-05, 1.314645388204652e-04, 5.804560997485608e-03, -3.105455948968946e+05, 1.130530657573879e+06, -6.719710441672620e+04, -1.428528775827929e+05, 5.786662191671882e+04, -2.546907213797633e+05, 1.442691131612972e+06
1637, 9.707582039510809e-01, 8.807409180566512e-01, 6.118856691019586e-03, -5.529084623003694e-06, 1.050140990784265e-04, 1.239172917790413e-02, 5.605489340715207e+04, 9.157605065561089e+05, -9.543517139955333e+03, 4.504026656208735e+04, 6.305853595790802e+04, 2.177278122910553e+04, 8.731030493858219e+05
1638, 9.491450719455227e-01, 2.669194612210181e-01, 1.047578960158155e-02, -1.811119396846403e-05, 3.394089943702105e-05, 1.155534427190741e-03, -3.313991778592368e+05, 1.399009825771569e+06, -2.181493393977477e+05, 1.124526694973504e+05, 2.484192149469880e+05, -2.079168152050937e+05, 1.697311543984531e+06
1639, 5.949898851757839e-01, 1.457166324763374e+00, 6.386521158004166e-02, -8.948766333837649e-05, -1.580359935383605e-03, 2.697893476277083e-02, -3.995315670074286e+03, -5.027788209763456e+05, -1.917927724566689e+05, -4.099634258471602e+04, -3.314997627522763e+03, 1.182033080155224e+05, 6.196781387615898e+05
1640, 7.810688783833145e-01, 1.669385010035785e-01, 3.992325074859249e-02, 2.439657335783635e-05, -1.613280093741357e-04, 5.436617892965456e-04, -7.551889596829724e+05, -2.108768355027260e+06, -1.136170232204396e+05, -1.366970423681832e+06, 2.857499980667443e+05, -1.176034345812449e+05, 1.305195895882509e+06
1641, 5.925774807692781e-01, 1.160834353140839e+00, 6.411410794941182e-02, -6.207213195090835e-05, -1.421437133165757e-03, 1.917781385771669e-02, -6.204636754305974e+04, -1.026146725230232e+06, -2.420368938877424e+05, -2.180202605566025e+04, 5.199850472696928e+03, 8.277409206640837e+04, 1.079949087241025e+06
1642, 9.193589169458278e-01, 1.765148736078161e+00, 1.625723179544135e-02, -1.666074076839188e-05, -4.339086485711657e-04, 3.597424419962089e-02, -9.673024758054707e+02, 4.910133189314487e+04, -2.049143694378987e+04, -1.386603211842021e+04, 3.336841843121591e+02, 2.271163080770949e+04, 7.827229825149220e+04
1643, 8.772089965541403e-01, 4.276843444734841e-01, 2.401300248428318e-02, 1.472759528046985e-05, -1.516773834244227e-04, 3.296377585323945e-03, -7.180644637448312e+05, -9.828232899792013e+05, -7.733208650483927e+04, -3.042346049141577e+05, 4.442240388008265e+05, -8.469143885543219e+04, 9.911514314245334e+05
1644, 9.761450084029397e-01, 1.534757199133634e+00, 5.011219333453325e-03, 6.516073411965556e-06, -4.530109596557336e-05, 2.973714041555342e-02, -2.999016156978212e+03, 1.549692527338502e+05, -2.480405262082356e+04, -1.807307779178033e+04, -2.685144274282998e+03, -4.462539360432791e+02, 1.715528351221145e+05
1645, 7.209012337900877e-01, 1.932740147673597e+00, 4.866012194689540e-02, -8.718684999536180e-05, -1.369497904249544e-03, 4.014550224924618e-02, 3.078221769241113e+04, 2.692762334670285e+04, -2.972761051190503e+04, 1.682682185380851e+04, 7.317326304130024e+03, 5.871372130279220e+03, 5.541714433036975e+04
1646, 9.423980340135357e-01, 1.942129018020819e+00, 1.180773925845582e-02, -1.152440442073188e-05, -3.778223457808344e-04, 4.088008517855712e-02, -1.015652888049717e+04, 8.226166390748594e+03, -1.592573768915760e+04, 3.098847894487830e+03, 5.469345009008985e+03, 6.362975864774338e+03, 3.524272832519607e+04
1647, 4.197635883376162e-01, 1.707007408970263e+00, 7.718051039670637e-02, -1.381211154406412e-04, -2.039987252243606e-03, 3.338214712795794e-02, 3.012297620193398e+04, -1.845808143545257e+05, -6.490868567470751e+04, 1.093924655144192e+04, 3.123578124145581e+03, 2.984070661366994e+04, 2.401811808868474e+05
1648, 6.064157319213643e-01, 1.752606879313753e+00, 6.266402440468086e-02, -1.075803523367773e-04, -1.675568934842872e-03, 3.499890997929078e-02, 2.965696585620478e+04, -8.806951892316843e+04, -1.252227899365853e+05, 7.743036187637379e+03, -4.618900396040735e+03, 1.738606128046169e+04, 2.444851019716745e+05
1649, 5.192845472747348e-01, 1.435189230988432e+00, 7.085180070087699e-02, -1.045994414617113e-04, -1.747447900206821e-03, 2.625709287457609e-02, -2.078719241904024e+04, -6.920630016907924e+05, -1.897820570329657e+05, -9.219560585198994e+04, -2.553587893214726e+04, 1.224736937338990e+05, 7.501886302327034e+05
1650, 4.176421233342941e-01, 1.607293836833883e+00, 7.727579928701045e-02, -1.328084729611545e-04, -1.997889027225010e-03, 3.068317292028369e-02, 1.164987822143820e+05, -3.379179873474013e+05, -7.710328098431107e+04, 5.239357988786251e+03, -2.188980128836521e+04, 6.023061478158038e+04, 4.455003150234008e+05
1651, 4.194420522748856e-01, 6.101351003501512e-01, 7.719506924136334e-02, -5.212854634579697e-05, -1.172941017500740e-03, 6.540394094321583e-03, -7.408741999112895e+05, -4.263720479920531e+06, -3.842446740930211e+05, -3.937781979822495e+05, -1.185788940137572e+05, 4.932989860309715e+05, 3.868957720913032e+06
1652, 4.573466004714336e-01, 7.254715225684938e-01, 7.520597640179646e-02, -4.417975520555509e-05, -1.284246949693771e-03, 8.827061383935034e-03, -5.968289602691209e+05, -3.683264223868843e+06, -3.475112764429220e+05, -4.031365411569676e+05, 1.607790764615889e+05, 2.386238294950429e+05, 3.282085388028505e+06
1653, 4.408868202263443e-01, 7.892432325370000e-01, 7.613623436758195e-02, -6.395268342250515e-05, -1.368448461330732e-03, 1.016554957669140e-02, -1.139646427938281e+06, -5.087940819241966e+06, -2.502039180667170e+05, -5.055476513357674e+05, -1.613760171819061e+05, 9.424927326313056e+04, 4.334431904785834e+06
1654, 9.514574403833735e-01, 8.359061475309848e-01, 1.001620623534014e-02, -5.181668206927226e-06, 2.120185362620985e-05, 1.132522729069613e-02, 5.553042634524063e+04, 8.524546054496808e+05, -1.105628970703719e+05, 1.320818056772801e+05, 8.347635693850827e+04, 1.123759386255877e+05, 8.218302985777097e+05
1655, 6.357178481542739e-01, 4.572090877194029e-01, 5.941631137718458e-02, 2.682165388283309e-05, -7.019100358965288e-04, 3.961357592974002e-03, -1.116992531139681e+06, -4.202353713900924e+06, -7.288993110573651e+04, -3.233926466770697e+05, 4.362370437513608e+04, 5.907392669394685e+04, 3.553858998080653e+06
1656, 5.655166551455835e-01, 1.425680467877377e+00, 6.678992155282343e-02, -9.304054380786242e-05, -1.640480009937178e-03, 2.608382838539102e-02, 1.531371989906659e+04, -5.162406259093408e+05, -1.733051236657221e+05, -3.801027912860001e+03, -5.937758516956535e+03, 6.960337297080047e+04, 6.144090868834738e+05
1657, 4.554768478435384e-01, 1.124384705759637e+00, 7.531666451225968e-02, -8.891563690293855e-05, -1.667851945381950e-03, 1.806321996286381e-02, -5.910585917813202e+04, -1.563794252881821e+06, -1.574924347848461e+05, -2.556838494073267e+05, 4.252289285572849e+04, 1.546263669917717e+05, 1.469185345160619e+06
1658, 4.597928063403460e-01, 9.868784623567233e-01, 7.505927653649858e-02, -7.546171763813791e-05, -1.545543982293528e-03, 1.470011101560314e-02, -6.406086605087895e+05, -3.395602742199440e+06, -4.378947180555958e+05, -5.540048556337266e+05, 1.832934657965214e+04, 5.868547441885967e+04, 2.902185518004736e+06
1659, 3.748515722701705e-01, 1.380843014186395e+00, 7.875366413616891e-02, -1.252348742728990e-04, -1.919545486985502e-03, 2.455164431051554e-02, 4.947004463905512e+03, -7.936357916558264e+05, -8.355479679834387e+04, 4.063264448062365e+04, -9.343632098632514e+03, 1.625406295657123e+03, 8.298915192788660e+05
1660, 4.975845583750276e-01, 8.426989923339839e-02, 7.252501545119173e-02, 1.380241228084167e-05, -1.946452499324049e-04, 1.862358851132187e-04, -3.343902190000143e+06, -8.748882581669506e+06, -3.343402922784859e+04, -7.128371478412470e+05, 2.269468252176359e+05, 5.745735939518238e+05, 7.176729323615104e+06
1661, 4.556799933142046e-01, 3.513323387734318e-02, 7.530469932973438e-02, 5.103074027362590e-06, -7.682828999631963e-05, 6.184546401653531e-05, -5.859937283717890e+06, -1.306835766693873e+07, 2.070309720454341e+04, -5.088678806160217e+06, 2.883933333088315e+05, 1.456362670206510e+06, 8.045464192394529e+06
1662, 5.941238725257317e-01, 1.890012874551534e+00, 6.395475467550979e-02, -1.176233183723674e-04, -1.762602649637748e-03, 3.871281614863351e-02, 3.199867025555294e+04, 9.317080298040981e+03, -7.031926071222736e+04, 1.651628945731750e+04, -2.721916895753507e+03, 1.888358587414525e+04, 1.277864814753660e+05
1663, 9.486179121809308e-01, 3.196106742637910e-01, 1.058036018313244e-02, -1.619666662981689e-05, 3.816440555940576e-05, 1.738262109450495e-03, -4.919521682206045e+05, 1.074612529226046e+06, 1.260826783945112e+04, -3.229108136137885e+05, 2.486402592045046e+05, -7.458186075608291e+04, 1.555800731110808e+06
1664, 6.196842240793553e-01, 8.233554143771518e-01, 6.122291825022912e-02, -1.646885808136850e-05, -1.105339361470596e-03, 1.103995711941297e-02, -4.691715117302552e+05, -3.053899156473649e+06, -4.820893984704988e+05, -9.031653535787802e+04, -4.427673551433795e+04, 7.128542588963833e+04, 2.919236494275566e+06
1665, 6.166544291731662e-01, 4.962201398078562e-01, 6.155625825956180e-02, 2.477872439107798e-05, -7.693793910647645e-04, 4.592477026124267e-03, -1.169912496422657e+06, -4.494454213330643e+06, -2.390442070925726e+05, -7.638505892166961e+05, 4.684345088552941e+05, 2.519570520141306e+05, 3.686136159228344e+06
1666, 4.591841707581255e-01, 3.186785524391726e-01, 7.509597522597940e-02, -3.682352777839570e-07, -6.968435485210488e-04, 2.080636832595462e-03, -1.667192574842856e+06, -6.803493894942522e+06, -2.628623226169522e+05, -6.968523421216521e+05, 9.044759426937226e+04, 3.478386473259263e+03, 5.704294841412582e+06
1667, 6.025816203618590e-01, 5.307396692441236e-01, 6.307117291045081e-02, 1.580132522566169e-05, -8.330473205629685e-04, 5.171146992624498e-03, -9.392532589558321e+05, -3.999799515230428e+06, -4.655255860078554e+05, -7.954770830526444e+05, 1.172936404056163e+05, 2.492670959721062e+05, 3.271920915270041e+06
1668, 4.187944017771763e-01, 5.349261780405086e-01, 7.722426818980568e-02, -3.903319998816400e-05, -1.060978754120756e-03, 5.218131790531738e-03, -1.391571225397763e+06, -7.964817247531889e+06, -2.403521461574157e+05, -7.302205203208997e+05, -4.582826755381274e+04, 4.627814373376821e+05, 6.986721480281809e+06
1669, 4.569428361225193e-01, 1.966969985429930e+00, 7.522998522181651e-02, -1.452728106786996e-04, -2.090597613626267e-03, 4.051443646890443e-02, 5.157378682962548e+04, 1.660867151077248e+04, -5.319704220738751e+04, 2.532736382974578e+04, 3.874570757221703e+03, 2.713293900743809e+02, 9.761535973435084e+04
1670, 7.005988064428523e-01, 1.902280289982737e+00, 5.139723474333656e-02, -9.180879906106609e-05, -1.431785814176870e-03, 3.927129302183890e-02, 3.778016189935858e+04, 3.729181626230427e+04, -8.606856155648627e+04, 1.403963356047861e+04, -1.002003653611983e+04, 2.612034515553341e+04, 1.585044798695950e+05
1671, 9.524154486340348e-01, 1.732994426723180e+00, 9.825400341966835e-03, -3.710821911029338e-06, -2.471128453194471e-04, 3.515622917748715e-02, -2.733729951148583e+04, 3.144010345464927e+04, -3.054326401109515e+04, -5.148439471401372e+04, 4.898651913188387e+03, 3.123589429349746e+04, 1.060889976828029e+05
1672, 4.311451835896619e-01, 1.443815528468028e+00, 7.663919118908069e-02, -1.217186162791734e-04, -1.902288640502916e-03, 2.632685877256583e-02, -7.580618417133726e+03, -7.524677630771965e+05, -1.549147986313241e+05, -2.076771011321424e+04, -2.514292421737111e+04, 6.444605123368518e+04, 7.947075107017393e+05
1673, 6.911537106946388e-01, 6.481606309503134e-02, 5.263390461149955e-02, 1.425225143528164e-05, -9.057468268033626e-05, 1.104741729648848e-04, -2.673185888039128e+06, -8.772967575625360e+06, -9.486247534995891e+04, -4.411797010213938e+04, 5.211836557195481e+05, -7.533740372008380e+05, 7.918376493387478e+06
1674, 5.882513560088451e-01, 2.953280248758831e-02, 6.455618354343393e-02, 8.457750083182974e-06, -6.031383647059298e-05, 3.464974073436392e-05, -4.911709176093833e+06, -1.015256887933325e+07, 4.019591374948589e+05, -4.238493146468244e+06, 1.254060639502563e+05, 3.286775075920023e+05, 5.683664417617137e+06
1675, 4.545281896353741e-01, 1.664890712232028e-01, 7.537234263186852e-02, 1.723659683245575e-05, -3.803528947278209e-04, 6.552066711062593e-04, -3.246068745601022e+06, -9.706853569337247e+06, -5.393066492698261e+05, -1.757571199221980e+06, -1.142910268536791e+05, 5.390181072070452e+05, 7.440268254841355e+06
1676, 4.604605172085165e-01, 3.890428805912359e-01, 7.501886524369217e-02, -5.752965030941803e-06, -8.051019547010690e-04, 2.988254663196799e-03, -1.500175614019074e+06, -7.123716900901997e+06, -8.870693221333268e+05, -3.637666206331205e+05, 4.969255966656675e+04, -1.685047426357829e+04, 6.455634803203625e+06
1677, 9.476682073883607e-01, 1.420874122728825e+00, 1.076854358905848e-02, -2.000855814239186e-06, -1.625197884568691e-04, 2.655764361425922e-02, -1.304258297937077e+04, 1.750977437375553e+05, -6.187991917861254e+04, 3.936072687971424e+04, -4.664485311957247e+03, 7.203527870329391e+04, 2.353797000153525e+05
1678, 4.150421975237748e-01, 1.295826083210954e+00, 7.739007940263876e-02, -1.126563786369369e-04, -1.830563752524633e-03, 2.239412249927111e-02, -1.044921991543118e+05, -1.239601819134332e+06, -1.756353497413530e+05, -2.113961692700887e+05, 1.627516771382946e+04, 1.461217553602827e+05, 1.155831846317871e+06
1679, 5.217988980501546e-01, 8.258671452928600e-01, 7.064805308872896e-02, -4.327646429467397e-05, -1.306369896375642e-03, 1.102999584650211e-02, -2.684878495803007e+05, -3.163995405108056e+06, -2.820179266847366e+05, -4.352908311151774e+05, 1.434200248035263e+04, 4.428220512907279e+03, 2.857986386405522e+06
1680, 5.468705466197225e-01, 1.166280813477264e+00, 6.850742180015194e-02, -7.225250536664618e-05, -1.531885351259928e-03, 1.925676460254790e-02, 3.078614029282666e+04, -1.306713207700766e+06, -2.947159365579801e+05, -4.985847109034320e+04, -1.938113756097373e+03, 1.077009859264039e+05, 1.408164823389414e+06
1681, 5.742149511227383e-01, 8.264945686620206e-01, 6.595323954912941e-02, -2.556363575011503e-05, -1.203769366129449e-03, 1.108508934278297e-02, -4.421071410662713e+05, -2.822424650430956e+06, -3.641520310750647e+05, -4.710673375703997e+05, 7.375902480478655e+04, -2.784462950783344e+04, 2.452403501090770e+06
1682, 9.514808566097854e-01, 3.952367603598061e-01, 1.001154536096052e-02, -1.624906716569258e-05, 5.063260912927317e-05, 2.721293402331626e-03, -8.794281724851647e+04, 1.478699247931911e+06, -6.455657171285205e+04, -6.890755114676019e+04, 1.485715980643843e+05, 1.630343089040981e+05, 1.607287162550339e+06
1683, 8.376464636248453e-01, 1.936380529478962e+00, 3.085423761010368e-02, -5.068009514322055e-05, -8.911187744362406e-04, 4.049446902125284e-02, 1.011223534805561e+02, 2.310501983250100e+04, -2.000401646342739e+04, -3.950097362494349e+03, 6.176645623444158e+03, 5.264962911926299e+03, 4.513180590554289e+04
1684, 5.015223871419565e-01, 1.169424254125178e+00, 7.223283137075510e-02, -8.189017737592237e-05, -1.624933224584374e-03, 1.927606998767734e-02, -3.932156651963301e+04, -1.397963272465377e+06, -2.145994049252021e+05, -1.680030776080516e+05, 1.654062190050543e+04, 1.232253378694339e+05, 1.368271570508845e+06
1685, 4.571551686148926e-01, 1.854474523843938e+00, 7.521736668558798e-02, -1.405209758334502e-04, -2.047398782341765e-03, 3.745905078634251e-02, 5.052672519317959e+04, -3.678267400317977e+04, -4.204672486841410e+04, 2.722532872740633e+04, -1.447809695706658e+03, 1.843991698474992e+04, 1.116316112481596e+05
1686, 3.862270802524294e-01, 1.962236559271315e+00, 7.845544035784902e-02, -1.525600910811638e-04, -2.173152022240443e-03, 4.023519640624854e-02, 5.393997447502201e+04, -8.525320852095419e+03, -3.452436951244931e+04, 1.575102708252323e+04, 7.613587449732623e+03, 1.089755260899917e+04, 8.414743797053574e+04
1687, 3.857846105593428e-01, 3.774410406136849e-02, 7.846844309070285e-02, -1.481223834429515e-07, -1.058291941986667e-04, 7.971257485149194e-05, -6.596892156118883e+06, -1.387653300310798e+07, -1.121721079974542e+05, -5.623544012809771e+06, 4.544750494223723e+03, 9.940255762319550e+05, 8.001766843636989e+06
1688, 9.294843521236944e-01, 1.276648734932441e+00, 1.432049544113099e-02, -4.202242615665430e-06, -2.077986424020711e-04, 2.260563252100142e-02, -4.138222223227825e+04, 2.018008022540979e+05, -6.710794228964367e+04, -3.682750635247720e+04, -1.006615640297942e+03, 1.678112127380789e+05, 3.950270575464770e+05
1689, 9.849029704023965e-01, 1.356676917959462e+00, 3.191844010979612e-03, 7.769139394611657e-06, 6.371782661376835e-05, 2.485312604530027e-02, -5.672329122685871e+03, 2.769378801097563e+05, -2.460104341548946e+04, -2.964171473624054e+03, -7.178732289578793e+03, 2.984278360208329e+03, 2.847937250637090e+05
1690, 5.062500346586856e-01, 1.474573307537389e+00, 7.187529333306245e-02, -1.102335052355573e-04, -1.795607392818668e-03, 2.728822889429610e-02, -7.590305021084595e+04, -7.825897810341516e+05, -1.577081921007595e+05, -2.328190389794848e+04, -2.978196027315655e+04, 2.613150914000673e+04, 7.865665075319819e+05
1691, 9.600196511422243e-01, 5.402827598810543e-02, 8.300933296479424e-03, -1.479190190023516e-05, 2.063370082544536e-05, -2.429056073782743e-05, -2.699561820800960e+04, 2.470285186917267e+06, -1.139255882452129e+04, 1.021229997278047e+05, 2.829163504545854e+04, -5.889787425297010e+05, 2.640855181465910e+06
1692, 5.384160444922945e-01, 5.305225351482388e-01, 6.925118330455940e-02, -2.203508455825287e-06, -9.343522647773383e-04, 5.173490379304424e-03, -9.553274395565271e+05, -4.528187219676095e+06, -5.397547343330747e+05, -3.153589460973627e+05, -1.346151165855129e+05, 1.942875699038769e+05, 4.062390498197183e+06
1693, 4.153325387899122e-01, 8.624526889699032e-01, 7.737745546824003e-02, -8.131866325807556e-05, -1.478198098819331e-03, 1.173992894432027e-02, -6.251708055736012e+05, -3.949273570094598e+06, -1.256597728008736e+05, -5.221812123746338e+05, -1.903636415811541e+05, 1.771807298977941e+05, 3.413631373423846e+06
1694, 5.194974444409819e-01, 4.942904611727784e-01, 7.083462611299245e-02, -2.275902942909178e-06, -9.109509251093301e-04, 4.581301208656064e-03, -1.547394642582037e+06, -5.985799543609858e+06, -8.923549197849687e+04, -9.843488871625514e+05, 1.296090484443812e+05, -2.590082493156477e+05, 4.773994541635235e+06
1695, 8.967374129476101e-01, 1.741412217176952e+00, 2.048074277483542e-02, -2.446334543883960e-05, -5.398296573644011e-04, 3.527597649775607e-02, 8.296330505903716e+03, 5.804838151096715e+04, -3.178525244853523e+04, 1.032791926630143e+04, -5.336367876039661e+03, 3.954940232715032e+04, 1.009312696034001e+05
1696, 5.079085360327364e-01, 7.934048822067367e-01, 7.174815637348089e-02, -4.431422899989690e-05, -1.290415310032197e-03, 1.030657107764283e-02, -6.244465695715735e+05, -4.020828518596087e+06, -4.463841762510358e+05, -6.911828090959076e+05, -1.495515109257717e+05, 2.859015902606408e+05, 3.496182908499262e+06
1697, 3.656591406759431e-01, 1.474999999998618e+00, 7.894031466565574e-02, -1.317198244080824e-04, -1.973854564342835e-03, 2.703226946433734e-02, 9.582481273568273e+04, -5.898406680312246e+05, -5.811160191343294e+04, 8.063916072107140e+03, 7.744820804848255e+03, 6.776083323365015e+04, 6.646427026872655e+05
1698, 9.447576743782310e-01, 1.637699233305227e+00, 1.134348097350205e-02, -5.222570191545928e-06, -2.541637359625981e-04, 3.251650962045977e-02, 2.182782717832462e+04, 1.204358759479970e+05, -3.527504999176626e+04, 9.300637233707388e+03, 2.126729118411123e+03, 1.444890304960970e+04, 1.244533177986090e+05
1699, 9.517209850418672e-01, 8.967670510959321e-01, 9.963741646404137e-03, -4.002025244247143e-06, 8.760625525294774e-06, 1.278138128282849e-02, -2.981167195236596e+04, 6.765991071621049e+05, -5.204859788996563e+04, 3.294476738991591e+04, 6.338958767688755e+03, 3.278019069675467e+04, 6.856340670108655e+05
1700, 9.802260244487150e-01, 1.968480916861058e-02, 4.166275902375572e-03, -8.795424487669651e-06, 1.475737819073286e-05, -1.948110298098660e-05, 4.934070613020144e+05, 3.265796518278620e+06, -2.712632537168672e+05, 1.764797343263969e+04, -6.890368663857655e+04, -1.842617755043817e+05, 3.093271909871427e+06
1701, 9.116465287142264e-01, 1.427280160649076e+00, 1.771332992886058e-02, -1.104532970216954e-05, -3.514563652700364e-04, 2.667823241515146e-02, -5.430093299605744e+04, 1.158383518810027e+05, -4.924873905884483e+04, -5.973117025364357e+04, 1.372460270226276e+04, 1.167341803844113e+05, 2.803975322352067e+05
1702, 4.560258383742217e-01, 9.133964485281920e-01, 7.528429497764008e-02, -6.768337728187699e-05, -1.482503783059813e-03, 1.295932196122387e-02, -2.974098982085277e+05, -3.466989192300651e+06, -1.512545324750496e+05, -1.381444678379245e+05, 1.252443044591548e+05, 1.196772549548699e+05, 3.276440589032204e+06
1703, 4.589862415279232e-01, 1.478812570415920e+00, 7.510788142526273e-02, -1.187923073286065e-04, -1.880362118280163e-03, 2.731293199588347e-02, 3.366451108754663e+04, -5.479540043197229e+05, -9.779010620212599e+04, 1.571948423952484e+04, -8.322701375837791e+03, 4.143940720584337e+04, 6.018414672280407e+05
1704, 8.938742193406113e-01, 1.281679083240290e+00, 2.100515886385211e-02, -1.174611954533888e-05, -3.869720212902794e-04, 2.270073357109831e-02, 3.362055758889324e+04, 1.381169188943924e+05, -6.822611780561475e+04, 2.821264911420811e+03, -3.279359433906703e+04, 1.003928421854273e+05, 2.500266729747210e+05
1705, 9.377834070242306e-01, 1.020179743544897e+00, 1.271109043071113e-02, -1.591693221551782e-06, -8.617752646145060e-05, 1.585580771406491e-02, -9.807833367571319e+04, 5.333998144211692e+05, -3.444102519538286e+04, -1.931983689891771e+05, 6.836335583201052e+04, 1.254871333797914e+05, 7.298622857988765e+05
1706, 5.657090584550036e-01, 1.761790777950618e+00, 6.677165314684791e-02, -1.169202654683274e-04, -1.788137631642555e-03, 3.516533632815674e-02, 9.179525068753721e+04, -5.571345963572567e+04, -1.039799527444950e+05, 1.191648576752428e+04, 4.755991727371278e+03, 3.070471169021486e+04, 2.273506348373039e+05
1707, 5.277137464788020e-01, 3.184991164167152e-02, 7.016090136321222e-02, 1.192818703261165e-05, -6.553855518678860e-05, 5.089992973815807e-05, -5.475111532955678e+06, -1.173932790775846e+07, 6.550716927977204e+05, -3.956819589722818e+06, -7.643589824878100e+04, 1.367698642524829e+06, 7.614014007459814e+06
1708, 4.152174276736310e-01, 1.181114339913576e+00, 7.738246463615932e-02, -1.011447774602959e-04, -1.755675728889006e-03, 1.943805584017604e-02, -1.947027066920122e+05, -1.270585611771647e+06, -1.661975053289531e+05, -1.822452019134185e+05, -5.766960340553596e+04, 9.096536716493985e+04, 1.135230508387198e+06
1709, 6.385203066691508e-01, 6.082749125378180e-02, 5.909328488114047e-02, 1.455407641010910e-05, -1.063616143006513e-04, 1.109311275795735e-04, -4.752563454571167e+06, -1.120352842876009e+07, 3.294426838087097e+05, -8.361333706397554e+05, 8.322129002732965e+05, 9.416957335099236e+05, 9.342474615392767e+06
1710, 4.584949913245931e-01, 2.342064313879448e-01, 7.513737191933655e-02, 3.768663570415109e-07, -5.193483105701202e-04, 1.211157017153519e-03, -2.903253257113752e+06, -1.147013234653956e+07, -2.078613837446342e+04, -1.004409528825122e+06, -2.405260497177002e+05, 2.340910632457579e+04, 9.666472363715017e+06
1711, 9.442533855745192e-01, 7.103106377354922e-01, 1.144282279626322e-02, -5.594948553622192e-06, 6.684868654995013e-06, 8.478091008297495e-03, -2.264830779195374e+04, 1.037518922504493e+06, -7.080599487754708e+04, 4.378470063534802e+04, -9.045545185576022e+03, 6.913080491674590e+03, 1.036034317336579e+06
1712, 8.096178001743566e-01, 7.541422028068119e-01, 3.545104050121736e-02, 1.043059644575961e-05, -5.083308555434152e-04, 9.509297809396133e-03, -1.649903427553449e+05, -1.477701872982158e+05, -2.530515263649961e+05, -3.578174221228053e+05, 1.072113241067981e+05, 3.180737645539306e+05, 7.555793252227684e+05
1713, 4.505408727608773e-01, 1.628979096955190e+00, 7.560277670211155e-02, -1.289630547721340e-04, -1.964916420450725e-03, 3.133443367362498e-02, -2.437585275715492e+04, -3.695027373349104e+05, -8.316984089329443e+04, -6.149966097498085e+04, 1.509406689946503e+04, 5.342651840660234e+04, 3.710480532189305e+05
1714, 8.300833459757484e-01, 7.828573304402209e-01, 3.211492772539563e-02, 8.335341414478226e-06, -4.537679197983424e-04, 1.014067697287240e-02, -3.064336786519659e+05, -1.394869834431480e+05, -2.343292245905948e+05, -2.588195800093169e+05, 9.112409310305367e+04, 2.594171459740911e+05, 6.432125693860777e+05
1715, 9.215624907150288e-01, 1.897180804374045e-02, 1.583820907578644e-02, -1.451355253472009e-06, 4.444328423836019e-06, -1.098994353608204e-05, 2.306634413173475e+05, 1.275163652502782e+06, -1.018875513952475e+05, 3.001109042976066e+05, 9.877845252615125e+03, -9.531840794552229e+05, 1.944320280813015e+06
1716, 8.570522563968981e-01, 1.287017873570954e+00, 2.755077051198664e-02, -1.928008951795446e-05, -5.610393802634173e-04, 2.280111361923243e-02, -1.197974189584075e+05, -7.405625471493469e+04, -1.361140703052075e+05, -5.017655101350190e+04, -8.764182230364824e+03, 9.912514971561554e+04, 2.984019416799980e+05
1717, 9.534001465003381e-01, 9.573470665073551e-01, 9.628968518547571e-03, -2.900702458306925e-06, 5.055651678964601e-06, 1.427717835544523e-02, -4.325989719583852e+04, 6.930671199188079e+05, -5.135526015943762e+04, 2.746849757591909e+04, -1.156963025406973e+04, 9.314372762920379e+04, 7.276274275156998e+05
1718, 9.060834823879783e-01, 1.945695313300687e+00, 1.875310862474770e-02, -2.605474756105924e-05, -5.673318706689856e-04, 4.089786856707955e-02, -1.286925912619537e+04, 1.021002940984792e+04, -1.519126580453657e+04, -1.900681299849924e+04, 3.374092563361603e+03, 9.673843550745698e+03, 4.146324182735037e+04
1719, 4.071848864606091e-01, 7.975714434034047e-01, 7.771979475049828e-02, -7.061230502538283e-05, -1.409772274490055e-03, 1.030683420231435e-02, -1.098681170177505e+06, -4.861798868936428e+06, -2.120991650095217e+05, -3.356122905697520e+05, 1.119495635996962e+05, 4.649016192402523e+04, 4.218280126211798e+06
1720, 8.758426912618500e-01, 1.432972761029766e+00, 2.425627146749553e-02, -2.059520765128331e-05, -5.285693698802302e-04, 2.677930106668855e-02, -1.839370843637727e+04, 9.609295708257267e+04, -7.585312513587132e+04, -3.937426098582020e+04, -4.894230917128345e+02, 1.097407044037664e+05, 2.633253665366969e+05
1721, 9.773327115816210e-01, 1.976341573597069e+00, 4.765813021000282e-03, 2.899075735030010e-06, -1.994001512861387e-04, 4.189542534385526e-02, -1.426604573075074e+04, -1.132431808845757e+04, -7.459056184221766e+03, -1.475005373943170e+04, 1.535174494774735e+04, -1.416376525496479e+03, 2.983740921558454e+04
1722, 5.995051666308893e-01, 6.156203138891231e-02, 6.339488736062507e-02, 1.825752967041239e-05, -1.216190659255681e-04, 9.768494758749871e-05, -3.493489461600889e+06, -9.743100227068119e+06, 1.966914139826831e+05, -1.488855820772184e+06, 8.785065756176130e+05, 9.154916366223470e+04, 7.619770234832697e+06
1723, 8.523018529330209e-01, 8.128498821361859e-01, 2.836874967136287e-02, 7.373331112864312e-06, -3.869914372587316e-04, 1.081529611119521e-02, -1.520712027774956e+05, 5.175675958669736e+04, -1.750982993450752e+05, -1.012038629711657e+05, 7.553170297868024e+04, 1.679336915023956e+05, 4.769315152796646e+05
1724, 4.543889942718043e-01, 6.522073396520537e-01, 7.538048478687306e-02, -4.176617878506872e-05, -1.193931810037241e-03, 7.363869885293778e-03, -4.443342079249342e+05, -4.433355160522809e+06, -2.195531105711053e+05, -1.759600127358128e+05, -2.147453580418902e+04, 2.111703595647123e+05, 4.163488452137065e+06
1725, 5.008185834162263e-01, 4.609227264484465e-01, 7.228543222322273e-02, -2.639106779347977e-06, -8.946474434929214e-04, 4.038371993684897e-03, -9.072299832829697e+05, -5.278398650450774e+06, -2.012456183001953e+05, -6.220899517563288e+05, 1.364972973984574e+05, 6.440906927437464e+04, 4.541437552563480e+06
1726, 4.550512227073702e-01, 4.622004034898333e-01, 7.534168533546873e-02, -1.940150282425668e-05, -9.225117171235767e-04, 4.045913773560617e-03, -1.197607036226269e+06, -5.489556949068376e+06, -6.399414653436174e+05, -6.457321178289405e+05, 2.374778127091340e+04, 2.223065999492022e+05, 4.740521835146822e+06
1727, 4.479653128270568e-01, 1.025561196294808e+00, 7.574850237171835e-02, -8.111829919660481e-05, -1.598172699650832e-03, 1.560948918217231e-02, 9.297135109858763e+04, -2.275841419780368e+06, -1.024473863811977e+05, -9.469045098879498e+04, 1.660092344914527e+04, -5.301376913587845e+04, 2.289694253412943e+06
1728, 8.756128960656564e-01, 1.714299454620909e+00, 2.429713423521385e-02, -3.069252653500887e-05, -6.333248038315129e-04, 3.448892692605120e-02, -1.955102494273874e+04, 3.527437833325438e+04, -8.571550444588104e+04, 2.578754687373638e+04, -9.571137013279313e+02, 4.282565281205956e+04, 1.735569254694888e+05
1729, 9.070576494830973e-01, 1.031523983050700e+00, 1.857164973298598e-02, -1.147772360515775e-06, -2.358468668919068e-04, 1.613414175761926e-02, -1.421208457431005e+05, 3.376124758756374e+05, -8.745865353661837e+04, -1.675510200227685e+05, 9.159137175194328e+04, 8.796856000383986e+04, 5.606423500171393e+05
1730, 5.265356553499213e-01, 1.772745304685293e+00, 7.025882647346572e-02, -1.249886641083303e-04, -1.884548215717522e-03, 3.538313785898842e-02, 3.333900374828814e+04, -1.079567507869890e+05, -7.275563979122209e+04, -8.813534581032378e+03, -4.995146452379099e+03, 4.111488163075365e+04, 1.918636399413515e+05
1731, 5.594763567455273e-01, 1.938502803824216e+00, 6.735780851799594e-02, -1.270138662850155e-04, -1.871037178284641e-03, 3.995881446723570e-02, 1.975915428109089e+04, -5.262858101643892e+03, -6.577309790912399e+04, 9.339586941048699e+03, -2.387799045300591e+03, 2.027385858951606e+04, 1.212536347871067e+05
1732, 9.534033206472812e-01, 2.396181940266988e-01, 9.628334813673249e-03, -1.969388361867247e-05, 4.488855046323043e-05, 9.000646414903946e-04, -1.432652369138939e+05, 1.653592425944493e+06, -1.428051835327288e+05, 9.045677536865525e+04, 2.308237831740469e+05, -6.111222360296750e+04, 1.759426378237695e+06
1733, 4.044033011505420e-01, 1.749925972830011e+00, 7.783067440159548e-02, -1.415166451829986e-04, -2.074372408989335e-03, 3.451332698103618e-02, -5.347315847394400e+03, -2.229243712832865e+05, -7.457220625605810e+04, 1.331562450303350e+04, 6.803002500280559e+03, 3.527662441317942e+04, 2.688938695073001e+05
1734, 9.521163015352524e-01, 1.915331035235094e+00, 9.885011681866552e-03, -7.004657911410805e-06, -3.156672886271555e-04, 4.016684707153811e-02, -1.841806131549371e+03, 6.271874890947205e+03, -1.211518692599309e+04, 1.861128523344955e+04, 2.136932499840520e+03, 1.420863388726268e+04, 3.712006791439003e+04
1735, 7.788935363186811e-01, 7.184880007994635e-01, 4.025536539630059e-02, 1.287392304887697e-05, -5.864861386396941e-04, 8.752527349889794e-03, -1.204617650117298e+05, -5.262871864387976e+05, -2.202809115608014e+05, -3.945878603405779e+04, 4.992642961552636e+04, 4.233553336458699e+05, 9.459741138403465e+05
1736, 9.543952489541754e-01, 5.947181556928561e-01, 9.430143800499616e-03, -1.289316847530309e-05, 5.918431610108660e-05, 6.054682018420854e-03, -3.817063309364931e+05, 6.595303057037574e+05, -1.346562125344418e+05, -1.434335913619811e+05, 1.340042793970977e+05, -7.785246379291930e+02, 1.000559579267035e+06
1737, 5.220057787932384e-01, 5.998860847254070e-02, 7.063120034902651e-02, 1.275973368442158e-05, -1.317840456221686e-04, 1.292752023076271e-04, -4.976393667257361e+06, -1.270653077079251e+07, 6.448549204425807e+05, -1.252303060737982e+06, 2.133304782707349e+04, 1.030874457991352e+06, 1.033675900879292e+07
1738, 9.493095683605511e-01, 1.248982739619243e+00, 1.044314296002528e-02, -4.522985920518696e-07, -9.656848131476409e-05, 2.188016266215503e-02, -4.877676521090373e+04, 3.329648250980155e+05, -5.128030517062027e+04, -4.332683616775056e+04, 1.453900098985686e+04, 9.946595142644671e+04, 4.264732842068585e+05
1739, 8.919850400615070e-01, 5.522544337997995e-02, 2.134989630118633e-02, 2.046195456701511e-06, -9.613924702694954e-06, 1.076033250156649e-05, -6.291272825729700e+05, 2.302234340579310e+05, -1.316495301282798e+05, -1.175905808903511e+06, 2.324878045711308e+05, -7.739293477584717e+05, 1.875732222255683e+06
1740, 4.832215391559872e-01, 1.778443033958010e+00, 7.354630358987344e-02, -1.330978892187355e-04, -1.973421253787924e-03, 3.544918169004799e-02, 6.003106946055697e+04, -1.212924378007795e+05, -7.915305629521166e+04, 8.147142711996978e+03, -9.375290894957450e+03, 3.218502997385156e+04, 2.198392963867696e+05
1741, 6.648037344364459e-01, 1.907846750137434e+00, 5.596007296021856e-02, -1.015964731046655e-04, -1.555498872558708e-03, 3.934762951701143e-02, 2.337933755790619e+04, 9.394314460635509e+03, -7.594731340659146e+04, 1.058863992656222e+04, -9.009174880210987e+03, 2.110640964599463e+04, 1.380732600348832e+05
1742, 9.535479771081902e-01, 2.149586738041229e-01, 9.599451330897738e-03, -2.001076734968812e-05, 3.731217181736357e-05, 6.906912061195314e-04, -8.079148941598841e+04, 1.299495041298319e+06, 6.669483474852542e+04, 3.554064549352680e+05, 3.280881730299860e+05, 8.361990958141576e+04, 1.360378044825175e+06
1743, 4.101085458170098e-01, 1.408337223227016e+00, 7.759970796769572e-02, -1.228981892607839e-04, -1.905332739334305e-03, 2.534591809739617e-02, -3.622058389939534e+04, -8.649455168503291e+05, -1.578762720343939e+05, 4.954497507402519e+04, 3.982578070089483e+03, 1.759010710732482e+04, 9.170427323266504e+05
1744, 9.520249106517992e-01, 4.759546063650504e-01, 9.903217196201849e-03, -1.336090550821400e-05, 5.663914953731031e-05, 3.944444737248434e-03, -5.771598182200558e+04, 1.277445783958946e+06, -6.366090914670658e+04, 4.200840824992744e+04, -6.125560430655030e+04, 2.620251841368162e+05, 1.374350819347626e+06
1745, 9.525510026418296e-01, 1.566369311360436e-01, 9.798378457904901e-03, -2.058922163970800e-05, 3.223063696525252e-05, 2.937409133731972e-04, -5.931353626977945e+05, 1.354639449681494e+06, -2.755829620601775e+04, -1.493991200494125e+05, 2.029727946110195e+05, -1.372059548783952e+05, 1.819004937677951e+06
1746, 9.839727216887253e-01, 1.149842219955028e+00, 3.386190916594829e-03, 2.317907649339312e-06, 1.177174727613195e-04, 1.925336343991707e-02, -1.073977596296314e+05, 5.476092529379837e+05, -9.595990851021541e+04, 4.342708396987234e+04, 1.051419803523681e+05, 9.850448893106390e+04, 6.654996716545458e+05
1747, 4.864068448976604e-01, 1.137824933503706e+00, 7.332581752206430e-02, -8.504648742434749e-05, -1.628880774974039e-03, 1.845149187527143e-02, -1.541651351420456e+05, -1.969497271614951e+06, -3.413975685667644e+05, -3.737161307827589e+05, 1.233255092663921e+05, 1.758036007289794e+05, 1.852857411859333e+06
1748, 9.562738670786257e-01, 5.374409880223200e-01, 9.053970041661048e-03, -1.541570755810018e-05, 7.016252673812048e-05, 4.982862820579248e-03, -4.557796147519344e+04, 1.459057540450922e+06, 1.287124118080694e+04, 2.647150380095060e+05, 1.194716579949794e+05, 1.556336213886756e+04, 1.391896536609619e+06
1749, 8.375195962560218e-01, 4.656948616719528e-01, 3.087550758294878e-02, 1.871170680112222e-05, -2.720053341800088e-04, 3.924720590898378e-03, -8.034154807188683e+05, -9.819676030125313e+05, -7.610902820977288e+04, -8.572340567141663e+05, -5.989560069433802e+04, 2.047601514153864e+05, 4.231881837086431e+05
1750, 8.017196781378439e-01, 1.966862514215302e+00, -1.438171141204374e-02, 4.346338119576298e-05, 3.349206497027385e-04, 4.126921330733289e-02, 1.974164322144346e+04, -6.543255691294887e+03, 1.420794107053937e+04, -9.387769888952134e+02, 6.550086932743216e+03, 2.680633926548538e+03, 3.648092674046374e+04
1751, 9.704203651851377e-01, 1.535233122815236e+00, -2.266467442662671e-03, 1.867922778359121e-05, 1.556814980611197e-04, 2.974365252212996e-02, -3.467323609478595e+03, 1.529860084125785e+05, 4.384177382563754e+03, -2.261899427302692e+04, 1.807660460283685e+03, 5.974385583848050e+03, 1.673777765159046e+05
1752, 9.682081277086644e-01, 1.687061048950190e+00, -2.433737051134700e-03, 1.976550814986391e-05, 1.065217424661702e-04, 3.392553279435435e-02, -3.327576422612080e+04, 5.136424718408791e+04, 3.645410740188940e+03, -3.632428596465024e+03, 4.962750324119357e+03, 1.028123311954394e+04, 7.723025059489245e+04
1753, 7.636018585228924e-01, 3.142556072659693e-02, -1.698548327567731e-02, -8.749885204113739e-06, 4.719866799993144e-05, 2.443771343540145e-05, 2.058049290161266e+06, 4.538902061414730e+06, -2.324891814316011e+05, 1.887074639648532e+06, 2.082180020461672e+05, 2.041886510537413e+04, 2.627069545525133e+06
1754, 9.742242877881375e-01, 4.925373134316810e-01, -1.978117685604481e-03, -3.231339781949172e-05, 2.530535260569233e-04, 4.191336495723674e-03, 1.566795967363014e+05, 2.115148060254785e+06, -1.768597001562246e+05, 1.855140698539231e+05, 1.263174992005969e+05, -2.163648036708118e+05, 2.015466774820870e+06
1755, 9.686595237304835e-01, 3.444621167028380e-01, -2.399627977861966e-03, -3.660250726889025e-05, 2.040019136319987e-04, 2.018243470449210e-03, 8.383964824358960e+04, 2.092661502319323e+06, -2.863574893920977e+04, 1.283425215444561e+05, 1.315664028642959e+05, 1.206671928650056e+05, 2.011471672788359e+06
1756, 9.742242878192829e-01, 6.119402985059597e-01, -1.978117683240212e-03, -2.656950211902750e-05, 2.863024412222449e-04, 6.380382002327156e-03, -2.431087172346586e+04, 1.524173486968701e+06, -2.506446972643293e+04, -1.628324605476849e+05, 1.465432505399292e+05, 2.671490689536526e+05, 1.706430744042373e+06
1757, 9.742242877880827e-01, 6.716417910430990e-01, -1.978117685608628e-03, -2.130490732274448e-05, 2.935159377113888e-04, 7.621640599415613e-03, -7.402857685837826e+04, 1.478154937807893e+06, -8.754200948474651e+04, -2.818479443966073e+05, 5.793104084476445e+03, 6.601519773886497e+04, 1.676663907431399e+06
1758, 9.743122028726020e-01, 8.765620210812516e-01, -1.971443835031257e-03, -7.058111442040382e-06, 3.003729646254838e-04, 1.229358836473524e-02, 1.001354287389557e+05, 1.102590982384739e+06, 3.996181759436933e+04, -8.549050389031919e+04, 5.424047853970073e+04, 2.938914306982186e+04, 1.114299764555650e+06
1759, 9.724627424603266e-01, 1.327096080907092e+00, -2.111756700081452e-03, 1.387863823092139e-05, 2.179685651450547e-04, 2.403082002299128e-02, -6.237790682907929e+03, 3.788507173845308e+05, 1.214855862386817e+04, -4.813591001648959e+04, -6.976703831012710e+03, 7.834944522298427e+04, 4.303345071377559e+05
1760, 9.742242878180413e-01, 1.119402985072307e+00, -1.978117683334458e-03, 5.173561478326316e-06, 2.676800174208314e-04, 1.844276849985599e-02, -6.235629110181799e+03, 5.696023825603249e+05, -8.284404570747558e+04, 1.696240216421114e+05, 6.246787666599433e+04, 7.290797458502797e+04, 5.563202258343523e+05
1761, 9.748103874110934e-01, 9.700627265537436e-01, -1.933618707175959e-03, -2.099697513741408e-06, 2.908988479122243e-04, 1.460299837818077e-02, 2.399681875812536e+03, 7.637487594653842e+05, -3.569403005720129e+03, -4.818812182775082e+04, 3.247973882102335e+04, 7.028929186791397e+04, 7.992191798161552e+05
1762, 3.814080698648949e-01, 1.074233253191051e+00, -3.869453513084173e-02, 8.961212044232038e-05, 1.183417150898189e-03, 1.673420917876565e-02, 1.752948318887245e+05, 1.652618670939779e+06, 1.762502762116245e+05, 3.499514924820016e+05, -1.202399791410035e+05, 1.806653872869867e+05, 1.479679563287546e+06
1763, 3.810963209093632e-01, 7.742436112672898e-01, -3.870598002123547e-02, 6.193047524921756e-05, 1.075233209910664e-03, 9.791254120379601e-03, 1.817606202152881e+05, 2.181418748492498e+06, 3.156969137296751e+05, -3.730966441142766e+03, 1.857264529401854e+05, 1.858662677418477e+05, 2.215868880625253e+06
1764, 3.808945906966650e-01, 1.425753330647737e+00, -3.871338222588037e-02, 9.614915542272354e-05, 1.168556078956863e-03, 2.579252188214939e-02, 1.192515117419766e+05, 7.042106866096278e+05, 1.806765828950758e+05, 1.192519568419406e+05, 3.352162923103813e+04, 1.036806376633976e+05, 6.897312385809657e+05
1765, 3.827844105671611e-01, 4.276782932997047e-01, -3.864392680110663e-02, 3.714661554046414e-05, 7.619657789974411e-04, 3.496165360300823e-03, 1.217895726914057e+06, 5.900135141045121e+06, -1.022895909574990e+05, 6.521348833459901e+05, -2.621185126901737e+05, 5.467603012684814e+05, 5.101649467628365e+06
1766, 3.807665382883139e-01, 1.625462206643663e+00, -3.871807940733866e-02, 9.713779274060121e-05, 1.121188485461789e-03, 3.114220986294124e-02, 1.009522346014921e+04, 3.070715917238634e+05, 9.917963807447575e+04, 3.842720663197636e+04, 2.701622379794301e+03, 5.704408243486212e+04, 3.462333248666036e+05
1767, 6.396864184192461e-01, 1.965387646455825e+00, -2.514050208850206e-02, 6.614443124498826e-05, 6.331655510556228e-04, 4.089349507520901e-02, 1.430213992908353e+04, 1.273952186021472e+04, 3.536686188501355e+04, -2.328908615327445e+02, 4.208813676557545e+03, 4.579754843693735e+03, 6.371425078682281e+04
1768, 9.742242877882087e-01, 1.940298507459067e-01, -1.978117685599095e-03, -3.858330015568678e-05, 1.203002765109845e-04, 5.051667622368861e-04, 2.854019145272931e+05, 2.502709715017994e+06, -5.820299813132828e+04, 1.961430607184269e+05, 5.749535356249220e+04, 1.986391305126075e+05, 2.293640731336124e+06
1769, 6.386736327784455e-01, 3.316240041253946e-02, -2.520477321589429e-02, -4.138565810680745e-06, 4.995739261920776e-05, 4.190774890369675e-05, 4.478121662080714e+06, 9.084945693441937e+06, -6.812830529519067e+04, 3.521987379857333e+06, 2.839040487119077e+04, 8.293655182486899e+05, 5.349920255659729e+06
1770, 3.807681119422444e-01, 5.754599450731815e-01, -3.871802169022374e-02, 4.722032701919791e-05, 9.110727966145874e-04, 5.887419699338894e-03, 9.038399834402771e+05, 5.006372831077730e+06, 3.815877343023809e+05, 5.610321783140361e+05, 3.489825360592372e+05, 6.856632147947622e+05, 4.535115147254565e+06
1771, 3.792306250377854e-01, 1.222847075328278e+00, -3.877432453895306e-02, 8.778625994521061e-05, 1.190497169962846e-03, 2.048136874179517e-02, 1.856093216347184e+05, 1.568487503403224e+06, 2.554093802630474e+05, 2.455840530547850e+05, 1.562982571665891e+05, 1.235794875510094e+05, 1.465542986701909e+06
1772, 3.811532058599985e-01, 9.239437418819892e-01, -3.870389218212311e-02, 7.582075407999884e-05, 1.146430315612158e-03, 1.313031745414541e-02, 2.724878428764904e+05, 2.222959376313293e+06, 4.392720252069223e+05, 3.478590186947165e+05, 1.682736416211204e+05, 1.897808638302942e+05, 2.105917568336049e+06
1773, 9.742242878191444e-01, 1.776119402984486e+00, -1.978117683250723e-03, 1.881297509565005e-05, 6.082635172631815e-05, 3.639182341280012e-02, -1.522341002465961e+04, 4.377852544881360e+04, -8.795323162086628e+03, 2.307430374169704e+04, -3.323257593945744e+03, 2.024028539549747e+04, 6.467238006505474e+04
1774, 3.846862623762531e-01, 1.673733098094215e+00, -3.857378020390986e-02, 9.716004843098383e-05, 1.102434426758003e-03, 3.245304060959838e-02, -8.460886234967486e+03, 1.506569996364728e+05, 7.392712312063745e+04, 3.357832675280805e+04, 9.520427667275782e+03, 4.684348423033093e+04, 2.089189235340139e+05
1775, 4.254955532768404e-01, 1.650178067393286e+00, -3.697181174232562e-02, 9.316187868383362e-05, 1.067530910539776e-03, 3.189791200274633e-02, -4.031207814298811e+03, 1.833065279122586e+05, 8.863416051235401e+04, 3.352099955052799e+04, -7.255381990681944e+02, 2.829369693104792e+04, 2.354609783173545e+05
1776, 9.731386553609768e-01, 1.446658132320103e+00, -2.060498778614268e-03, 1.675814096363526e-05, 1.798412874702282e-04, 2.730804287028527e-02, -2.078550922427683e+04, 2.383058296946446e+05, 1.799627485399271e+04, 5.328930781721519e+04, -4.435720437156197e+03, 1.902027757592984e+04, 2.356675504721069e+05
1777, 9.742242878181830e-01, 7.910447761173778e-01, -1.978117683323692e-03, -1.290184943658623e-05, 3.021509293954679e-04, 1.027468850930691e-02, -7.159733945327440e+03, 1.277745525055025e+06, -4.284780068092397e+04, -9.520462441065907e+04, 6.469197283031067e+04, 1.525040602611759e+05, 1.363707516821284e+06
1778, 9.742242878180402e-01, 1.208955223878513e+00, -1.978117683334588e-03, 8.900296940273639e-06, 2.472553466991087e-04, 2.082887282404344e-02, -1.960939874542546e+04, 4.345500207673095e+05, 1.735981291815294e+04, -9.191751603498143e+04, -9.723972233124798e+03, 9.752931030151645e+03, 4.957839952489958e+05
1779, 9.742242878180423e-01, 1.059701492534836e+00, -1.978117683334410e-03, 1.867107349234551e-06, 2.785554807641644e-04, 1.688593054653420e-02, 4.490660413738886e+03, 7.272189567955927e+05, 4.530708275210638e+03, -6.470279384057537e+04, 2.283377411919073e+04, 1.759505682897468e+04, 7.613714438860347e+05
1780, 3.831070660126948e-01, 2.759319853613729e-01, -3.863204412956364e-02, 2.760901420774853e-05, 5.641982119026952e-04, 1.601793249472426e-03, 2.146909251563584e+06, 7.694414877678761e+06, 5.128821304939705e+05, 1.145171521654660e+06, -4.533556680229958e+05, 5.714229909219091e+05, 6.302440310867885e+06
1781, 9.734290053099661e-01, 1.865145346158994e+00, -2.038472172830008e-03, 1.846049359446877e-05, 2.909166154407145e-05, 3.883862092529269e-02, -2.483617343954470e+04, 1.284121902161362e+04, 3.024392768297242e+03, -1.524947494623185e+03, 6.410610744901420e+03, 5.147238396436289e+03, 3.626160205503550e+04
1782, 8.416459865685209e-01, 3.265847985284903e-02, -1.160955861629693e-02, -1.083114014666098e-05, 2.776936624127556e-05, 1.165824097443258e-05, 1.195417050758727e+06, 2.942785389719167e+06, -3.772747962284299e+05, 9.747062117467466e+05, 4.484568259359278e+05, -2.818676435381225e+05, 2.180910363547311e+06
1783, 3.823770101511483e-01, 1.824485762915215e+00, -3.865892036403346e-02, 9.738770018526566e-05, 1.055155039306539e-03, 3.653157025730386e-02, -1.666815078837881e+04, 8.186739949703960e+04, 4.558529351328969e+04, 2.033302957687950e+04, -8.426939432954010e+03, 1.602832430689600e+04, 1.210381294011572e+05
1784, 5.014121653151297e-01, 4.245209679863993e-02, -3.330760173717134e-02, -6.762638949289745e-06, 9.044293526057172e-05, 6.902883559023465e-05, 5.075780494352797e+06, 1.082504989056354e+07, 1.540350165505947e+04, 3.671406809569146e+06, -4.830405479635981e+04, 1.020984497750999e+06, 6.799663695077225e+06
1785, 8.792629395301479e-01, 3.162160424739995e-02, -8.951244679623473e-03, -9.611850782641901e-06, 1.804268016260355e-05, 4.750742536988040e-06, 8.636153045373171e+05, 2.506750206634704e+06, -3.832075665689889e+05, 5.373020784983889e+05, 2.323083845915849e+05, -6.772778081900775e+05, 2.306753268336512e+06
1786, 8.606795934803406e-01, 6.432534928723842e-02, -1.027060167155231e-02, -2.174306119583080e-05, 5.173962342469585e-05, 5.258007692954259e-05, 7.931804233315365e+05, 3.069470123991619e+06, -3.441827708001232e+05, 2.858314602407861e+05, 3.290212549647273e+05, -2.317872715473978e+05, 2.726737483983612e+06
1787, 8.792629395301474e-01, 1.968378395752600e+00, -8.951244679623500e-03, 3.237383975601693e-05, 1.834324625303863e-04, 4.147211492640618e-02, 7.470319695409155e+03, -5.735304592959319e+03, 1.022562340316058e+04, -2.494465030722515e+03, 8.240946816168955e+03, 4.103546394983364e+03, 2.664659938066847e+04
1788, 5.044353811262996e-01, 1.960531943018699e+00, -3.314628320667482e-02, 8.298429448886030e-05, 8.551878183529898e-04, 4.047993938127286e-02, 9.895174424746203e+03, 6.393438816007212e+03, 4.424580601663125e+04, 8.909611196063064e+03, 1.090499553060957e+04, 1.051192366029690e+04, 8.106241271495908e+04
1789, 8.977714993742462e-01, 6.314162978895799e-02, -7.624418236319111e-03, -2.181748747037693e-05, 4.578595421945303e-05, 2.556781886423401e-05, 6.149443687506776e+05, 2.891072620178013e+06, -3.220502319566406e+05, -1.625885172006167e+05, 3.179272395244687e+05, -7.784675024619257e+05, 3.160300456536028e+06
1790, 8.804820756664340e-01, 9.572161075841773e-02, -8.864255290359771e-03, -2.741283189176477e-05, 8.204926056157996e-05, 1.136664641222113e-04, 7.678082438147976e+05, 3.099184121271197e+06, -2.328015085690355e+05, 2.796617694718909e+05, 2.119360052163187e+05, -3.381208488020487e+05, 2.729829800670458e+06
1791, 4.238913398269475e-01, 1.601447293845730e+00, -3.703984644377174e-02, 9.296771880711562e-05, 1.083901841268818e-03, 3.057916867093999e-02, -1.179254615771232e+04, 3.212518060025621e+05, 8.563397303687769e+04, 1.471792159822984e+04, -9.445187900767236e+03, 5.091587805732922e+04, 3.644675986970351e+05
1792, 4.663752300569512e-01, 1.627265832601754e+00, -3.509816817288979e-02, 8.797061020381384e-05, 1.023437333068623e-03, 3.135901889804399e-02, -4.168398450435156e+04, 2.029506892482725e+05, 9.866353484942553e+04, 3.029776602340161e+04, 2.717075893269569e+04, 5.405062679770995e+04, 2.959744997058973e+05
1793, 4.653778477581587e-01, 1.578544028872766e+00, -3.514684763949365e-02, 8.725064289440143e-05, 1.038466767126961e-03, 3.004230390754140e-02, -1.195463300316240e+04, 3.369208165644482e+05, 9.762587799569986e+04, 4.450880497127823e+04, 1.435079305084586e+04, 6.145191362139081e+04, 3.817627232214810e+05
1794, 5.056224829830036e-01, 1.602092404924563e+00, -3.308268232779622e-02, 8.143856788767750e-05, 9.767228230494196e-04, 3.075499671857518e-02, 3.465052495272417e+04, 2.966982130549189e+05, 1.014079976931399e+05, 6.604868215770161e+04, 4.782005207401587e+04, 6.819630840498456e+04, 3.362889355584327e+05
1795, 5.059465370099634e-01, 1.555688819535023e+00, -3.306529617016228e-02, 8.238051648017802e-05, 9.895095598986547e-04, 2.950276317113440e-02, 1.153457066543111e+04, 2.935029458817127e+05, 1.040067253245821e+05, 5.759733370158626e+04, 7.535889531564118e+03, 7.267391225819544e+04, 3.422086476251268e+05
1796, 5.436557510583039e-01, 1.574315984954227e+00, -3.096989283536030e-02, 7.705093660995144e-05, 9.291394714784837e-04, 3.007588022554958e-02, -2.054179109041469e+04, 2.415383341913213e+05, 1.146318115036006e+05, 5.364210499734397e+04, 1.813547375002735e+04, 5.565696150441631e+04, 3.231845489311019e+05
1797, 5.454791402331383e-01, 1.532042936469265e+00, -3.086521651188847e-02, 7.544355960236587e-05, 9.377056933034117e-04, 2.893965779551036e-02, 1.934114912626825e+04, 3.622319132705916e+05, 1.624754979944149e+05, 5.074019292680855e+04, 3.883018146435928e+04, 5.516990280265093e+04, 4.479318026373260e+05
1798, 5.847606238340101e-01, 1.555184943587370e+00, -2.854741840733312e-02, 7.055169562238117e-05, 8.688459087247309e-04, 2.963472583811760e-02, 8.465918291655013e+03, 2.640782866283840e+05, 1.086260577405805e+05, 5.321060044610097e+04, 1.016338362103943e+04, 5.868315591209382e+04, 3.192841336112965e+05
1799, 5.851978954921584e-01, 1.510350865908519e+00, -2.852100081709097e-02, 6.927150507550495e-05, 8.817789996737498e-04, 2.842588033675797e-02, 1.318702802672639e+04, 3.555865767539142e+05, 1.247182526427727e+05, 1.000132123796343e+05, 1.034323306948240e+04, 8.719335620358717e+04, 4.060048153084554e+05
1800, 5.800858767220471e-01, 1.606759622622591e+00, -2.882911688886639e-02, 7.220975688476683e-05, 8.603037311976230e-04, 3.102037926474027e-02, 6.452986311280703e+03, 1.659963756668688e+05, 9.869205980275740e+04, 5.569494933573325e+04, 5.680930429894890e+03, 7.454644361946637e+04, 2.569267172075308e+05
1801, 6.236255661321930e-01, 1.578728439791337e+00, -2.615369981298054e-02, 6.612675779224531e-05, 7.981039788637415e-04, 3.034092809748987e-02, -1.189297662576406e+04, 1.638620587628617e+05, 1.015723469986519e+05, 4.735381618156064e+04, 3.759546180551040e+03, 4.043237896610810e+04, 2.447134081928673e+05
1802, 6.224061228604425e-01, 1.626220398016016e+00, -2.623010402369105e-02, 6.712451482727283e-05, 7.846310788183417e-04, 3.162756026883048e-02, -1.010593930361826e+03, 1.629981647621256e+05, 1.090437334440156e+05, 3.469016461853901e+04, 7.998270422765883e+03, 6.079664918228630e+04, 2.631927089600122e+05
1803, 6.613142472873585e-01, 1.601041837874021e+00, -2.375738706109800e-02, 6.088547730737949e-05, 7.260486660893191e-04, 3.101423003242423e-02, -7.583953514733753e+04, 9.884301091078059e+04, 1.301990332188708e+05, -1.446474247918440e+04, 3.554917616009670e+02, 4.072480454224379e+04, 2.817641301104856e+05
1804, 6.609868148021417e-01, 1.644680320675411e+00, -2.377847301772552e-02, 6.215280221585906e-05, 7.122610274356150e-04, 3.220063060994613e-02, -1.152927093779936e+04, 1.342324165737581e+05, 1.211217054701767e+05, 1.257926780173056e+04, 2.188550185184410e+03, 5.739508862484094e+04, 2.687414191277047e+05
1805, 6.979287111847574e-01, 1.622847771479101e+00, -2.137302406404170e-02, 5.633403028357242e-05, 6.542142850816980e-04, 3.167353545485640e-02, -1.031021217927058e+04, 6.836543827441082e+04, 3.723198168706845e+04, 1.253590741890437e+04, 1.316455350958996e+04, 5.171990729139749e+04, 1.327320385375226e+05
1806, 6.982780955879272e-01, 1.580372068897496e+00, -2.135003885631068e-02, 5.569725311792631e-05, 6.680178791585653e-04, 3.051901089138996e-02, 3.680747593864770e+04, 1.218517525259506e+05, 3.773466339993950e+04, 1.882574008101462e+04, 6.964912825954900e+03, 2.382173722182553e+04, 1.233076863502211e+05
1807, 6.977047865626405e-01, 1.665079812571457e+00, -2.138775334260541e-02, 5.741100368318597e-05, 6.400819470201748e-04, 3.282353078861358e-02, -1.107895091326501e+04, 7.814838853259862e+04, 5.583138442995298e+04, 2.216380268032906e+04, 4.923409120639408e+03, 3.396538313722960e+04, 1.377879835154014e+05
1808, 6.238276181285181e-01, 1.666321209522641e+00, -2.614103265384313e-02, 6.770800084539893e-05, 7.685157562096270e-04, 3.271923908631433e-02, -1.726402980135490e+04, 1.133334316743526e+05, 9.590505845317023e+04, 3.016053215573812e+04, 4.655594597589333e+03, 4.350793232339324e+04, 2.155190096872838e+05
1809, 7.342873498608540e-01, 1.601699724750425e+00, -1.895987705894197e-02, 5.138369933376137e-05, 5.950864538676673e-04, 3.116280561222991e-02, 2.033585235844453e+04, 8.413538479859089e+04, 9.383547476343161e+03, 3.128155571524641e+04, 5.461059059172722e+03, 6.007374180690268e+04, 1.211282120609265e+05
1810, 7.346434458919181e-01, 1.560285406223165e+00, -1.893604398832883e-02, 5.051228950966880e-05, 6.079644419493633e-04, 3.003605962454440e-02, 4.531967208695874e+04, 1.451862768150814e+05, 4.564932070677766e+04, 5.301990477988114e+04, -1.256820214940840e+04, 6.779293411195974e+04, 1.725593884263938e+05
1811, 7.699281854446181e-01, 1.581008200393367e+00, -1.655615033093437e-02, 4.610425532314277e-05, 5.362285224833202e-04, 3.066096111414112e-02, -1.443354350567861e+04, 7.164728698604945e+04, -1.316776139748993e+04, 3.872238438582215e+04, -4.795097621379913e+03, 5.951708637587594e+04, 1.299067167084637e+05
1812, 7.701683649996394e-01, 1.540252693679715e+00, -1.653982811740691e-02, 4.542720173154879e-05, 5.497667950577628e-04, 2.955062790686597e-02, 4.143742500851185e+03, 8.825652755276739e+04, -1.036350879866974e+04, 3.890171546425672e+04, -7.800400355352170e+03, 8.952425144605101e+04, 1.729393184238402e+05
1813, 4.697984541520761e-01, 1.676550797430714e+00, -3.493005016223905e-02, 8.834543482956134e-05, 1.003394721597619e-03, 3.269919503421708e-02, -2.414712241916378e+03, 1.277954691284480e+05, 7.331501395131191e+04, 2.842715356761809e+04, 1.502378397285800e+03, 3.986437305363159e+04, 1.865195352495899e+05
1814, 7.352550406152119e-01, 1.519342229489217e+00, -1.889510258536221e-02, 4.989478077535060e-05, 6.208298161509487e-04, 2.892398623451738e-02, 4.035684607133060e+04, 1.284170481656628e+05, 1.583903132658379e+04, 3.614282014553243e+04, -2.012816017141000e+04, 6.098335137865422e+04, 1.458369152646991e+05
1815, 7.711182397134402e-01, 1.499424474601995e+00, -1.647526056924529e-02, 4.403212673602386e-05, 5.602652275423503e-04, 2.844126373999531e-02, 2.100372857135274e+04, 1.057856875221446e+05, 8.514924257455115e+03, 1.678767669996917e+04, 1.014162544374322e+04, 1.116312970232885e+05, 2.132461247576825e+05
1816, 7.362085512897146e-01, 1.478500486827090e+00, -1.883124976118006e-02, 4.834198466427755e-05, 6.320162581094245e-04, 2.781689911356877e-02, -1.225751425181824e+04, 9.045530860473291e+04, 2.640952136176470e+04, 1.288998746746038e+04, -1.701189996747850e+04, 5.724555565287797e+04, 1.462570119198001e+05
1817, 7.712531764913890e-01, 1.458634389058602e+00, -1.646608626079533e-02, 4.178211803994303e-05, 5.725842949247245e-04, 2.733359420046091e-02, 4.483416219884962e+04, 1.922158943111410e+05, 5.975913752421953e+03, 3.169381982815618e+04, 4.202616258643977e+04, 1.166650063100135e+05, 2.647047236637095e+05
1818, 7.365962134346669e-01, 1.437746595214707e+00, -1.880528155429092e-02, 4.535768829581899e-05, 6.424934399555356e-04, 2.671445326516961e-02, -1.425163445455287e+04, 1.249594960277554e+05, 2.541446974999866e+04, -1.543961352490282e+04, 4.099957985139091e+04, 7.817149946425231e+04, 2.118005252620208e+05
1819, 7.717208181477971e-01, 1.417902055511712e+00, -1.643428761895582e-02, 4.078575974757279e-05, 5.831926302922869e-04, 2.623180406326762e-02, 3.877831477043703e+04, 1.553229911210131e+05, 1.456822313313277e+04, -1.511046291186224e+04, 1.598718928003373e+04, 9.938478724566437e+04, 2.319538530532734e+05
1820, 7.370531385908813e-01, 1.396991898880368e+00, -1.877466773395886e-02, 4.373763785023993e-05, 6.540536072637687e-04, 2.561741553184620e-02, 5.856304860780630e+04, 3.115466395341498e+05, 1.010414018035971e+05, -1.071180755915858e+04, 3.319257342126653e+04, 6.658366351267674e+04, 3.654566910258455e+05
1821, 7.727677078152208e-01, 1.377152124987702e+00, -1.636307993726182e-02, 3.842799867209007e-05, 5.936914178980932e-04, 2.513303260720419e-02, 1.340426046553506e+05, 2.494101538444036e+05, -1.859565716658098e+04, 1.233568318215953e+05, 7.036006852573366e+03, 7.332182794818452e+04, 1.788038911897989e+05
1822, 7.378806923472975e-01, 1.356248733145260e+00, -1.871920573133483e-02, 4.293803971776311e-05, 6.615209084245392e-04, 2.452152618198727e-02, -3.604467803949057e+04, 1.551435854088871e+05, 8.122614569982972e+03, 1.767124624626075e+04, 1.612825648312744e+04, 8.077113712159944e+04, 2.229769509797465e+05
1823, 7.722974292406922e-01, 1.337306707974091e+00, -1.639507113950461e-02, 3.823646076730244e-05, 6.051995367156379e-04, 2.406127003219771e-02, 5.625717322282578e+04, 2.896769708064279e+05, 9.670355250790353e+03, 8.921353913287223e+04, -1.478189774818055e+04, 1.100409573404095e+05, 2.917899131061190e+05
1824, 7.384369610030934e-01, 1.315259827346702e+00, -1.868191338091908e-02, 4.065813561090342e-05, 6.714636342013969e-04, 2.342770358036755e-02, 6.049644658827758e+04, 4.387938596293860e+05, 7.373099033948309e+04, 1.123361395751617e+05, -1.801862638867586e+04, 5.910366000268274e+04, 3.923620548805031e+05
1825, 7.024730438173055e-01, 1.335248079780247e+00, -2.107374101175966e-02, 4.530128207093365e-05, 7.292255552019955e-04, 2.391412185302263e-02, 1.508069072976500e+05, 5.918759378271410e+05, 1.690549362722991e+05, 2.817765557619314e+04, 1.577680636237856e+04, 1.718167017774790e+04, 5.924853204111486e+05
1826, 7.033674763541053e-01, 1.293875922422594e+00, -2.101475485864707e-02, 4.520230334012498e-05, 7.384724933921505e-04, 2.281381990880531e-02, 8.945935931849420e+04, 4.032661070067221e+05, 8.511246672171257e+04, 3.514424665175805e+04, -1.730390011516802e+04, 7.308477739881919e+04, 3.963887991974388e+05
1827, 7.395897038581162e-01, 1.273888422246209e+00, -1.860460369227561e-02, 3.847113004178809e-05, 6.762522752866706e-04, 2.232752464833902e-02, 6.006338479751562e+04, 3.608413975415514e+05, 6.482914942824963e+03, 6.752469093737050e+04, 4.772973750611665e+03, 1.184629369479922e+05, 3.613498552526557e+05
1828, 7.042306371189313e-01, 1.252330146237277e+00, -2.095780678247126e-02, 4.130782793565491e-05, 7.427490616796310e-04, 2.171735394942581e-02, 8.723292027205185e+04, 8.990765603838301e+05, 1.976452119663203e+05, -1.366095669492315e+04, -3.594096052602649e+04, 1.395749154404910e+05, 9.647224166422818e+05
1829, 7.405145524681308e-01, 1.232487869535473e+00, -1.854254930452812e-02, 3.327573219796820e-05, 6.798073009386500e-04, 2.123679976671631e-02, 1.592570482260555e+05, 6.287011810148645e+05, 2.756237705973345e+04, 1.327996211578260e+05, 6.417633474721959e+04, 1.920589607894986e+05, 5.989932104237181e+05
1830, 7.053718853175605e-01, 1.210803484912280e+00, -2.088247553080092e-02, 3.699538887004528e-05, 7.444590680929534e-04, 2.062919399959870e-02, 1.090650595126578e+04, 6.473482907109366e+05, 1.012065464824881e+05, 8.127239832731803e+04, 1.401179807637929e+04, 1.738406196247848e+05, 6.980004869419899e+05
1831, 7.415564068259418e-01, 1.190995017658009e+00, -1.847261399692007e-02, 3.314280743853260e-05, 6.860236704995554e-04, 2.015052833784059e-02, 1.530686393166737e+05, 4.158685852770245e+05, -1.165992983065170e+04, 1.708951075626268e+05, 3.280120756873221e+02, 1.384851523859924e+05, 3.501990814323105e+05
1832, 7.063274484744285e-01, 1.169298608109336e+00, -2.081936985710401e-02, 3.491592134027832e-05, 7.507302207995017e-04, 1.955153900753909e-02, 2.005342705363316e+05, 8.632977291763985e+05, 9.923454848029789e+04, 2.516693347981485e+05, 5.109733333937136e+04, 1.321904944174632e+05, 7.055338578410750e+05
1833, 7.425139366833674e-01, 1.149492650480648e+00, -1.840831109039481e-02, 3.014181099343649e-05, 6.890283802485754e-04, 1.907400300790557e-02, 6.582023550953329e+04, 5.696188968808569e+05, -2.815225975522793e+04, 2.288821673621916e+05, 5.162885101711147e+03, 1.961470543856867e+05, 5.622548514680064e+05
1834, 7.080116147405686e-01, 1.127679201126767e+00, -2.070807185367408e-02, 3.459363781770086e-05, 7.527327249892274e-04, 1.848170445993749e-02, 8.938282349680481e+04, 6.392568279941885e+05, 8.698613641254148e+04, 1.231722600245322e+05, 5.839920729700773e+04, 7.891542149598453e+04, 5.801183597698022e+05
1835, 7.435876212063540e-01, 1.108145490375409e+00, -1.833617631164269e-02, 2.362251634150780e-05, 6.889601453942120e-04, 1.801375619802192e-02, 1.894371146925380e+05, 8.594801388488522e+05, 8.493882815482825e+04, 2.616116506213775e+05, 9.078017735259424e+04, 2.438098307473036e+05, 7.940424482537331e+05
1836, 7.092051360524855e-01, 1.086499341577146e+00, -2.062913607370415e-02, 2.796111002537766e-05, 7.542123618713495e-04, 1.743577135262103e-02, -2.609357980110516e+04, 1.247905380729402e+06, 1.271187172405215e+05, 1.087603422511786e+05, 8.854871355854294e+04, 8.701014841102246e+04, 1.250666862847335e+06
1837, 7.445968324527253e-01, 1.066745476402366e+00, -1.826834307442416e-02, 2.292741539763193e-05, 6.927021775256989e-04, 1.696247289253838e-02, 3.237414084320220e+05, 7.632396168649101e+05, 9.580291738640156e+04, 2.094085522854736e+05, 7.700353344302245e+04, 1.653233532880672e+05, 6.195146693229880e+05
1838, 7.102322651986835e-01, 1.044857072750157e+00, -2.056116478545871e-02, 2.783846081801642e-05, 7.536059957116816e-04, 1.638554207145552e-02, 1.479196520702955e+05, 6.008250482009496e+05, -7.039792457535178e+04, 1.988627597720032e+05, -7.254099748444333e+04, 1.104595006610924e+05, 5.019005736730756e+05
1839, 7.458482657816423e-01, 1.025044261421571e+00, -1.818418911688833e-02, 2.236049276612556e-05, 6.919941033521129e-04, 1.591176350664851e-02, 1.994453707023027e+05, 5.641644420647481e+05, 7.742311142283364e+03, 2.819807960389431e+05, -1.783467881031900e+04, 2.182222811437830e+05, 5.037130166878390e+05
1840, 7.112602987762983e-01, 1.003609588501772e+00, -2.049309725605426e-02, 2.445298347868163e-05, 7.536968321249921e-04, 1.535912428673450e-02, 2.123490357305509e+05, 7.993125904846664e+05, 4.098835680776870e+04, 2.013882855432213e+05, -4.017966069701113e+04, 1.501025353621186e+05, 6.546415649009581e+05
1841, 7.468466702903487e-01, 9.836317301783879e-01, -1.811701897100351e-02, 1.695890125450253e-05, 6.896583852775799e-04, 1.488633632142203e-02, 1.852282394759953e+05, 9.403918219851756e+05, -1.533385430937252e+04, 2.366619786812185e+05, 7.724498375382483e+03, 1.549831960623394e+05, 7.791150988083602e+05
1842, 7.121450983469457e-01, 9.620132163026172e-01, -2.043448489296216e-02, 1.784317198656911e-05, 7.461577254239994e-04, 1.434608773786997e-02, 5.972447644153464e+05, 2.247663807813794e+06, 1.944851874367460e+05, 4.320989503394769e+05, 1.021147197159020e+05, 1.404347586836044e+05, 1.796562671295338e+06
1843, 7.476096876613263e-01, 9.421625292257296e-01, -1.806566650678736e-02, 1.254049372963889e-05, 6.863740174500783e-04, 1.387706425175766e-02, 3.195253191377418e+05, 9.878294048616994e+05, 6.746503585906130e+04, 3.852147069659902e+05, 3.768948277912461e+04, 2.677800873050645e+05, 8.000497299496150e+05
1844, 7.131381623261910e-01, 9.207832739652713e-01, -2.036866988423871e-02, 1.621249349318971e-05, 7.408276148053450e-04, 1.334974970962497e-02, 1.130869531149694e+05, 6.375206827155943e+05, -8.308313395767391e+03, 2.030840533093831e+05, 6.246431003779898e+04, 1.386210363087258e+05, 5.527137860591899e+05
1845, 7.486703751228325e-01, 9.005016920835811e-01, -1.799425384157093e-02, 7.127850316868134e-06, 6.808938273163614e-04, 1.287894343302903e-02, 9.517041309910452e+04, 5.768501974750179e+05, -4.016770947676542e+04, 1.996072581799219e+05, 9.020186138164326e+04, 3.272540037937616e+05, 7.369887131486773e+05
1846, 7.136092360432531e-01, 8.793287515018611e-01, -2.033743841675993e-02, 9.628434875473546e-06, 7.347327053366590e-04, 1.237231716847328e-02, 2.539057251128360e+05, 1.528338646842170e+06, -4.028614130052931e+04, 4.604342587007391e+05, 1.474300874886517e+05, 2.444732599660799e+05, 1.285691985213158e+06
1847, 7.497211593099417e-01, 8.591714129401182e-01, -1.792347618269511e-02, 3.572765497901476e-06, 6.704496845190352e-04, 1.190757700892021e-02, 4.049590904250491e+05, 1.188730131390916e+06, 7.944543111854901e+04, 4.920745966215530e+05, 3.384843267153341e+04, 3.482934691239114e+05, 9.694866918960727e+05
1848, 7.145511936486284e-01, 8.379837854187541e-01, -2.027496683496036e-02, 8.063439353556134e-06, 7.225605955769633e-04, 1.141476321319718e-02, 9.168511399722667e+04, 1.015176500156719e+06, -3.274310798961815e+04, 1.459802022536010e+05, 9.170551397162116e+04, 2.408170111678236e+05, 1.004025789732656e+06
1849, 7.508331672242891e-01, 8.182155696104354e-01, -1.784853783186439e-02, 3.056657454758582e-06, 6.698057513221008e-04, 1.096811422229681e-02, 3.938499646162486e+05, 1.117902298508789e+06, 1.979377274191635e+05, 3.656937451875156e+05, -1.012329078330433e+04, 2.450894862104728e+05, 9.184134008756073e+05
1850, 7.154418825675757e-01, 7.966898172493573e-01, -2.021586986033101e-02, 4.920117876977548e-06, 7.126351848005114e-04, 1.048267796715232e-02, 8.299694053601206e+05, 2.233813488482930e+06, -4.402921025965141e+03, 6.508093661428329e+05, 1.340726606822102e+05, 1.790389169917828e+05, 1.550657500520078e+06
1851, 7.512408205943351e-01, 7.871491870511207e-01, -1.782105661213400e-02, 5.334153927036116e-06, 6.589071186377041e-04, 1.026948071766318e-02, 8.578384902024762e+05, 2.421181570278583e+06, 3.400792386113082e+05, 8.213899440864205e+05, -2.232165767683505e+05, 2.382350162459388e+05, 1.780184827431743e+06
1852, 7.233730237387138e-01, 7.569986564115467e-01, -1.968860458090357e-02, 1.721469047269442e-06, 6.914440944182573e-04, 9.605452675674520e-03, 6.594780932510662e+05, 1.644374305707486e+06, -9.500121528362042e+03, 6.123735575874154e+05, 3.216458498993989e+04, 2.043288021336791e+05, 1.071101153957821e+06
1853, 7.532646106849016e-01, 7.255972804193562e-01, -1.768455268519423e-02, -3.715342709390002e-06, 6.380390543840181e-04, 8.921882755405480e-03, 3.091757298302078e+05, 1.329430923180820e+06, -7.999705429158910e+04, 6.657459250747246e+05, 5.983289237481848e+04, 2.670600589463548e+05, 1.023802767417848e+06
1854, 7.187726097979115e-01, 7.128192095816948e-01, -1.999466543635647e-02, -1.039642117145467e-06, 6.873253906792276e-04, 8.657813335558852e-03, 2.739204118896485e+05, 8.741655074301413e+05, -1.926564069994101e+04, 1.764777206717126e+05, 9.874249287387283e+04, 1.451726804096464e+05, 7.224041847439591e+05
1855, 7.536054918229997e-01, 6.915825788310312e-01, -1.766154841727001e-02, -9.886075081254331e-06, 6.228270490151386e-04, 8.205689774750474e-03, 4.235856539426003e+05, 1.263466136133534e+06, -1.363078221294573e+04, 5.408671137883209e+05, 1.390114876719659e+05, 4.646331412377471e+05, 1.151882632795736e+06
1856, 7.186857964414101e-01, 6.729210931193552e-01, -2.000043508853609e-02, -9.997850271235235e-06, 6.780434199651214e-04, 7.834286444981596e-03, 4.083131997721706e+05, 3.009283836194314e+06, -3.108888354147170e+04, 3.789238562935793e+05, 1.977122551846080e+05, 4.445808170929331e+05, 2.748723172097006e+06
1857, 7.542644885608194e-01, 6.524613030180502e-01, -1.761706654702551e-02, -1.639806239181821e-05, 6.082882944560492e-04, 7.403412067102143e-03, 4.574950762512044e+05, 1.753196195643858e+06, -1.506703357551246e+05, 3.984795416469144e+05, 2.888337142746823e+05, 3.887569742247808e+05, 1.590775303783779e+06
1858, 7.198958885655821e-01, 6.316934001077963e-01, -1.991999283580547e-02, -1.092161545211690e-05, 6.397786257196086e-04, 7.003202356131812e-03, 4.916619277952868e+05, 1.982837905468478e+06, 2.493366015247312e+04, 4.019898346880636e+05, 9.913242043404438e+04, 2.520482812137740e+05, 1.608507237328630e+06
1859, 6.837556615251301e-01, 6.904325639881506e-01, -2.230187565617498e-02, -4.215507142169581e-06, 7.203508590586521e-04, 8.204136744186919e-03, 6.346837503319231e+05, 3.413295721885460e+06, 4.431137318810567e+05, 4.540298679188799e+04, 1.527637796862044e+05, 5.332273425091163e+05, 3.349234650276423e+06
1860, 7.551316018637753e-01, 6.117347781210555e-01, -1.755851767685650e-02, -1.610079263632269e-05, 5.852451491506205e-04, 6.601582711610730e-03, 5.554195828868266e+05, 1.878512259882622e+06, -9.905053203815786e+04, 6.424600226443370e+05, 4.621961121225532e+04, 2.384970875131933e+05, 1.359952964244431e+06
1861, 7.209649127835178e-01, 5.906016122986035e-01, -1.984889471980935e-02, -1.515375788302333e-05, 6.157767388903154e-04, 6.223597602418071e-03, 9.446830646968076e+05, 2.796478035446284e+06, 5.726960246320438e+04, 7.742492757366743e+05, 1.732842007558420e+05, 2.780302860200418e+05, 2.026234169088392e+06
1862, 7.560868415196469e-01, 5.707772447544328e-01, -1.749399328258635e-02, -1.511729324398838e-05, 5.671332530706591e-04, 5.837115727668152e-03, 4.876553425968601e+05, 1.627297080792455e+06, 4.589793197010928e+04, 4.904606325141673e+05, -1.387129673161580e+05, 2.291945961019210e+05, 1.231758233843323e+06
1863, 7.219022025232464e-01, 5.493595023636804e-01, -1.978652894409749e-02, -1.499194215463101e-05, 5.997905361499675e-04, 5.459056075315254e-03, 8.400750568677695e+05, 2.681851006538952e+06, 1.879443539322541e+05, 7.425227862449645e+05, -1.806183208098488e+04, 2.304246746133868e+05, 1.961519574725475e+06
1864, 7.572408587765066e-01, 5.296487883440516e-01, -1.741600721221723e-02, -2.108379705567133e-05, 5.426001288896184e-04, 5.087741242390878e-03, 6.675440696630443e+05, 1.664589846661497e+06, -8.186669655747301e+04, 7.472935067177752e+05, -5.408807658497394e+04, 4.053159224764826e+05, 1.201112997951543e+06
1865, 7.229131458727061e-01, 5.083534301098308e-01, -1.971922990923969e-02, -1.256966506334167e-05, 5.668833099444145e-04, 4.746703530327634e-03, 8.841002623821453e+05, 1.737409125692359e+06, 1.451984439654931e+04, 5.483297083133510e+05, -1.813946395157511e+05, 1.772298981555933e+05, 1.149334461672794e+06
1866, 7.582762539967847e-01, 4.882455902113846e-01, -1.734600548464262e-02, -2.147973284256227e-05, 5.081037387877144e-04, 4.383327312176610e-03, 2.487370901429526e+05, 1.961879392722221e+06, -2.131494028823578e+05, 5.032405435141094e+05, 3.960029384757477e+04, 5.121188727076172e+05, 1.868536244646468e+06
1867, 7.237631185837243e-01, 4.672129488113216e-01, -1.966262106815554e-02, -2.209451484526392e-05, 5.349475268018045e-04, 4.073027767413445e-03, 8.888928384410995e+05, 2.875751244544587e+06, -4.290010585201527e+04, 5.048350269100186e+05, 1.766432599407744e+05, 3.952278442579814e+05, 2.329360458902112e+06
1868, 7.590413325498536e-01, 4.471516625487907e-01, -1.729426037316060e-02, -3.052095538899624e-05, 4.830470520035546e-04, 3.732596928229359e-03, 1.049855958926349e+06, 4.176926789391285e+06, -1.862562502630772e+05, 9.768625440176253e+05, 2.644831354030732e+05, 5.263238961528701e+05, 3.340229675628685e+06
1869, 7.247843774970851e-01, 4.262109136343794e-01, -1.959457382990852e-02, -2.066851998511199e-05, 5.025242629587562e-04, 3.438179396900998e-03, 9.133934833093812e+05, 3.392340775195296e+06, -2.431613313254318e+05, 8.569822805291015e+05, 9.734859913444675e+04, 2.458178719930908e+05, 2.583659057441917e+06
1870, 7.598797210184547e-01, 4.169187234608948e-01, -1.723753856056486e-02, -2.839701257146589e-05, 4.462534407496319e-04, 3.265094019259007e-03, 3.736809307025986e+05, 1.675896595535019e+06, -6.267712127890824e+04, 9.054648371577774e+05, 2.785904533773367e+05, 2.572830770778760e+05, 1.315016866657742e+06
1871, 7.324522603585766e-01, 3.870369374716655e-01, -1.908264308086954e-02, -2.324824099918937e-05, 4.440497338289023e-04, 2.874249117881256e-03, 1.021531043724419e+06, 2.949895802843668e+06, -1.725764989045133e+05, 1.270994201475266e+06, 7.910892671049658e+04, 4.770112345616206e+05, 2.022500510174226e+06
1872, 7.621187726995753e-01, 3.559291321387326e-01, -1.708596061866510e-02, -2.383704082492555e-05, 4.000232118396146e-04, 2.442824013974318e-03, 5.709732625133293e+04, 9.131273307614336e+05, -1.295924721033593e+05, 2.278039455956725e+05, 3.099300785713991e+05, 2.937021027777863e+05, 1.101423394157750e+06
1873, 7.278787929173132e-01, 3.430041881490267e-01, -1.938819193610867e-02, -2.414825594184052e-05, 4.236330087590418e-04, 2.300473879171747e-03, 7.829731232235552e+05, 1.764601669584538e+06, -1.717491609816661e+05, 5.388211758116328e+05, 4.248081396671379e+05, 2.685308636329934e+05, 1.452266146865479e+06
1874, 6.912384397470850e-01, 3.640266742352356e-01, -2.181232751919550e-02, -2.158520778199405e-05, 4.848760431661533e-04, 2.601194831324496e-03, 1.596158278759734e+06, 4.890397195422284e+06, -2.156837198221763e+05, 6.765562182142278e+05, 4.203671872771122e+05, 2.637439013610802e+05, 3.950371316652140e+06
1875, 6.916683651611779e-01, 3.224117103037249e-01, -2.178414499475716e-02, -2.593096546363305e-05, 4.527525103280861e-04, 2.064041046205972e-03, 5.760273573466117e+05, 2.060602409813980e+06, -9.401483792495106e+04, 1.647823427376393e+05, 3.367227376685425e+05, 1.770872791324488e+05, 1.855896636755410e+06
1876, 6.888079635156027e-01, 4.911409285871483e-01, -2.197154238181474e-02, -1.811601940850810e-05, 5.967008692928499e-04, 4.482503899051832e-03, 1.208149348378848e+06, 3.741715276871451e+06, 1.727572593489735e+05, 5.241525111279911e+05, -2.518250893104648e+04, 3.107986379701491e+05, 3.000164018479160e+06
1877, 6.787469739547795e-01, 8.578196125324151e-01, -2.262842430149692e-02, 1.478493674074779e-05, 7.825814699499445e-04, 1.186218530416838e-02, 1.485274117285087e+05, 2.190820443142461e+06, 1.238710190797555e+05, 2.489045237294649e+05, 5.076756003334078e+04, 1.210021371416868e+05, 2.018347242067129e+06
1878, 6.681797902896820e-01, 1.312847052113801e+00, -2.331421776022808e-02, 4.903938185302562e-05, 7.922772837558739e-04, 2.326924370488986e-02, -4.061964154955118e+04, 4.258140701286686e+05, 1.491291665265584e+05, 1.453783389375559e+04, -9.074679733059544e+03, 1.103503841055637e+05, 5.462349720309062e+05
1879, 6.737301494454293e-01, 1.145433402307169e+00, -2.295452130025695e-02, 3.854827366234215e-05, 8.048824545766782e-04, 1.890340160077372e-02, 5.150137376589899e+04, 8.843568103438676e+05, 2.119114807361817e+05, 6.561561122141950e+04, -7.756592728461161e+03, 1.216200264362242e+05, 9.280983160340070e+05
1880, 6.789198686020771e-01, 9.877186723247524e-01, -2.261716885582104e-02, 2.727159002165191e-05, 8.005322938454684e-04, 1.494989177965424e-02, 2.329325536476516e+05, 1.611248138890439e+06, 2.327143910550966e+05, 3.662303582584215e+04, 1.817373463264287e+04, 1.934895273317082e+05, 1.576274454567150e+06
1881, 7.626142859621368e-01, 3.224376396081499e-01, -1.705239753126252e-02, -2.430280393131423e-05, 3.830674461671874e-04, 2.026800051005709e-03, 4.145573583193700e+05, 1.808170045571242e+06, -2.576764231336254e+05, 6.080155230651269e+05, 2.331621919848152e+05, 2.972177316658832e+05, 1.528815558271886e+06
1882, 6.548242512534906e-01, 3.422999118572977e-01, -2.417453533846625e-02, -2.506136498027500e-05, 4.896115376904764e-04, 2.330272490294813e-03, 1.513804154034454e+06, 5.175221151776996e+06, -5.975688671324970e+02, 1.075769744653296e+06, 5.059222562700308e+05, 4.517019466571055e+05, 4.072057491310674e+06
1883, 6.556597425291484e-01, 2.998035170633007e-01, -2.412093027882429e-02, -1.254469853720352e-05, 4.486620802498786e-04, 1.813632002345855e-03, 1.365610384694218e+06, 4.910090123032461e+06, 9.073426781463208e+04, 2.993845938511075e+05, 1.556273869038059e+05, 4.231151605401052e+05, 4.256034169817503e+06
1884, 6.181507896624479e-01, 3.202252431783883e-01, -2.649608282486465e-02, -1.433962381710424e-05, 4.972596792412465e-04, 2.071373827651914e-03, 1.625330945813854e+06, 5.766031961938013e+06, -2.085757581239424e+05, 3.896203680436173e+05, 1.988960419835976e+05, 3.058212970295497e+05, 4.931416026486221e+06
1885, 6.193268939717858e-01, 2.771176545886922e-01, -2.642267272185020e-02, -1.752662133663283e-05, 4.403231199983579e-04, 1.587434813010907e-03, 2.524811687971780e+06, 7.083338527386567e+06, 5.593065663693352e+05, 5.475492075335252e+05, 6.654966163144918e+04, 4.314476959506610e+05, 5.934082689752830e+06
1886, 6.573741961746780e-01, 2.568030485335555e-01, -2.401083967107010e-02, -2.281169898018034e-05, 3.961846270154890e-04, 1.351903006861305e-03, 2.326921961835898e+06, 6.086736776963295e+06, -5.047182997400918e+04, 5.574861775025011e+05, 2.082712694367766e+05, 4.474736460285773e+05, 4.965715687475049e+06
1887, 7.780234990831205e-01, 1.172271990447745e+00, -1.600514829334326e-02, 2.712644919374962e-05, 6.258736741922843e-04, 1.969584148123302e-02, 3.445993715449699e+04, 2.159641310900863e+05, -2.737471746946554e+04, 1.179750745908111e+05, -1.494082370412804e+04, 1.621163404186595e+05, 3.263788236024284e+05
1888, 7.838493296297310e-01, 9.210461848422764e-01, -1.560748724787751e-02, 4.249516677242880e-06, 6.263581766532984e-04, 1.337574403537872e-02, 2.783435850218756e+05, 1.361422610619806e+06, -1.011294706163249e+04, 4.952931971868339e+05, 2.340507328088989e+05, 3.126537669533798e+05, 1.201273041823379e+06
1889, 7.946895605050448e-01, 4.275678947515452e-01, -1.486500587250367e-02, -3.432449873023036e-05, 4.269234583537014e-04, 3.394950795709464e-03, 9.094682584117345e+05, 2.699736997779142e+06, 1.067130113017435e+05, 1.116155605877876e+06, 2.888730886859829e+05, 4.120199225137685e+05, 1.916127124137725e+06
1890, 7.924294826061902e-01, 5.511056021820243e-01, -1.502008752851391e-02, -2.595657431301440e-05, 5.158093167726419e-04, 5.443406802241930e-03, 4.420844196122176e+05, 2.138281167491777e+06, -1.901658774339187e+05, 7.321639322299907e+05, 8.727479559104244e+04, 2.858605140136137e+05, 1.686916168131184e+06
1891, 7.885758895436216e-01, 7.158798803376207e-01, -1.528416503297390e-02, -1.069950550543208e-05, 5.855403618522798e-04, 8.703152376607015e-03, 2.053224002060521e+05, 8.336566875003702e+05, -2.884295843839194e+04, 3.599514404829612e+05, 1.689976784983634e+05, 4.204303567989285e+05, 9.695446551816934e+05
1892, 6.206566132611702e-01, 2.340196263144983e-01, -2.633957933579443e-02, -2.310316959740558e-05, 3.731855381294696e-04, 1.139565083593906e-03, 2.419438519061389e+06, 5.880433917523049e+06, -1.509186295778689e+05, 1.103787075206285e+06, 2.427135219835210e+05, 8.292327593771847e+05, 4.535507824957155e+06
1893, 7.807742743403082e-01, 1.046620250356385e+00, -1.581750471682093e-02, 1.999289380131414e-05, 6.346380849110850e-04, 1.647781202036181e-02, 4.158500738426918e+04, 5.888793898156529e+05, 4.788716331471159e+04, 9.094231531560517e+04, -4.286901847956450e+04, 2.229233413277762e+05, 6.606296657869946e+05
1894, 6.172250009303086e-01, 3.639292204636897e-01, -2.655381210843596e-02, -1.627871638151812e-05, 5.547218207843305e-04, 2.620473184570662e-03, 1.415676460709823e+06, 4.483069467433824e+06, 1.295035431685556e+05, 9.069136648064732e+05, 3.080146238102108e+05, 2.155370134373091e+05, 3.420908654646727e+06
1895, 6.587120965249904e-01, 2.139952840230746e-01, -2.392484521394750e-02, -1.233133145579768e-05, 3.292301389010190e-04, 9.518862845071183e-04, 2.617987454598276e+06, 6.738163155244986e+06, -7.461367224182653e+05, 4.430608144506522e+05, 1.522287434195910e+05, 9.372313969298735e+05, 5.919638710125371e+06
1896, 8.074999442418875e-01, 1.398069420476751e+00, -1.398333870124327e-02, 3.584268916872330e-05, 5.232326306788141e-04, 2.574602071097803e-02, 7.789832310506552e+04, 2.298985280886783e+05, 4.245205788354763e+04, 6.537713861905427e+04, -1.879699253568268e+04, 8.671309264742523e+04, 2.327832870606286e+05
1897, 5.797739248873938e-01, 3.410650052304506e-01, -2.884786562983085e-02, -1.160563361475922e-05, 5.445311598107766e-04, 2.337685915117235e-03, 1.635131870597446e+06, 4.913643965277230e+06, 8.266449127892192e+04, 1.014353045356399e+06, 2.058421046446023e+04, 4.667495083750989e+05, 3.720829945821886e+06
1898, 5.788412250144086e-01, 3.854632292383489e-01, -2.890388357193861e-02, -1.188485435922593e-05, 6.025827892934266e-04, 2.927383725783541e-03, 1.309318716477869e+06, 4.974297998127774e+06, -3.249293402875063e+04, 5.073789689436410e+05, 1.670082928027199e+05, 9.297179048335597e+04, 4.138483659119593e+06
1899, 8.052618160555315e-01, 1.560792100294782e+00, -1.413770100294822e-02, 4.098640417898869e-05, 4.762503310109800e-04, 3.016993502721443e-02, 1.798875390165967e+04, 1.030826397461385e+05, -1.372049498023447e+04, 4.432786498987245e+04, 7.581564054980635e+03, 9.057995725818092e+04, 1.761953550114017e+05
1900, 8.046024221045323e-01, 1.600644264442969e+00, -1.418315182259580e-02, 4.199346935175596e-05, 4.650325547319034e-04, 3.125817856209373e-02, -1.297469755070641e+04, 8.281732602443105e+04, 6.281833687720464e+04, -7.485242855449673e+03, -5.382871755616746e+03, 5.354894377280332e+04, 1.709041378273299e+05
1901, 7.970037456455568e-01, 3.461103042463115e-01, -1.470606151939085e-02, -3.154134388630436e-05, 3.630796282643872e-04, 2.284186260614662e-03, 1.007687760090680e+05, 1.325210307383495e+06, 1.654572253374186e+03, 3.837051580557814e+05, -2.547369726714900e+03, 2.197156356982097e+05, 1.173764697433783e+06
1902, 7.978538722125571e-01, 3.060263497926780e-01, -1.464763551752797e-02, -3.121552761270463e-05, 3.413586206878622e-04, 1.790255523018675e-03, 8.077180047725793e+05, 2.704107919764393e+06, 2.877084040004608e+05, 1.155755887466697e+06, 2.258116731992411e+05, 2.311935514269671e+05, 1.902383251034731e+06
1903, 7.894749998562840e-01, 6.367910902283540e-01, -1.522259123144202e-02, -1.736935433273301e-05, 5.577241080919129e-04, 7.072392034737057e-03, 2.565318916133189e+05, 1.392950377845731e+06, 2.140928556940699e+04, 5.607812131668394e+04, 3.254460165275109e+04, 2.968816103037167e+05, 1.352182183547230e+06
1904, 7.866323070372850e-01, 7.984224803487039e-01, -1.541719086185537e-02, -2.439933853688736e-06, 6.083461420183511e-04, 1.051559066357419e-02, 3.853529103805712e+05, 1.298636304557880e+06, -9.439433197917566e+03, 3.917493161987249e+05, -3.726093400432028e+04, 3.577449201722783e+05, 1.103024235864472e+06
1905, 7.758623059760349e-01, 1.254086780935681e+00, -1.615242153299219e-02, 3.273900946553290e-05, 6.145034998881020e-04, 2.184610577063696e-02, 2.056297210940201e+05, 6.199415971956940e+05, 8.750986552343766e+04, 1.813692482336115e+05, -2.295027994540885e+04, 2.104457185381173e+05, 5.828469613387298e+05
1906, 5.463989351041967e-01, 1.487496708795888e+00, -3.081230410449873e-02, 7.433850606997430e-05, 9.487087768936045e-04, 2.774177657777947e-02, 3.304386363406671e+03, 3.371669766386602e+05, 1.117457626271532e+05, 1.666506978157108e+04, 2.757422735551976e+04, 7.662728718566158e+04, 4.056349202611897e+05
1907, 8.055332151506971e-01, 1.481771869038042e+00, -1.411899038883452e-02, 3.927246713023198e-05, 5.019260182841725e-04, 2.801572322713528e-02, 3.527737596568230e+04, 1.731427495992216e+05, 1.465398974192589e+04, 5.537118776688754e+04, 4.251122901887350e+03, 1.083347812878605e+05, 2.292337028930048e+05
1908, 7.226140784232988e-01, 1.964741595879747e+00, -1.973914246826213e-02, 5.456925180761379e-05, 4.842919583715292e-04, 4.104765072658445e-02, 1.179450668292557e+03, -4.741478123474164e+03, 3.155615430725982e+03, -2.707676524607639e+03, 1.149789266649241e+04, 4.521415806660987e+03, 2.269272324992911e+04
1909, 3.825347786920527e-01, 1.767681969859990e-01, -3.865311532745704e-02, 4.868086031206351e-06, 3.674845787756814e-04, 7.147632970233991e-04, 2.414050270083709e+06, 6.968098561357107e+06, 3.637355577215129e+04, 1.367853174426220e+06, 1.312173006427184e+05, 1.236929472530705e+06, 5.589626365394576e+06
1910, 3.808663819831555e-01, 1.324229074554093e+00, -3.871441707154284e-02, 9.592755229393020e-05, 1.186186254789390e-03, 2.311690615953135e-02, 5.221798312211897e+04, 1.100930606239326e+06, 1.303928207168526e+05, 1.189963738710534e+05, -6.205146652023716e+04, 2.773840115088694e+04, 1.048376102025022e+06
1911, 3.808942741240076e-01, 6.742479655853085e-01, -3.871339383976782e-02, 6.404286747785370e-05, 1.020183044631398e-03, 7.736776276608293e-03, 3.711979644916076e+05, 3.474034792245947e+06, 2.499953306041041e+05, 3.338408498061064e+05, -2.649967065753845e+03, 1.342712013539922e+05, 3.160143239538059e+06
1912, 8.429875935334618e-01, 9.711554165557335e-02, -1.151557338438738e-02, -2.603752628853317e-05, 9.033914002968407e-05, 1.509528911753967e-04, 8.571205103186767e+05, 3.340711664453483e+06, -1.633036481344241e+05, 9.037816448187795e+05, 3.364543693002223e+05, 8.648051399389122e+04, 2.548835148009920e+06
1913, 8.628812575730577e-01, 1.288291637287359e-01, -1.011493067555619e-02, -3.268021879297700e-05, 1.197287528995616e-04, 2.608630493201591e-04, 8.988524565249772e+05, 3.118324642561651e+06, -1.366813732081355e+05, 8.594610768720491e+05, 3.345880862984891e+05, 3.378875348157258e+04, 2.326016881344805e+06
1914, 8.254127298321355e-01, 1.300310160788172e-01, -1.274245768809491e-02, -2.999290253537755e-05, 1.318897097453281e-04, 2.978554444234630e-04, 5.873003437531864e+05, 2.389982280364272e+06, -1.093227348143824e+05, 1.194669882752785e+06, 4.512336080809627e+05, 2.149751292334021e+05, 1.819065263117305e+06
1915, 5.824369442308521e-01, 2.542484362638577e-01, -2.868761200604968e-02, -2.174556171884471e-05, 4.359614926160230e-04, 1.361176057760094e-03, 2.329959797406182e+06, 6.505998420560131e+06, -3.125037717578420e+05, 1.203672817388468e+06, 2.047920480480698e+05, 7.166967174837706e+05, 5.036963033238995e+06
1916, 6.845485008358020e-01, 5.689579023085019e-01, -2.225009735264904e-02, -1.107774212806946e-05, 6.538768806597373e-04, 5.837752312149665e-03, 5.632211934830220e+05, 3.353584630299198e+06, 1.936287781638880e+05, 1.234851066274485e+04, -6.669454348173519e+04, 3.869320769723045e+05, 3.194009065240966e+06
1917, 6.693298779407104e-01, 1.230695354684623e+00, -2.323978421090862e-02, 4.485909911777775e-05, 8.053174394217974e-04, 2.110821570438862e-02, 8.003405607425432e+04, 7.844910192993674e+05, 1.379293052759412e+05, 8.504732326856742e+04, -3.112490203732119e+04, 9.986219681548676e+04, 7.633153007122437e+05
1918, 6.725262480961687e-01, 1.065433960137813e+00, -2.303264131531437e-02, 3.258295061231084e-05, 8.095532527776228e-04, 1.687353059299180e-02, 1.033199359414256e+05, 1.031217978041930e+06, 2.087798034278589e+05, 4.121496267711014e+04, 6.063816324452401e+04, 1.801102841737749e+05, 1.077773635887139e+06
1919, 6.813008624922753e-01, 7.754711092964384e-01, -2.246204270418278e-02, 6.474771864217743e-06, 7.551210643645112e-04, 1.000868162672065e-02, 4.532218098313445e+05, 2.582865566146012e+06, 1.495978347397281e+05, 1.212163355944294e+05, 4.014091613797859e+04, 2.720257106355184e+05, 2.376263858805703e+06
1920, 7.023431010577158e-01, 1.416608854553333e+00, -2.108230834717902e-02, 4.823794594391306e-05, 7.089852505947833e-04, 2.609331754869326e-02, 2.893070740685213e+04, 4.845879818607938e+05, 2.323034153031071e+05, -2.484467349985653e+04, 2.897401463263832e+02, 3.024443182746097e+04, 6.321847403673616e+05
1921, 5.837411678826883e-01, 2.105424209491422e-01, -2.860896481931379e-02, -1.107034386805747e-05, 3.706452065341190e-04, 9.396006462991796e-04, 1.698971670256409e+06, 5.280220369898378e+06, -2.520222430402452e+05, 3.784032776005216e+05, -9.804468040462221e+04, 3.216085105803658e+05, 4.452887487980966e+06
1922, 9.700318761899460e-01, 1.924272087199388e+00, -2.295863429973941e-03, 1.860784757815037e-05, 1.414582926398400e-05, 4.045460954610791e-02, -5.521910383787727e+03, 3.435701560792573e+02, 1.181953925294703e+03, -8.352382414069367e+03, 2.003269072927862e+03, 1.143561136837378e+04, 2.162330781299810e+04
1923, 9.749145082146897e-01, 2.502821822644439e-01, -1.925711671092644e-03, -4.024693024743536e-05, 1.488600733008678e-04, 9.617907845379491e-04, -9.633813879729956e+04, 2.376871961399452e+06, -1.104539079108579e+05, -4.441276184706227e+05, 2.013905649299975e+04, 1.475681408173563e+05, 2.683473157387157e+06
1924, 9.742242878192640e-01, 1.343283582086874e-01, -1.978117683241640e-03, -3.562108586289969e-05, 8.017426983784881e-05, 1.652351616528158e-04, 4.512501407774545e+05, 2.688156005347322e+06, -1.124993118932167e+05, 9.963333210678757e+04, 2.917617505662286e+05, -3.881673404117532e+05, 2.580558200037411e+06
1925, 9.689666638997056e-01, 1.622963301561382e+00, -2.376413422096246e-03, 1.968700933388523e-05, 1.279549823722803e-04, 3.215965717625757e-02, -1.263345570171008e+04, 1.164881568300747e+05, -9.810165615593090e+03, -4.261769587015548e+04, -7.760960959499814e+03, 2.242354855250367e+04, 1.530389528998992e+05
1926, 9.725608008309272e-01, 3.988444917138173e-01, -2.104322080311751e-03, -3.678253437786050e-05, 2.218645782486681e-04, 2.744267986535931e-03, 5.701579232540762e+04, 2.083718939598256e+06, -7.734971396443379e+04, -2.306800361604018e+05, 7.626941936862339e+04, 2.430590597289443e+05, 2.232935669748647e+06
1927, 7.885782251025070e-01, 3.865333075754492e-01, -1.528400511695637e-02, -3.421876412297575e-05, 3.972571752726330e-04, 2.824989924854929e-03, 6.388779527246482e+05, 2.218451337728007e+06, -2.373581833408952e+05, 6.990577921461165e+05, 2.791773189483831e+05, 2.743350722121216e+05, 1.741330256556469e+06
1928, 9.697831129807316e-01, 1.389297571203994e+00, -2.314680954531039e-03, 1.574921869068255e-05, 2.047392162010872e-04, 2.572825330629105e-02, -4.261918364778872e+03, 2.918887792038039e+05, -4.269539935148406e+02, -2.593445796023321e+04, -2.223165336158932e+04, 2.653225243918497e+04, 3.133503466143742e+05
1929, 9.742242878181824e-01, 5.522388059688204e-01, -1.978117683323755e-03, -3.102141658706259e-05, 2.709088915303290e-04, 5.231695622274893e-03, -1.679342955494793e+05, 1.625323212126467e+06, 8.654820564114404e+04, -9.831321658223998e+04, 2.654148126078107e+04, 2.331946807589804e+05, 1.812041794414994e+06
1930, 9.713712993228693e-01, 7.285461513859309e-01, -2.194468007813628e-03, -1.657420549264210e-05, 3.046186598763996e-04, 8.864936678083080e-03, -1.584493174587059e+04, 1.229329140381343e+06, -4.250485747307218e+04, -1.608247197438244e+05, 2.878933030213584e+04, 1.130755907655827e+05, 1.340994934684119e+06
1931, 7.802314134462823e-01, 7.570504348754459e-01, -1.585455290858424e-02, -2.534434036745997e-06, 6.049710929745232e-04, 9.597491786153350e-03, 3.061834513733248e+05, 1.269778029675253e+06, 1.085585285258640e+04, 2.962307525990708e+05, -6.696536369521498e+04, 3.402649541185065e+05, 1.139890906866039e+06
1932, 9.745436510250820e-01, 1.268807764664404e+00, -1.953872310957481e-03, 1.117726459876067e-05, 2.308120203795075e-04, 2.244645372701343e-02, 5.777210232109683e+03, 4.481167702081599e+05, -1.671981381328326e+04, 1.419121436014535e+05, 6.220435556270964e+03, 5.986160852431633e+03, 3.937529431279876e+05
1933, 8.203961169771881e-01, 7.779571163007041e-01, -1.309096653943439e-02, -7.948417901165739e-06, 5.526243473536439e-04, 1.004836258310767e-02, 1.791295901981621e+05, 1.275240454447293e+06, -6.738548509047116e+04, 9.325635565568238e+04, 8.178218316369304e+04, 2.748091046191890e+05, 1.250282905450796e+06
1934, 8.454108587089760e-01, 1.621451115933901e-01, -1.134566894168000e-02, -3.680055181630448e-05, 1.551131524227811e-04, 4.598062256213620e-04, 8.983702552238414e+05, 3.381926287061301e+06, 5.158981098333442e+04, 1.075799016087947e+06, 4.563796694931834e+05, 8.767720326448086e+04, 2.532739794981190e+06
1935, 8.294917596141270e-01, 3.671203774752075e-01, -1.245854062195903e-02, -3.407342309873565e-05, 3.474271442669707e-04, 2.514141019436034e-03, 1.388335148423529e+05, 1.563480382152282e+06, 2.028530867449950e+05, 3.332983587858359e+05, 1.413621306279050e+05, 1.171343031892187e+05, 1.419489611312366e+06
1936, 8.074595596204829e-01, 1.633559843217272e-01, -1.398612527655956e-02, -2.868822733223877e-05, 1.788586592610247e-04, 5.041884762436305e-04, 6.589507930402686e+05, 2.565478732046132e+06, -2.474347908718372e+05, 9.093990803145252e+05, 2.616742627646456e+05, -8.006891878434876e+04, 1.904839035638322e+06
1937, 8.388088032084432e-01, 1.581643935154428e+00, -1.180813088329338e-02, 3.658090616121858e-05, 4.053516010435083e-04, 3.079780405766877e-02, 3.223830037688640e+04, 1.138061769658650e+05, -5.471189710100520e+03, 2.524600667156484e+04, 1.732549955270965e+04, 7.302544144936469e+04, 1.557595039281206e+05
1938, 8.390193661997529e-01, 1.620051106131551e+00, -1.179340225435231e-02, 3.766764621801477e-05, 3.913822099740026e-04, 3.184966186677386e-02, -1.675695617781491e+04, 6.173767704817791e+04, -6.391884919945373e+03, -1.021192661942488e+03, 8.155766396836900e+02, 7.201051569591618e+04, 1.444124506392426e+05
1939, 5.406620665762752e-01, 3.620693852099983e-01, -3.114110435010556e-02, -6.632269252959677e-07, 6.069149878659974e-04, 2.618898674131370e-03, 1.462408434676554e+06, 5.436120217382775e+06, -2.172200657462014e+05, 9.521288533717402e+05, -2.826889571150541e+05, 3.102773330966880e+05, 4.329963446547063e+06
1940, 5.403222168872024e-01, 4.070852000285359e-01, -3.116048798343898e-02, -7.567217041617308e-06, 6.592225168261662e-04, 3.245331670874638e-03, 1.205559545849704e+06, 5.275963237522971e+06, 6.596611970176618e+04, 7.324392543290317e+05, 5.330697272212763e+03, 2.381695993933740e+05, 4.347543411481775e+06
1941, 5.448063770752312e-01, 2.308376411405795e-01, -3.090387207605110e-02, -1.258721945564950e-05, 4.272035560198423e-04, 1.149018350807246e-03, 2.425627015819935e+06, 7.540679509126863e+06, -4.801349717956203e+05, 5.398112757649982e+05, -1.182435576806938e+05, 2.935724710076111e+05, 6.352810188824540e+06
1942, 8.208029986033514e-01, 8.175329580931652e-01, -1.306272759345618e-02, -4.546343642719552e-06, 5.595119313419467e-04, 1.093910305334436e-02, 1.529529921492282e+05, 7.792405810221119e+05, -1.032438849931729e+05, 2.785990166656364e+05, 4.373414615078207e+04, 1.929423643292150e+05, 6.919022442152147e+05
1943, 5.461703304759067e-01, 1.863719296922333e-01, -3.082546160945720e-02, -1.120868785088602e-05, 3.480903878987016e-04, 7.773564785910313e-04, 2.749039130677789e+06, 8.243185253933650e+06, 2.985419428542791e+05, 6.445387283157376e+05, 1.060308365494081e+05, 3.983663330251223e+05, 6.852312966433209e+06
1944, 8.050679590898986e-01, 1.639963765834935e+00, -1.415106448301435e-02, 4.249477553824876e-05, 4.500454117024946e-04, 3.233452837303219e-02, -4.459645004532492e+04, 3.650714665453090e+04, 7.883534409672147e+03, -3.039772844031758e+04, 3.256399643411529e+03, 5.448048439269856e+04, 1.214514800298079e+05
1945, 8.387191672041228e-01, 1.658378457941778e+00, -1.181440040342583e-02, 3.792639966704314e-05, 3.785454170118566e-04, 3.289939133554828e-02, -1.524951650861482e+04, 6.006326415158340e+04, 1.507191086781663e+04, -1.003313579963698e+04, 1.761930143694304e+04, 5.609159026942699e+04, 1.278982867756892e+05
1946, 8.058123251906216e-01, 1.678652399973988e+00, -1.409974599212546e-02, 4.275332041667190e-05, 4.344998004386564e-04, 3.339436114156739e-02, -2.362506923700160e+04, 3.023055807891357e+04, 3.678021475425713e+03, -4.528330146553662e+03, 5.810244544720980e+03, 5.541985504526821e+04, 1.076688837349029e+05
1947, 8.390365053686448e-01, 1.697231928700095e+00, -1.179220333037252e-02, 3.804401055247653e-05, 3.636759483355446e-04, 3.396475451761123e-02, 1.413315800997274e+03, 4.120575537079480e+04, 7.112130526350978e+03, 2.829290396153110e+02, 1.337597015936518e+04, 6.269320195526518e+04, 1.187834437842005e+05
1948, 8.061296154752301e-01, 1.717478510189286e+00, -1.407786640874168e-02, 4.318964718470764e-05, 4.202655546742193e-04, 3.445763543160033e-02, -7.715424258456518e+03, 2.340024986205982e+04, 1.994359550668233e+04, -7.294972524039336e+03, 1.383963881296678e+02, 3.714383666116620e+04, 7.929420904518197e+04
1949, 8.394463676702051e-01, 1.736483533446531e+00, -1.176352984745781e-02, 3.852780861225702e-05, 3.488641928387770e-04, 3.504147445235738e-02, -2.502060426455897e+03, 2.655625806010910e+04, 2.496660464575870e+04, 9.995024701946367e+02, 1.751974025177642e+04, 4.839997674435454e+04, 1.028269831842713e+05
1950, 8.063382317015780e-01, 1.756237677768866e+00, -1.406347916549451e-02, 4.346299479054960e-05, 4.052793617894818e-04, 3.551905432914344e-02, 1.446853877772855e+04, 7.136734553752269e+03, 2.821063335267455e+04, -2.169871919313486e+03, -5.789063958827361e+03, 4.340742604583497e+04, 9.137437107133768e+04
1951, 8.396425658786089e-01, 1.775251893197853e+00, -1.174980222884952e-02, 3.888011008920667e-05, 3.340164529264389e-04, 3.610447924990037e-02, 1.116205689921201e+04, 2.754985282064767e+04, -6.521823852464239e+03, 6.442700375586326e+03, 8.542198118118063e+02, 4.424857796135268e+04, 7.982339018798620e+04
1952, 8.067710891841198e-01, 1.794955943305939e+00, -1.403362312583735e-02, 4.330593335562238e-05, 3.896364662174800e-04, 3.657953811217863e-02, 8.115488364800824e+03, 2.665328262014361e+04, 1.155463313232255e+04, 8.504862757364810e+03, 1.814417680651440e+03, 4.195422991310907e+04, 7.763672123245985e+04
1953, 8.399434639236916e-01, 1.813351828712839e+00, -1.172874666090645e-02, 3.862013882763131e-05, 3.194354470163613e-04, 3.714888807474748e-02, 1.103821810092403e+04, 2.157972037747641e+04, 5.487679814820882e+03, -1.124152525429911e+04, 8.961592364319678e+03, 2.487248955151837e+04, 5.504151806913672e+04
1954, 7.723659775640858e-01, 1.775911391180767e+00, -1.639040843519143e-02, 4.787552146471447e-05, 4.621050332552362e-04, 3.599140390599825e-02, 1.195209259695921e+04, 1.877862325862078e+04, 1.795230791559935e+03, 3.572796349242681e+03, 5.597017259099690e+03, 4.200610555128513e+04, 7.464048986560700e+04
1955, 7.726232021263598e-01, 1.815449190194317e+00, -1.637291072034880e-02, 4.829410209482299e-05, 4.471464474881948e-04, 3.707278705209817e-02, -2.332478569019620e+04, 6.062783397829070e+03, 9.431286137206396e+03, -1.607110646525478e+04, -6.659415147825791e+03, 3.275763675533404e+04, 6.574310824838265e+04
1956, 7.382849199912321e-01, 1.795814364458372e+00, -1.869210716500447e-02, 5.317959818048473e-05, 5.187274348056742e-04, 3.646848819923851e-02, 9.517910023869356e+02, -2.141808226470233e+03, 1.427228605921882e+04, -2.706675068510206e+03, -1.185565062548151e+04, 1.727479049731077e+04, 4.404152433637890e+04
1957, 7.395436930242976e-01, 1.833300094807732e+00, -1.860769020928702e-02, 5.323664753307394e-05, 5.023840689787062e-04, 3.749474665366370e-02, -1.705635399391901e+04, -2.317219255239293e+03, 1.781952917616917e+04, -1.888879564419242e+04, -1.841271279258257e+04, 1.886994415138584e+04, 5.731948842921975e+04
1958, 7.033443183841044e-01, 1.816226233635589e+00, -2.101628240723895e-02, 5.771499797184443e-05, 5.757266097596858e-04, 3.695666737659686e-02, -2.895401671145588e+03, -5.472028153586889e+03, 3.501308119955123e+04, -9.039837392496929e+03, -4.058605804668186e+03, 9.847085185893087e+03, 6.361305563350507e+04
1959, 6.946197202588438e-01, 2.376555042898243e-01, -2.159050331855967e-02, -1.785331868485451e-05, 3.339156268224956e-04, 1.141488829725274e-03, 2.347845413845934e+06, 6.522270781368452e+06, -5.659931889985036e+05, 5.007474249675905e+05, 1.757008127410774e+05, 4.766610828321885e+05, 5.503039650142409e+06
1960, 6.959592810801801e-01, 1.945195879575812e-01, -2.150250900053469e-02, -1.185245578914917e-05, 2.538862427522298e-04, 7.835357573635141e-04, 2.842480462455171e+06, 6.978978986449664e+06, -5.247895209081755e+05, 1.341750906090599e+06, 6.788325705114400e+04, 8.265481195468276e+05, 5.334806158660283e+06
1961, 6.603691903165283e-01, 1.717145447686917e-01, -2.381823551033393e-02, -1.065666620082839e-05, 2.674230323346793e-04, 6.271818856608581e-04, 2.502175841172385e+06, 6.686401640157523e+06, -1.076754304233971e+06, -6.570311398298191e+04, 2.259921327329651e+05, 4.952123529481409e+05, 6.262064826303123e+06
1962, 8.543363466396282e-01, 7.983137861491352e-01, -1.071819241435702e-02, -7.665870271275632e-06, 5.026972362541238e-04, 1.049401519535494e-02, 1.605295855708445e+05, 1.089675732258808e+06, -9.428938595365862e+04, 2.717364832660991e+05, 7.792919362400871e+04, 1.966670111990056e+05, 9.660621915645456e+05
1963, 8.554460633999963e-01, 7.597161001190965e-01, -1.063998623010503e-02, -1.160123841304796e-05, 4.951361948410653e-04, 9.627980773512901e-03, 1.768045648628639e+05, 9.658339876360339e+05, 6.790087871218569e+03, 1.480721940867573e+05, 6.382295703141957e+04, 2.093705203237031e+05, 8.887801386254129e+05
1964, 8.541209833096343e-01, 8.366267866863537e-01, -1.073336505837284e-02, -5.876491452437918e-06, 5.080446177304493e-04, 1.137494531642885e-02, 1.234810598071347e+05, 1.113535513827531e+06, 4.383203122338080e+03, 6.943537548517101e+04, 8.256518628016708e+04, 2.189255679742123e+05, 1.095869886759719e+06
1965, 6.977992566927093e-01, 1.520898279782367e-01, -2.138153951268221e-02, -4.430430600190632e-06, 2.077187042911835e-04, 4.894404862250124e-04, 1.458469358001451e+06, 3.593180374396255e+06, -1.917528027418135e+05, 4.144593396416309e+05, 3.022448348870028e+05, 6.007222457970155e+05, 3.056562221170072e+06
1966, 5.857924071856612e-01, 1.465562599127752e+00, -2.848506595018799e-02, 6.804496010858266e-05, 8.919155968008692e-04, 2.722134420626555e-02, 1.094328149464107e+04, 4.255164345942473e+05, 1.373087295290063e+05, 3.508622593577186e+04, 3.858361841431796e+04, 1.086424385931694e+05, 5.088039418774339e+05
1967, 5.473683844852492e-01, 1.442676556722426e+00, -3.075645796424255e-02, 7.272398659755042e-05, 9.583922532396885e-04, 2.654218881763074e-02, -4.836334218264898e+03, 4.489703102906342e+05, 1.744739978416379e+05, 1.227668381847410e+04, -2.077292658438535e+04, 6.649788411406940e+04, 5.516804343768195e+05
1968, 5.782186124974533e-01, 4.302422900542681e-01, -2.894124498335878e-02, -9.221036301909624e-06, 6.497385900381195e-04, 3.578575898127313e-03, 1.291295645880175e+06, 5.263321443711182e+06, 4.095162163552287e+05, 4.180617264068735e+05, 4.280936292673541e+03, 1.731730576165425e+04, 4.529028517607242e+06
1969, 5.393987485260842e-01, 4.519987384679438e-01, -3.121310312068145e-02, 8.384056350764502e-06, 6.995828369470089e-04, 3.906824253810191e-03, 9.109692507602246e+05, 3.868187667396232e+06, 7.582043371923303e+04, 6.871831658446491e+05, -9.905422456416817e+04, 2.149529875015360e+05, 3.105205484411600e+06
1970, 5.776120656264114e-01, 4.752711542801764e-01, -2.897761674941342e-02, -2.419810345770552e-06, 6.987826522273158e-04, 4.270659566178496e-03, 9.260086982175953e+05, 3.987604671023092e+06, 9.934520153486996e+04, 4.000749707158203e+05, -1.318172604473076e+04, 9.886445581229069e+04, 3.364465037904616e+06
1971, 5.389865604882518e-01, 4.970566147013780e-01, -3.123656120498663e-02, -1.414041642049113e-06, 7.332261504096049e-04, 4.626900840305766e-03, 1.022923489141284e+06, 4.573453846510733e+06, 2.136293190867309e+05, 8.583591333215042e+05, 6.687697396079912e+04, 2.284403510615494e+05, 3.677570259794596e+06
1972, 5.866093122566878e-01, 1.420718401739111e+00, -2.843565162054963e-02, 6.585494701585870e-05, 9.014153321324180e-04, 2.602022161272804e-02, 1.870908950760369e+04, 4.299346139236849e+05, 1.393103344856621e+05, 2.204598941097645e+04, 3.758128875547372e+04, 1.093510752154235e+05, 5.158269952696867e+05
1973, 5.480094189042131e-01, 1.397661027094750e+00, -3.071948770780239e-02, 7.020443297827816e-05, 9.669415346828802e-04, 2.534180336134656e-02, 2.392606651085693e+04, 5.708742449447050e+05, 1.606168419280848e+05, 9.151460048383611e+04, 5.386447652789818e+04, 8.398793868845576e+04, 6.115655901375754e+05
1974, 7.858147126555518e-01, 1.314955070109840e-01, -1.547311908342101e-02, -2.075529185698380e-05, 1.572751626801212e-04, 3.437325703114641e-04, 7.188230547478944e+05, 2.612607894657426e+06, -3.140541077100777e+05, 9.536379260325537e+05, 1.724684415984215e+05, -8.505063687792861e+04, 1.898340609710047e+06
1975, 8.726967817495340e-01, 1.715139335816882e+00, -9.418824768805477e-03, 3.386532173701995e-05, 2.917991337780639e-04, 3.451908504794234e-02, 4.382614243497270e+03, 4.244503580911730e+04, -1.557866537488435e+04, 1.692079225625944e+04, -9.801357166049482e+02, 4.988396775988040e+04, 9.656561286086918e+04
1976, 8.274045319811191e-01, 1.957527339527670e-01, -1.260388523728497e-02, -3.451007251993599e-05, 1.975476618039998e-04, 7.017245939456018e-04, 4.262851644932936e+05, 2.128599602742648e+06, 6.542016076053842e+03, 7.888711384960392e+05, 4.203815923540724e+05, 1.916410495441378e+05, 1.747162561317277e+06
1977, 8.656562187374794e-01, 1.944562089617090e-01, -9.918474064553338e-03, -3.642745216668464e-05, 1.824732042336810e-04, 6.494355789358891e-04, 5.805519339030825e+05, 2.144240837752338e+06, 5.273849100318812e+03, 9.907784557740882e+05, 3.661891449006354e+05, 3.257427958321456e+04, 1.541911893723690e+06
1978, 5.769510486756521e-01, 5.203852903879460e-01, -2.901722566258812e-02, -8.509718725168217e-06, 7.333388166459454e-04, 5.017966728915718e-03, 1.087412840149928e+06, 4.378526267051077e+06, 2.968781359193321e+05, 4.361975610200992e+05, 3.377796322002552e+05, 1.147101700186779e+05, 3.747652954759084e+06
1979, 5.382752880065085e-01, 5.423891221247004e-01, -3.127700463784557e-02, 8.181030768571185e-06, 7.848567920140659e-04, 5.390227618897452e-03, 7.272177322659033e+05, 4.360766514659188e+06, 3.471326058759416e+05, 4.177906716834519e+05, 1.628293999132710e+05, 1.433275469605817e+05, 3.863342065471234e+06
1980, 5.763654242036340e-01, 5.655932277610333e-01, -2.905229120311310e-02, 3.886914794290486e-06, 7.699653320439453e-04, 5.799109560728571e-03, 3.712122201530421e+05, 2.571362461619967e+06, 1.144618709902652e+05, 2.341022502570531e+05, 2.051716485435497e+04, 1.990588877747682e+05, 2.306634671235384e+06
1981, 5.376092678407409e-01, 5.874692531139961e-01, -3.131483836864029e-02, 1.290109484805221e-05, 8.256141654155490e-04, 6.196335940379979e-03, 6.034793999932959e+05, 2.730609136846631e+06, 1.771639785289060e+05, 1.825767845830119e+05, 1.467391270909322e+05, 1.897251604224234e+05, 2.421549018343064e+06
1982, 5.756771445847310e-01, 6.107893340491573e-01, -2.909347205672038e-02, 1.004659372616512e-05, 7.906582240799695e-04, 6.637662114921256e-03, 8.402566711151731e+05, 3.953014699590736e+06, 4.720070417656774e+04, 2.919542508113853e+05, -7.081069427140060e+04, 4.502512361045486e+05, 3.510916626511967e+06
1983, 5.369164101683837e-01, 6.328205816451068e-01, -3.135415861602661e-02, 1.531099939460108e-05, 8.519087796835193e-04, 7.047016149043836e-03, 9.703226307073862e+05, 3.988921727585667e+06, 2.066652533268171e+05, 6.159134159863712e+05, 1.831848567700522e+05, 2.773281351338229e+05, 3.281295487196125e+06
1984, 7.051473450189618e-01, 1.860669147800114e+00, -2.089730014786517e-02, 5.764726497215281e-05, 5.556787411344528e-04, 3.817294688783973e-02, 2.245271739832728e+04, 4.061923700597456e+02, 3.804204952546890e+04, 7.972370527981242e+03, -1.371227692293272e+03, 1.377963721924470e+04, 7.275546013696492e+04
1985, 6.676175788220926e-01, 1.837847399696568e+00, -2.335058436318306e-02, 6.247631419320498e-05, 6.313773633306401e-04, 3.747479480314286e-02, -1.264176506769056e+04, 7.932842643541153e+02, 5.903926642878746e+04, -4.135938264781231e+03, 1.087532883470050e+04, 1.626144762366678e+04, 1.083678953705251e+05
1986, 6.675852253186588e-01, 1.794864513403212e+00, -2.335267674929478e-02, 6.258019878683380e-05, 6.471127335670526e-04, 3.630311538282172e-02, -3.362674227674510e+04, 2.565126410092802e+04, 9.206014217933200e+04, -1.846222574987414e+02, -4.286303248334748e+03, 9.184831641223580e+03, 1.684733959573105e+05
1987, 6.306937116462319e-01, 1.815733481036423e+00, -2.570936743302096e-02, 6.771657374014806e-05, 7.041866473475600e-04, 3.679862715877277e-02, 7.563176914055868e+03, 3.296261019305505e+04, 5.073541832596054e+04, -1.160930940693786e+04, -4.672411642493024e+03, 1.592462194677898e+04, 1.002407541470558e+05
1988, 8.717541432013274e-01, 1.600292343716717e+00, -9.485819800796902e-03, 3.292058823564648e-05, 3.344618862497206e-04, 3.136550755704670e-02, 3.196625029377326e+04, 1.108882377118070e+05, 1.743649232813145e+04, 2.561781550187031e+04, -1.429397382921329e+03, 6.927768185808304e+04, 1.486150354060493e+05
1989, 8.718781404137124e-01, 1.562971259112867e+00, -9.477008983901095e-03, 3.181788840827746e-05, 3.472235911408574e-04, 3.034231724337905e-02, 1.579788401110446e+04, 1.154447912466131e+05, 3.238578090243480e+03, 1.697443400319224e+04, 2.403927980938717e+04, 6.563869406538209e+04, 1.565378273287156e+05
1990, 7.739043812978627e-01, 1.855593494208063e+00, -1.628573225123067e-02, 4.813152562539724e-05, 4.298172260764760e-04, 3.817259236032647e-02, -3.072690344560208e+04, -1.141104060526459e+03, 6.408779956258348e+03, -1.803438901464625e+04, -7.302213439765801e+03, 2.087716291543542e+04, 4.745159008213874e+04
1991, 5.750830689454139e-01, 6.560477835459589e-01, -2.912898889606402e-02, 9.867984138371266e-06, 8.302608604829260e-04, 7.505700947209863e-03, 8.301534553883809e+05, 3.412759184319336e+06, 2.614985034966498e+05, 4.472502127782027e+05, -4.912925207865950e+04, 5.125370296607057e+05, 2.967460770565014e+06
1992, 5.365565633386543e-01, 6.779933270186809e-01, -3.137456473105898e-02, 1.986013081261423e-05, 8.900963257721106e-04, 7.933116445423341e-03, 3.852627840296253e+05, 3.208159270008090e+06, 3.320817073870574e+05, 4.522220988779748e+05, 7.353033027423458e+03, 4.433779301615685e+04, 2.849754973309397e+06
1993, 5.744240699176971e-01, 7.012904879936673e-01, -2.916835680302962e-02, 1.425324065567474e-05, 8.482421449292760e-04, 8.415310224101358e-03, 4.298751816377096e+05, 2.705619882254851e+06, 2.993603371931776e+05, 4.817095631504815e+05, -1.025598433482258e+05, 5.624125846301161e+05, 2.512581953163601e+06
1994, 5.354555170028141e-01, 7.232355330496445e-01, -3.143693578670635e-02, 3.320445617667478e-05, 9.161025320423080e-04, 8.859617783250257e-03, 3.297108487709327e+05, 2.901349017715590e+06, 2.880102974479257e+05, -9.660949139925647e+04, -1.809397484053974e+05, 2.407846266930585e+05, 2.900415943397995e+06
1995, 5.737865708809458e-01, 7.465715173433228e-01, -2.920640950860814e-02, 2.278206933501586e-05, 8.808092102826903e-04, 9.361256998030879e-03, 3.142528343834445e+05, 3.269694197889342e+06, 9.236282516770046e+04, 4.323398624442777e+05, 2.762471401608536e+03, 3.692511841781085e+05, 2.972243898354876e+06
1996, 5.344263085924932e-01, 7.685495135166531e-01, -3.149514465703204e-02, 2.981435454431705e-05, 9.361784294540793e-04, 9.809144098033028e-03, 5.536868357260537e+05, 2.752377457046751e+06, 2.120552912155782e+05, 2.883215790361521e+05, -2.598928728124590e+04, 2.530134693978307e+05, 2.411864711110068e+06
1997, 5.730493299866167e-01, 7.918708503907345e-01, -2.925037754270199e-02, 2.632402073596274e-05, 9.055918475461069e-04, 1.033605043394595e-02, 4.626141890601259e+05, 2.267934347619276e+06, 2.479573560113363e+05, 4.647235407617052e+05, 1.251275416019199e+05, 2.330464309511384e+05, 1.910426246222527e+06
1998, 5.336686289413448e-01, 8.138417374608343e-01, -3.153793820313303e-02, 3.649003927331737e-05, 9.584497633013896e-04, 1.079445623568998e-02, 1.935349135271136e+05, 2.658853364029817e+06, 2.858435594165107e+05, 4.084091498596609e+05, 3.745906909733551e+04, 1.502520660696498e+05, 2.431314212002935e+06
1999, 5.724287190957330e-01, 8.371863056767912e-01, -2.928735762048449e-02, 2.954526421430556e-05, 9.199305131242647e-04, 1.134576423725787e-02, 4.248200440048277e+05, 2.485795297090365e+06, 2.257078293852305e+05, 3.894155440939318e+05, 3.878647555410041e+03, 1.460599729971241e+05, 2.130426723030594e+06
2000, 5.338062362668041e-01, 8.593145896394152e-01, -3.153016990729591e-02, 4.217150793367578e-05, 9.773589709854424e-04, 1.181401308933491e-02, 4.717341137886559e+05, 2.081238740683724e+06, 2.639189477128522e+05, 3.292008635587689e+05, 4.936112172406718e+04, 1.958072957700082e+05, 1.780876043490553e+06
2001, 5.718223631920079e-01, 8.825197354784110e-01, -2.932345939221111e-02, 3.994588075356686e-05, 9.331213304859158e-04, 1.237815830149657e-02, 4.096193561093713e+05, 2.330381304123118e+06, 3.226337552077883e+05, 3.269723100799219e+05, -1.926093883834120e+05, 1.523022553440824e+05, 2.085200943964748e+06
2002, 5.333483751498436e-01, 9.044079123350373e-01, -3.155601091530036e-02, 4.596950207171047e-05, 9.878696302556833e-04, 1.286032314518646e-02, 6.711259999547730e+05, 2.853035986323915e+06, 2.578382506059075e+05, 1.963457031088291e+05, -2.138127259045616e+04, 8.618030318774327e+04, 2.499033751425115e+06
2003, 5.015433890476759e-01, 5.141262956200681e-01, -3.330061971035506e-02, 1.565493558660855e-05, 7.945698205014625e-04, 4.907274451118437e-03, 8.294064800624568e+05, 4.611853888350969e+06, 2.607427909346872e+05, 4.464358435503507e+05, -2.155733820880768e+04, -3.519445783087929e+04, 4.013877391198689e+06
2004, 8.723628899575797e-01, 1.794013371860767e+00, -9.442558846824654e-03, 3.407748051874673e-05, 2.627637913076020e-04, 3.668314390432485e-02, -1.021429557972226e+04, 1.780135696329412e+04, -2.976082428576764e+03, -1.120152869427372e+04, 9.110303721012291e+03, 3.172187376706124e+04, 6.409294285615341e+04
2005, 8.726788576439939e-01, 1.831629370191697e+00, -9.420098975862243e-03, 3.404494356637477e-05, 2.481202688535827e-04, 3.771494571607233e-02, -3.831983021275067e+03, 8.311499085771906e+03, 1.846168260523191e+03, -1.477429357919566e+04, 8.122073306689839e+03, 2.967522594666781e+04, 5.700931863821554e+04
2006, 5.077524586944504e-01, 1.464625210214429e+00, -3.296821511233645e-02, 7.961789877886094e-05, 1.010048722967465e-03, 2.706114107993778e-02, 2.422581819640284e+04, 5.114333595679537e+05, 1.447925083156631e+05, 8.712169295910184e+04, -2.900276417208162e+04, 6.260070908699669e+04, 5.365243458058558e+05
2007, 4.968781804147668e-01, 8.383849180184889e-01, -3.354766868171154e-02, 4.688762820541370e-05, 1.006227432007428e-03, 1.131209688769955e-02, 6.367251090843815e+05, 2.419380418589676e+06, 2.904801716425970e+05, 5.901145186736817e+05, -4.383571705096785e+04, 2.132738214690720e+05, 1.912715657256295e+06
2008, 5.712550625577877e-01, 9.278266320035242e-01, -2.935720967987684e-02, 3.943166092898638e-05, 9.462063247048721e-04, 1.343290924365740e-02, 1.283061250659708e+05, 1.331248573258670e+06, 1.435516866184476e+05, -2.667737654174707e+02, -7.181313698784410e+04, 1.875285503524884e+05, 1.342036077527813e+06
2009, 5.329918004284327e-01, 9.500538709408299e-01, -3.157612261833095e-02, 4.474953849419039e-05, 1.000178354315307e-03, 1.392554715384049e-02, 1.889019863191384e+05, 1.429829133928526e+06, 1.636505380917454e+05, 4.279425566113436e+03, 1.873498247094259e+04, 3.413581448989812e+05, 1.494678047987895e+06
2010, 5.706153002682247e-01, 9.732093420117187e-01, -2.939524018722910e-02, 4.370287145337437e-05, 9.499901518287418e-04, 1.451716849342513e-02, 3.519819159254095e+05, 1.542590039072965e+06, 3.231476700620101e+05, 1.563172660187837e+05, -1.454097271739870e+04, 4.327859168845182e+05, 1.601440226465733e+06
2011, 5.324108331988551e-01, 9.950829249440698e-01, -3.160886628362990e-02, 5.222382440427196e-05, 1.004912798020011e-03, 1.500418308545212e-02, 3.629328715231732e+05, 1.710092743466325e+06, 1.005309413455067e+05, 3.933473369571881e+05, 3.462385155484941e+03, 3.253122621940399e+05, 1.456925252564443e+06
2012, 5.700225181053140e-01, 1.018536174447143e+00, -2.943044897469060e-02, 4.561741380467582e-05, 9.589403305578573e-04, 1.561293493914546e-02, 2.797418226598946e+05, 1.790039111387788e+06, 1.373210262724491e+05, 3.028945768859585e+05, 9.059244270869139e+04, 3.009392100179262e+05, 1.612281550353055e+06
2013, 5.316508049553177e-01, 1.040757888234569e+00, -3.165165586970362e-02, 5.162015157177471e-05, 1.012163644720003e-03, 1.611417364996915e-02, 2.467216928732978e+05, 1.392942271511508e+06, 1.694626538834885e+05, 2.359247848116848e+05, 1.058454687354022e+05, 3.164826464007150e+05, 1.321574888411870e+06
2014, 5.693339931274436e-01, 1.063950646886533e+00, -2.947131442229391e-02, 4.770121687499435e-05, 9.656088518628092e-04, 1.673551616185047e-02, 3.202960211691207e+05, 1.876354872526564e+06, 3.589118363005280e+05, 1.971592803280426e+05, 8.121192039373649e+04, 2.277859464497853e+05, 1.786053857054125e+06
2015, 5.310438645969460e-01, 1.086303756761255e+00, -3.168578861071918e-02, 5.721993195517564e-05, 1.018902313026482e-03, 1.725269601128019e-02, 3.984373293572953e+05, 2.214602414412403e+06, 2.935783794720827e+05, 1.884992082034824e+05, 8.992183409201825e+04, 2.610456264128066e+05, 2.052088930133386e+06
2016, 5.064576903478304e-01, 2.074409047725624e-01, -3.303785073605649e-02, -6.174924313886998e-07, 4.060265010692021e-04, 9.560386407076946e-04, 2.739310899814529e+06, 7.761311460312521e+06, -8.686045587293178e+03, 1.196946738190952e+06, -2.196031421798213e+05, 3.883788473960274e+05, 5.995210410862337e+06
2017, 5.051500332513545e-01, 2.518728804276453e-01, -3.310801152326705e-02, -1.514502838172865e-05, 4.695630421334487e-04, 1.356515261734879e-03, 2.042943563338620e+06, 6.647103709062820e+06, 1.418445023211183e+05, 8.504641409382955e+05, 2.156586342003520e+05, 2.489384521086200e+05, 5.338207624135789e+06
2018, 5.080826699672140e-01, 1.620983381005958e-01, -3.295042640075255e-02, -1.000272674511749e-05, 3.227359311380809e-04, 5.973912351545999e-04, 2.127076087818185e+06, 5.952877874095690e+06, 6.626187116015684e+03, 5.352070767528075e+05, -1.450539917333126e+04, 5.427965737537118e+05, 4.913820190304797e+06
2019, 5.479054179004279e-01, 1.417934281969007e-01, -3.072548802892556e-02, -1.038622958136892e-05, 2.755818930802942e-04, 4.655964828393141e-04, 3.068497497964316e+06, 7.828333638525702e+06, -3.393537548529757e+05, 5.946530143716626e+05, 2.312645015501521e+05, 7.574398023616703e+05, 6.540498366146426e+06
2020, 4.954266252352776e-01, 1.012347454402887e+00, -3.362402593809871e-02, 5.797707250411628e-05, 1.053412835399271e-03, 1.538086876452608e-02, 2.324391240081629e+05, 1.859315155969677e+06, 1.974284257548806e+05, 4.486858320037761e+05, 7.908315185700226e+04, 3.143302154812774e+05, 1.665469457410049e+06
2021, 4.999712489228921e-01, 3.835099186536630e-01, -3.338414542744137e-02, 1.765507549138928e-06, 6.556388230625331e-04, 2.913593079729859e-03, 1.516126088526044e+06, 5.044397224335773e+06, 2.592081268467051e+05, 7.310738076975079e+05, -8.588692030964373e+04, 3.442107748507148e+05, 4.051422097838243e+06
2022, 5.687462796768903e-01, 1.109381677848806e+00, -2.950617166728483e-02, 5.275680250349057e-05, 9.709374648871876e-04, 1.787128663912894e-02, 1.609906820235901e+05, 1.333701521667812e+06, 1.608471130341023e+05, 1.018410938812280e+05, -7.202073520578793e+04, 5.351917705141667e+04, 1.244943371210616e+06
2023, 5.296445441954399e-01, 1.131865680121242e+00, -3.176435176524701e-02, 5.947234100853183e-05, 1.022609532163573e-03, 1.839268119910820e-02, 1.246315726983380e+05, 1.129484508429936e+06, 1.771421452483778e+05, 2.703399337278718e+04, 1.391332120327456e+04, 1.419411493077508e+05, 1.128045457432864e+06
2024, 5.680341340971339e-01, 1.154719576256140e+00, -2.954837790725750e-02, 5.647346294589822e-05, 9.712821255899104e-04, 1.902135701867121e-02, 9.358644869175668e+04, 8.927019261999475e+05, 1.489034034413235e+05, 1.823852003533458e+04, -2.107682981455599e+04, 8.255149849276789e+04, 8.903752980502184e+05
2025, 5.285398267391649e-01, 1.176908538923110e+00, -3.182624308307941e-02, 6.272372342781482e-05, 1.021437971610998e-03, 1.953629577960973e-02, 1.024819123360143e+05, 9.782767415618069e+05, 1.947944901236190e+05, 1.170534669167396e+05, 1.076411443691326e+03, 1.710058422184789e+05, 9.777701014537405e+05
2026, 4.909477273205251e-01, 1.154264415502372e+00, -3.385801062837955e-02, 6.736038732262084e-05, 1.073946998794447e-03, 1.890885599173356e-02, 2.010495220481106e+04, 1.303783661614345e+06, 2.659108607122576e+05, 1.465271899155944e+05, -1.840440094218139e+04, 1.497560631457095e+05, 1.334897237631764e+06
2027, 5.673180127547723e-01, 1.200186298060605e+00, -2.959078496367901e-02, 5.754199834080709e-05, 9.673490473900564e-04, 2.019022682143718e-02, 2.243592893935038e+05, 1.322922469149596e+06, 1.881527749682422e+05, 8.339174722567145e+04, 1.315419617113661e+04, 8.278110310060687e+04, 1.228355116053207e+06
2028, 5.278353328635845e-01, 1.222173426120777e+00, -3.186565009574234e-02, 6.592980270443694e-05, 1.022891171115124e-03, 2.070033068488654e-02, -5.060167702310362e+03, 9.811142011245333e+05, 2.137422197825936e+05, 1.224086530545196e+05, 1.580471532367631e+04, 1.324049210435439e+05, 1.026392453266777e+06
2029, 5.665849522098962e-01, 1.245600539679778e+00, -2.963415842087223e-02, 6.083431517915627e-05, 9.641437032067261e-04, 2.136035947721926e-02, 1.375975175236018e+04, 6.724140287212416e+05, 1.697334517562757e+05, 3.535872073420720e+04, -1.764876625561317e+04, 1.103358421536743e+05, 7.375299883462939e+05
2030, 5.270598621278128e-01, 1.267703283161380e+00, -3.190897061151831e-02, 6.997896361977257e-05, 1.018287873623595e-03, 2.188199078464072e-02, 1.310514377283231e+05, 8.417768804797620e+05, 1.772927443606916e+05, 1.692915960753481e+05, -4.370412865186154e+04, 1.602087515780260e+05, 8.102120386982786e+05
2031, 7.000062531064024e-01, 1.497648643257304e+00, -2.123628600421302e-02, 5.317023420896598e-05, 6.911428065783896e-04, 2.827645581755844e-02, 2.362480194989015e+04, 1.362244832029020e+05, 4.697247728199056e+04, 3.152170201027565e+04, 2.086369690883021e+04, 4.198315726373826e+04, 1.583184755888730e+05
2032, 5.695398655234580e-01, 1.290269017015863e+00, -2.945909871949980e-02, 6.468116341917796e-05, 9.540668450455491e-04, 2.253573300916122e-02, 8.300074185909578e+04, 8.423645223986177e+05, 1.846654774075514e+05, 1.627484436577072e+05, -6.450708209911577e+04, 1.428347122844455e+05, 8.357202297849127e+05
2033, 8.479413368773203e-01, 2.259024064924114e-01, -1.116804527293475e-02, -3.731731821582374e-05, 2.185839334727206e-04, 9.313107243889562e-04, 1.066746714204386e+06, 4.254677571111833e+06, 6.919716097063152e+04, 7.484465037502435e+05, 2.788480739722028e+05, -1.496696315917646e+05, 3.404963100719353e+06
2034, 8.851877169647576e-01, 2.263357218759716e-01, -8.527968205556428e-03, -3.963908139320571e-05, 1.953583998240867e-04, 8.825843762935853e-04, 6.404128725158630e+05, 2.696487006274368e+06, 9.110339313911070e+04, 6.504440702980960e+05, 2.063616264639169e+05, -2.201653213437825e+05, 2.122496109695181e+06
2035, 8.688373958984108e-01, 2.584630900832033e-01, -9.692924747076174e-03, -3.289717000078130e-05, 2.370467681281074e-04, 1.202922001259432e-03, 3.747858960958403e+05, 3.198406863948129e+06, -2.815555793641301e+05, 2.354412758877324e+05, -8.015852073621028e+04, -2.496562084057741e+04, 2.940182873475389e+06
2036, 6.309203470495378e-01, 1.859255576339631e+00, -2.569508098199987e-02, 6.731379392770770e-05, 6.881075492005465e-04, 3.798434658907479e-02, 8.187527480763591e+03, 2.045162785901872e+04, 5.196334232005142e+04, -4.189741810454262e+03, 1.228466275070586e+04, 1.288863560500121e+04, 9.750414073963849e+04
2037, 5.934616934929886e-01, 1.838050537629984e+00, -2.801935175838956e-02, 7.258227098869141e-05, 7.590009403072879e-04, 3.733117858901253e-02, -2.358515803708892e+03, 2.901461173317464e+04, 5.253734544857320e+04, 1.094196027655429e+04, 2.529197597868773e+03, 2.988182922291758e+04, 1.082699309040974e+05
2038, 5.931364947230618e-01, 1.793922407774383e+00, -2.803917790720778e-02, 7.259197206163810e-05, 7.755225887984413e-04, 3.612955180584473e-02, 5.330851556847289e+03, 5.861107772958406e+04, 6.796721538466899e+04, 1.629178650274469e+04, 2.070751765143722e+03, 3.736707544494778e+04, 1.429521235410858e+05
2039, 5.551493568313290e-01, 1.816602935648233e+00, -3.030554334845743e-02, 7.751615546480045e-05, 8.294088194414628e-04, 3.667045265554691e-02, -5.711363295827283e+03, 3.829002433944464e+04, 4.870226236356478e+04, 1.294222394180177e+04, 4.292250782680694e+03, 3.394224241415897e+04, 1.099569165467429e+05
2040, 5.548151476530704e-01, 1.772143674929430e+00, -3.032500519403213e-02, 7.750224125680286e-05, 8.456742231830842e-04, 3.546104116779136e-02, -1.870983416668683e+04, 5.373282703235659e+04, 4.671574719198531e+04, 7.408220278560610e+03, 9.281572241066647e+02, 4.121598250100975e+04, 1.252356568052171e+05
2041, 5.159927798418975e-01, 1.794693696467048e+00, -3.252071735826842e-02, 8.245745512850539e-05, 8.979937716576403e-04, 3.599605813369983e-02, -2.862094866716734e+04, 5.865006469908135e+04, 6.691465352963003e+04, 8.760826496579170e+03, -4.920681256146599e+03, 3.278959177351044e+04, 1.499403393268832e+05
2042, 5.163707886461254e-01, 1.840074322017793e+00, -3.250001784803402e-02, 8.254217682178433e-05, 8.812593194193197e-04, 3.722997068380629e-02, -2.677980154101417e+04, 1.417257497674517e+03, 5.934633896475463e+04, -1.360621516086839e+04, -1.378027992198612e+03, 2.118016586052094e+04, 1.118687629781981e+05
2043, 5.939241530726472e-01, 1.881660652995617e+00, -2.799114597058310e-02, 7.235434224127368e-05, 7.425576071536030e-04, 3.851920064510922e-02, 2.771762941921976e+03, 3.230974125423172e+04, 6.734295351991245e+04, 1.951828898146429e+04, 3.760353759538372e+03, 2.226263586668530e+04, 1.256693900237953e+05
2044, 5.001437930082774e-01, 6.067822925248247e-01, -3.337499162930922e-02, 2.025094869976575e-05, 8.677746605127781e-04, 6.539125024659186e-03, 6.324979129855887e+05, 3.686495900476399e+06, 1.643053323712060e+05, 4.864517677924751e+05, 2.837460749080277e+05, 1.576810845015403e+05, 3.192392836520432e+06
2045, 8.868998504207647e-01, 8.178412888217719e-01, -8.405394408518386e-03, -8.540194904259855e-06, 4.525457312454483e-04, 1.092858820863574e-02, 3.279889109831010e+05, 1.375633593020427e+06, 7.214951199352786e+04, 1.824171947641189e+05, 6.726201795571120e+04, 1.882148029234467e+05, 1.186052936531740e+06
2046, 8.874628490825861e-01, 8.558354593173252e-01, -8.365063637612528e-03, -3.663492227915649e-06, 4.569891697254053e-04, 1.181695588120062e-02, 1.586233734193175e+05, 1.117192993694451e+06, 1.869648840455182e+04, 1.909067407772796e+05, 4.669783585216579e+03, 1.792021320963242e+05, 9.931799366925650e+05
2047, 4.969718819767980e-01, 7.451232071037286e-01, -3.354273106925320e-02, 3.530607329022689e-05, 9.556437139397363e-04, 9.294039607397261e-03, 4.601558837598294e+05, 3.335274189761211e+06, 6.340918526636229e+05, -5.082127972792732e+03, -1.163146862341418e+04, 3.497082742735220e+05, 3.375481734887865e+06
2048, 7.886462533721440e-01, 1.998228584735858e-01, -1.527934714760920e-02, -2.596990533870053e-05, 2.300403430115505e-04, 7.708896603161874e-04, 6.052232736379341e+05, 2.953189637020254e+06, -9.831488051724662e+04, 8.665620210807212e+05, 2.026537079794671e+05, -9.414500559839379e+04, 2.268572737548839e+06
2049, 9.042764128683425e-01, 1.581822874685411e+00, -7.154839369316913e-03, 2.778470848160963e-05, 2.762631150135045e-04, 3.091480685900760e-02, 3.374591743362074e+04, 1.142090204014051e+05, 5.544236430256929e+03, -1.157597796501137e+04, 3.458256390240830e+04, 6.332254832736502e+04, 1.669863398870541e+05
2050, 7.385224469825740e-01, 1.756401809356346e+00, -1.867618155833967e-02, 5.248828121072469e-05, 5.326441379704255e-04, 3.539243984411759e-02, -9.006181632468189e+03, 3.165829360063254e+04, 3.873692806284448e+02, 1.234601366537928e+04, 2.677994153658940e+03, 2.798399088591578e+04, 6.010421228007322e+04
2051, 9.507277736793578e-01, 2.884434045350438e-02, -3.745521211229334e-03, -1.029922268731137e-05, 1.074609204927690e-05, -2.017021046091250e-05, 3.966618903525955e+05, 2.483979660176097e+06, -2.581371842012402e+05, 1.075093110153776e+05, 3.200448914869806e+04, -9.873248755717959e+05, 2.858577708012645e+06
2052, 9.522181313591886e-01, 1.985946972741714e+00, -3.634354861035244e-03, 2.101212972641098e-05, 2.827727825843729e-05, 4.210736773483870e-02, 3.765093771443680e+03, 7.763640129478905e+03, -4.591865333890058e+02, 8.936177174843588e+03, 1.163623253290833e+04, 1.417502699840297e+04, 3.211983982752643e+04
2053, 9.041792952733815e-01, 1.618638736963724e+00, -7.161863521660186e-03, 2.864296711931405e-05, 2.630598833738701e-04, 3.192586183323365e-02, 2.274226986624596e+04, 9.197492134053334e+04, 6.444149074865356e+03, -2.033002794604344e+04, -2.409260061865202e+02, 7.658074708993027e+04, 1.653752703220765e+05
2054, 4.928099160390050e-01, 9.248222652122858e-01, -3.376103000834695e-02, 5.384130310841576e-05, 1.039938974793642e-03, 1.329011831385635e-02, 4.945150263844083e+04, 2.020658352215875e+06, 2.376990026788818e+05, -3.303060253383925e+04, -1.443649071573930e+04, 3.252121555943189e+05, 2.131306067891912e+06
2055, 9.742242877901207e-01, 7.462686567149629e-02, -1.978117685453904e-03, -2.616109640172365e-05, 4.666265833033756e-05, -3.582398086843241e-06, 3.460554988937731e+05, 2.647842244108830e+06, -3.346104120549019e+05, -5.412551074271818e+04, 1.196074010442308e+05, -3.799191920743906e+02, 2.599674789723814e+06
2056, 9.045153658696864e-01, 1.544833778734398e+00, -7.137555007280916e-03, 2.791492489801622e-05, 2.889107464872850e-04, 2.989924500810165e-02, 6.486084818123404e+03, 1.335510512644056e+05, -7.942477825443166e+03, 2.084107412867605e+04, 1.695734275265163e+04, 4.761050930933683e+04, 1.495985970950859e+05
2057, 9.046832033453513e-01, 1.813120070251457e+00, -7.125413182468350e-03, 2.941381944740473e-05, 1.908825320438637e-04, 3.727143423655695e-02, -5.347068361481394e+03, 2.052199056261957e+04, 7.730109278897446e+03, 3.544596528252835e+03, 1.031506629927679e+04, 3.050421193422322e+04, 6.171091714611428e+04
2058, 8.546226264052216e-01, 8.746589304923571e-01, -1.069802115217571e-02, -8.727891755884454e-07, 5.107223132067573e-04, 1.226785888966131e-02, 1.333275401763601e+05, 7.552689323871167e+05, 3.188137175036315e+04, 2.308240796765444e+05, -1.041418554128904e+05, 2.220359370676306e+05, 7.205312296050496e+05
2059, 8.871810567575654e-01, 8.934683816933937e-01, -8.385251547430536e-03, -2.196651432861962e-06, 4.572014897572946e-04, 1.271576057305585e-02, 1.774239392088423e+05, 8.917931332324978e+05, -9.080415151156564e+04, 1.792615499473487e+05, 2.512936675783118e+04, 4.854460969315179e+04, 7.366914985853806e+05
2060, 4.877168853705881e-01, 1.244369062516915e+00, -3.402534541513566e-02, 7.495915020083732e-05, 1.071974082335961e-03, 2.121415274081504e-02, 2.428506498287463e+05, 1.135864340490703e+06, 2.210585055285458e+05, 2.367436941172654e+05, 1.818863118912649e+04, 1.865688997701783e+05, 1.027122812653813e+06
2061, 4.871999479384719e-01, 1.290061396938963e+00, -3.405201020369076e-02, 7.755312578349577e-05, 1.071686827979577e-03, 2.240274830688394e-02, 1.306889939928326e+05, 9.142101211798101e+05, 1.605090521684485e+05, 2.202543241264357e+05, -9.429643361100018e+03, 1.386224217152387e+05, 8.288279230935242e+05
2062, 9.079654561376022e-01, 1.850081956582321e+00, -6.887719602490331e-03, 2.870353544233428e-05, 1.704756278795502e-04, 3.829203805922017e-02, -5.996840149078060e+03, 8.354447997118030e+03, 4.864165816932159e+03, -6.944467745943241e+03, 1.724925220571971e+04, 2.433468730184471e+04, 5.441119918458412e+04
2063, 8.742306187199401e-01, 1.868953764067109e+00, -9.309741633795025e-03, 3.358057638963574e-05, 2.309902929870100e-04, 3.874071319350059e-02, -7.263068382059295e+03, 3.409932461540502e+03, -1.219792363132650e+03, -1.520519426269186e+04, 1.048406489768874e+04, 2.207986323918430e+04, 4.537100659322898e+04
2064, 9.061895649114657e-01, 1.886620214764004e+00, -7.016383456939118e-03, 2.873285388055313e-05, 1.602293995071336e-04, 3.928999808344380e-02, -1.508524645321813e+04, -1.486360558451959e+04, 2.054920288351906e+03, -1.937044152621509e+04, 1.652531393140743e+04, 2.752532809975893e+04, 5.589471308284996e+04
2065, 6.624786201637681e-01, 1.294353842820805e-01, -2.368237092188311e-02, -9.400510813051266e-06, 2.020838938631527e-04, 3.744745471063980e-04, 2.745433003022413e+06, 5.946749132571267e+06, -6.048442685433535e+04, 8.228426301841207e+05, 3.373693836350843e+04, 8.096035940069218e+03, 4.484884006551636e+06
2066, 6.995416109794288e-01, 1.103266926134396e-01, -2.126688018145051e-02, -6.809629121674876e-06, 1.636655121202146e-04, 2.598232681745444e-04, 1.645247498685934e+06, 3.616293133423934e+06, -3.695982544729561e+05, 6.491219295199479e+05, 7.957301941976135e+04, 4.403078695083811e+05, 2.801983808618750e+06
2067, 6.139274743203564e-01, 6.345401948784002e-01, -2.675906822620318e-02, 2.471834175689011e-06, 7.722638630453318e-04, 7.085653547899487e-03, 7.423360554785244e+05, 3.499492159129325e+06, 1.025255390129827e+05, 3.123626424683853e+05, -5.159625952803886e+04, 4.406759840954900e+05, 3.097482475366095e+06
2068, 3.765949183367535e-01, 1.926623516452304e+00, -3.887040859594833e-02, 9.676638741461241e-05, 1.024738761013198e-03, 3.929114588218238e-02, -7.727598477240235e+03, 2.782443425006975e+04, 3.264501926712448e+04, 1.172130546405573e+04, 2.683733890744420e+03, 1.605049953245063e+04, 7.030159004955424e+04
2069, 3.806896649039818e-01, 7.499999999985185e-02, -3.872089868370725e-02, 5.647900896046248e-07, 1.781503605313550e-04, 1.733692919602577e-04, 3.761213064724012e+06, 1.036785343782639e+07, 3.027019926798006e+05, 1.178995855264712e+06, 1.729525727715842e+05, 4.648265963264493e+05, 8.269712072667758e+06
2070, 9.084302801307964e-01, 1.773756699862178e+00, -6.854020961921684e-03, 2.890257334270396e-05, 1.984224345949644e-04, 3.619824091449163e-02, -3.673498431482448e+03, 2.322177686476980e+04, 8.298935160664181e+03, -5.524649642282769e+03, 4.727585234462179e+02, 2.660557179343619e+04, 5.574429695610278e+04
2071, 8.727229883788347e-01, 1.525678531437824e+00, -9.416961743775104e-03, 3.182455339473082e-05, 3.585948610807591e-04, 2.932239307077708e-02, 7.923450223274919e+04, 2.072203857736082e+05, 1.285301649934252e+04, 3.848646665901785e+04, 8.000845214117302e+03, 5.172657949847234e+04, 1.788030197618709e+05
2072, 9.086997992460888e-01, 1.507822634611223e+00, -6.834477342144502e-03, 2.666088675971900e-05, 2.927624413177898e-04, 2.889098628708814e-02, -2.415168843964405e+04, 1.566417707431966e+05, 1.757744432545614e+04, -1.076360207439850e+04, -2.020272935356916e+03, 5.177424012414099e+04, 1.985595559789292e+05
2073, 8.549317733021516e-01, 9.123179840960138e-01, -1.067623552982275e-02, -8.446540458000029e-07, 5.114471954498906e-04, 1.317057858383355e-02, 1.879309421274753e+05, 8.504433256647396e+05, 6.628817956303612e+04, 2.497543965598240e+05, 2.037192731683502e+04, 7.686250860794405e+04, 6.587389042020845e+05
2074, 8.873863387731447e-01, 9.309670280943954e-01, -8.370545223570740e-03, 2.863100182458334e-07, 4.573239681824465e-04, 1.362478532727418e-02, 2.104469761643453e+05, 1.004999656353349e+06, 2.347888690982411e+04, 2.346074700901032e+05, 3.285046841056580e+04, -2.960927811400318e+04, 7.875419151550703e+05
2075, 8.550897847975735e-01, 9.498889213091597e-01, -1.066509918122435e-02, 4.563084606105938e-06, 5.098088481945151e-04, 1.408769688526559e-02, 2.295489523211789e+05, 1.061510303045592e+06, 9.568632431802052e+04, 2.847046531211004e+05, 6.734075683128056e+03, 2.009468033274949e+05, 8.933403291608862e+05
2076, 8.875589061098701e-01, 9.685224728412289e-01, -8.358181305534510e-03, 2.713224556680216e-06, 4.537759203814967e-04, 1.455264754578642e-02, 1.258539276637089e+05, 8.798955307197461e+05, 2.528129558358530e+04, 1.011684931330404e+05, 2.929802204672569e+04, 4.828761187050780e+04, 7.741379649843444e+05
2077, 8.555292441541964e-01, 9.864655540152807e-01, -1.063412246150427e-02, 5.623527014650409e-06, 5.101228013598309e-04, 1.499528948499185e-02, 1.037050037035549e+05, 7.679622503074115e+05, 2.143654936111776e+04, 3.477029469599527e+04, 7.153667546584504e+04, 1.517171552622552e+05, 7.599772457980297e+05
2078, 8.875668224412174e-01, 1.006052349332045e+00, -8.357614097185204e-03, 3.758263371220205e-06, 4.504876028910490e-04, 1.549343493905957e-02, 1.616475732438186e+05, 8.981768532400215e+05, 4.283390736588336e+04, 1.077825017159970e+05, 1.223608821214621e+05, 1.244621791199934e+05, 8.257985940572671e+05
2079, 8.550283953565140e-01, 1.022443185757920e+00, -1.066942589281662e-02, 7.313140827039377e-06, 5.078038675835235e-04, 1.589947825663554e-02, 1.531047650093120e+05, 1.026058355733334e+06, 6.343633541469133e+04, 6.039473633405444e+04, 1.219006996841276e+05, 1.402194069716175e+05, 9.834688441331101e+05
2080, 8.881052633069140e-01, 1.043680871924960e+00, -8.319028922651706e-03, 6.661630553392306e-06, 4.458354582699553e-04, 1.644769663582857e-02, 8.205440766115254e+04, 7.329827299081961e+05, -2.106595396046445e+03, 8.012147221139967e+04, 8.170291058828826e+04, 1.391841279667651e+05, 7.093135370440996e+05
2081, 8.503911007553842e-01, 1.061976358898884e+00, -1.099588581009092e-02, 1.152301690826585e-05, 5.132557637146234e-04, 1.689976320763653e-02, 3.079500100274643e+04, 5.407517933197091e+05, -4.038954939565125e+03, 9.284319239167741e+04, 6.653240565930544e+03, 8.271932386605661e+04, 5.029644195753251e+05
2082, 8.914341565154863e-01, 1.080622622106597e+00, -8.080232590414013e-03, 9.286981743988898e-06, 4.343411147759955e-04, 1.739560257519124e-02, 4.513285523731237e+04, 7.169225534901089e+05, 3.358258362326219e+03, 1.036878041022503e+05, 1.350491337025035e+04, 1.831249205445050e+05, 7.187340680755062e+05
2083, 8.558710763631365e-01, 1.100127519352930e+00, -1.061002278015689e-02, 1.421376604508057e-05, 4.982796866873085e-04, 1.788281813149248e-02, 1.005751433063183e+05, 6.388628560062945e+05, 2.586348691106341e+04, 7.280959876982338e+04, -1.014582623235594e+04, 7.608152875786326e+04, 5.702203160686296e+05
2084, 8.885819877198011e-01, 1.118855248254264e+00, -8.284857114344435e-03, 1.166219213978581e-05, 4.357758337861645e-04, 1.838528457832417e-02, -1.168548894581593e+04, 5.028684037631397e+05, -1.894843638068573e+04, 8.400506352037890e+04, 1.001721167257727e+04, 1.397014066482670e+05, 5.334904464352530e+05
2085, 8.558266501825428e-01, 1.137679601606970e+00, -1.061315511582043e-02, 1.588374916952628e-05, 4.914529045771387e-04, 1.885709001497685e-02, 1.484738806859561e+05, 6.621877540061414e+05, 6.315125027918503e+04, 1.523587032143811e+05, 3.156013408177038e+04, 1.561207981570103e+05, 5.916036059189149e+05
2086, 8.885108118754131e-01, 1.156324668491314e+00, -8.289959581529317e-03, 1.401048550043332e-05, 4.277210152873554e-04, 1.936540022913391e-02, 3.281621517597874e+04, 4.640494733881981e+05, -1.833459808051637e+04, 1.137821261612144e+05, -8.840166832672377e+03, 1.378946735940238e+05, 4.646398059332947e+05
2087, 8.544850037339288e-01, 1.175026944646179e+00, -1.070771839046882e-02, 1.867868281443807e-05, 4.874471607018704e-04, 1.983287265263615e-02, 1.100129580568564e+05, 5.227257573374062e+05, 3.392221115809418e+04, 1.861513026555643e+05, 1.633042841923369e+04, 1.675450826627593e+05, 4.828787580297376e+05
2088, 8.877637369251511e-01, 1.193750315845887e+00, -8.343504316545588e-03, 1.671658299513823e-05, 4.237897276458957e-04, 2.035384438315869e-02, 2.211673460701907e+04, 4.830439143571402e+05, 1.928185581996795e+04, -3.042760823046204e+04, -1.177357872117288e+04, 7.954760310575106e+04, 5.098515211229974e+05
2089, 8.540366212304651e-01, 1.212672668617369e+00, -1.073930805001393e-02, 1.985576629122410e-05, 4.814309448804843e-04, 2.082791015468000e-02, 1.038457842831965e+05, 5.646472449177793e+05, 4.819396464330680e+04, 1.074172600020554e+05, 3.511609165055883e+04, 1.393032877608697e+05, 5.287613948081115e+05
2090, 8.882126704365072e-01, 1.231346170461592e+00, -8.311330693962924e-03, 1.839512429383395e-05, 4.139833314166230e-04, 2.135584441681770e-02, 6.376189743535296e+04, 4.275040866204996e+05, 2.769464876274299e+04, 2.042806919727659e+04, 2.575936593850614e+04, 1.092992429590112e+05, 4.359806549117021e+05
2091, 8.540707623128614e-01, 1.250366674280166e+00, -1.073690296838733e-02, 2.301791572428824e-05, 4.742562287097102e-04, 2.183010430505131e-02, 7.122629688470233e+04, 3.829910801794139e+05, 9.241084805146187e+03, 5.860177799066628e+04, 1.840312155249346e+04, 1.074167033648055e+05, 3.703779165343779e+05
2092, 8.881254800142919e-01, 1.268872401746805e+00, -8.317579957350926e-03, 2.088412442830011e-05, 4.045332254939346e-04, 2.236119880421905e-02, 4.565868636626632e+04, 3.267601379940122e+05, -1.662500738257758e+04, 3.452277320324930e+04, -1.436727285163673e+04, 1.038754865093864e+05, 3.407214908340863e+05
2093, 8.541685556151115e-01, 1.288051016642179e+00, -1.073001366050493e-02, 2.498683652951694e-05, 4.648022682129868e-04, 2.283913253546566e-02, 6.687593033098508e+04, 3.110823681814426e+05, -7.688611237392349e+03, 9.034088679484610e+04, 6.172164627015168e+03, 1.321822230868496e+05, 3.273608810082198e+05
2094, 8.879593850595584e-01, 1.306401219557390e+00, -8.329483795796858e-03, 2.222358249473477e-05, 3.955165114770676e-04, 2.337193289828550e-02, 2.072158250359340e+04, 3.078844973421769e+05, 1.845173067470776e+04, 2.833469714209694e+04, 1.425727640710473e+04, 9.105279355841447e+04, 3.268598132429144e+05
2095, 8.567092189965306e-01, 1.325317321499348e+00, -1.055091577824218e-02, 2.638967988329022e-05, 4.492160740235812e-04, 2.384491063361405e-02, 5.264563580627388e+04, 3.590210770061926e+05, 2.458587905234440e+04, 1.226799305796320e+05, 5.324777110641656e+04, 1.422492893027351e+05, 3.851465670438552e+05
2096, 8.887377568910991e-01, 1.343755896956417e+00, -8.273689629899642e-03, 2.352154933940413e-05, 3.826027598096103e-04, 2.438293109087729e-02, 1.467692559589395e+04, 2.731819779215736e+05, 4.396132785785700e+03, 6.146953664272741e+04, 3.623307829028783e+04, 1.263143605988617e+05, 3.298192278770974e+05
2097, 8.997680871425259e-01, 1.280563304548343e-01, -7.480472702840298e-03, -3.280872863013068e-05, 1.067092852350543e-04, 2.156137942671554e-04, 6.217649896356865e+05, 3.129776554880139e+06, -1.174978967065898e+05, 2.306925999975692e+05, 1.979830275447686e+05, -2.997675350294986e+05, 2.802224925188762e+06
2098, 5.859053797956435e-01, 1.378020003375277e+00, -2.847823509780817e-02, 6.319026742014969e-05, 9.110617983597337e-04, 2.488066642584014e-02, 8.478306260528677e+04, 5.507514581998857e+05, 1.552881625352939e+05, 1.443110452302987e+05, 4.947674390170218e+04, 1.247600873923938e+05, 5.650790129727249e+05
2099, 3.810284001107835e-01, 1.525740464589990e+00, -3.870847260464710e-02, 9.700689148976413e-05, 1.147070832684758e-03, 2.846058168099664e-02, 2.808643904931534e+04, 4.524167350342129e+05, 1.328808455711315e+05, 8.882921205135269e+04, -1.172274927360274e+04, 8.542707042694416e+04, 4.829580361807763e+05
2100, 7.636366550160979e-01, 2.842830448852084e-01, -1.698312505346927e-02, -2.759310696468301e-05, 3.484834672254217e-04, 1.574797386044824e-03, 1.106780659893512e+06, 2.942838879436160e+06, -2.750606943359069e+05, 1.095518749794440e+06, 8.677046659197396e+04, 5.065761637390692e+04, 1.910281450307212e+06
2101, 4.658834539828917e-01, 2.287914886979434e-01, -3.512218786132961e-02, -4.702912258056080e-06, 4.396046606078875e-04, 1.142163811280641e-03, 1.950598149239021e+06, 5.816860848484653e+06, 2.235480271123307e+05, 7.122323345694436e+05, 1.969566129618078e+05, 6.926551947632700e+05, 4.793223888756034e+06
2102, 9.020624767286188e-01, 1.932244043004386e-01, -7.314859642083064e-03, -3.801938117620196e-05, 1.641303958408169e-04, 5.964516820187171e-04, 5.781109948035360e+05, 2.482469545622093e+06, -1.736191329981860e+05, 9.849883656272595e+05, 3.123476838623832e+05, -1.946725928389822e+05, 1.874592376166380e+06
2103, 9.185785881355929e-01, 8.375994067686117e-01, -6.115948084912804e-03, -8.360895786055367e-06, 4.018484644605844e-04, 1.137757906550937e-02, 9.346940179932621e+04, 1.110437393371798e+06, -4.105013242658330e+04, 4.782887710944691e+03, 6.835896195118345e+04, 1.802127945065868e+05, 1.117490347538443e+06
2104, 4.642090907642818e-01, 1.527939259670417e+00, -3.520371200926103e-02, 8.685441057995624e-05, 1.053954646557026e-03, 2.867928636285426e-02, 3.634751842703647e+04, 4.703234550989590e+05, 1.596015095067566e+05, 7.636101462423836e+04, 4.559723710378303e+02, 1.305211048897845e+05, 5.478112126493603e+05
2105, 4.649012275032388e-01, 2.801006089759328e-01, -3.517006055244196e-02, -3.100353088585084e-06, 5.341866134144814e-04, 1.649280136249166e-03, 1.690065026426366e+06, 6.685747653375557e+06, 2.568015933128528e+05, 8.198680354015453e+05, 1.160864644495418e+05, 6.433890928682984e+05, 5.616176070389148e+06
2106, 8.740565744999383e-01, 1.488644126157720e+00, -9.322123664660682e-03, 3.125716133876855e-05, 3.682863877481346e-04, 2.831061312177174e-02, 5.306865123303784e+03, 1.404411016723104e+05, 2.397030592353723e+03, 3.147840900122164e+04, -2.239913316446543e+04, 6.613854216666824e+04, 1.733633786061008e+05
2107, 9.103138675265662e-01, 1.470849667431403e+00, -6.717374106861468e-03, 2.529123775119047e-05, 3.018994284966769e-04, 2.787955554126897e-02, 4.420057825271897e+03, 2.020429180890167e+05, 3.590461871371881e+03, 5.435120060752220e+03, -6.626634979890637e+02, 7.561054081119638e+04, 2.367405309853237e+05
2108, 8.747588621088566e-01, 1.451733545330461e+00, -9.272153944086411e-03, 2.970891732127778e-05, 3.790120217064680e-04, 2.730271627163988e-02, -2.674927717074611e+04, 1.789595392985766e+05, 4.364521801480805e+01, 2.717694650017208e+03, -1.413830927817841e+04, 7.800722901770881e+04, 2.365964245774359e+05
2109, 9.069856186925161e-01, 1.433886694367147e+00, -6.958725732326237e-03, 2.470302534625379e-05, 3.200040164088036e-04, 2.686208325464096e-02, -6.083073634394459e+02, 2.222470438107208e+05, 8.569032510757661e+03, -1.389241424892536e+04, 2.206876208281413e+03, 1.171865432746710e+05, 3.069761602861201e+05
2110, 8.754606995141559e-01, 1.414837432486210e+00, -9.222198052002983e-03, 2.786146824763913e-05, 3.882841885379414e-04, 2.629733079583983e-02, 1.341823520267716e+04, 2.865945536070669e+05, -7.915281799356713e+03, 4.110943256900848e+03, 9.801797024473333e+03, 1.127117857436418e+05, 3.403564000244170e+05
2111, 9.051059873190680e-01, 2.580923668895415e-01, -7.094822312131779e-03, -4.086924802564756e-05, 2.069146809732074e-04, 1.138667846206698e-03, 3.364518532212499e+05, 2.605350029561179e+06, -5.273403165397950e+04, 3.502677223514525e+05, 5.964689636905330e+04, -1.218554385344056e+05, 2.276028371371605e+06
2112, 8.881970040527016e-01, 2.883371722781233e-01, -8.312453583729366e-03, -3.806275004371307e-05, 2.451534765311458e-04, 1.478417240233537e-03, 5.040827336732689e+05, 3.167027528521346e+06, -2.228958498079624e+05, 2.630900196549059e+05, -9.102105121288725e+04, -6.564838697786570e+04, 2.824523688876558e+06
2113, 9.277368767651413e-01, 2.905887190526666e-01, -5.445882868595073e-03, -4.086265091635122e-05, 2.113351200645694e-04, 1.435058634579905e-03, 2.675332441317599e+05, 2.541853019463159e+06, -1.172937862941937e+05, 2.625546531342283e+05, 2.478056645922506e+05, 5.992089503141478e+03, 2.325829376657347e+06
2114, 9.066490650090182e-01, 3.172449580172869e-01, -6.983105442555190e-03, -3.804602859511230e-05, 2.542951065668997e-04, 1.773240690881250e-03, 4.340054435545533e+05, 2.846561493278754e+06, -1.823294621165213e+05, 1.090510335283027e+05, 6.158355808015944e+04, 2.573631467054455e+04, 2.612104432306017e+06
2115, 8.303923245447730e-01, 3.277276530462090e-01, -1.239578743472622e-02, -3.333318945666908e-05, 3.295007642013514e-04, 2.011425152918439e-03, 5.806535154407937e+05, 2.485150088217616e+06, -3.607497790828351e+04, 1.056994112682847e+06, 5.337350845179943e+04, -8.132232220804025e+04, 1.726009528349180e+06
2116, 4.752919671360870e-01, 1.817638648140589e+00, -3.465707698879481e-02, 8.764520192031111e-05, 9.478002497788074e-04, 3.653666291296458e-02, -2.926832625897201e+04, 5.605537237324291e+04, 7.453879979646544e+04, 7.375354491858742e+03, -4.836181017989585e+02, 3.630787653903817e+04, 1.616165334831520e+05
2117, 4.756205520849990e-01, 1.863938019507463e+00, -3.464063201826799e-02, 8.743373497627910e-05, 9.308751676267574e-04, 3.779492752141773e-02, -3.477623973261210e+03, 4.917566551402941e+04, 4.768571320202734e+04, 1.494685217584440e+04, -9.237140509974393e+03, 3.226979136343378e+04, 1.111012838267431e+05
2118, 4.747644831949936e-01, 1.770404283542404e+00, -3.468344952112941e-02, 8.795668258584910e-05, 9.649563521348554e-04, 3.525345333221948e-02, -3.119500757127288e+04, 8.246497584044136e+04, 6.914513440464779e+04, 1.793562864862148e+04, -5.962409871135871e+03, 3.622365747564763e+04, 1.677333713350638e+05
2119, 8.219820810195627e-01, 1.120591693189885e+00, -1.298086740239616e-02, 1.635629351483259e-05, 5.550038732576208e-04, 1.839122045475124e-02, 1.675169285604158e+05, 6.689093734028218e+05, 7.020964948461966e+03, 1.345039339749232e+05, 1.065726179122157e+05, 1.189526757522173e+05, 5.879685156040114e+05
2120, 5.932424377943526e-01, 1.749776744539443e+00, -2.803271968357026e-02, 7.233448218387298e-05, 7.908908639815901e-04, 3.492899836164489e-02, 3.993237240291229e+03, 4.561115952350898e+04, 6.429577753703007e+04, 1.879768192988932e+04, 2.782774556062793e+03, 4.368692328840625e+04, 1.395915725908484e+05
2121, 5.547346453288492e-01, 1.727527703265715e+00, -3.032969159861182e-02, 7.768599299769890e-05, 8.616294390552393e-04, 3.424849276663267e-02, -4.556058033495563e+04, 8.535812749785077e+04, 6.867823856577634e+04, 1.955475351353960e+04, -1.373543718228344e+03, 5.106127843583336e+04, 1.866344638224723e+05
2122, 6.101089192566378e-01, 9.050863566729087e-01, -2.699606192488346e-02, 3.208681990956794e-05, 8.940291258354438e-04, 1.292740469023177e-02, 1.525481342556661e+05, 1.754101532210479e+06, 1.785578134855504e+05, 1.815852434511287e+05, -9.191981025157496e+04, 1.123581514354904e+05, 1.636515033452042e+06
2123, 6.662363226527960e-01, 1.356360580918345e+00, -2.343987480975255e-02, 5.156547445520077e-05, 7.858011893320908e-04, 2.442572797076904e-02, 2.771233508739296e+03, 5.530159824346388e+05, 1.443945466677949e+05, 2.417219734228212e+04, -6.841353334794953e+03, 8.473097706971964e+04, 6.129268309482685e+05
2124, 7.720788866486452e-01, 1.699528206394750e+00, -1.640993571490145e-02, 4.764730046091792e-05, 4.904855560312615e-04, 3.390236705485092e-02, 1.699037454776599e+03, 3.760999634021147e+04, 4.446908853578425e+03, 1.770997111036370e+04, 6.284734821757072e+03, 4.487893272903480e+04, 8.480066900360519e+04
2125, 9.220579978639574e-01, 1.024498843397831e+00, -5.861845274565909e-03, 3.246952497065747e-06, 3.850782187682740e-04, 1.596904317636644e-02, 1.212255752359941e+05, 8.912482339639482e+05, 2.222649250579554e+04, 7.237880518232608e+03, 9.149916143004097e+04, 7.147248043331293e+04, 8.576855392058219e+05
2126, 6.249870799606403e-01, 1.445004454471299e+00, -2.606830199549981e-02, 6.148985242676597e-05, 8.339717371724526e-04, 2.673542577513342e-02, 1.624560040662996e+04, 5.093024965719578e+05, 1.638245186137311e+05, -1.640447051837939e+04, 2.904006997685834e+04, 5.296815312125684e+04, 5.930697632172233e+05
2127, 9.225805189435469e-01, 1.174309300701837e+00, -5.823635511001537e-03, 1.175913951796670e-05, 3.586743692329808e-04, 1.986427274711167e-02, 3.924231297759386e+04, 5.122377458581195e+05, -9.410441114453786e+03, 4.237109722455805e+03, 2.787322310337983e+04, 1.189512187218817e+05, 5.353054653729823e+05
2128, 6.104145621244850e-01, 8.153721498271211e-01, -2.697712144744718e-02, 2.297033154309222e-05, 8.594641359271661e-04, 1.087477272947047e-02, 3.673196967694684e+05, 2.231031931232501e+06, 2.203724596206753e+05, 3.570855289347294e+05, -4.276379151189090e+04, 3.453034721757752e+05, 2.000370797388015e+06
2129, 9.215423789636258e-01, 9.122566825318825e-01, -5.899537377442952e-03, -2.993330946675192e-06, 3.953834822251340e-04, 1.316778768343482e-02, 1.044094476560090e+05, 9.564984478455520e+05, -3.289240159596669e+04, 1.126905842854371e+04, 3.124560885502839e+03, 9.803421327725021e+04, 9.198922965720799e+05
2130, 6.167032765006462e-01, 4.530733476783635e-01, -2.658632296686856e-02, -9.566086832495102e-06, 6.351842274834180e-04, 3.905596512747770e-03, 8.809696336606452e+05, 3.461460583597712e+06, -1.329759832372708e+05, 2.535995491963101e+05, -1.018913632626882e+04, 1.370661064246876e+05, 2.963303939060524e+06
2131, 8.751292307169004e-01, 1.903557811100382e+00, -9.245793844066227e-03, 3.336054036405522e-05, 2.160989590436410e-04, 3.969001821453005e-02, 3.856703288320066e+03, -6.808776550240969e+03, 3.693207590155214e+02, -5.709557150206487e+03, 1.112203454615511e+03, 1.674090260792809e+04, 3.079173078204337e+04
2132, 8.426444077982060e-01, 1.887876177777507e+00, -1.153962037884143e-02, 3.808679717295926e-05, 2.859392535031549e-04, 3.919428728858770e-02, 7.292210725688290e+03, 9.574362273827852e+03, 9.514304693752623e+03, 7.169649746830350e+03, -1.908148416086359e+02, 1.220979983080569e+04, 2.691497329857321e+04
2133, 6.121405559047384e-01, 7.271728014496832e-01, -2.687006731002595e-02, 1.345980299187477e-05, 8.247745887571163e-04, 8.964579204055766e-03, 5.908956336214654e+05, 2.961205549744395e+06, 2.758083384803471e+05, 1.968121041182062e+05, -5.681357226227564e+04, 2.818392993453678e+05, 2.680292010421750e+06
2134, 9.373682352240876e-01, 1.489839931531051e+00, -4.736828627648590e-03, 2.224656181076118e-05, 2.403758148711160e-04, 2.844191076802371e-02, -2.519896717569397e+04, 1.658449151792921e+05, 8.712410060315397e+03, -2.708857410665808e+04, -2.147435413957817e+03, 3.804177933127037e+04, 2.035814752664186e+05
2135, 5.181938022779531e-01, 1.883277185516768e+00, -3.239999173471433e-02, 8.246243972000623e-05, 8.631543458719471e-04, 3.840783881317428e-02, -8.833699535574384e+03, 3.293103006044494e+04, 5.372249255077470e+04, 1.227238948447818e+04, -4.894231209156561e+03, 1.446411241853732e+04, 1.032767170777490e+05
2136, 6.040068071338955e-01, 1.269469179779053e+00, -2.737307675043880e-02, 5.674958861819068e-05, 9.043666346731510e-04, 2.203962328879400e-02, 7.464302214219386e+04, 9.656873149428421e+05, 2.760683207439832e+05, 1.008876001052761e+05, 1.851628405152729e+03, 1.326880630361645e+05, 1.026027988482493e+06
2137, 6.246868722816737e-01, 1.486362915811445e-01, -2.608714006029572e-02, -6.977812832691804e-06, 2.501902217862534e-04, 4.891157439751298e-04, 2.947016981355906e+06, 8.040244021073466e+06, -5.392184063646022e+04, 1.015404682959159e+06, -2.229658015800750e+05, 5.315369408592548e+05, 6.365193338546962e+06
2138, 9.200166087719990e-01, 8.006341412436371e-01, -6.010996257302295e-03, -9.854019026870470e-06, 3.949377541004571e-04, 1.052108521434811e-02, 1.475027098579068e+05, 1.112623518307582e+06, -1.143343074750010e+01, -1.608774764995269e+05, 7.359084581031572e+04, 1.283588468378337e+05, 1.178921315375020e+06
2139, 6.154939436714414e-01, 5.433974010282332e-01, -2.666162928126406e-02, -7.918528832862037e-06, 7.068587627292160e-04, 5.401886525909703e-03, 8.620419747939219e+05, 3.141461923916586e+06, 9.312863277135699e+04, 1.996899791639197e+05, 5.877895526628879e+04, 2.847919329884162e+05, 2.724692070952544e+06
2140, 5.106605232694421e-01, 1.184741118762325e-01, -3.281113161678056e-02, -1.830858863932638e-05, 2.478741816378804e-04, 3.614735686592110e-04, 4.277814115582717e+06, 1.135685894351915e+07, -1.615363699796084e+05, 1.119235802144165e+06, 1.777859422123255e+05, 6.782321896461729e+05, 9.165277537580496e+06
2141, 4.696077970309742e-01, 1.378115070266650e-01, -3.493945488230665e-02, -9.959780401683303e-06, 3.152888288598804e-04, 4.539862373893295e-04, 2.368012392116495e+06, 7.368042908425890e+06, 2.426673051344338e+05, 9.021389235298192e+05, 2.103315192559675e+05, 6.489622034444707e+05, 6.004276675614882e+06
2142, 5.515855994156708e-01, 1.002011363061665e-01, -3.051263693728163e-02, -1.040664647387109e-05, 2.037168509377593e-04, 2.366877566539506e-04, 3.413853398352587e+06, 8.581531638238728e+06, -2.956010917556799e+05, 9.957352041195360e+05, -3.918061165007982e+04, 5.435769276342794e+05, 6.797162920820920e+06
2143, 6.258671380765710e-01, 1.072375958219340e-01, -2.601305183129214e-02, -1.677147643688870e-05, 1.814707878612567e-04, 2.652238992130393e-04, 3.342698205797205e+06, 8.075567265730923e+06, -1.822888501856710e+05, 1.266461566573804e+06, 4.671758595399869e+05, 4.546758492252250e+05, 6.157272300372594e+06
2144, 8.224887861395667e-01, 9.688024786505626e-01, -1.294567575291635e-02, 7.546104468569848e-06, 5.628387966332207e-04, 1.454626440372187e-02, 1.914667986976269e+05, 8.758974421492832e+05, 2.106568876924735e+04, 2.753866621608537e+05, 9.818442377954996e+04, 2.929213431522023e+05, 8.400661258507150e+05
2145, 4.475597210867986e-01, 1.266762568298700e+00, -3.599238588528837e-02, 8.201983449551632e-05, 1.120280055118734e-03, 2.172978536774188e-02, 2.136307777381463e+05, 1.104936862399893e+06, 2.221714691533219e+05, 2.060373207148059e+05, 4.773573786621313e+04, 2.121133835932904e+05, 1.044578930104113e+06
2146, 9.048892235904183e-01, 1.917429256878625e+00, -7.110507408270593e-03, 2.891858944525927e-05, 1.512309394175460e-04, 4.013130864880621e-02, -8.334342042440096e+03, -6.720529425044793e+03, 8.038164671415334e+03, -2.035713771059491e+04, 3.127634694422244e+03, 1.479850559429997e+04, 3.235312071286343e+04
2147, 9.084863025693527e-01, 1.398423077165101e+00, -6.849958859240647e-03, 2.334503635340046e-05, 3.282238249885383e-04, 2.589516583896478e-02, 3.283320955297604e+02, 2.799260228203790e+05, 4.880835268015534e+04, -3.137303867801208e+04, 2.412791062281407e+04, 8.126267413100983e+04, 3.416834446334376e+05
2148, 9.200886634458729e-01, 1.107643509186026e+00, -6.005735173002024e-03, 7.921183577050406e-06, 3.767459753705876e-04, 1.810854724769001e-02, 5.976158942181637e+04, 5.780957752337113e+05, -3.054467278749026e+04, 1.325420710900169e+05, 2.853340313359089e+04, 1.600339448954302e+05, 5.641956238143544e+05
2149, 6.054176283926120e-01, 1.181316634225801e+00, -2.728610785666786e-02, 5.199131954147784e-05, 9.109339067571165e-04, 1.975102153556956e-02, 1.661594852694161e+05, 1.243336109423918e+06, 2.096326719939068e+05, 6.093789991848641e+04, -7.120625968975763e+04, 2.173996186937776e+04, 1.197159027585862e+06
2150, 9.229740292396360e-01, 1.249032372400314e+00, -5.794851100927551e-03, 1.577417699150790e-05, 3.407019025211955e-04, 2.186279380616205e-02, -1.007766160534773e+03, 3.792643303964231e+05, -3.705266522074735e+02, 2.666263696512160e+04, 1.607410632715563e+02, 1.436911504155519e+05, 4.436126304853070e+05
2151, 4.508269063648455e-01, 1.220798624266574e+00, -3.584080533237604e-02, 7.607031410641896e-05, 1.119302036312813e-03, 2.054799727556686e-02, 2.448467803219318e+05, 1.193775789695186e+06, 2.402303084961687e+05, 1.513218581014973e+05, 9.517152577838878e+04, 1.053241633827900e+05, 1.109750371567902e+06
2152, 7.994638315143426e-01, 2.671704769054867e-01, -1.453693587957460e-02, -2.795960912005402e-05, 2.985072212732184e-04, 1.356295479801400e-03, 6.372491744522783e+05, 2.057666242004511e+06, 1.764882054379598e+05, 8.109861967763889e+05, 2.670897503657100e+05, 1.244804515025734e+05, 1.467968453200239e+06
2153, 5.420437537576055e-01, 3.174111571410315e-01, -3.106218684486629e-02, -5.698824362063148e-06, 5.389242893251087e-04, 2.063174157974704e-03, 1.657749557524675e+06, 5.222323430124335e+06, 1.196614054402282e+05, 5.325996573918001e+05, -1.085710639636123e+05, 4.880720497486214e+05, 4.333104163142717e+06
2154, 8.557093735392285e-01, 1.359192172942150e+00, -1.062142356380843e-02, 2.843075730446509e-05, 4.424024696623105e-04, 2.475882791666900e-02, 6.286327113549973e+04, 3.681629317041850e+05, -1.884301444803384e+04, 1.382644925187345e+05, 1.500005823157353e+03, 1.367837593032859e+05, 3.647938838508191e+05
2155, 6.067179684777483e-01, 1.087342959635081e+00, -2.720584175350178e-02, 4.444458991114406e-05, 9.113913215423389e-04, 1.735693730900205e-02, 1.410582428474889e+05, 1.119702140079185e+06, 2.272957227328109e+05, 1.983321117658973e+05, 1.052758221617065e+05, 1.347630263540388e+05, 1.071305607234247e+06
2156, 9.369062365349042e-01, 1.827605656507373e+00, -4.770942711370817e-03, 2.427162931314952e-05, 1.199630419868591e-04, 3.773361568664430e-02, -3.438344514322969e+04, -1.167636708915109e+04, 9.335306877341225e+03, -4.224080294697594e+03, 8.589042386511195e+03, 9.500043547008119e+03, 3.865072991759989e+04
2157, 6.080758996759488e-01, 9.965971029416167e-01, -2.712191337241272e-02, 4.062421195656640e-05, 9.041317934002507e-04, 1.511263152092088e-02, 2.316984902568442e+05, 1.451470703295261e+06, 2.145301969396412e+05, 2.158991555125155e+05, -1.485274684787031e+04, 2.084252153981334e+05, 1.332824106883412e+06
2158, 6.055974611045664e-01, 1.312794001792400e+00, -2.727501341437669e-02, 5.893404733704061e-05, 8.953987287602192e-04, 2.318026501561309e-02, -8.265095617489232e+04, 6.359975085861814e+05, 1.769911235806838e+05, 6.107249239982152e+04, -5.609409777689630e+04, 8.955822515659971e+04, 7.492026787726688e+05
2159, 9.196983064216951e-01, 1.324316415426349e+00, -6.034234456638889e-03, 1.945524000970117e-05, 3.275467151335892e-04, 2.389360698186130e-02, 2.940095584452424e+04, 2.961208663400831e+05, 3.350253508990987e+04, 1.228250952058517e+04, 3.379304937871658e+04, 8.778103149490233e+04, 3.254352177206160e+05
2160, 8.237869708224786e-01, 1.306682287321183e+00, -1.285548025748838e-02, 2.826002523898669e-05, 5.175062915737209e-04, 2.330437107328695e-02, 4.475206264080710e+04, 3.945004134666753e+05, 2.952800102949637e+04, 8.009075346685236e+04, 7.724745454767483e+04, 1.271385091874833e+05, 4.245266787021579e+05
2161, 7.304373298493965e-01, 2.189861017811197e-01, -1.921733283755782e-02, -1.446392462006903e-05, 2.866540135184753e-04, 9.537341864455373e-04, 2.381232441968275e+06, 5.755772728418603e+06, 1.907240262905931e+04, 1.805263274277416e+06, 2.850948458697221e+05, 2.084055271662393e+05, 3.746748038158386e+06
2162, 5.445010764400648e-01, 1.356227357970595e+00, -3.092140102005494e-02, 6.979661476949617e-05, 9.803671917866311e-04, 2.423484165851162e-02, -1.468996805361023e+04, 6.520402371769100e+05, 1.342864713987592e+05, 1.630101248845454e+05, 6.670728227084891e+04, 1.327225937327490e+05, 6.913193795564712e+05
2163, 5.092373538444150e-01, 1.377718467476848e+00, -3.288812507977956e-02, 7.524054533808444e-05, 1.026567150012529e-03, 2.474548637057856e-02, 4.927424125981133e+04, 4.441846545700576e+05, 1.305938168768909e+05, 7.726291743288122e+04, 5.471957215204158e+04, 1.216499982617888e+05, 5.002276250263362e+05
2164, 8.433818353886920e-01, 1.925181110076687e+00, -1.148794430127818e-02, 3.770584720698411e-05, 2.703368339261186e-04, 4.021629777801183e-02, 1.858955381900459e+04, 2.081559351887392e+03, 1.442802534395553e+04, 2.737108283547040e+03, 4.572215135272829e+03, 6.685904103667760e+03, 3.291572524415735e+04
2165, 8.102747752133810e-01, 1.907178956775812e+00, -1.379175903071626e-02, 4.268540394614107e-05, 3.412281379217130e-04, 3.965621239452977e-02, -7.150688570667760e+02, -2.235469592978931e+03, -4.531539495613606e+02, 7.525604756245427e+02, 1.127741004398491e+03, 3.907196282868696e+03, 7.544993848706011e+03
2166, 4.505868487448950e-01, 1.318259792486252e+00, -3.585199859116464e-02, 8.326928014865120e-05, 1.112681004138638e-03, 2.307909479221251e-02, 9.204101861041966e+04, 7.498143398659434e+05, 1.390170545078591e+05, 1.492751954269899e+05, 5.559329399038026e+03, 1.265554523567442e+05, 7.102205072393477e+05
2167, 4.738833664212928e-01, 8.402964393395718e-02, -3.472742782087312e-02, -8.236281255957767e-06, 1.654522636131348e-04, 1.929055423421991e-04, 3.815594955028683e+06, 9.893577677921392e+06, 9.855609758248800e+04, 1.679474528780929e+06, 1.323134497641441e+05, 8.767876354197852e+05, 7.541625662476215e+06
2168, 9.186012827946113e-01, 1.971235932956638e+00, -6.114292417848638e-03, 2.639992160941018e-05, 1.032622487442125e-04, 4.163317028590029e-02, 1.402178098764970e+03, 3.372770481632453e+03, -1.714069313734472e+03, -4.810866369413240e+03, 1.294783761644036e+04, 5.745584892810501e+03, 2.579762331979137e+04
2169, 6.307156674323486e-01, 1.901206250887468e+00, -2.570798350373446e-02, 6.742468044314276e-05, 6.729640952209369e-04, 3.912644578075131e-02, 6.225754095566685e+03, -2.990128190167809e+03, 5.467567333425136e+04, 1.061980895400327e+04, 5.263345031684793e+03, 1.903109270980316e+04, 1.014035449693561e+05
2170, 5.939519891166877e-01, 1.924929248511954e+00, -2.798944780412344e-02, 7.236782579998075e-05, 7.265822176462239e-04, 3.969710748202258e-02, 3.372120335097983e+03, 3.836038398812281e+03, 5.182754642952143e+04, 1.248996771593785e+04, 9.374311503708763e+03, 1.076492088288128e+04, 9.353442065245470e+04
2171, 8.637568456276561e-01, 3.498574531520202e-01, -1.005297223278766e-02, -3.458253580231052e-05, 3.083759838735239e-04, 2.248943629200424e-03, 2.103579388042995e+05, 1.927596087071510e+06, -5.815245533369978e+04, 4.485401796652115e+05, -7.519949227639240e+04, 1.582499176671505e+05, 1.642821089438674e+06
2172, 8.625873283961223e-01, 3.871976043520942e-01, -1.013572349075819e-02, -3.428645642969408e-05, 3.266991562862614e-04, 2.746953847351387e-03, 2.970458637085956e+05, 2.080584963743746e+06, 2.075532291180712e+04, 2.455446873866712e+05, 5.382478035287440e+04, 1.978936641214210e+05, 1.844718903332029e+06
2173, 8.937785459495747e-01, 3.740363399960073e-01, -7.911805354966210e-03, -3.774128016555134e-05, 2.940393162858684e-04, 2.521665990881487e-03, 1.674331332289300e+05, 1.842407780079565e+06, -2.851654085421443e+04, 7.136605922628465e+04, -2.322989526558334e+05, -3.056418009846868e+04, 1.772797044359148e+06
2174, 8.938851725318215e-01, 4.082046142510333e-01, -7.904139620690018e-03, -3.808886035152129e-05, 3.149072744816211e-04, 2.993515519064543e-03, 4.479331309696506e+05, 2.251981083770107e+06, 2.688215122683021e+03, 4.677565103288493e+05, 6.634092499497268e+04, -6.030882840398494e+04, 1.800932023775960e+06
2175, 8.618782613923053e-01, 4.247532881939626e-01, -1.018587056754428e-02, -3.816395216496571e-05, 3.533831491004426e-04, 3.272741986900723e-03, 5.497254520145837e+05, 1.883737049015879e+06, -3.228320450829302e+04, 7.794900442810458e+05, 3.426015454577982e+05, 1.033861612291064e+05, 1.383181204998407e+06
2176, 8.943060406800407e-01, 4.439503814010046e-01, -7.873877410615984e-03, -3.631882799489533e-05, 3.301672027825470e-04, 3.519730368113982e-03, 3.558843266444371e+05, 1.750653184312637e+06, 1.491907537214094e+03, 6.083769081820550e+05, 3.123915305994130e+05, -5.829698765922135e+04, 1.399975563849997e+06
2177, 8.617312928700215e-01, 4.618258851791590e-01, -1.019626226516294e-02, -3.390948434150998e-05, 3.765520403212121e-04, 3.841387156469436e-03, 1.506287262702445e+05, 1.358290308959953e+06, -9.484735866239942e+04, 1.378211895329363e+05, 1.976372234571003e+05, 9.315736508778794e+04, 1.282295623490121e+06
2178, 8.939586038871578e-01, 4.810362821887963e-01, -7.898860124650792e-03, -3.453204713574354e-05, 3.433050376359173e-04, 4.110274962797589e-03, 1.820150085029622e+05, 1.955290462100476e+06, -6.789858834384463e+04, 1.001212715057618e+05, 2.632148516336301e+05, 3.133612027167906e+05, 1.952612386387652e+06
2179, 8.614215098005962e-01, 4.990746934886778e-01, -1.021816348690288e-02, -3.088984038424059e-05, 3.997662598987373e-04, 4.456673728398836e-03, 3.475913306602904e+05, 2.157078093035044e+06, -1.272010053867875e+05, 2.209130089218271e+05, 8.165148755222675e+03, 1.129866288938845e+05, 1.899092077250802e+06
2180, 8.929098358320605e-01, 5.183743751118602e-01, -7.974242087066218e-03, -3.277837643805848e-05, 3.657855398934290e-04, 4.736833973780330e-03, 3.139174118348883e+05, 2.153721861092803e+06, -1.916756847073251e+05, 4.282923084928290e+05, -3.498929644522973e+04, 2.487965986829583e+05, 1.867384610681455e+06
2181, 8.607076334059144e-01, 5.363890803049806e-01, -1.026862017262112e-02, -3.214915009830399e-05, 4.175310024723058e-04, 5.101402039300401e-03, 5.441187094666044e+05, 2.212795125489108e+06, -1.823540246081357e+05, 5.742859199391357e+05, 3.458913178544310e+04, 2.027288116572840e+05, 1.720958116148673e+06
2182, 8.923999890431978e-01, 5.556627231267950e-01, -8.010871550178572e-03, -3.337331556860224e-05, 3.866309721430594e-04, 5.400968482676682e-03, 3.822622603590226e+05, 1.933968013948308e+06, -7.884895580540423e+04, 2.283665886329016e+05, -5.956613843168283e+04, 1.078618054664454e+05, 1.653624436817887e+06
2183, 8.599952357813335e-01, 5.737447266789355e-01, -1.031895528790025e-02, -3.248227921551911e-05, 4.372117300545098e-04, 5.786495032957362e-03, 5.569957369897800e+05, 2.428036264151955e+06, 7.780721505258560e+04, 4.791502225638264e+05, 9.090163522534103e+04, 5.843387423661405e+04, 1.925019338532951e+06
2184, 8.952608391854745e-01, 5.933501144383255e-01, -7.805196085156979e-03, -2.783595778493853e-05, 3.998398481732390e-04, 6.110226706024235e-03, 3.151048954005900e+05, 1.855645621988536e+06, -2.356188049154840e+04, 7.343916097036394e+04, -1.222876137288872e+05, 1.485994445167348e+05, 1.707845899479173e+06
2185, 8.591260956614776e-01, 6.112401075413250e-01, -1.038034274093829e-02, -2.852164083355646e-05, 4.533463159950291e-04, 6.502128002417631e-03, 4.179552966136365e+05, 1.864407116820408e+06, 7.972167484603096e+03, 2.967743180942458e+05, 8.221764545861947e+04, 1.284867974226748e+05, 1.533683998110922e+06
2186, 8.955921232997324e-01, 6.309223507161879e-01, -7.781357084594535e-03, -2.668766404384515e-05, 4.084443093347323e-04, 6.854720009342619e-03, 3.848469035745952e+05, 1.909786803016318e+06, 7.149963373324144e+03, 4.124564515784433e+05, 3.773170403109118e+04, 1.060738008567462e+05, 1.523903030633599e+06
2187, 8.584433807871007e-01, 6.486802013718822e-01, -1.042854554402639e-02, -2.174483395993645e-05, 4.714760866192796e-04, 7.252955086407054e-03, 4.594915759271778e+04, 1.518230046302811e+06, -8.575067081988108e+04, 2.863315965866492e+05, 7.546045204595788e+04, 1.032726231428863e+05, 1.393779874121063e+06
2188, 8.905640619081610e-01, 6.678787382486687e-01, -8.142688590303863e-03, -2.167926404004344e-05, 4.266041667323750e-04, 7.622638788403413e-03, 1.651512013888104e+05, 1.588857434798266e+06, 3.302387645185708e+04, 1.809363712204011e+05, -1.580819554039459e+04, 2.694367389152221e+04, 1.418067162381832e+06
2189, 8.578695243355360e-01, 6.860015471295943e-01, -1.046905051690420e-02, -1.370927679332154e-05, 4.811256846575778e-04, 8.029978639721047e-03, 2.610438354294445e+05, 1.494611141216084e+06, 7.874051491235393e+04, 3.636475333956299e+05, -1.122088393018855e+05, 6.255630204220882e+04, 1.213985090177040e+06
2190, 8.898080476558590e-01, 7.049593922145184e-01, -8.196932841746288e-03, -1.614340477322507e-05, 4.364418739151808e-04, 8.411281250340852e-03, 5.149320419375637e+04, 1.534499694479397e+06, -2.153711772106944e+04, 1.529060564503195e+05, 4.055677658805119e+04, 1.402445848501219e+05, 1.457576285543047e+06
2191, 8.287853646731549e-01, 4.808108287084589e-01, -1.250774596355086e-02, -3.281625448871284e-05, 4.327564082147461e-04, 4.190857851445573e-03, 6.112213412060128e+05, 2.578143095674371e+06, -4.673666444981500e+04, 5.146156726389762e+05, 3.548349661821003e+04, 2.238024522318652e+03, 2.019523419963079e+06
2192, 9.250762864331542e-01, 4.638666219011659e-01, -5.640951078049641e-03, -3.391632268179290e-05, 3.034433174565060e-04, 3.794257909448318e-03, 1.936556152346856e+05, 1.681923906723284e+06, -9.479981416555138e+03, 2.863249487712862e+04, 9.257571238160970e+04, 1.531347022398037e+05, 1.607515139554113e+06
2193, 9.222950418749266e-01, 6.576703320651165e-01, -5.844512875729697e-03, -2.228155409917179e-05, 3.786776650761825e-04, 7.373860005222693e-03, 1.426299772759845e+05, 1.513054592418092e+06, 2.578228226689139e+04, -4.588056703927151e+04, 3.338743367123674e+04, -3.507589134182963e+04, 1.476810291177335e+06
2194, 9.236330280625958e-01, 5.689546848303199e-01, -5.746630228966078e-03, -3.066086687743275e-05, 3.445676489721907e-04, 5.603385364070568e-03, 1.405800456858703e+05, 1.710867044320347e+06, -4.422243332623414e+04, -1.787331162018719e+05, 1.497301250827358e+05, 3.422785035898077e+05, 1.869161144470748e+06
2195, 8.268807687320873e-01, 5.918149597367911e-01, -1.264033595670072e-02, -2.491968866609462e-05, 4.826532988597768e-04, 6.161785226559826e-03, 5.854863123468812e+04, 1.595502286129994e+06, -3.612593747662508e+04, 4.699728751506434e+05, -4.784831113840628e+04, 2.020526058430008e+05, 1.425628229825230e+06
2196, 9.275689667458568e-01, 3.889843878124863e-01, -5.458203155141707e-03, -3.765721407780753e-05, 2.644797072455796e-04, 2.670086691792917e-03, 3.172002962438937e+05, 2.204037147720654e+06, -2.867064482086601e+05, 8.264893762612231e+04, 3.736975624910275e+04, 1.147141655463644e+05, 2.085185140133785e+06
2197, 9.361128941216641e-01, 1.600482681140645e+00, -4.829496699868194e-03, 2.437474687937841e-05, 2.047312458242426e-04, 3.148249375324541e-02, -1.090830474214053e+04, 1.076372954140961e+05, -6.620743371476423e+03, -4.001363699031177e+04, 1.329567567236917e+04, 4.434398157228001e+04, 1.578337180990182e+05
2198, 8.164104604000284e-01, 1.231886874604925e+00, -1.336731547182287e-02, 2.715090535469755e-05, 5.467913992934156e-04, 2.129984016923886e-02, 1.633369951918494e+04, 4.584650234255809e+05, -4.467992056165501e+04, 1.295157884148610e+05, -3.127107000393343e+04, 1.618522760061301e+05, 4.957418170045050e+05
2199, 9.407420478716630e-01, 1.416905381725896e+00, -4.487362733609890e-03, 2.013801707319990e-05, 2.568759675721649e-04, 2.644472947127884e-02, -1.868887965430768e+04, 2.153237667313147e+05, -8.034714875487110e+03, -1.952680807085383e+04, -8.271565170339380e+03, 6.605911581594122e+04, 2.616276997688045e+05
2200, 8.427746145652650e-01, 1.432667318245254e+00, -1.153049723922679e-02, 3.321822788884127e-05, 4.471140635204235e-04, 2.673563592009284e-02, 1.490700980778097e+04, 2.244822358093623e+05, 1.807793081190517e+04, 9.468567573356871e+03, -3.156006292390267e+04, 7.881172087600299e+04, 2.601797922069280e+05
2201, 4.301163505144696e-01, 1.129733216179598e-01, -3.677342190812924e-02, 3.884160873424830e-06, 2.521562210587320e-04, 3.307596714542844e-04, 3.340524522528613e+06, 9.040283369374920e+06, 2.037080110527828e+04, 9.805760275073593e+05, -1.953611014887655e+05, 8.984327780921063e+05, 7.351532648553189e+06
2202, 4.360138633904240e-01, 1.795028112868307e+00, -3.651479890994819e-02, 9.202491707951087e-05, 1.006399853805351e-03, 3.584259600498951e-02, 1.059720936336093e+03, 8.438896295146291e+04, 5.435879602571069e+04, 2.759074942650097e+04, 1.329513573600992e+03, 3.233564930946451e+04, 1.320741047196989e+05
2203, 4.342607000610768e-01, 1.747375394110801e+00, -3.659230120555166e-02, 9.230788083310071e-05, 1.024771249187751e-03, 3.454730803347716e-02, 1.393663047761931e+04, 1.814995159488669e+05, 8.060150890494269e+04, 2.226907752835444e+04, 9.900774278381521e+03, 5.745950585541986e+04, 2.375693825750454e+05
2204, 4.795722556940871e-01, 1.917630141391485e+00, -3.444171013207921e-02, 8.647478623918271e-05, 9.063699309868074e-04, 3.926201399770361e-02, -1.629193654627202e+03, 2.734158666589320e+04, 4.171414158409496e+04, 1.112331657710108e+04, 3.737235410453285e+03, 1.663332294957691e+04, 8.200362409064348e+04
2205, 4.372597876754567e-01, 1.887647815153586e+00, -3.645941344031902e-02, 9.146707114852937e-05, 9.723481923463728e-04, 3.835978271354576e-02, -1.998733018730803e+04, 4.736668905206817e+04, 5.223830752116561e+04, 1.260114175959445e+04, -9.206738904362514e+02, 1.642363788537291e+04, 1.113637316565565e+05
2206, 4.380838816165789e-01, 1.934499597317317e+00, -3.642264274892323e-02, 9.080224069353549e-05, 9.546242053349004e-04, 3.963385799968239e-02, -2.356424158987678e+04, 1.145905920056642e+04, 3.735971556135201e+04, -1.822330217507749e+03, 4.250177840267597e+03, 1.608892304713158e+04, 7.717425876919598e+04
2207, 7.400652935977476e-01, 1.323098970649552e-01, -1.857269630542270e-02, -1.350890031456950e-05, 1.733297965461791e-04, 3.708097299285132e-04, 1.206809697426086e+06, 3.627137559514167e+06, -7.208289393517465e+04, 1.302225548164356e+06, 4.478054434096091e+05, 2.441943488815662e+05, 2.536182784985816e+06
2208, 7.334559165977358e-01, 9.538650339734286e-02, -1.901551062718852e-02, -2.609996436341196e-06, 1.346101828414090e-04, 1.879323259534466e-04, 8.405894000930262e+05, 2.367990157441164e+06, 1.523751344319952e+05, 5.885571863909926e+05, 4.972499975099718e+05, 2.295768642248706e+05, 1.936742455513460e+06
2209, 7.015692493035343e-01, 6.962569086304772e-02, -2.113331826138386e-02, -5.609544897139732e-07, 9.010347938190333e-05, 1.189844959925274e-04, 3.098112489177485e+06, 6.710585663983498e+06, -5.693375376260279e+04, 1.441443082517103e+06, 1.528270790758749e+05, -4.932336191987626e+04, 4.676139523162482e+06
2210, 8.252623071186519e-01, 6.649475304779886e-01, -1.275291817339971e-02, -1.522352743210317e-05, 5.230838209757639e-04, 7.617062238925720e-03, 3.748027043340516e+05, 1.430329929378090e+06, 7.818762270886404e+04, 3.573802322596219e+05, -6.954816905584956e+04, 2.233332140906113e+05, 1.146871871215030e+06
2211, 9.368354066982005e-01, 1.913573670835883e+00, -4.776171778316126e-03, 2.393866659668870e-05, 8.755539293869852e-05, 4.009189639105232e-02, -9.089757863687539e+03, -5.046316819781698e+03, 6.800506691160849e+03, 5.698072488229396e+03, 6.658782786552151e+03, 2.458189619497187e+04, 4.753738867232295e+04
2212, 8.221974712013976e-01, 8.936695094285332e-01, -1.296590905815592e-02, 2.073155410370342e-06, 5.626771851097116e-04, 1.272586715883733e-02, 2.968532339505441e+05, 9.486790042013910e+05, 1.537878764131702e+04, 3.684064891289551e+05, 2.209175946911769e+04, 2.079469893358683e+05, 7.178133165231354e+05
2213, 9.351539296134630e-01, 1.624063628794871e+00, -4.900236997681275e-03, 2.457345841736652e-05, 1.983951870470901e-04, 3.212980921357256e-02, 4.138803543656331e+03, 9.424657150596994e+04, -1.188218340907111e+04, -1.236305627706456e+04, 7.803828424339821e+03, 4.901722350504244e+04, 1.330149978112426e+05
2214, 9.084946097216294e-01, 1.653451809596531e+00, -6.849356509028282e-03, 2.828726164019052e-05, 2.423623416732967e-04, 3.289039572143271e-02, 1.441514865395793e+04, 1.015002829789428e+05, 1.329479131263279e+04, 2.015315773313876e+04, 1.697688472539552e+04, 5.122953440004082e+04, 1.280052496376119e+05
2215, 9.674898629150863e-01, 1.593974130526326e+00, -2.487989143115300e-03, 1.984796858504889e-05, 1.411628969070627e-04, 3.135793858881292e-02, -1.742113787003066e+04, 1.297291553982030e+05, -1.648028901868295e+03, -3.389744004621823e+04, -8.192081723187907e+02, 2.231546063287847e+04, 1.607895229583566e+05
2216, 9.387351079420405e-01, 1.564339677431573e+00, -4.635831398435908e-03, 2.347352296862976e-05, 2.119964913967209e-04, 3.049264730760608e-02, 8.244525600081257e+03, 1.442631017270347e+05, 3.245430292971583e+03, 8.786743583966663e+03, 1.296633986964644e+04, 4.006718537636087e+04, 1.542067110341944e+05
2217, 3.880920465154301e-01, 1.772544965162713e+00, -3.844747667805152e-02, 9.694889043340357e-05, 1.067293928599840e-03, 3.513485524629861e-02, -1.989907000906724e+04, 1.028416548851718e+05, 5.186607323306077e+04, 3.098807602299034e+04, 1.839206739435964e+03, 3.172327111707610e+04, 1.500279190028405e+05
2218, 9.356373534263148e-01, 1.684911143932619e+00, -4.864581065408862e-03, 2.473452348344951e-05, 1.755038198527348e-04, 3.380599885262955e-02, -9.456253168414431e+03, 7.216548366999156e+04, 7.445930539848730e+03, -4.293908492156116e+03, 4.072475705823728e+03, 3.889747955276971e+04, 1.049881934078806e+05
2219, 7.799763140697555e-01, 1.132142987790809e+00, -1.587195958577921e-02, 2.242235267967477e-05, 6.265178065153337e-04, 1.865751856285516e-02, 1.690495410052619e+05, 6.749977267290041e+05, -4.427278776949643e+04, 2.291902572849730e+05, 7.034275757657114e+04, 2.092997919405659e+05, 6.175080118201760e+05
2220, 8.413450211723581e-01, 1.506481668211354e+00, -1.163063477134552e-02, 3.541890363992217e-05, 4.252030390911907e-04, 2.874617893027934e-02, 2.641657633769730e+04, 1.363231189719404e+05, 1.292897346422978e+04, 4.370421756964076e+04, -1.255066165352467e+04, 1.061112415924590e+05, 2.126760563399008e+05
2221, 9.052646264170776e-01, 1.694965186248161e+00, -7.083341825010279e-03, 2.929759578828087e-05, 2.337993228211724e-04, 3.402611733664551e-02, -5.244382237721115e+03, 7.034930821165821e+04, -7.036872569832272e+03, -1.018393602846285e+03, 9.162957830346247e+02, 4.203371910155528e+04, 1.042323322395451e+05
2222, 9.364014225107117e-01, 1.712582007547977e+00, -4.808205018580746e-03, 2.472918089745785e-05, 1.637400073044998e-04, 3.456919023313765e-02, -7.798659435939157e+03, 6.278084035893918e+04, 4.903851155275523e+03, -1.431065701542901e+04, -3.268665939156931e+03, 3.984645771294566e+04, 1.017393818141715e+05
2223, 9.688653641287303e-01, 1.719764665466584e+00, -2.384070478200604e-03, 1.977613315703314e-05, 9.302657591442505e-05, 3.482820288562663e-02, -1.345885881490608e+04, 6.027052388891119e+04, -8.933539008147567e+03, -7.660556891071883e+01, 8.815199931931273e+03, 2.991642379335827e+04, 8.823812186189138e+04
2224, 9.392886979958920e-01, 1.742427410750658e+00, -4.594898927783845e-03, 2.412389970316009e-05, 1.469549985249757e-04, 3.539623334694875e-02, 6.161477304560816e+03, 5.723502097545359e+04, -6.358628912514027e+03, -8.473181583314583e+03, 7.883838947688682e+03, 3.398385647577034e+04, 8.568893003873555e+04
2225, 4.314973871424915e-01, 6.926556128639703e-02, -3.671340078223333e-02, -1.145281048000810e-05, 1.645419841950037e-04, 1.453658417232585e-04, 3.133227467350587e+06, 9.124294597483182e+06, -1.368571179795725e+05, 1.010838411704373e+06, 1.687444063094742e+05, 3.845530377919416e+05, 7.327895518001706e+06
2226, 9.371295839898576e-01, 3.243886347020071e-01, -4.754452129950185e-03, -3.862003178832507e-05, 2.242841500744649e-04, 1.814401870547488e-03, 2.489076603991722e+05, 2.394539412382244e+06, -1.122628565113031e+03, -4.349591705824477e+04, 2.673326615973254e+05, 9.642221430880364e+04, 2.357736548981962e+06
2227, 9.576415075055420e-01, 2.859117303022148e-01, -3.228758572161341e-03, -4.052914961322207e-05, 1.841032180484141e-04, 1.342242426145113e-03, 2.922369839291212e+05, 2.833162305917508e+06, 8.762291998291945e+04, 3.107068144539517e+03, 2.271914068555413e+05, 7.400151436230756e+04, 2.732922415882775e+06
2228, 5.956579228090090e-01, 1.701782520664890e+00, -2.788528518145700e-02, 7.203907808944754e-05, 8.035736147561263e-04, 3.362900890720422e-02, -1.538795017665903e+04, 1.244491593978682e+05, 8.645770733641624e+04, 2.384556452712619e+04, -1.857303921021538e+03, 6.199775517954760e+04, 2.226515298501812e+05
2229, 6.309167704887778e-01, 1.732263000250929e+00, -2.569530645611681e-02, 6.733401832389324e-05, 7.338423852206837e-04, 3.452585784658202e-02, -2.205555046772856e+04, 5.653870509178987e+04, 7.800490510889971e+04, 5.969817103718315e+02, 1.691683591874284e+03, 3.430923602577135e+04, 1.634138531191453e+05
2230, 5.549061811227427e-01, 1.682890924245953e+00, -3.031970504500223e-02, 7.775369916141611e-05, 8.757387314996777e-04, 3.303698613021766e-02, 1.579333839056041e+04, 1.587583825275503e+05, 8.144445118235557e+04, 6.041895324935005e+04, -9.108810335187951e+03, 5.371101763947839e+04, 2.117868592681023e+05
2231, 5.150019119369348e-01, 1.703594423581138e+00, -3.257490808451585e-02, 8.254271458284917e-05, 9.306104498264800e-04, 3.352088983376958e-02, -6.672703117536532e+03, 8.235875919982691e+04, 6.213647888427012e+04, 1.680875502993295e+04, -6.160346572793289e+03, 5.173227328474290e+04, 1.615944044037574e+05
2232, 5.155379768479352e-01, 1.647459009647355e+00, -3.254560298558311e-02, 8.176275419400497e-05, 9.482953278569725e-04, 3.200070442397723e-02, 3.102014260450598e+03, 1.633515699324610e+05, 9.314302251200602e+04, 3.588108268101540e+04, 2.553257832750737e+04, 4.910516060869466e+04, 2.381556471328006e+05
2233, 8.300747043440372e-01, 2.925385341330605e-01, -1.241792272547874e-02, -3.739993635114985e-05, 2.924696932551166e-04, 1.603781712307767e-03, 1.042033899222460e+06, 3.029048738817456e+06, -2.426044475328607e+05, 1.347849968637797e+06, 3.196192020305957e+05, 2.707200020762364e+05, 2.033961255370700e+06
2234, 9.368768842866315e-01, 1.536282039188948e+00, -4.773109696694762e-03, 2.316458634593621e-05, 2.254365670863595e-04, 2.971765438515395e-02, -1.342032923601091e+04, 1.649598830643215e+05, -1.043234912591042e+04, 2.049056567989124e+04, -6.713690889176190e+03, 5.606247395525502e+04, 1.918622993680310e+05
2235, 7.671872883640684e-01, 2.364243304716243e-01, -1.674230235491685e-02, -2.246155430891961e-05, 2.878306205326107e-04, 1.089979227227394e-03, 1.164870423466250e+06, 3.287642391641759e+06, -2.360476384593440e+05, 1.159619100044871e+06, 1.150661728158457e+05, 7.288148370224258e+04, 2.177187873076232e+06
2236, 7.294078993003660e-01, 2.599891543574660e-01, -1.928610128191867e-02, -2.086375473836499e-05, 3.474460442838834e-04, 1.344076588322918e-03, 1.692287638083896e+06, 4.942250854776540e+06, -1.408440107004835e+05, 1.252889015867352e+06, 4.228159445979524e+05, 1.208220090197204e+05, 3.580919765561670e+06
2237, 9.509883560630397e-01, 8.188356317041183e-01, -3.726093489042482e-03, -9.210230303174916e-06, 3.454798620399768e-04, 1.092821979458292e-02, 7.098991277100642e+03, 1.092306675628583e+06, -4.487041539513470e+04, -1.512313935022560e+05, 2.897865990973426e+04, 3.566708435228189e+04, 1.177684742446397e+06
2238, 9.381566870793970e-01, 1.445023700649968e+00, -4.678582635432395e-03, 2.094265664080025e-05, 2.530877757267614e-04, 2.721190536582752e-02, -2.853027585110852e+04, 1.809207543236043e+05, 1.428508028723744e+04, -4.016529566717844e+04, 2.434922592979359e+04, 9.438457501417350e+04, 2.748786342776483e+05
2239, 7.863731400633402e-01, 8.379830395955774e-01, -1.543492138224774e-02, 1.615644452668263e-07, 6.193540395037283e-04, 1.141934573867015e-02, 4.166303220638043e+05, 1.445175384975560e+06, -9.776502660331396e+03, 4.373577452509229e+05, -5.792763887274469e+04, 9.428549327366253e+04, 1.036358200865233e+06
2240, 9.208618384251279e-01, 1.286653500970240e+00, -5.949265569851281e-03, 1.786266119840202e-05, 3.356377656649756e-04, 2.287454220910792e-02, 3.721781273119743e+04, 3.979117321224124e+05, 1.835982949014793e+04, 2.869104783356874e+04, -1.026800039806976e+04, 1.238606168218273e+05, 4.249708980245184e+05
2241, 9.209784934777208e-01, 1.211685462449851e+00, -5.940743003713084e-03, 1.444841019175580e-05, 3.549394847667600e-04, 2.085924425567143e-02, -8.569233769055232e+03, 4.851720088892223e+05, -2.115243643502276e+03, 2.829643924034512e+04, -6.384506941213996e+03, 9.740450283956371e+04, 5.055056967226089e+05
2242, 9.199932514147391e-01, 1.139615432266587e+00, -6.012701643649514e-03, 1.002357803662687e-05, 3.709580431956738e-04, 1.894709592672630e-02, 8.582094412258163e+04, 6.007243411562903e+05, 1.353734208045980e+04, 7.746948427770929e+04, 1.685368631357870e+04, 1.187562007865027e+05, 5.596485280935894e+05
2243, 9.508035534202479e-01, 1.151610950082456e+00, -3.739871765100943e-03, 8.614118351096822e-06, 3.087458276638116e-04, 1.928090669844074e-02, 8.479637366147617e+02, 4.731192378687499e+05, 1.144300838119157e+04, -5.893986585936563e+04, 3.162422995388680e+04, 9.287900155188298e+04, 5.330323116564942e+05
2244, 9.198212976858422e-01, 1.048600673734201e+00, -6.025255765069737e-03, 4.916866958845634e-06, 3.862294995619769e-04, 1.658202502080559e-02, 1.712988152597412e+03, 6.114123509573290e+05, -2.625888563401990e+03, 3.478026979304203e+04, 4.897550785455896e+04, 1.171924309927933e+05, 6.333121996304828e+05
2245, 9.213638260707016e-01, 6.119274739463233e-01, -5.912586710276523e-03, -2.785332650430405e-05, 3.679284492560941e-04, 6.439182041966363e-03, 1.314066976626390e+05, 1.172943489471050e+06, -1.074014970500750e+05, 3.159058457405883e+05, -1.416086141399692e+04, 2.725742171869291e+05, 1.088472838370580e+06
2246, 7.851932568709628e-01, 1.090311845100050e+00, -1.551561796759427e-02, 2.040957855566766e-05, 6.207645884812180e-04, 1.758823171915048e-02, 7.712704513648649e+04, 3.979843411297970e+05, -3.623935629327787e+04, 6.274498764418243e+04, 6.421310142285283e+04, 2.372675489909933e+05, 5.412655036827215e+05
2247, 8.140386028536404e-01, 1.063235835814403e+00, -1.353153088190075e-02, 1.713165246511284e-05, 5.755910778120661e-04, 1.691546352721135e-02, 1.110042666015308e+04, 4.992783525653159e+05, -1.830440662722854e+04, 1.687509515237279e+05, -6.640165647425623e+04, 1.907880783487602e+05, 5.564556006175203e+05
2248, 9.384733986554874e-01, 1.868352841478829e+00, -4.655176591780219e-03, 2.399370115931110e-05, 1.011673404087143e-04, 3.885546968823116e-02, -7.823673781004739e+03, 6.272558551827006e+03, -1.581551707976590e+03, -2.699363587922150e+04, 1.069618739336253e+04, 2.217497071795999e+04, 5.159779668823295e+04
2249, 3.825349900677215e-01, 1.284821155484554e-01, -3.865310754885012e-02, -8.944980982681684e-06, 2.828291230286620e-04, 4.190121764419547e-04, 3.309555509504993e+06, 9.022336982923767e+06, 7.725415301987896e+04, 1.058828627331772e+06, 4.182140616045478e+05, 9.636902610212495e+05, 7.340862678826523e+06
2250, 9.429020207737481e-01, 2.583364101826171e-01, -4.327346068831320e-03, -4.082371789138062e-05, 1.768331467093820e-04, 1.083014904397217e-03, 1.627438249316018e+05, 2.453314303243405e+06, -6.809640156885941e+04, 1.013095713534114e+04, 2.312532263827053e+05, -1.444809511863483e+04, 2.407186344953370e+06
2251, 9.545822594702942e-01, 2.127251751028929e-01, -3.457744142107198e-03, -3.880559457898614e-05, 1.403369715705094e-04, 6.721864857469062e-04, 3.346239688761336e+05, 2.257255033563048e+06, -1.066930676121808e+05, 5.722397228420040e+04, 1.706281491861537e+05, 3.200858807034098e+05, 2.176156212405405e+06
2252, 9.365192477572093e-01, 1.794638420106611e+00, -4.799509119776810e-03, 2.467923763541796e-05, 1.331351930711488e-04, 3.682737928797933e-02, -1.401921053881334e+04, 2.280361422172088e+04, -9.372483789138094e+03, -3.822681948426343e+03, -1.625436376262027e+03, 1.535546725917623e+04, 4.542303649917836e+04
2253, 9.670213274481346e-01, 1.806624278971189e+00, -2.523363012495920e-03, 1.970526009086038e-05, 6.471594288560978e-05, 3.721707511378276e-02, -2.012409225421314e+04, 1.423269742877408e+04, -1.244402292844643e+03, 2.327858444142771e+04, 3.392550151913251e+03, 9.870573493236478e+03, 4.364015548565011e+04
2254, 9.194263621405537e-01, 8.754334098157314e-01, -6.054084907933060e-03, -5.123620087546521e-06, 4.004711834340730e-04, 1.227563293574346e-02, 6.931431175415627e+04, 9.682819316246026e+05, -4.146275967824071e+04, 2.454661261455280e+05, 1.609214143862774e+04, 1.992758755725705e+05, 8.977106672497150e+05
2255, 9.495367835517390e-01, 8.564379745554924e-01, -3.834275787702662e-03, -7.562119970924708e-06, 3.472387555904823e-04, 1.181651683267390e-02, 1.517204479936532e+05, 1.075713775595594e+06, -9.821127806433957e+03, 6.534038090617033e+04, 8.826011599909081e+04, 1.813012763757195e+04, 9.826926292268308e+05
2256, 9.751463161032968e-01, 8.407948970403123e-01, -1.908105056166540e-03, -9.072239603641341e-06, 3.008323825025166e-04, 1.144004313551050e-02, 3.776357844676841e+03, 1.031100733673082e+06, -5.283047963526128e+04, -9.472607193912813e+04, 1.880712559561457e+04, 9.051163463244584e+04, 1.095583597771644e+06
2257, 9.249465249355782e-01, 4.260861714743064e-01, -5.650456549460409e-03, -3.603991108719340e-05, 2.873409138685473e-04, 3.205451477825166e-03, 2.443668415619654e+05, 1.757866932352366e+06, -8.347118190901879e+04, 2.886273283416671e+05, 9.455198960848257e+04, 1.061116835010964e+05, 1.518932152442619e+06
2258, 9.557711719121830e-01, 4.466349734737869e-01, -3.368810033612814e-03, -3.478728509805074e-05, 2.605132289488499e-04, 3.475226492906991e-03, 9.461250567133637e+03, 1.699309943511367e+06, 7.946270186927275e+03, -2.147623227240934e+05, 5.131530640906432e+04, 3.119863524726912e+04, 1.815427774461816e+06
2259, 8.729671187555959e-01, 1.754959214614591e+00, -9.399605328574803e-03, 3.422691871671213e-05, 2.763541001452874e-04, 3.561294852841212e-02, -1.025582288636947e+04, 2.554588289209373e+04, 3.808076157861032e+03, 5.597544496595776e+03, 1.441674706510462e+02, 3.687061653485848e+04, 7.132606518809819e+04
2260, 9.054976761470648e-01, 1.732637787777003e+00, -7.066474345934751e-03, 2.920598119719731e-05, 2.198048514845605e-04, 3.506239240871393e-02, -1.721086920292781e+04, 2.985860155271318e+04, 1.586005885111268e+03, -1.953249376473250e+04, -4.368651383270054e+03, 3.145302106939829e+04, 7.323169975593947e+04
2261, 9.400533231106969e-01, 1.380775257691298e+00, -4.538336324166338e-03, 1.932682447048500e-05, 2.697642005150408e-04, 2.545608138658756e-02, -1.350410045204420e+03, 2.710235580688656e+05, 3.895736987008283e+02, -2.657314327110790e+04, 1.431696340362587e+04, 6.977951984098031e+04, 3.113144816853646e+05
2262, 9.213785051745905e-01, 2.238026652482803e-01, -5.911513963393783e-03, -4.113095997657079e-05, 1.699176431139739e-04, 8.103097930709235e-04, 4.415454345894512e+05, 2.536450990833598e+06, -1.275806709612912e+05, 3.806287198818704e+05, 3.935084722490157e+05, -1.052168758194545e+04, 2.243582905433894e+06
2263, 8.823467420164065e-01, 1.612806208180754e-01, -8.731100689691068e-03, -3.597138769197150e-05, 1.446820402014465e-04, 4.106273582332731e-04, 7.318368379678115e+05, 3.155061813452822e+06, -4.483005321849956e+04, 5.188024846477621e+05, 2.999276674059115e+05, -1.406268524778062e+05, 2.601703256727231e+06
2264, 9.228469910334668e-01, 1.626517292396144e-01, -5.804144476324628e-03, -3.739686552974020e-05, 1.288413117888076e-04, 3.665263177204947e-04, 5.885004659667191e+05, 2.909662424992165e+06, -2.004274865913713e+05, 5.026321908370311e+05, 2.335493525668431e+05, -3.375855455386274e+05, 2.494097393544561e+06
2265, 9.356385673452003e-01, 1.314015901230097e-01, -4.864491517464280e-03, -3.384101137864082e-05, 9.820059885390364e-05, 1.878683164125428e-04, 3.034541677620606e+05, 2.688346027779302e+06, -2.412560907632595e+05, 4.066161258245349e+05, 2.476269307460092e+05, -4.845811364909732e+05, 2.552518146367029e+06
2266, 9.200914649195508e-01, 9.635017927365652e-02, -6.005530617742864e-03, -2.797408057294767e-05, 6.987342028801774e-05, 7.869576753227747e-05, 4.502798893135453e+05, 3.006232817504113e+06, -2.679951261862106e+05, -2.324689330397409e+05, 2.451478182921659e+05, -6.239453057687200e+05, 3.210575483064470e+06
2267, 9.303813582889197e-01, 1.966424192844188e-01, -5.251660358838209e-03, -4.052816676304626e-05, 1.479026569400771e-04, 5.795317609652018e-04, 3.539401247085108e+05, 2.340234300701649e+06, -6.181703776407150e+04, 7.328324415122488e+05, 2.416328319582785e+05, -2.236727426442625e+04, 1.877353599860644e+06
2268, 9.555978347032504e-01, 1.584111204954955e-01, -3.381780787798990e-03, -3.676517070617599e-05, 1.053104030114688e-04, 3.015101535816522e-04, 5.256264955698355e+05, 2.921412082434123e+06, -2.741167792312460e+05, 3.808459003409592e+05, 4.667412979404029e+04, 4.696729065120114e+04, 2.519163847510962e+06
2269, 9.316986099821790e-01, 5.878979926577757e-02, -5.154777835381192e-03, -2.002246229492952e-05, 3.430855277375411e-05, -2.238466240062076e-06, 5.204663129065455e+05, 2.893002170952776e+06, -2.273228050590883e+05, -2.754369959366656e+04, 1.345048328363977e+05, -8.573932227695931e+05, 3.105492845807777e+06
2270, 7.766862829220520e-01, 1.212487837774232e+00, -1.609628800478246e-02, 3.067811456397215e-05, 6.221700972971894e-04, 2.074869263338025e-02, 1.124877813159969e+05, 4.513341969350650e+05, 4.870991673216295e+04, 1.115966811729346e+05, -4.488692991230145e+04, 1.642725391146172e+05, 4.574259636742301e+05
2271, 9.153606358145535e-01, 3.083679807383376e-02, -6.350486253096756e-03, -1.097268377574408e-05, 1.682124215747482e-05, -9.616504753368060e-06, 5.468105950259413e+05, 2.334680359709610e+06, -3.029833394507992e+05, 2.259759879935946e+05, 1.348289006484518e+05, -1.039721220387915e+06, 2.728739176175734e+06
2272, 9.236448292110339e-01, 5.365435045035760e-01, -5.745766516193629e-03, -3.324928474773836e-05, 3.340867585025706e-04, 5.011784016688559e-03, 2.945665686519688e+05, 2.000496104557996e+06, -2.273488227710121e+04, 1.197969824709396e+05, 1.645317406739394e+05, 1.499971499638098e+05, 1.840962989701472e+06
2273, 9.240924701386547e-01, 5.004883407268658e-01, -5.712999312999970e-03, -3.272705909947854e-05, 3.146611098706897e-04, 4.392785720029879e-03, 1.617478232696144e+05, 2.005187893616882e+06, 4.871997533724421e+04, -1.739256605965380e+05, 2.122662987442935e+04, 3.163359913713239e+05, 2.106755782522837e+06
2274, 9.199023629590171e-01, 9.872260993833780e-01, -6.019337444028720e-03, 1.645246732684402e-06, 3.933922740820689e-04, 1.502545038039792e-02, 8.495955126385608e+04, 7.874794683859221e+05, -1.860721293318548e+04, 1.000431709464267e+05, 6.440531642952439e+04, 8.171063560476342e+04, 7.188031091140398e+05
2275, 9.519653451181400e-01, 9.961324641735878e-01, -3.653219735562631e-03, 5.100841788032578e-07, 3.312099013561831e-04, 1.525638359942860e-02, 3.467225106768488e+04, 7.540848051098210e+05, 2.397281084690666e+04, -9.273150006130438e+04, 5.419170571196073e+04, 9.143007870326350e+04, 8.130526947671330e+05
2276, 9.222965117310995e-01, 9.497591110680057e-01, -5.844405392998494e-03, 2.672040900347783e-08, 3.925521732336679e-04, 1.409193343040599e-02, 5.006706195198117e+04, 8.487686896409921e+05, -6.158258798547916e+03, 6.448125655797387e+03, -1.233381022614594e+04, 4.251180062593932e+04, 8.250195862828128e+05
2277, 9.506757227161038e-01, 9.303843739441421e-01, -3.749401506366745e-03, -3.389612782171703e-06, 3.413100165898381e-04, 1.361099569989488e-02, 3.624787863229710e+04, 8.666479137524890e+05, 7.429648722521268e+03, 6.345555047871966e+04, 7.976115605861316e+03, 3.931400107398610e+04, 8.201856194913083e+05
2278, 9.498829822290475e-01, 9.719402217269284e-01, -3.808483351504589e-03, -8.089641510347634e-07, 3.388036276565087e-04, 1.464749109735641e-02, 1.761777359607224e+04, 6.936524746505809e+05, -2.981558288918171e+04, -4.585403725180696e+04, -9.621815807599251e+03, 4.694229819671814e+04, 7.166003890045289e+05
2279, 9.849309771271529e-01, 9.365576930494652e-01, -1.161727201196029e-03, -4.447306826471653e-06, 2.754781755092348e-04, 1.376644968684415e-02, 7.488064511463825e+04, 8.846790822255280e+05, 1.242315657461589e+03, -9.052078534670768e+04, 2.249616900767772e+04, 6.820883575668250e+04, 9.124435108870538e+05
2280, 9.824350750595053e-01, 1.001334389038821e+00, -1.352698073285232e-03, -8.922188813181853e-07, 2.716072383404655e-04, 1.539559552381631e-02, -9.627022012231246e+03, 8.211307773123245e+05, 3.864249189038538e+04, -1.194143371661327e+05, 5.966984746143007e+02, 2.610190073597828e+04, 8.943954194818332e+05
2281, 8.880094510958046e-01, 7.798979159740964e-01, -8.325895730935711e-03, -1.147248441894788e-05, 4.471869573833345e-04, 1.006357742594055e-02, 3.472720802226169e+05, 1.086021114925673e+06, 4.376390985027813e+04, 1.695569327801235e+05, 5.762574550842738e+04, 8.476386885933107e+04, 8.636448708669660e+05
2282, 9.210157479379635e-01, 7.629692637977685e-01, -5.938021133037151e-03, -1.156192750984865e-05, 3.932682766349602e-04, 9.667899605854735e-03, 1.086700808726997e+05, 1.161460082179826e+06, -3.711205161308390e+04, -5.736601101208109e+03, 4.206324554846091e+04, 6.178030898406509e+04, 1.123740258838714e+06
2283, 9.210785765950522e-01, 6.890152023553799e-01, -5.933430616753735e-03, -1.944527362586490e-05, 3.853479722544413e-04, 8.042070486694614e-03, 5.842400468225665e+04, 1.553632744587235e+06, -9.857425701080362e+04, -1.206836506449078e+04, -4.846311256631435e+04, -5.362164620720151e+04, 1.546234675760166e+06
2284, 9.215576779960744e-01, 7.236186741218177e-01, -5.898419193122496e-03, -1.600552368632990e-05, 3.877107493111473e-04, 8.792103296357379e-03, -1.229668823015509e+05, 1.131784909110065e+06, -1.208082116190611e+05, -5.808038596733240e-01, 3.706735827483673e+04, 5.884364119486437e+04, 1.222098254530549e+06
2285, 8.885713767618928e-01, 7.421290798127882e-01, -8.285617806950279e-03, -1.309073718699927e-05, 4.448543592106523e-04, 9.221569259142123e-03, 1.314245044043679e+05, 1.145282962415369e+06, -1.356293895421789e+05, 2.353150174941263e+05, 5.489778359020281e+04, 4.212272546651849e+04, 1.001460035169467e+06
2286, 6.038879405425612e-01, 1.226170705667508e+00, -2.738039852205457e-02, 5.421775785622793e-05, 9.089633744279110e-04, 2.090640949463796e-02, -2.210964158373840e+04, 8.761512125390576e+05, 1.749118501566934e+05, 4.672136454413325e+03, 1.752233633327216e+04, 1.256990975994393e+05, 9.610604325786200e+05
2287, 6.066138007023568e-01, 1.135557275074222e+00, -2.721227546085125e-02, 4.885166037298799e-05, 9.104339107091630e-04, 1.857897076605616e-02, 8.479990103197561e+04, 1.144099099367804e+06, 1.469744352670436e+05, 7.716673728501851e+04, -9.559441134177319e+03, 9.721658676697960e+04, 1.106205522432470e+06
2288, 6.457520469180134e-01, 1.110676983004937e+00, -2.475462201616649e-02, 4.062838321722967e-05, 8.506568948442456e-04, 1.798773029482849e-02, 1.523505132020640e+05, 9.737711212871192e+05, 2.061759519603761e+05, 1.701425312219395e+05, 7.830159251230836e+04, 1.537513104479681e+05, 9.366274740229917e+05
2289, 6.067852128751059e-01, 1.042055229133338e+00, -2.720168819927452e-02, 3.877854555557961e-05, 9.087580613953636e-04, 1.622996528081389e-02, 3.278354751739153e+05, 1.723892491255817e+06, 2.411543766213685e+05, 3.934949836975796e+05, 1.607211427532031e+05, 2.474079140502920e+05, 1.515656336622152e+06
2290, 6.460935308851636e-01, 1.022756525775268e+00, -2.473285228549021e-02, 3.420747537094537e-05, 8.542799151434882e-04, 1.578784015620649e-02, 2.344337552675250e+05, 1.429793335097602e+06, 1.850023964884325e+05, 1.777830612295407e+05, 2.919471744687246e+04, 1.821317161828157e+05, 1.305588877429546e+06
2291, 6.083424663234754e-01, 9.511086190211088e-01, -2.710542531405720e-02, 3.396527196369847e-05, 9.015715265967977e-04, 1.401828630606920e-02, 1.459428097567775e+05, 1.509117238976286e+06, 2.695499945865539e+05, 1.485266846891646e+05, -4.450306145385250e+04, 9.052139852410639e+04, 1.450249794209562e+06
2292, 6.438008951893113e-01, 9.235643218334733e-01, -2.487891973548989e-02, 2.635798051450647e-05, 8.463554917287966e-04, 1.338385706504562e-02, -2.370473572226468e+04, 1.579040026834977e+06, 2.281962274256498e+05, 1.546818749309801e+04, -4.303332379414469e+03, 1.618642734483439e+05, 1.656024557185039e+06
2293, 6.095223526859643e-01, 8.590328730983180e-01, -2.703239652210836e-02, 2.607202082131888e-05, 8.758834066845966e-04, 1.185975477890070e-02, 3.649594075462947e+05, 2.320145796299726e+06, 3.321461786261055e+05, 1.949686905985138e+05, -1.209175385838565e+05, 2.667277892665803e+05, 2.184552984170048e+06
2294, 6.107271591681744e-01, 7.716470710182314e-01, -2.695774470647376e-02, 1.380318162934324e-05, 8.468496200368728e-04, 9.914825250586241e-03, 4.579479437667589e+05, 2.524754991192156e+06, 1.647746034215209e+05, 2.649586534597389e+05, 3.944936699740594e+04, 2.559790755992972e+05, 2.233943708253709e+06
2295, 6.133547360901238e-01, 6.817293806570234e-01, -2.679466334110951e-02, 9.254945220429911e-06, 8.061186849127877e-04, 8.022152061682164e-03, 6.441587403551026e+05, 2.536672318370581e+06, 1.928709229959022e+05, 4.267681952619200e+05, 1.542333948280686e+04, 2.944941961482936e+05, 2.100660030109408e+06
2296, 6.506582520128548e-01, 6.645156227909025e-01, -2.444137403892672e-02, 1.863861759047319e-06, 7.484036907806982e-04, 7.676676913194000e-03, 5.968714977506630e+05, 3.550692305072220e+06, 4.434990893075917e+04, 2.806449743614798e+05, 1.281400450260180e+05, 2.968705062140625e+05, 3.174695215219597e+06
2297, 6.530226919314862e-01, 6.135575948162485e-01, -2.429002158667375e-02, -6.819214724180633e-06, 7.113455884541278e-04, 6.676531728095042e-03, 6.010159630379635e+05, 3.117739401165439e+06, 1.393276914058464e+05, 2.388585691837297e+05, -4.321066820705276e+04, 4.113755643387480e+05, 2.819225516071888e+06
2298, 6.139800044599090e-01, 5.889387572088138e-01, -2.675580269242021e-02, 2.646409653209170e-06, 7.375882548003899e-04, 6.225697775434025e-03, 7.352911538019872e+05, 3.137326295580044e+06, 1.977132664971139e+05, 4.737440544467585e+05, -1.088997071690457e+05, 4.979950148294644e+05, 2.713534813061300e+06
2299, 6.160671131708803e-01, 4.989079774197023e-01, -2.662594624878798e-02, -8.604139386247933e-06, 6.739123102879503e-04, 4.658305107119384e-03, 1.512875520610544e+06, 5.287850027152803e+06, -2.074146490697975e+05, 2.707202702315872e+05, -9.544486712005491e+04, 2.785964424747525e+05, 4.568558438461727e+06
2300, 6.553771581090011e-01, 5.251561800473027e-01, -2.413906417638174e-02, -1.049589301914400e-05, 6.543444586800742e-04, 5.073067394850694e-03, 7.771175225124750e+05, 3.551774513732519e+06, 8.093982405824590e+04, 3.594509953107180e+04, -5.770151519286155e+04, 1.599823332633697e+05, 3.226605402808161e+06
2301, 7.324337431338029e-01, 1.770883450479148e-01, -1.908388139868628e-02, -7.351104476516906e-06, 2.268085763949199e-04, 6.359769758698675e-04, 1.191391756099896e+06, 2.982536108620389e+06, -1.574644667436787e+05, 1.044384054426755e+06, 7.733683636224112e+03, 4.311242868975099e+05, 2.031081098147774e+06
2302, 3.864851313041712e-01, 1.724497118688859e+00, -3.850718496940628e-02, 9.719066693696099e-05, 1.084196992137885e-03, 3.383011528178005e-02, 8.444953973203330e+03, 1.544660452774225e+05, 6.748919157525850e+04, 4.752542173429002e+04, 3.961648927376054e+03, 4.280802916081242e+04, 1.906617647090346e+05
2303, 7.344553656253725e-01, 1.643529940505612e+00, -1.894863239093642e-02, 5.146807242145668e-05, 5.804338420979244e-04, 3.230400850499160e-02, 5.526528966163529e+04, 9.886030761641204e+04, 8.702273678172513e+03, 3.547812913221660e+04, 1.040884177179974e+04, 5.257802458327822e+04, 1.095456325039402e+05
2304, 7.700866204924207e-01, 1.620879348550334e+00, -1.654538352134701e-02, 4.728845018713707e-05, 5.225132749473380e-04, 3.175005006851440e-02, 1.611546454229096e+04, 8.836162985423493e+04, 1.541272168329182e+04, 6.486406370534060e+03, -2.573241300362663e+03, 5.743343151190758e+04, 1.289814232328026e+05
2305, 3.809379297354032e-01, 1.575824018986395e+00, -3.871179220765815e-02, 9.879066223343613e-05, 1.134868758041297e-03, 2.980511770737256e-02, -1.503513604925248e+04, 4.019102094860151e+05, 9.576673233237454e+04, 5.049122861657113e+04, -4.197027171641657e+04, 5.646126378584563e+04, 4.395203612873657e+05
2306, 8.728351174219553e-01, 1.637628632114148e+00, -9.408990220018926e-03, 3.290962606513140e-05, 3.194784667337677e-04, 3.239207859060733e-02, -3.566620500726079e+03, 9.681379596555363e+04, 1.025660812906676e+04, -1.067878318762723e+04, 8.803861028749439e+03, 4.671741260334646e+04, 1.339268478668487e+05
2307, 8.225634763863616e-01, 7.370082029810529e-01, -1.294048773553437e-02, -1.165983848483432e-05, 5.394986458871348e-04, 9.147767200761048e-03, 1.609047277998207e+05, 1.191475948855018e+06, -1.014115834309117e+04, 1.180800374747824e+05, 1.181788113676973e+05, 2.619066251209314e+05, 1.164490168984433e+06
2308, 6.238482869343804e-01, 1.533544551914971e+00, -2.613973675273902e-02, 6.421821261306127e-05, 8.114898048481797e-04, 2.911833033606011e-02, 1.877020979166396e+04, 2.108924484410650e+05, 1.058652374361307e+05, 7.572815238673329e+04, 2.314972810192877e+03, 6.217014459314571e+04, 2.728480855601713e+05
2309, 6.607493270928682e-01, 1.557187775894689e+00, -2.379376415045795e-02, 6.015676974705474e-05, 7.411804376667979e-04, 2.982434922433622e-02, 2.796538991344502e+04, 2.618992445119515e+05, 1.491832977990768e+05, 3.484101292056438e+04, 3.488096968912182e+04, 6.151171303458649e+04, 3.673308715770592e+05
2310, 6.241824578083863e-01, 1.488080308676732e+00, -2.611878167991796e-02, 6.238124008228763e-05, 8.239927984123570e-04, 2.789200781846395e-02, 3.222363486530918e+03, 3.045802050796166e+05, 1.054594798219975e+05, 6.391332646662722e+03, 1.748402327012294e+04, 8.129363925983447e+04, 3.794466280828472e+05
2311, 6.637087401996413e-01, 1.473307740466947e+00, -2.360305652689122e-02, 5.740544350367818e-05, 7.616676697188712e-04, 2.755999720373795e-02, 9.217207314391260e+04, 4.173926447302168e+05, 1.529898131241726e+05, 1.897335973441583e+03, 3.417189055614521e+04, 8.316881660990535e+04, 4.875952309213366e+05
2312, 4.271756745122257e-01, 2.543193302259052e-01, -3.690009346348742e-02, 8.082848279113153e-06, 4.977342831359033e-04, 1.384031302011833e-03, 2.016159411939850e+06, 7.368546951008592e+06, 2.336587342327439e+05, 9.871768950960728e+05, -2.234413148412569e+05, 7.993280593909007e+05, 6.119208601183269e+06
2313, 4.267289882828103e-01, 2.051115197726352e-01, -3.691920686511235e-02, -1.037128097174100e-06, 4.090711540770085e-04, 9.420686161291363e-04, 2.273328058789610e+06, 7.404836527810772e+06, 5.134889293940249e+05, 1.210986482228096e+06, 2.600932781716905e+05, 1.347337615881473e+06, 6.273139383549060e+06
2314, 3.831422773033104e-01, 2.266414203923794e-01, -3.863074694489041e-02, 1.841270154668423e-05, 4.615155796274008e-04, 1.123869747099444e-03, 2.141288852574351e+06, 7.433302455160558e+06, 5.265920424852149e+05, 8.588589975375845e+05, -4.005915496518436e+05, 9.183111840493693e+05, 6.346642824288949e+06
2315, 5.554616317215939e-01, 1.637343352478672e+00, -3.028735006316902e-02, 7.659523894480713e-05, 8.906676804677979e-04, 3.180359556255775e-02, 2.384035192637518e+04, 1.830489466201239e+05, 9.959552509357300e+04, 5.943889545840274e+04, -1.744160191094495e+03, 7.111608590616184e+04, 2.566835873234392e+05
2316, 8.424296401834123e-01, 1.959121566299177e+00, -1.155466723957838e-02, 3.778100612728680e-05, 2.593624091104599e-04, 4.114220948955710e-02, 1.031903507840398e+04, 7.005438424627268e+03, 2.965887167821734e+03, -2.362964638530173e+03, 7.776194431070254e+03, 4.130586495421227e+03, 1.971730969817256e+04
2317, 7.926874718721534e-01, 5.062133919919353e-01, -1.500239234022135e-02, -2.714277880834851e-05, 4.819770585896346e-04, 4.653531071052319e-03, 4.776343378514579e+05, 2.122607648535814e+06, -1.559259298682276e+05, 6.026970077851976e+05, 5.952630240759583e+04, 4.586767070976749e+05, 1.797380010966950e+06
2318, 8.035798566041006e-01, 1.359532968070610e+00, -1.425361122640526e-02, 3.495636620161682e-05, 5.418049247761202e-04, 2.470005673978209e-02, 5.456001077383425e+04, 2.587745423894379e+05, 3.064419712840571e+04, 8.864494796817951e+04, -2.503920202906214e+04, 9.667150928557500e+04, 2.619903545411085e+05
2319, 7.865772522695041e-01, 1.002324049555279e+00, -1.542095750554668e-02, 1.663688559373766e-05, 6.274906469251676e-04, 1.536853084128394e-02, 3.024521830445341e+04, 9.135554296256857e+05, 9.675841051725473e+04, 1.113147992414062e+05, -7.164511965341770e+04, 2.458119538231276e+05, 9.695131805001283e+05
2320, 8.165603929867812e-01, 1.028862781967268e+00, -1.335692878798102e-02, 1.334957999377107e-05, 5.752672747777387e-04, 1.604594290478168e-02, -3.207634536987071e+04, 6.739867850426408e+05, -4.482654333643794e+03, 4.749558243275244e+04, -4.278715228830218e+04, 2.593925702566938e+05, 8.099876861227187e+05
2321, 7.845506840570728e-01, 9.586987782595452e-01, -1.555954973645313e-02, 1.023792914116306e-05, 6.285155471516569e-04, 1.428628614070690e-02, 1.439780529985827e+05, 6.022676486735762e+05, -7.638435423798353e+04, 3.249770128498612e+05, 1.840775188447460e+04, 2.348656308328894e+05, 5.863837269129597e+05
2322, 8.028894681569768e-01, 3.327036339519675e-02, -1.430116562483461e-02, -1.187096348744671e-05, 3.961966336622422e-05, 2.181021100521215e-05, 2.103679915065664e+06, 4.491446675006622e+06, -4.760174590173963e+05, 1.857861455520251e+06, 3.698748360922638e+05, -1.724363148319152e+05, 2.743759620780227e+06
2323, 7.843430534848167e-01, 6.511754935378392e-02, -1.557374269088865e-02, -1.470436988658841e-05, 8.114229922433647e-05, 8.785291677010018e-05, 1.067067466039025e+06, 3.245232138866214e+06, -1.259973884303654e+05, 9.846150524338085e+05, 4.201975861669717e+05, -2.318483072753071e+05, 2.381045915067717e+06
2324, 7.629755430199981e-01, 1.965856174202967e+00, -1.702792354166473e-02, 4.872400897995913e-05, 4.087872061418890e-04, 4.116150608434696e-02, 4.193464716888119e+03, -5.032910991623515e+03, 4.281491773758360e+03, -9.884283328012414e+02, 1.577098445071125e+04, 2.947263750426914e+03, 2.985619517016568e+04
2325, 7.444213912169625e-01, 1.930415720576586e+00, -1.828013727865668e-02, 5.179258355982042e-05, 4.568046715954927e-04, 4.015601491784168e-02, 6.174433750211858e+03, -7.711980788421283e+03, 4.606225371018043e+03, 2.868080355268082e+03, 7.348594044272279e+03, 9.914875559536840e+03, 2.604655062631687e+04
2326, 7.051135550037889e-01, 1.929158164680725e+00, -2.089953089927486e-02, 5.721966915653298e-05, 5.300422859956869e-04, 4.004094510917117e-02, -4.489200962094881e+02, -1.278860093835920e+04, 3.582963529834854e+04, -1.330295616155086e+03, 3.968839295384000e+03, 1.023146718060090e+04, 6.599061121382304e+04
2327, 7.258469948299362e-01, 1.894055551300065e+00, -1.952373592669725e-02, 5.462033936218247e-05, 5.050623734343014e-04, 3.912560016808164e-02, 4.612759851133677e+03, -4.946604160970141e+03, 1.436432552947931e+04, 9.459758627295865e+01, -1.368967742249029e+03, 3.364459824621503e+03, 2.696640510588957e+04
2328, 7.686498144283229e-01, 1.893917317148449e+00, -1.664299924344644e-02, 4.869357818186593e-05, 4.252986686959087e-04, 3.920892068561271e-02, -1.282145250164497e+04, -1.677169889990632e+04, 4.624456893236590e+03, -8.937381485549467e+02, 1.236820026295442e+03, 1.297128347314985e+04, 2.790162697381013e+04
2329, 6.171291383465536e-01, 4.085462818191078e-01, -2.655978691139045e-02, -1.586068900843313e-05, 5.940004902638477e-04, 3.248498694835150e-03, 1.584471131485659e+06, 4.873435368537587e+06, -1.536489952702795e+04, 6.476202623274741e+05, 2.709126073852695e+05, 9.045803038212215e+04, 3.875781396889719e+06
2330, 6.526974766619157e-01, 4.289206570142723e-01, -2.431085398691321e-02, -1.446404892207001e-05, 5.722267800601089e-04, 3.531067514725816e-03, 1.518162272299986e+06, 4.590238970476010e+06, -1.805962661861446e+05, 5.191153406176834e+05, -1.954852531833487e+05, 3.034274096890438e+05, 3.740800967166630e+06
2331, 6.311526585870000e-01, 1.398331627099081e+00, -2.568043433554754e-02, 5.885191669035899e-05, 8.359379117327190e-04, 2.549349380479354e-02, 1.087600073033758e+04, 3.984946422854358e+05, 1.485680426304612e+05, 5.444491100206245e+04, 2.702317172123650e+04, 7.829085175251047e+04, 4.712269698530528e+05
2332, 9.275464433243257e-01, 3.536990739181952e-01, -5.459855699872226e-03, -3.645002752111770e-05, 2.507276059911627e-04, 2.196296953332788e-03, 6.420568514931657e+04, 1.703594053566142e+06, -2.540187106726505e+05, 5.024756368679999e+04, -3.087738086080226e+04, 1.304348223319995e+05, 1.719926834582780e+06
2333, 7.787176160138713e-01, 1.297348710903319e+00, -1.595781960278465e-02, 3.383524439565591e-05, 6.017973717045745e-04, 2.299965483128701e-02, 5.889199590890981e+04, 3.173219715148120e+05, -6.873189692437063e+03, 5.666316139570106e+04, -4.990339093707777e+03, 1.530344127725213e+05, 3.712708509756444e+05
2334, 3.858809634407872e-01, 1.877436387311064e+00, -3.852957967227315e-02, 9.654035248205656e-05, 1.033142176169941e-03, 3.797522543990114e-02, -3.581108857851303e+04, 3.354291633778971e+04, 5.631980054689213e+04, 1.063403528718642e+04, 2.245409580606165e+03, 1.611059710700501e+04, 1.185559428743350e+05
2335, 8.142820577202990e-01, 1.194328838993605e+00, -1.351468374540043e-02, 2.396088622723391e-05, 5.564384572736350e-04, 2.030632703857191e-02, 4.672719808222115e+03, 2.862885484869932e+05, -4.432269200276287e+04, 9.687382122457688e+04, 4.069853390086890e+04, 2.061951109838290e+05, 4.474987317629115e+05
2336, 6.817076439860749e-01, 1.964381716541000e+00, -2.243551760777226e-02, 6.029368574861013e-05, 5.590464187728017e-04, 4.095302018725194e-02, -1.130167171596855e+04, -1.213966663489712e+04, 4.838801246491413e+04, 2.223766541967186e+03, 1.389044638161661e+04, 8.960283292687916e+03, 8.965972756539713e+04
2337, 5.465221485186182e-01, 3.642083408193652e-02, -3.080521063586952e-02, -8.883348551489648e-06, 7.435614121450128e-05, 5.139351525251454e-05, 4.894235359817238e+06, 1.045339216050101e+07, -4.894118723848234e+05, 3.437713277914702e+06, 1.705683533896126e+05, 6.239364059878043e+05, 6.564789265071019e+06
2338, 3.804783939226347e-01, 1.475366177006971e+00, -3.872864467482368e-02, 9.443499785972975e-05, 1.158473845230339e-03, 2.711199332978787e-02, 5.193192085466783e+04, 6.174803731332408e+05, 1.429802041042493e+05, 9.444074930826935e+04, 4.171673842358016e+04, 8.860633834346736e+04, 6.226679491560257e+05
2339, 4.230135095846980e-01, 1.450361320858757e+00, -3.707688969084232e-02, 9.075637390312807e-05, 1.124223161058754e-03, 2.652553222554777e-02, 5.028176189960226e+04, 4.458608267400985e+05, 1.193618650701714e+05, 6.458707058333057e+04, 3.348187195551361e+04, 4.097463317977540e+04, 4.496333964530788e+05
2340, 4.231023984997836e-01, 1.402061891462254e+00, -3.707314471216078e-02, 8.965386395748398e-05, 1.132256540844839e-03, 2.524124155213516e-02, 2.701268516044609e+04, 6.588493210901367e+05, 1.368754844674298e+05, 8.498645736969252e+04, 3.358507876522365e+04, 7.169219841099752e+04, 6.640454960263331e+05
2341, 4.643860843376927e-01, 1.430999554101901e+00, -3.519511318952259e-02, 8.498418370682034e-05, 1.076823682110203e-03, 2.608576938759250e-02, 5.964332794855221e+04, 5.976941989089260e+05, 1.045327904513543e+05, 1.405030753665192e+05, 2.102899869311567e+04, 1.133139063173699e+05, 5.702266867319449e+05
2342, 3.808054554507811e-01, 1.375901056991599e+00, -3.871665198470663e-02, 9.436598387890793e-05, 1.179080239156700e-03, 2.447139469011636e-02, -1.468325713437674e+04, 4.630944393539213e+05, 1.283699301693258e+05, 7.239801714773175e+03, 1.297041597945872e+04, 4.971426953733966e+04, 5.250081304018162e+05
2343, 4.230453727163039e-01, 1.501450890770759e+00, -3.707554742149807e-02, 9.153980740068263e-05, 1.110434206454675e-03, 2.789045338023774e-02, 6.893181447917981e+04, 4.542048457105834e+05, 1.150662099887173e+05, 5.090311583253065e+04, 2.805924996877000e+04, 1.030519421762474e+05, 4.792161149989639e+05
2344, 3.806280678005996e-01, 6.248289334571308e-01, -3.872315740296755e-02, 5.460143659495598e-05, 9.740163726449959e-04, 6.796086969077984e-03, 1.020531328095908e+06, 5.699952810813000e+06, 7.399543934795765e+05, 5.513657962569201e+05, 2.973438032861243e+05, 5.733601264799252e+05, 5.215993482269329e+06
2345, 4.230151797442293e-01, 6.496408190397640e-01, -3.707681933787695e-02, 4.747132968874190e-05, 9.696466450244863e-04, 7.300451656658311e-03, 7.376659067468842e+05, 3.428181339867475e+06, 2.083036294762691e+05, 3.873479991764037e+05, 4.855730661222579e+04, 8.516670992979183e+04, 2.909147025627544e+06
2346, 4.228229708026622e-01, 6.988866448505751e-01, -3.708491270049190e-02, 4.471386432333690e-05, 9.982214221079368e-04, 8.279857648694006e-03, 3.783505703626579e+05, 2.936338234015584e+06, -7.442922240869726e+04, -4.318520646997298e+04, 2.020850035821616e+05, 4.295320451403034e+05, 2.914087185097145e+06
2347, 4.605896500310168e-01, 6.747051587236393e-01, -3.537854414138265e-02, 4.565093283075833e-05, 9.607460281842641e-04, 7.825957556807900e-03, 8.712519622019497e+05, 3.545545597382078e+06, 3.134378579572028e+05, 1.891456813659080e+05, -3.345247556939140e+04, 3.198110110802570e+05, 3.169572879122552e+06
2348, 3.810244144557373e-01, 7.246256219056753e-01, -3.870861886148522e-02, 5.792418912796703e-05, 1.055442479870597e-03, 8.758079994333905e-03, 1.015924052619988e+06, 4.307383200706224e+06, 2.988252934058656e+05, 7.148132289276426e+05, 2.662553296084887e+05, 2.191145691602242e+05, 3.541195275570396e+06
2349, 4.222667864146792e-01, 7.473372373963232e-01, -3.710829612827559e-02, 5.845034127082045e-05, 1.043056406231316e-03, 9.272171332439759e-03, 9.990111418124547e+05, 3.269570999617254e+06, 6.537902806503649e+04, 6.602593857697276e+05, 1.275718204540516e+05, 1.998668490642301e+05, 2.494160819042498e+06
2350, 4.220962211601298e-01, 7.955126752078482e-01, -3.711545641584452e-02, 5.788810593517889e-05, 1.055593774873999e-03, 1.028846647694451e-02, 1.065647585349731e+06, 3.225790016462478e+06, 6.806110561122048e+04, 9.772097381817201e+05, 4.701250248102215e+04, 2.267892280243582e+05, 2.244972706291235e+06
2351, 4.230150288373946e-01, 5.999977828264842e-01, -3.707682569462074e-02, 4.047462731327639e-05, 9.259174776295037e-04, 6.382104772252109e-03, 1.476113709039462e+06, 6.264683149672886e+06, 5.400642515630086e+05, 4.317491517852844e+05, 1.642028006260395e+05, 4.269874370354695e+05, 5.524939592499870e+06
2352, 4.224699909830421e-01, 5.512107646987570e-01, -3.709975907757007e-02, 3.872710853905764e-05, 8.801586860794769e-04, 5.498303419102374e-03, 8.130203138278455e+05, 4.408871304101679e+06, 3.470761022786238e+05, 5.285248728326950e+05, 1.790701095477639e+05, 4.632079660771778e+05, 3.890418209866687e+06
2353, 3.810841588377394e-01, 5.263108206456850e-01, -3.870642637382356e-02, 5.487828537224446e-05, 8.681323677911662e-04, 5.035115116287500e-03, 6.066200328028488e+05, 4.197827429218058e+06, 1.344361692409130e+05, 7.429270363220013e+05, -5.895967233527717e+04, 6.269130358462523e+05, 3.697235627774156e+06
2354, 4.229305349103094e-01, 5.026917518866568e-01, -3.708038427050925e-02, 3.402127771499203e-05, 8.283068534022248e-04, 4.685747075486066e-03, 6.338050631002017e+05, 5.114526770722662e+06, 6.114166112134897e+05, 8.204606940105360e+05, 1.232999398885712e+05, 5.807783416225817e+05, 4.631885717250193e+06
2355, 3.819294446997404e-01, 4.774748291530000e-01, -3.867537926429720e-02, 4.269349753330265e-05, 8.286813361384543e-04, 4.253586543469717e-03, 7.508693967232832e+05, 5.112396625559662e+06, 1.101653608089579e+05, 6.459832924522222e+05, 1.535941384212178e+05, 7.917282540043193e+05, 4.634551547373258e+06
2356, 4.244258362526029e-01, 4.535028742144285e-01, -3.701722693821370e-02, 2.195029249561081e-05, 7.667570150814221e-04, 3.906307959122921e-03, 1.457945960744184e+06, 5.557017865946177e+06, 3.470011796129010e+05, 1.210393144341460e+06, 1.270356240815142e+05, 6.822651071623098e+05, 4.436722924678125e+06
2357, 4.257119475515578e-01, 4.046673039452454e-01, -3.696260117032703e-02, 3.241890004688206e-05, 7.203125232802393e-04, 3.187045904668567e-03, 9.970066877649103e+05, 5.015306699733210e+06, 2.853869304037818e+05, 8.083618355365745e+05, -4.231219132259817e+03, 5.796797597666270e+05, 4.265305400537547e+06
2358, 4.667319077351403e-01, 4.305349296976541e-01, -3.508072596592059e-02, 1.789640389615599e-05, 7.318631029890194e-04, 3.575602611795917e-03, 1.360335825134172e+06, 4.959497399975800e+06, 3.320053400896685e+05, 1.031184361544113e+06, 2.346267567032331e+04, 4.817268060702484e+05, 3.908387174258596e+06
2359, 3.850627224876555e-01, 3.781966318920457e-01, -3.855986397339678e-02, 3.741008407743412e-05, 6.902958266340846e-04, 2.814106777749362e-03, 1.479836490953343e+06, 6.002117855155028e+06, 8.412781943757467e+05, 7.534401137693424e+05, -1.987001953772029e+05, 8.772995728476926e+05, 5.367895785020060e+06
2360, 4.288773315969875e-01, 3.565072438637609e-01, -3.682697798690466e-02, 1.096715304288931e-05, 6.600592514770520e-04, 2.552441744016363e-03, 1.242258234206661e+06, 5.814020688951189e+06, 4.641592414065059e+05, 5.510874639983337e+05, 9.912300647170717e+04, 3.055387731024907e+05, 5.049204580352183e+06
2361, 3.847771289465421e-01, 3.285275106460240e-01, -3.857042220007544e-02, 1.367470131428961e-05, 6.265119278101149e-04, 2.192017439719418e-03, 1.611365273129434e+06, 6.283564050224023e+06, 5.354403578022500e+05, 9.705744654372582e+05, 1.492038038008606e+05, 4.801823058838762e+05, 5.181945184593119e+06
2362, 3.809975790523176e-01, 8.231743713283641e-01, -3.870960357869781e-02, 7.407911424552049e-05, 1.109168911929749e-03, 1.084826715493622e-02, 4.514882694141658e+05, 2.913177192362155e+06, 2.278453166167762e+05, 3.648219430293813e+05, -2.880204592790960e+04, 2.587482260684907e+05, 2.576790642075943e+06
2363, 4.230897585183927e-01, 8.458296141193848e-01, -3.707367733001972e-02, 6.826014870125671e-05, 1.079122672730295e-03, 1.140534044920946e-02, 4.254733827602096e+05, 2.934663758718522e+06, 1.593075708358772e+05, 3.456145615158366e+05, -8.491596835984252e+04, 2.568322054343806e+05, 2.607384125230368e+06
2364, 3.812897753463914e-01, 8.727704903271551e-01, -3.869887875521084e-02, 7.550219961109661e-05, 1.125725772675890e-03, 1.195789502640598e-02, 5.024510001691880e+05, 2.659051244349354e+06, 9.707027438131045e+04, 2.780972949902785e+05, 4.015736656940225e+04, 3.801201401591868e+05, 2.377326265626091e+06
2365, 4.221287420055415e-01, 8.978127624704090e-01, -3.711409158761242e-02, 6.370114716786057e-05, 1.108344324059681e-03, 1.258240923099105e-02, 4.390756639020561e+05, 2.680818644774303e+06, 1.190589600948516e+05, 3.435237567528408e+05, 1.103050294962286e+05, 3.427929503269030e+05, 2.383336380649007e+06
2366, 4.237885206539848e-01, 9.480946559770425e-01, -3.704419209270239e-02, 6.880800467830989e-05, 1.119837219766273e-03, 1.375002052148069e-02, 1.106387564777675e+05, 1.398054007853063e+06, 2.416487503197374e+05, 8.563563368612713e+04, 3.520724995657023e+04, 2.540732225595304e+05, 1.436249700241625e+06
2367, 3.819539662838966e-01, 9.733289675090843e-01, -3.867447785293038e-02, 8.598674557721664e-05, 1.162304666945196e-03, 1.429342968235421e-02, 4.018718004423958e+05, 2.489198142269414e+06, 2.691279614395417e+05, 4.849808764538696e+05, -5.910934025994388e+04, 3.409027100454746e+05, 2.183295194551012e+06
2368, 4.251351436922685e-01, 9.966442405175258e-01, -3.698713465602461e-02, 7.595719303214732e-05, 1.126809937441887e-03, 1.491476068166891e-02, 3.840740440768665e+05, 2.555008809320803e+06, 7.262743146090019e+03, 4.240964916706855e+05, -8.166865004568815e+04, 4.015250294210003e+05, 2.265283210473704e+06
2369, 4.639034067516911e-01, 9.713699885863673e-01, -3.521855229935537e-02, 6.557098766159057e-05, 1.080483457368352e-03, 1.435434574023170e-02, -5.127802633934552e+03, 1.814002116687989e+06, 2.913125303832663e+05, 1.965880116119930e+05, 8.185884798872111e+04, 2.988183634209982e+05, 1.877643333331379e+06
2370, 3.825397651749988e-01, 1.023693048950371e+00, -3.865293182450451e-02, 7.985572343193609e-05, 1.172111529710433e-03, 1.549871814507740e-02, 3.090734232981799e+05, 1.982270997852401e+06, 1.545631833768139e+05, 3.999109089115303e+05, -9.720974428636080e+03, 2.094649941950206e+05, 1.690985537506880e+06
2371, 4.245985952373374e-01, 1.051112202128334e+00, -3.700990551267809e-02, 7.472483138447339e-05, 1.140499375880490e-03, 1.623248568601684e-02, 2.221483817252208e+05, 1.858901321107089e+06, 2.684857431778454e+05, 2.214583979862583e+05, 3.888011945640085e+04, 1.878282898906667e+05, 1.733988802429671e+06
2372, 4.225568184557161e-01, 1.100980867608828e+00, -3.709610909672511e-02, 7.761684520190409e-05, 1.147102073707702e-03, 1.746308014629937e-02, 5.540702762360730e+04, 1.520761886102421e+06, 2.246784547402859e+05, 2.918996210274003e+05, 7.912148916987379e+04, 3.037982117520810e+05, 1.517810907812275e+06
2373, 4.602372713320009e-01, 1.079856607497676e+00, -3.539546017653417e-02, 7.090697278432090e-05, 1.112795128894131e-03, 1.699224640085239e-02, 1.662497077138862e+05, 1.440171373085421e+06, 2.009875791464062e+05, 2.099429639444457e+05, 3.505584325876512e+04, 1.188177485562600e+05, 1.317706892244765e+06
2374, 4.631712777030916e-01, 4.828500019215295e-01, -3.525404033885696e-02, 1.627190314172416e-05, 7.918268574508974e-04, 4.378954529387719e-03, 1.478333776713208e+06, 4.877870129500784e+06, 4.789266106714692e+05, 1.243117136631570e+06, 1.381999182980861e+05, 3.244286352605664e+05, 3.670554912550050e+06
2375, 3.787971996616208e-01, 1.271477744933864e+00, -3.879016386749694e-02, 9.321915330138403e-05, 1.191772152391121e-03, 2.173425101059452e-02, 9.792874196262554e+04, 1.102414493307429e+06, 1.387262006484391e+05, 1.392400367632185e+05, -4.059091469953040e+03, 1.157082901934404e+05, 1.033030091964528e+06
2376, 5.529685433622860e-01, 1.952328471941569e+00, -3.043238301011308e-02, 7.738831164966209e-05, 7.837336251768356e-04, 4.035778997661801e-02, 1.812743033689326e+04, 1.191188436741433e+04, 3.542184970827651e+04, 1.390113549453750e+04, 8.208745231016610e+03, 6.799901359956119e+03, 6.430563451600329e+04
2377, 9.483208568880330e-01, 7.812918360240928e-01, -3.924817885065691e-03, -1.179336882344006e-05, 3.468384597272098e-04, 1.006588395818259e-02, 8.690957214887349e+03, 1.167512547609121e+06, -1.695306222314042e+04, 1.971127656373085e+04, 1.370361157908294e+03, 5.927475795534252e+04, 1.158286098174894e+06
2378, 3.802233448821851e-01, 1.123656635841865e+00, -3.873799135798509e-02, 8.681219275680826e-05, 1.189937853271900e-03, 1.796114618702002e-02, 3.438976056528913e+05, 1.465603707554114e+06, 1.551707017837904e+05, 4.402891425519981e+05, 3.571603943366946e+04, 2.626516852499226e+05, 1.201004330593950e+06
2379, 4.190835616155531e-01, 1.149378835286941e+00, -3.724108893749736e-02, 8.352898977956325e-05, 1.157199005653489e-03, 1.867663400384213e-02, 1.698427455389578e+05, 1.523640839961898e+06, 3.186687445031415e+05, 2.793764984171225e+05, 4.667855941735719e+04, 2.486702563215737e+05, 1.480937877358765e+06
2380, 4.638036645781127e-01, 8.733102555739433e-01, -3.522339163452423e-02, 5.572077863431543e-05, 1.054070680591566e-03, 1.206752417833030e-02, 3.316618947940483e+05, 2.484459782020124e+06, 2.361021590649041e+05, 2.016041930968366e+05, -6.582850748383671e+04, 2.972609249038318e+05, 2.318785615922497e+06
2381, 5.937703565257130e-01, 4.269628735267837e-02, -2.800052762215178e-02, -3.881513105209212e-06, 7.332327646555718e-05, 5.789871572244119e-05, 4.543088110565756e+06, 9.367771660262426e+06, -1.533270496889359e+05, 3.054888692923326e+06, -2.404832475194730e+04, 5.455665986156031e+05, 5.799792355696590e+06
2382, 3.788735471890390e-01, 1.173026337385574e+00, -3.878737485744897e-02, 8.813259726763237e-05, 1.185406011791887e-03, 1.921090037919545e-02, 3.009572024274323e+05, 1.384034622267332e+06, 2.356979865696215e+05, 3.515330822138428e+05, 8.120188222480463e+04, 2.086398010342152e+05, 1.199112414652725e+06
2383, 8.073739918153255e-01, 1.833011896004821e+00, -1.399202937670412e-02, 4.312801716846448e-05, 3.746584639269315e-04, 3.762220156730228e-02, 1.886695498898458e+03, 3.538363924415834e+04, 6.756391171610483e+03, -3.000002021599270e+03, 8.158187230245403e+03, 2.577504711835097e+04, 6.032651298041733e+04
2384, 6.654504886382026e-01, 1.881391213599465e+00, -2.349063838625522e-02, 6.296736009943349e-05, 6.187300461043578e-04, 3.865747604664072e-02, 1.124477038559494e+04, -2.585117907442744e+03, 4.121277044350126e+04, 6.150207140211779e+03, 8.065952051164842e+03, 1.738930242749889e+04, 7.965288915902526e+04
2385, 6.615180550597163e-01, 1.686888925776504e+00, -2.374426020783807e-02, 6.248042402582504e-05, 6.966932104309341e-04, 3.334947645266180e-02, -6.276092042895356e+04, 3.618129124909002e+04, 9.951533942021882e+04, 2.046087832637468e+04, 5.791958677692319e+03, 3.723156030142285e+04, 2.060349391591381e+05
2386, 6.998439145588597e-01, 1.704466008596192e+00, -2.124697594718675e-02, 5.698932437731008e-05, 6.222298963497186e-04, 3.390122198611521e-02, -2.136327948279238e+04, 1.236660990497544e+04, 2.836111668671248e+04, 2.383300285575356e+04, 1.633958789205661e+04, 4.061211297803441e+04, 9.908572121925399e+04
2387, 6.535621733558813e-01, 3.854541459502744e-01, -2.425545367546847e-02, -1.708141667812468e-05, 5.342422447451606e-04, 2.898779750850684e-03, 1.454835508773771e+06, 3.971723390955484e+06, -9.721014681166122e+04, 9.503824404671704e+05, 2.019080000062429e+05, 4.126436417438853e+05, 2.918959336628608e+06
2388, 7.848457146029435e-01, 8.784099621796261e-01, -1.553938034647933e-02, 2.274522192369233e-06, 6.241762468806658e-04, 1.235869092184145e-02, 2.013008606876357e+05, 5.665658878670980e+05, -2.546034811652925e+04, 2.526933666663878e+05, 1.151013417689686e+05, 2.254829747376235e+05, 5.581265133975615e+05
2389, 4.236290350382594e-01, 1.552446554439866e+00, -3.705092917339638e-02, 9.271772500902414e-05, 1.095649867530239e-03, 2.926034152053733e-02, -9.583918944292545e+02, 4.233125471785342e+05, 1.058653061416416e+05, 6.298267370897906e+04, 3.947118239496112e+03, 7.177328572877996e+04, 4.539705889779261e+05
2390, 6.307108641578221e-01, 1.773500501145549e+00, -2.570828626825297e-02, 6.784823136088414e-05, 7.195182692104132e-04, 3.564832338045607e-02, 1.048084871939699e+04, 4.832018351914914e+04, 5.681734226274702e+04, 1.660458727061240e+04, -7.517511713013168e+03, 2.160984509065493e+04, 1.117708528448467e+05
2391, 6.675001308281733e-01, 1.756557759875915e+00, -2.335817982613753e-02, 6.276889445780464e-05, 6.610333675748439e-04, 3.525888376703068e-02, -1.866816664854274e+04, 3.726222099025444e+04, 7.164157203708154e+04, 6.394805788280183e+03, -1.934703844660560e+04, 2.247345314519210e+04, 1.427943121963436e+05
2392, 9.492751025651345e-01, 7.071410925188786e-01, -3.853767659715015e-03, -1.837442165123805e-05, 3.407199546555245e-04, 8.409976496459311e-03, 8.699165388367098e+04, 1.468325154091374e+06, -1.857186480944061e+04, -1.681940588861325e+05, 5.349748259117518e+04, 1.193642219694278e+05, 1.542096850881483e+06
2393, 6.625513376640156e-01, 9.187706834580343e-02, -2.367768423093326e-02, -5.265485685900309e-06, 1.628247419682982e-04, 1.943179117544699e-04, 4.324750491729385e+06, 9.326279771458309e+06, -2.704209541212868e+04, 1.882331431435859e+06, 8.084430144461713e+04, 2.682943337179266e+05, 6.590469120025781e+06
2394, 8.052349045755438e-01, 1.521102725719833e+00, -1.413955620243453e-02, 4.023647439607703e-05, 4.891172090795114e-04, 2.908666400853720e-02, 3.995958504797675e+04, 1.656966178158962e+05, -4.587754870854114e+02, 6.964576597597697e+04, 7.190001299994211e+03, 1.201678587196470e+05, 2.375606891554072e+05
2395, 4.600236785880373e-01, 5.789388539625859e-01, -3.540570447481359e-02, 2.724625193104360e-05, 8.831418859105641e-04, 6.009216705014656e-03, 6.869987327416645e+05, 4.149181428760685e+06, 2.707484769719315e+05, 4.291906763076282e+05, 7.915220979045090e+04, 1.732474948981224e+05, 3.643419564120151e+06
2396, 8.284080048063444e-01, 4.057162551151342e-01, -1.253402529819928e-02, -3.768184431697519e-05, 3.712330413903620e-04, 3.042202053391091e-03, 7.257652173586572e+05, 3.057511865014038e+06, -3.061909265593195e+04, 8.541814242405562e+05, 3.437693390351801e+05, 4.022099615697444e+05, 2.448828763426637e+06
2397, 9.377916502039033e-01, 1.939326409961763e+00, -4.705553461459906e-03, 2.367943160529185e-05, 7.581606152745612e-05, 4.079964479282117e-02, -3.214547207442603e+03, 9.301071322780033e+02, 1.504695751616795e+03, -7.487503473534630e+02, 8.782608815918671e+03, 1.255203784952672e+04, 2.690528537995768e+04
2398, 8.137342548377776e-01, 1.269386440278797e+00, -1.355258925770673e-02, 2.997997749845660e-05, 5.438644305802431e-04, 2.229345780653424e-02, 5.438470978954356e+02, 3.714726003511036e+05, -1.549942198170587e+04, 9.390963203866704e+04, -2.176534828622200e+04, 1.663647863957977e+05, 4.436742830544938e+05
2399, 4.271826742994406e-01, 1.842157600860749e+00, -3.689979368352319e-02, 9.276733552691799e-05, 1.000905723485976e-03, 3.710384731023003e-02, 2.897112257789741e+03, 6.071324559127662e+04, 4.720413604637519e+04, 2.247523482851430e+04, -3.601376118249499e+02, 3.111486857942581e+04, 1.103791757042910e+05
2400, 7.278846741293930e-01, 3.025858832370135e-01, -1.938779941072288e-02, -2.225639798472678e-05, 4.044649525944827e-04, 1.805747791397389e-03, 1.113022587109735e+06, 3.032093903508196e+06, -1.328695210592150e+05, 8.400691613793252e+05, 4.809264347430969e+05, 1.167331108453248e+05, 2.251414860339988e+06
2401, 6.928393427204226e-01, 2.800950594921035e-01, -2.170735403257324e-02, -1.981370582692515e-05, 3.994179542540395e-04, 1.579532648092498e-03, 2.113409379664807e+06, 6.859755253628630e+06, 1.109947395830958e+05, 2.008315181103553e+05, 1.876260454715896e+05, 4.654344312362405e+05, 6.004662105266958e+06
2402, 5.328433205259264e-01, 1.310888794633809e+00, -3.158449391457121e-02, 6.913988219686175e-05, 1.003120558720957e-03, 2.302148238128619e-02, 1.281960358152559e+05, 7.612988878575781e+05, 1.361591889165414e+05, 1.536928397259453e+05, 6.674896660055953e+03, 1.656924949979425e+05, 7.234921247749622e+05
2403, 7.219352151874944e-01, 3.179158057778060e-02, -1.978433180309771e-02, -3.960277411087926e-06, 4.994348914440228e-05, 2.900052650654707e-05, 2.009837015557255e+06, 4.266921182305852e+06, 5.684127986345136e+03, 1.784498712194545e+06, 2.268643024774171e+04, 4.608662354036538e+05, 2.508515061649425e+06
2404, 7.362749914078185e-01, 1.681069755652208e+00, -1.882679948489891e-02, 5.237205517777399e-05, 5.642463298274197e-04, 3.333146980908525e-02, 1.563525804409944e+04, 4.354551635736312e+04, -5.624657770433901e+03, 1.749199676647330e+04, 1.028639875691128e+04, 4.006844012474713e+04, 7.719707213222518e+04
2405, 8.229765817684870e-01, 6.545719340785339e-02, -1.291179032103594e-02, -1.973045889895955e-05, 6.748046229083232e-05, 7.226825747620735e-05, 1.074574811621010e+06, 3.069591970039691e+06, -2.935100022042159e+05, 1.023808678581064e+06, 4.694454672438377e+05, -7.416003893579607e+04, 2.240542480647047e+06
2406, 5.556596477331942e-01, 1.860858305657739e+00, -3.027580920668935e-02, 7.742207554489733e-05, 8.123895070711318e-04, 3.787485334746089e-02, -4.058782734942172e+04, 5.958553313656174e+03, 5.018446276580323e+04, 4.386040164992892e+02, 1.878352075381784e+03, 2.422981863928693e+04, 1.061479137551056e+05
2407, 8.101740242126783e-01, 2.303017142895003e-01, -1.379871903333947e-02, -3.043258466677023e-05, 2.500042617405080e-04, 1.009797639691529e-03, 1.136434864612131e+06, 4.577791565515940e+06, -1.948924950749508e+05, 8.337600858840427e+05, 2.686910057395933e+05, -2.686131359155401e+04, 3.648130789406186e+06
2408, 6.225868280947137e-01, 1.914323341344224e-01, -2.621878694124008e-02, -1.320946452305904e-05, 3.219833344416025e-04, 7.737804249133284e-04, 2.245417140887845e+06, 5.912209161529179e+06, -2.680598237098909e+05, 8.363723913015322e+05, -9.326547794357629e+04, 5.020688126829450e+05, 4.647077329556958e+06
2409, 5.853628360151041e-01, 1.671344001658168e-01, -2.851103312752083e-02, -1.196560846472919e-05, 2.996854404876976e-04, 6.421613568854088e-04, 3.625386462167542e+06, 9.698694110980552e+06, -2.804620180317795e+05, 9.044870891753377e+05, -5.903243951917170e+04, 1.446490936423643e+05, 7.818082857518259e+06
2410, 7.039726730258168e-01, 1.777636196438364e+00, -2.097482875142233e-02, 5.742674208501081e-05, 5.889430166469839e-04, 3.590471314656216e-02, -1.480950364849566e+03, 4.615101494588801e+04, 4.694285330745619e+04, 2.181356616106463e+04, -2.648998311401447e+03, 5.918387794966458e+03, 9.186350181012558e+04
2411, 4.727992138972016e-01, 1.723534555369807e+00, -3.478140971110031e-02, 8.775575404497589e-05, 9.836717990380495e-04, 3.397835825995280e-02, -2.856645252912837e+03, 1.161943666935377e+05, 7.692189460539455e+04, 1.942465707611497e+04, -2.786538495652736e+03, 4.685364217735195e+04, 1.907275744208462e+05
2412, 9.550641688277007e-01, 1.019268936623619e-01, -3.421704957054093e-03, -3.103747919133704e-05, 6.580619391025055e-05, 6.996688677085583e-05, -8.750219435801373e+03, 2.373925111899402e+06, -8.913583696022914e+04, 2.472500223098239e+05, 5.818190636865018e+05, -2.983006069426514e+05, 2.537525963356822e+06
2413, 4.896891744079849e-01, 1.199125290776831e+00, -3.392333206301871e-02, 7.228072195966662e-05, 1.075325903543936e-03, 2.005186647530952e-02, -1.474155829873338e+04, 7.952559881216376e+05, 1.592392315985019e+05, -2.381296767495696e+04, -6.302569583440696e+03, 9.779980480557379e+04, 8.765906149752799e+05
2414, 4.969760076288511e-01, 7.911999123422919e-01, -3.354251364399938e-02, 4.141518796785260e-05, 9.916376630432350e-04, 1.027446507607198e-02, 3.711630346844174e+05, 3.154479721146349e+06, 3.525053122020666e+05, 3.139720128294359e+05, 1.625323381270434e+04, 3.490989981404156e+05, 2.940830857987431e+06
2415, 5.162126675398750e-01, 1.749849939200158e+00, -3.250867819934485e-02, 8.253585243718498e-05, 9.129567303111791e-04, 3.477878578942692e-02, 6.410029704610693e+03, 9.830848565990746e+04, 7.208171187973914e+04, 2.232357548493324e+04, -7.774159007426379e+03, 4.933243878230624e+04, 1.740857191623537e+05
2416, 5.062226965103900e-01, 1.508621661396728e+00, -3.305047147768642e-02, 7.983910912482545e-05, 1.002362497697223e-03, 2.823721575755665e-02, 1.120421844051803e+04, 3.724122576038737e+05, 1.112472831263780e+05, 3.024900564552852e+04, 2.358452564887758e+04, 9.300946913073907e+04, 4.344003554746590e+05
2417, 6.692194779390261e-01, 1.272063173996719e+00, -2.324693160575860e-02, 4.670750545598956e-05, 7.979272691872735e-04, 2.219505206608019e-02, 2.144014403887758e+05, 9.710156224291512e+05, 2.468761451778619e+05, 4.145943037357187e+04, -2.171080029481064e+03, 5.665553340336471e+04, 9.621390331316893e+05
2418, 8.728549555071534e-01, 1.674873631313723e+00, -9.407579834116574e-03, 3.373158973815626e-05, 3.062551691048994e-04, 3.341394797250985e-02, 2.147876223915966e+03, 7.411642016444281e+04, -6.784221881107181e+03, 2.311255071992676e+03, 9.987151455892063e+03, 4.158042437950328e+04, 1.038837885750448e+05
2419, 6.612386200353866e-01, 1.514123415746588e+00, -2.376225765942068e-02, 5.838382709327794e-05, 7.536585935860544e-04, 2.865725120145593e-02, -3.213038580164023e+04, 1.930335585192521e+05, 1.374009772488491e+05, 4.026347497557646e+04, 1.973485966881752e+04, 7.709767964190638e+04, 3.395244055836272e+05
2420, 6.906445513927597e-01, 4.061849855041423e-01, -2.185124888040289e-02, -1.546880095452258e-05, 5.143548141799924e-04, 3.167650961176716e-03, 9.706726869099896e+05, 2.476833127453811e+06, -9.527422159149556e+04, 6.841826207916184e+05, -3.870031260545019e+04, 1.626293144681065e+05, 1.700930742593570e+06
2421, 6.718968131423692e-01, 1.188751339592833e+00, -2.307346330347065e-02, 4.140018411219470e-05, 8.027437883457132e-04, 2.001899006008879e-02, 5.817824816419320e+04, 9.506394590913068e+05, 1.559844614598962e+05, 9.535741419579243e+04, -1.997844543827050e+03, 1.859931255278537e+05, 9.702958821352377e+05
2422, 6.793653542670757e-01, 8.996372990436801e-01, -2.258816206196946e-02, 1.855044684963628e-05, 7.936565087542477e-04, 1.283764620063425e-02, 2.743552931651621e+05, 1.726242821353637e+06, 1.510819304847318e+05, 2.794305404970525e+05, 1.169048871983564e+05, 1.094488950867502e+05, 1.498682472493012e+06
2423, 6.799833607821302e-01, 8.165891456564438e-01, -2.254790855947914e-02, 1.011120521254155e-05, 7.700703074108809e-04, 1.092514332955143e-02, 4.367087289112452e+05, 2.353715306227278e+06, 2.926193985804617e+05, 1.915949375782959e+05, 7.106163191912106e+04, 3.160183478870339e+05, 2.185522850675378e+06
2424, 6.828337794820909e-01, 7.335542079013875e-01, -2.236205209920660e-02, 1.462395049400128e-06, 7.358574313183625e-04, 9.102250839375936e-03, 1.479911611469627e+05, 1.127668646531647e+06, 8.015540326623962e+04, 1.534332001538781e+05, -1.124307122416347e+05, 1.971694176336277e+05, 1.062210029609167e+06
2425, 7.011986022205571e-01, 1.456009621704907e+00, -2.115774322679073e-02, 5.183800505667926e-05, 7.015927678885869e-04, 2.715389865284012e-02, 2.812429854783186e+04, 4.949027452585196e+05, 2.118914990481865e+05, 1.981441980709396e+03, 4.373469317626067e+04, 1.129280227823813e+05, 6.398897533958919e+05
2426, 7.020585662285751e-01, 1.376522102539341e+00, -2.110106627268092e-02, 4.754870662579402e-05, 7.204098267939163e-04, 2.501540351273193e-02, 1.201243835416134e+04, 1.835868746358470e+05, 5.726610663510983e+03, 9.379817620750298e+03, 2.399370458530500e+03, 7.095509823564984e+04, 2.124051302048539e+05
2427, 5.088075926541265e-01, 3.391491319661490e-01, -3.291133063115686e-02, 6.697330354542286e-06, 6.000044907370911e-04, 2.339273928312360e-03, 2.112808601913818e+06, 6.160937411692293e+06, 2.240456986906474e+05, 1.056496078613947e+06, -3.674074297340952e+05, 3.626308826934522e+05, 4.767524485512845e+06
2428, 6.995546251025946e-01, 1.539386175617890e+00, -2.126602337064894e-02, 5.377964005711874e-05, 6.785093353312427e-04, 2.940810188798743e-02, 2.851674736744388e+04, 1.900341637385986e+05, 6.116874497553715e+04, 4.779416404621374e+04, 2.568884684815734e+04, 7.985991131701974e+04, 2.359730259971523e+05
2429, 7.723990815259366e-01, 1.737620461778444e+00, -1.638815663571221e-02, 4.742865612941335e-05, 4.761179697511525e-04, 3.494460202238923e-02, 2.920203671886503e+04, 5.330065070505912e+04, 9.653926142818391e+03, 1.690069986245925e+04, 1.293852092920520e+04, 4.391899443651288e+04, 8.716052037069187e+04
2430, 5.809909836773431e-01, 2.973445564496768e-01, -2.877468266375485e-02, -1.059764227197627e-05, 4.907321331017178e-04, 1.822760240203142e-03, 2.039235177507496e+06, 5.760856501114163e+06, 7.950727140912952e+04, 5.286051386236413e+05, 1.499638023909194e+05, 5.325178132623733e+05, 4.763572048843349e+06
2431, 4.678148097010472e-01, 1.832839948985250e-01, -3.502766252615824e-02, -8.474696290448544e-06, 3.776787520720729e-04, 7.887837976353999e-04, 3.666853175353624e+06, 9.335476767941430e+06, 3.979685799829649e+05, 1.428320513486163e+06, 7.093785439602676e+04, 9.029498701213286e+05, 7.264290046928679e+06
2432, 9.484139583536030e-01, 5.164435706843951e-01, -3.917887863958263e-03, -3.322426953270008e-05, 2.965969097409316e-04, 4.626878989126948e-03, 3.123640827665944e+05, 2.002161185332198e+06, -5.613792216535006e+04, 1.525660814799322e+05, 9.365509406864239e+04, -2.286599028448294e+05, 1.828551374990997e+06
2433, 8.416168527731500e-01, 1.850842667019239e+00, -1.161159893582307e-02, 3.848485712296124e-05, 3.018262735301758e-04, 3.817882575863586e-02, -1.749298603367692e+03, -3.013211437333402e+03, 7.064650544577523e+03, -1.647615282196425e+04, 1.460899592063558e+03, 1.979568662823382e+04, 3.913569244093953e+04
2434, 8.176622099849034e-01, 1.154322541711391e+00, -1.328057773191612e-02, 1.991000039423124e-05, 5.585558652216925e-04, 1.926213367074899e-02, 1.370390704784001e+05, 4.845644558848262e+05, 1.293224633955010e+04, 1.484606430688084e+05, 1.047586491786527e+05, 1.559777192213002e+05, 4.725960842047876e+05
2435, 8.222382488296300e-01, 9.317737034818767e-01, -1.296307699390613e-02, 2.547279563697158e-06, 5.645281577256016e-04, 1.364219430293648e-02, 2.108389946666286e+05, 9.086211781852365e+05, 3.259451649899618e+04, 2.385103411582615e+05, 1.017903483356859e+05, 2.485630086575715e+05, 8.294449028451784e+05
2436, 8.430960057629432e-01, 1.469590083240640e+00, -1.150797617646168e-02, 3.454315194998531e-05, 4.344953090755360e-04, 2.774241767515720e-02, 3.283329465413112e+04, 1.861013224488605e+05, 4.870455791870585e+04, 2.719567452757655e+04, -4.556237694582044e+04, 9.337150923048906e+04, 2.527564968423104e+05
2437, 8.567377341895629e-01, 7.221873628011892e-01, -1.054890443079023e-02, -1.258022941047487e-05, 4.911935156128727e-04, 8.806088434549116e-03, 5.073487790023388e+05, 1.456487234503702e+06, 2.065140627590254e+05, 2.969156422272280e+05, 5.118340220447083e+04, 1.120457587770902e+05, 1.148190858570453e+06
2438, 8.204826073788686e-01, 8.563414279574055e-01, -1.308496423329381e-02, 1.360913927078711e-06, 5.671593472257389e-04, 1.184179505631622e-02, 1.887624329212928e+05, 9.222963757193981e+05, -2.742256648671476e+04, 2.265337741965506e+05, -4.634832295395581e+04, 1.855938811370531e+05, 7.898277769836186e+05
2439, 4.637995771395892e-01, 1.479117447912903e+00, -3.522358991987672e-02, 8.640442105988438e-05, 1.064391905149037e-03, 2.736906755143453e-02, -3.629122010332340e+04, 4.733811517782052e+05, 8.561627637073127e+04, 6.699105743015971e+04, 4.102147513044883e+03, 8.481370337167574e+04, 5.112866594859584e+05
2440, 8.285129039721489e-01, 5.181090003709043e-01, -1.252672057195713e-02, -3.027559782717293e-05, 4.472523773888307e-04, 4.820375935747787e-03, 4.108475576950958e+05, 1.730270670056371e+06, 1.245221941047153e+04, 3.411449810327672e+05, 5.616499639160553e+04, 1.968510131049647e+05, 1.401385973638594e+06
2441, 8.391075664704817e-01, 1.543239643604076e+00, -1.178723234824445e-02, 3.644944604224570e-05, 4.178422751227370e-04, 2.974745857231546e-02, -2.440312123365155e+03, 1.462592334823209e+05, 6.340429763623214e+03, 1.461470344090556e+04, 2.936231638023064e+04, 9.451404389677476e+04, 2.221983547510986e+05
2442, 7.692431223735052e-01, 1.663673445202358e-01, -1.660269728045350e-02, -1.967995499618677e-05, 2.025479529276231e-04, 5.528246490669741e-04, 8.018104355463957e+05, 2.702568730741340e+06, -2.592757512212900e+05, 9.513384877836381e+05, 1.427086421475169e+05, -1.051443697892557e+05, 1.909701306525178e+06
2443, 6.732686009953327e-01, 1.395325304575022e+00, -2.298447704241113e-02, 5.115248858191500e-05, 7.649355566628907e-04, 2.547763010446401e-02, -5.146104705136194e+04, 3.296230234607722e+05, 8.405179686189769e+04, 5.657947633106982e+04, 2.164591431662634e+04, 1.049203784333598e+05, 4.139443307725764e+05
2444, 5.877527236218325e-01, 1.238658165901680e-01, -2.836640752231709e-02, -9.293165863434594e-06, 2.306002123398931e-04, 3.479311830239806e-04, 2.860679606498758e+06, 7.334063573127506e+06, -1.145921572565730e+05, 1.088694861952738e+06, 2.810001746725253e+05, 8.207508691901092e+05, 5.777113080336835e+06
2445, 5.914132029338885e-01, 8.505298578125767e-02, -2.814412855877451e-02, -1.156672584538831e-05, 1.430108751967422e-04, 1.700659802467887e-04, 3.591800311929196e+06, 8.345002179215224e+06, -3.773336427647542e+05, 1.382469898049053e+06, 2.521722716541331e+05, 6.604590491932614e+05, 6.316802623338635e+06
2446, 5.565600834594304e-01, 1.904570438030976e+00, -3.022328738573069e-02, 7.744774653376321e-05, 7.954798290874844e-04, 3.906596510355204e-02, -2.952003520363129e+03, 3.411866901259054e+04, 5.356058420680097e+04, 1.895850739845270e+04, 8.285911506018754e+03, 1.277983903435984e+04, 1.017065300896581e+05
2447, 5.090146529580779e-01, 1.419616283449432e+00, -3.290015272357109e-02, 7.751667329213008e-05, 1.019104473962761e-03, 2.586136532901633e-02, 5.042119714295235e+04, 6.447200392492282e+05, 1.598206990146430e+05, 1.089528105161303e+05, -1.898341589260976e+04, 1.061832638599449e+05, 6.583050415635067e+05
2448, 8.056768525144924e-01, 1.438801932847844e+00, -1.410908699279883e-02, 3.760908823372683e-05, 5.151799281216876e-04, 2.684786546231600e-02, 4.974337928808534e+04, 2.360600253177593e+05, 2.208423780448964e+04, 2.583993641905118e+04, 3.217045187290914e+02, 8.797589986867404e+04, 2.538141140783489e+05
2449, 4.222719365880357e-01, 1.351791815260016e+00, -3.710807984690132e-02, 8.778412624464368e-05, 1.139499146695875e-03, 2.391306273267231e-02, 3.751008349284839e+04, 9.068514249652047e+05, 8.980747921148120e+04, 8.125677514933325e+04, -2.241497224609483e+04, 1.011712812515580e+05, 8.809356734596485e+05
2450, 4.302005220629794e-01, 3.073214394823149e-01, -3.676977351188603e-02, 1.289159752299388e-05, 5.955414382156909e-04, 1.950498112655846e-03, 1.854247630872762e+06, 6.536656531604502e+06, 1.909558600924383e+05, 1.029043764437160e+06, -2.253050622882154e+05, 4.144718269723835e+05, 5.219856002304939e+06
2451, 9.486909514967308e-01, 1.306895622749426e+00, -3.897267217472220e-03, 1.581246905339034e-05, 2.739354825809781e-04, 2.345344215460154e-02, 3.602274633809504e+04, 3.774027384881532e+05, 7.096714672092706e+03, 3.738458467428066e+04, -3.312122029636751e+03, 8.761460498911024e+04, 3.732160323996456e+05
2452, 4.658769493756236e-01, 1.375644186098679e+00, -3.512250533715784e-02, 8.154796758701177e-05, 1.084188883717030e-03, 2.461709687729152e-02, -4.189844552904157e+04, 6.519085725807394e+05, 1.346001651448200e+05, 5.279287582656369e+04, 3.868236643458050e+04, 1.281145159554281e+05, 7.298751254792190e+05
2453, 7.889044975389511e-01, 6.770097005885439e-01, -1.526166374397536e-02, -1.449639857923311e-05, 5.679828519077439e-04, 7.889509983363990e-03, 4.503049742202171e+05, 1.679269901278201e+06, 1.159057949588925e+05, 3.471608846554565e+05, 1.726622095587736e+05, 5.497221685417118e+05, 1.638315148914309e+06
2454, 9.570211730118904e-01, 3.744159386985691e-01, -3.275228195621885e-03, -3.706638753696312e-05, 2.276510344217456e-04, 2.427697786380190e-03, 2.272878235510035e+05, 2.020789614164377e+06, -7.731577149974846e+04, 1.072786727683195e+05, 8.443929205556268e+04, 1.670827604977482e+05, 1.889275154731749e+06
2455, 6.811570634923508e-01, 3.138077861799270e-02, -2.247141789177071e-02, -1.644797123396234e-06, 5.152868571111496e-05, 3.671943099354570e-05, 3.453335827634820e+06, 6.482561083894524e+06, -3.081727239345117e+05, 3.329901159096473e+06, 1.341663022421362e+05, 7.742241607563440e+05, 3.420896872545777e+06
2456, 7.933775168194748e-01, 4.666005565658323e-01, -1.495505341675696e-02, -2.594219956471300e-05, 4.513320327014583e-04, 4.004339976596077e-03, 3.102514578337460e+05, 1.813735415065596e+06, 4.130767130930276e+04, 2.671900896893429e+05, -1.052209660107437e+05, 4.110056076359954e+05, 1.694747922842206e+06
2457, 9.827652372543906e-01, 2.217146444831080e-01, -1.327457169418415e-03, -3.886605618870498e-05, 1.280600194765447e-04, 7.110023205958715e-04, 1.997676484901780e+05, 2.774691619453231e+06, -5.598181887217301e+04, -2.367972499015192e+05, 6.303438396533080e+04, 1.981204759999189e+05, 2.843241257851223e+06
2458, 9.721118054268090e-01, 1.956372570860894e+00, -2.138359405430332e-03, 1.798126260556254e-05, -2.334765304777553e-06, 4.133938362346956e-02, -1.611921206677718e+03, -9.919578026570593e+02, -1.591784270204275e+03, -5.134525576213937e+02, 1.125167426019155e+04, 4.591192445340638e+03, 2.124968174594257e+04
2459, 9.661162892868633e-01, 1.891936063133230e+00, -2.591655447110943e-03, 1.943032980532278e-05, 3.466972277748476e-05, 3.955906634845574e-02, -1.040989016078681e+04, 1.103501619704133e+04, 4.137608508604299e+02, 8.267908403356280e+02, 1.974631797878179e+03, 9.986716584506697e+03, 2.562405251964682e+04
2460, 4.957468053850663e-01, 1.336898573987372e+00, -3.360720482460972e-02, 7.575038599952691e-05, 1.052038627123168e-03, 2.364701590663806e-02, 8.492181999120936e+04, 7.575187582170548e+05, 1.688714659500076e+05, 1.061580040930595e+05, 3.316274676572026e+04, 9.495718592467242e+04, 7.446185904549648e+05
2461, 9.735410792903259e-01, 1.834634140995462e+00, -2.029968772270456e-03, 1.852401213536803e-05, 4.033915540981904e-05, 3.800036447576915e-02, -1.294953522972625e+04, 7.303781113299813e+03, 5.100135687265051e+03, -7.939628648112792e+03, 1.202295571582138e+04, -1.782165451314663e+02, 2.907941870001841e+04
2462, 8.301539819448316e-01, 4.430724555415462e-01, -1.241239807731813e-02, -3.132784896463193e-05, 3.954064240847266e-04, 3.587076341487305e-03, 5.831412391316553e+05, 2.068917254688621e+06, -9.598058362659787e+04, 7.237958307033253e+05, 3.149383621412343e+04, 4.123139758222839e+05, 1.599673001063926e+06
2463, 9.730333439497578e-01, 1.657772234472812e-01, -2.068486795558157e-03, -3.786331352000072e-05, 1.005679345222193e-04, 3.236497204113231e-04, 3.052634965112519e+05, 3.439240231864695e+06, -1.801931485679814e+05, -3.130569382118388e+05, 8.389418061379396e+04, 1.782939242253253e+05, 3.515084889215434e+06
2464, 9.554029907151843e-01, 1.851586783752286e-01, -3.396359026708136e-03, -3.827834320499490e-05, 1.254030458497368e-04, 4.690029582643807e-04, 5.317086138231503e+05, 3.125531608717876e+06, -2.058934696943484e+05, -7.996367981211917e+04, 8.382463450164435e+04, 2.687118405797310e+05, 3.008904221582405e+06
2465, 9.495234991918212e-01, 1.215118903458088e+00, -3.835265382085860e-03, 1.127679740955956e-05, 2.967067700582436e-04, 2.097540229673524e-02, 3.052554223644040e+04, 4.720187443857421e+05, 1.579323126706826e+04, 1.389864918197509e+02, -4.636892076811474e+04, 2.730822264223879e+04, 4.676438538940126e+05
2466, 9.660688501375512e-01, 3.110220326370770e-01, -2.595233728366197e-03, -3.898637093451614e-05, 1.920608891930464e-04, 1.612833249034093e-03, 6.797851496762871e+04, 2.290566717075213e+06, 4.173712713795905e+04, -9.611634333730978e+04, 2.683870193827930e+05, 2.657598856637066e+05, 2.400988634940554e+06
2467, 9.631599116751383e-01, 1.654391868049679e+00, -2.814372291308062e-03, 2.057918569697836e-05, 1.291614550917239e-04, 3.301594341766071e-02, -4.608561586864336e+03, 1.005299118081023e+05, -1.405491322850291e+03, -1.291170615962172e+04, -2.139927268531728e+03, 1.072838501083838e+04, 1.111799422599221e+05
2468, 9.720824669511402e-01, 4.210371437705245e-01, -2.140583060688813e-03, -3.505036264866979e-05, 2.315886734125180e-04, 3.068231054466797e-03, 2.141763222261617e+04, 2.033638482779830e+06, -2.234460912876833e+03, -4.745758328231903e+05, 8.085824398714336e+04, 3.002903516663914e+05, 2.362888633031861e+06
2469, 9.665255904427430e-01, 1.505809902757188e+00, -2.560776528551075e-03, 1.867558630642974e-05, 1.740142211688611e-04, 2.892642353951158e-02, -1.564134705395500e+04, 1.764991248175677e+05, 2.057060264265873e+03, -2.591043832349501e+04, -2.785700521603060e+03, 1.636983886305196e+04, 1.995906133938222e+05
2470, 7.834186850448306e-01, 1.933585133119019e+00, -1.563691498504572e-02, 4.612817911010814e-05, 3.824219795218881e-04, 4.032267912863674e-02, 1.829499011151232e+03, 2.856036533783354e+03, -1.009558215782010e+03, 6.151739639816263e+02, 8.213908481872089e+03, 6.204410092445716e+03, 1.802003134391678e+04
2471, 9.730237563836391e-01, 4.669454764389419e-01, -2.069213994993040e-03, -3.316945095141466e-05, 2.464113879829810e-04, 3.771257124788596e-03, 6.401912606188663e+04, 1.978200655217542e+06, 1.482459713072749e+02, 2.191987488553704e+04, 3.676643814377302e+04, -8.369202420814824e+04, 1.942039475938494e+06
2472, 9.734943726055818e-01, 1.416642562380630e+00, -2.033512634283439e-03, 1.599330207033983e-05, 1.885041309203639e-04, 2.648307198540706e-02, -2.744228710657004e+04, 2.695551816159246e+05, 2.474589038919076e+04, -7.340116674172727e+04, -2.684652884540343e+04, 2.883493971606734e+04, 3.323597942196710e+05
2473, 9.696308377769810e-01, 5.207944287233085e-01, -2.326197451031714e-03, -3.232036743443766e-05, 2.675941230685791e-04, 4.673029515816773e-03, 6.959767869792270e+04, 1.931810509991479e+06, -1.071690226447898e+05, -1.109831335259730e+05, 9.160519430444294e+04, 4.652140116123621e+03, 1.973935415540265e+06
2474, 9.541535154964556e-01, 4.830316559543217e-01, -3.489796766958700e-03, -3.254159590036776e-05, 2.746217708953919e-04, 4.059484401977564e-03, 1.615398770759860e+05, 1.870439713440435e+06, -2.807286224489447e+04, -1.048903928285653e+05, -4.213483920350351e+03, -3.355326132593359e+04, 1.858069257388217e+06
2475, 9.734926213371385e-01, 1.356938027839824e+00, -2.033645509244327e-03, 1.470141019864479e-05, 2.072823251886013e-04, 2.484778139723436e-02, -2.646360335291255e+04, 2.842699086936812e+05, -2.217480752738300e+03, -4.525055645935937e+04, 3.050222152381289e+03, 3.237488322394591e+04, 3.254735987061788e+05
2476, 9.211180476562995e-01, 1.361679648334374e+00, -5.930546602408325e-03, 2.052670471244800e-05, 3.128318344907365e-04, 2.491024910315059e-02, -5.628432260844333e+03, 2.376228600104934e+05, 2.393050952979853e+04, -2.120652254795461e+04, 3.752634152653647e+04, 1.208897269966957e+05, 3.361382509419320e+05
2477, 8.851186852661043e-01, 1.376779413578925e+00, -8.532907855239219e-03, 2.574069694718031e-05, 3.804620370995611e-04, 2.527441378436830e-02, 1.125068050098551e+04, 2.664538250141831e+05, 1.012209614310717e+04, 3.569422169396341e+04, -2.023488019778941e+03, 1.234524876820580e+05, 3.248526854544172e+05
2478, 9.734912082564892e-01, 5.808161702933239e-01, -2.033752724576863e-03, -2.918223674075460e-05, 2.797524897291126e-04, 5.765999292383195e-03, -2.766413821792695e+04, 1.666904094709847e+06, -1.670758825677323e+03, 1.408057762353265e+04, 8.894189813651002e+04, 8.083920009431074e+04, 1.686982553212780e+06
2479, 9.713992157618065e-01, 1.294726252545300e+00, -2.192353405168311e-03, 1.284040997474173e-05, 2.298723409838183e-04, 2.314793824161204e-02, 9.258412189030936e+03, 3.856886814469754e+05, -2.114084869463525e+04, 4.953414096295051e+04, 8.066729405434624e+03, 6.398159765530250e+04, 3.767994637085054e+05
2480, 9.521608497076706e-01, 1.270348325078595e+00, -3.638630001390815e-03, 1.363629754330686e-05, 2.769952343554261e-04, 2.246562378482586e-02, 2.649054795349439e+03, 3.962038591756445e+05, 4.913264138706612e+03, 1.311212794128662e+03, 1.558218229408876e+04, 1.013065015652529e+05, 4.324390633440915e+05
2481, 9.734908700687059e-01, 7.599200604628357e-01, -2.033778384041868e-03, -1.406135826653720e-05, 3.020612514643140e-04, 9.567909626274018e-03, -4.129613339087446e+03, 1.198425648410995e+06, -1.038952263413778e+04, -1.664247382483043e+05, 8.738114364373588e+04, 2.121218805309224e+05, 1.351245728016616e+06
2482, 9.707819050473347e-01, 6.959045791116709e-01, -2.239100990589827e-03, -1.908505776674480e-05, 3.032160889894359e-04, 8.147901692589943e-03, -4.210001874558073e+04, 1.394245052465667e+06, -6.450111827388837e+04, -1.138353388149014e+05, -1.337462543062598e+04, 1.970105027135919e+05, 1.516814765316446e+06
2483, 9.523350320272862e-01, 6.684070760535095e-01, -3.625629522035352e-03, -2.133931961909030e-05, 3.289852525018289e-04, 7.572183858670645e-03, -4.795234454574464e+04, 1.268998079919621e+06, -2.508348048976558e+04, -2.372823915986143e+05, 5.758979238813946e+04, 1.278880146065940e+05, 1.442375090407932e+06
2484, 9.717005660933937e-01, 1.091899270255513e+00, -2.169523601270440e-03, 3.635549350441969e-06, 2.782228547253685e-04, 1.772064327073744e-02, -1.625705810248436e+04, 6.352133513916440e+05, -1.236611445862042e+04, -3.497759616457777e+04, 7.311734008515394e+03, 1.213644111242281e+04, 6.618315918122334e+05
2485, 9.683263504991834e-01, 1.240972508927255e+00, -2.424804750021377e-03, 1.084357519033630e-05, 2.513328074470189e-04, 2.168761846751399e-02, -2.673707447724455e+04, 4.354723285458289e+05, 1.109818045070169e+02, -2.678354396821769e+04, 8.249597499801675e+03, 7.946765912901172e+03, 4.626582657113924e+05
2486, 9.734775218180978e-01, 1.148086849094847e+00, -2.034791156672038e-03, 6.553570604611592e-06, 2.629743619852951e-04, 1.920133801328594e-02, -4.539045037392165e+04, 5.858282750690188e+05, -6.330478609694305e+04, 7.216883465269604e+04, 3.945935107538987e+04, 7.127690887457231e+04, 6.082651107811863e+05
2487, 9.498766507349060e-01, 1.197763767375952e+00, -3.808955110805914e-03, 1.059059466079759e-05, 3.002328751241234e-04, 2.051002530962898e-02, 1.273570945950069e+04, 4.973835803417371e+05, -1.069590825424785e+04, -3.904634136532968e+04, -1.255597281006566e+04, 7.215386996309653e+04, 5.282950953701969e+05
2488, 9.516325142385380e-01, 1.118999465154001e+00, -3.678052239384446e-03, 6.661946239595179e-06, 3.132544449702332e-04, 1.842072044723361e-02, 4.857572694892634e+04, 5.765992564007198e+05, 3.260964610119981e+04, -2.974832797530475e+04, 9.163550023704960e+03, 1.178552424059424e+04, 5.745948345617943e+05
2489, 9.680659970633827e-01, 1.177244402208506e+00, -2.444474720698024e-03, 8.243201194940708e-06, 2.675510438490345e-04, 1.997494950175183e-02, 1.952429039761872e+04, 5.669589139818227e+05, 1.405411508079136e+03, -4.560589099075133e+04, 2.706156310753078e+04, 8.211550247619278e+04, 6.016750795383808e+05
2490, 9.719688687495392e-01, 6.434886166384041e-01, -2.149192520350663e-03, -2.308397109090921e-05, 2.940864146604577e-04, 7.037186135614437e-03, 6.400252165630191e+04, 1.501855693009684e+06, -4.326188558671506e+04, -4.271540325360440e+04, 1.039546064503000e+05, 9.447703364188936e+04, 1.515607913392376e+06
2491, 6.635493395353543e-01, 1.925532111019083e+00, -2.361333805018358e-02, 6.311019619080135e-05, 6.057036748870447e-04, 3.985676392608414e-02, -8.280377046488851e+03, -4.133361283200795e+03, 4.860616662277041e+04, 8.591464041893569e+03, -9.562047273316418e+02, 1.863999133301247e+04, 9.145850471613338e+04
2492, 8.058227625429685e-01, 9.852141646152379e-02, -1.409902630272909e-02, -2.103262110987603e-05, 1.090190799669100e-04, 1.817485979603989e-04, 8.317747309322779e+05, 2.883458199129484e+06, -2.467252263529515e+05, 1.149362618787851e+06, 2.671923423563587e+05, -3.859495389330367e+04, 2.014929593750062e+06
2493, 8.076925955944833e-01, 1.871297827101291e+00, -1.397004493518900e-02, 4.306487958204326e-05, 3.599142847634951e-04, 3.866997102471881e-02, 7.904233899772505e+03, 7.602860153048094e+03, -2.880631181567810e+03, 5.877499999200292e+03, 1.048902644129402e+03, 1.385507033831942e+04, 2.465098968748107e+04
2494, 7.706669664530924e-01, 1.660643005216320e+00, -1.650593887529643e-02, 4.751281846233912e-05, 5.070896441145938e-04, 3.283723927033785e-02, 1.099659277338186e+04, 5.966479159425139e+04, 3.201164603155019e+04, 1.123694677770661e+04, 4.875579161307232e+03, 5.807809428852391e+04, 1.249867957827048e+05
2495, 8.280567882510931e-01, 6.292575387143660e-01, -1.255847997919792e-02, -2.053144439916055e-05, 5.071379646383462e-04, 6.889500291384215e-03, 3.849839356757629e+05, 1.941488510199652e+06, 1.028017526778623e+05, 3.714547713613686e+05, -1.180628635432623e+05, 1.223973575353031e+05, 1.600753633338240e+06
2496, 7.894222982720231e-01, 5.922074076346998e-01, -1.522620107092396e-02, -1.792630580135790e-05, 5.373483434197093e-04, 6.203301422363749e-03, 1.692851450663330e+05, 1.176014834883028e+06, -1.751926265358086e+05, 4.068637735391247e+05, -1.438551140759867e+05, 4.453147879920514e+04, 9.954296673512725e+05
2497, 5.434117320673580e-01, 2.745101512303837e-01, -3.098387908821831e-02, -2.043080329595590e-05, 4.950825327327268e-04, 1.581002169284904e-03, 2.023808824987013e+06, 5.851922210735981e+06, 1.829432407574950e+05, 3.715397326241392e+05, 5.020650576693873e+05, 4.148666064632005e+05, 5.008240632692364e+06
2498, 6.232185400010575e-01, 1.355751878368646e+00, -2.617921080949274e-02, 5.873047418886689e-05, 8.586419699057070e-04, 2.434612590320439e-02, 3.311406618713446e+04, 5.602309272840876e+05, 1.329450930293983e+05, 8.550141608675738e+04, -7.928940638273421e+03, 4.455657006358881e+04, 5.587038800922628e+05
2499, 8.442221286602850e-01, 1.396309326168033e+00, -1.142903878718115e-02, 3.155858859672095e-05, 4.539180502594470e-04, 2.574967668770639e-02, 4.693524068723311e+04, 2.540083763547000e+05, -8.659714079972950e+03, 6.567626779398159e+04, -1.247948383683265e+04, 1.214368733283162e+05, 2.903147834147688e+05
2500, 4.273304434253792e-01, 1.577041496854166e-01, -3.689346327696358e-02, -8.275097794448183e-06, 3.175495883018242e-04, 5.861744829032123e-04, 2.275471954931939e+06, 6.949029946367349e+06, 3.489744968757404e+05, 9.883871714894444e+05, 3.334618505319897e+05, 1.345567598445612e+06, 5.970309323313269e+06
2501, 8.318092054616546e-01, 5.543793659341573e-01, -1.229700567515178e-02, -3.265011918018260e-05, 4.611024127758184e-04, 5.461924110099298e-03, 2.919613608676949e+05, 1.756660153426979e+06, 1.319157111982368e+04, 4.345992114329720e+05, 1.855995866117415e+05, 3.315132082401290e+05, 1.546070281666541e+06
2502, 9.490115982109990e-01, 1.048787173529067e+00, -3.873391953565796e-03, 3.387364946309812e-06, 3.300955056001476e-04, 1.659570885425172e-02, 1.671015379708978e+04, 5.837917996134041e+05, -3.549196204502850e+04, 2.103285906348439e+04, 3.213372759503391e+04, 1.037043315214123e+05, 5.985728732339076e+05
2503, 9.828865402261828e-01, 4.477611940290024e-02, -1.318182029661439e-03, -2.058676344519894e-05, 2.920743340910359e-05, -3.543835109631743e-05, 7.257267825027675e+04, 3.015741696864918e+06, -2.212076936545148e+05, 4.727366695935057e+05, 1.656011076739903e+05, -7.952050856943527e+05, 3.125819560873779e+06
2504, 5.047287738713762e-01, 2.983328569790880e-01, -3.313057741946877e-02, -1.240317127670313e-05, 5.545393554741429e-04, 1.850554058651165e-03, 2.049545075647531e+06, 6.389789185384418e+06, 3.836816697865431e+05, 8.598619140276873e+05, 1.643927671241306e+05, 3.649238919148328e+05, 5.132133907969547e+06
2505, 4.988124717061898e-01, 6.993885957322828e-01, -3.344553477421693e-02, 3.828216131769591e-05, 9.382792608213023e-04, 8.345236454815330e-03, 3.843870661174597e+05, 2.801329213186945e+06, 3.165655850992808e+05, 3.750480483108340e+03, -1.409431571451911e+05, 2.540685450396406e+05, 2.731365750960883e+06
2506, 9.749518911570296e-01, 3.718704553421280e-01, -1.922872576253277e-03, -3.646235448712121e-05, 2.090384435003145e-04, 2.368154555430102e-03, 2.063113996157572e+05, 2.492655914973055e+06, -1.086798193052990e+05, -1.668682466091771e+05, 8.235880250519497e+04, 1.561347986154101e+05, 2.519676284979741e+06
2507, 6.885745032334005e-01, 4.494853357638361e-01, -2.198682587683500e-02, -1.643239061674406e-05, 5.578475583331794e-04, 3.817618325369511e-03, 1.099788457083221e+06, 4.049022647731060e+06, -8.384482564578194e+04, 2.300106362360365e+05, -6.702226361209838e+04, 3.483786134199001e+05, 3.523966947506811e+06
2508, 5.969054942459215e-01, 1.963312750539757e+00, -2.780899941294157e-02, 7.165378016935411e-05, 7.072673331330048e-04, 4.074810852950750e-02, 1.592059377670735e+04, 1.155152603785093e+04, 3.849087920289311e+04, -9.915209093947578e+02, 9.176099563052519e+03, 1.198211482471387e+04, 7.320640124618793e+04
2509, 9.614100830993446e-01, 1.468537788526834e+00, -2.945959261042795e-03, 1.893837278998944e-05, 1.973123932339574e-04, 2.789258120271471e-02, -5.523319352626188e+03, 2.327746655156740e+05, 1.743247597889385e+04, 3.171226169912375e+04, 1.954547847370111e+04, 4.304576051498237e+04, 2.385703617300844e+05
2510, 9.757477655546063e-01, 1.032497086708782e+00, -1.862404588068741e-03, 1.080098125588042e-06, 2.805055105971899e-04, 1.618649303412290e-02, -2.245854878540741e+03, 6.984726497154770e+05, 4.824828823105090e+02, -4.178121709160205e+04, 1.891009103607069e+04, 1.238955225863555e+04, 7.223618230831379e+05
2511, 6.459221364997711e-01, 7.946947568104503e-01, -2.474377930831608e-02, 1.165914400783757e-05, 8.103223362795897e-04, 1.042404007138159e-02, 2.298789560766880e+05, 1.943674220832103e+06, 2.267090707141127e+05, 4.060825402603645e+04, 8.058829680874376e+04, 2.401181998768034e+05, 1.908908986777570e+06
2512, 6.501733586445739e-01, 4.759673621110042e-01, -2.447238193163547e-02, -1.431761155602784e-05, 6.128040782705929e-04, 4.253229444162621e-03, 8.252245627808899e+05, 3.558361506475148e+06, 8.061711769184371e+04, 2.475734264574399e+05, -2.451046392113169e+05, 4.689148372019489e+05, 3.200294929324904e+06
2513, 4.943669525736684e-01, 1.107700928920263e+00, -3.367960900011659e-02, 6.568844760897885e-05, 1.069897493779906e-03, 1.773670673348731e-02, -1.839889096007784e+03, 1.433267030530226e+06, 1.931780669905884e+05, -3.500743933258345e+03, 1.526625783313466e+05, 1.594191046285279e+05, 1.523165247567049e+06
2514, 6.450657496533838e-01, 8.369012393810186e-01, -2.479835988698847e-02, 1.940310812862008e-05, 8.218225002486618e-04, 1.137311924669498e-02, 3.553525714056841e+05, 2.414802978275904e+06, 2.445810974194558e+05, 2.452360274315923e+05, 5.703748713104615e+04, 3.831551916136693e+05, 2.260505354991713e+06
2515, 9.477127801967800e-01, 8.806920540351457e-01, -3.970069083481957e-03, -6.051368723961059e-06, 3.488510402933562e-04, 1.239701769182094e-02, 2.815489632437696e+04, 7.814726413665784e+05, -3.464894640493941e+04, 3.025506128812026e+04, 3.348290645439769e+04, 1.598778759679751e+05, 8.059514336239814e+05
2516, 4.294629886672741e-01, 1.699133130694191e+00, -3.680169809424876e-02, 9.273291775119437e-05, 1.046563433169616e-03, 3.322996343693408e-02, -4.416472498340693e+04, 1.137652059278718e+05, 9.390100819404695e+04, 1.701868245876173e+04, -2.471066863498319e+03, 4.005872037608269e+04, 2.242926679185746e+05
2517, 8.656699017824780e-01, 3.161154187421650e-01, -9.917504677218015e-03, -3.961556540041638e-05, 2.826135091509585e-04, 1.822926915834772e-03, 6.015871464251772e+05, 2.407555804162713e+06, -3.647356444412799e+04, 6.967907407334981e+05, 8.553666081171038e+04, 1.889866131642624e+05, 1.797704133966121e+06
2518, 4.604044628448898e-01, 7.222904425350974e-01, -3.538743647455237e-02, 3.722015608116636e-05, 9.800820922249405e-04, 8.791752666288295e-03, 4.153118791782167e+05, 2.483268088486257e+06, 2.084831025815920e+05, -4.872745671777966e+04, 3.697014082244113e+04, 3.789724288062870e+05, 2.452905360264278e+06
2519, 8.232652726723726e-01, 7.001373859199340e-01, -1.289173273774211e-02, -1.362628701626067e-05, 5.320217034532407e-04, 8.352269469538619e-03, 3.789352320961624e+05, 1.337809770501375e+06, -7.807713938046776e+04, 4.845960201687590e+05, 5.286374483888625e+04, 2.661952553687488e+05, 1.033702438193155e+06
2520, 9.472922274677519e-01, 7.439211534225983e-01, -4.001353885735913e-03, -1.517089427034712e-05, 3.469809372397478e-04, 9.223758908085467e-03, 8.930656016524645e+04, 1.316256598351915e+06, 1.418892976397754e+04, 2.428201840732062e+04, 7.723320953380007e+04, 1.765747244241979e+05, 1.304396885267178e+06
2521, 6.471513397397791e-01, 7.526767495740033e-01, -2.466538818710777e-02, 1.026803100834337e-05, 7.910194811052984e-04, 9.514702676649771e-03, 4.458201883799938e+05, 2.894779521630368e+06, 1.025920263039767e+05, -2.438565584887966e+04, -1.368986137922292e+04, 1.741892194689472e+05, 2.737366180047729e+06
2522, 9.759849613793670e-01, 9.073894004247434e-01, -1.844374430202106e-03, -5.328486208634742e-06, 2.965635207261078e-04, 1.304495809797324e-02, 3.563736120293202e+04, 9.203160438187632e+05, 7.643490367644321e+03, -1.189353124144472e+05, 3.068261295303898e+04, 4.356412900171475e+04, 9.756993744095823e+05
2523, 4.610406099868746e-01, 3.822038062187395e-02, -3.535686802278516e-02, -9.546050269063251e-06, 7.783786515317900e-05, 6.704393835864353e-05, 5.577341923358447e+06, 1.188466455078158e+07, -3.926492638613619e+05, 4.440759532062823e+06, 1.045205729366486e+05, 1.456943828694890e+06, 7.423360427515746e+06
2524, 9.488754049882292e-01, 1.342004884049756e+00, -3.883533492598682e-03, 1.719899016636162e-05, 2.633159553063619e-04, 2.440925277336884e-02, -1.412815888243857e+04, 2.898002437243262e+05, 1.322373100784091e+04, -5.113963391140171e+04, 5.887060135092494e+03, 7.405347423883408e+04, 3.493873014800666e+05
2525, 6.458683268347075e-01, 5.687142689976775e-01, -2.474720963724954e-02, -7.049499236112811e-06, 6.895860330313978e-04, 5.846995452764292e-03, 3.680928041295622e+05, 2.942262610049330e+06, 2.033820935650074e+05, -6.210666482744447e+03, 5.768956229675333e+04, 4.951394971267357e+05, 2.932497300887076e+06
2526, 6.931277253156475e-01, 5.286605123067493e-01, -2.168843461883131e-02, -1.500704502817307e-05, 6.119839033818797e-04, 5.122735546537704e-03, 1.334711207562223e+06, 4.691111924344927e+06, 1.667827326834240e+05, -2.513733594798960e+04, -2.643841178688916e+05, -2.114901432728094e+05, 4.255131140901834e+06
2527, 4.591266081485085e-01, 6.262011483122518e-01, -3.544866127623256e-02, 3.698116110521787e-05, 9.261335105571061e-04, 6.877285572389310e-03, 5.332816188232792e+05, 3.756098645042737e+06, 3.308098667088329e+05, 4.348978820691087e+05, -9.169828281788144e+04, 1.513850896062708e+05, 3.337002440975802e+06
2528, 4.990529726859153e-01, 6.528168714376622e-01, -3.343280598525968e-02, 2.824290818696784e-05, 9.117389790900786e-04, 7.415355330405216e-03, 4.304350953486478e+05, 3.361304513269520e+06, 2.114488895350606e+05, 5.110764759539872e+05, 9.066268700338046e+04, 5.166673459721621e+04, 2.920093944109903e+06
2529, 6.483535563022242e-01, 7.078385501125827e-01, -2.458865779933512e-02, 4.780904200599179e-06, 7.766379920311241e-04, 8.562387918761211e-03, 2.548621341789663e+05, 2.360992854091815e+06, 2.400566000467242e+05, 1.840321014055563e+05, 1.308657466700512e+05, 1.022395799458193e+05, 2.201272052831001e+06
2530, 7.687361499196944e-01, 9.791030511355722e-02, -1.663713530130986e-02, -8.536548592501247e-06, 1.305705444544520e-04, 1.983640307491423e-04, 7.022134480683099e+05, 2.511032824503537e+06, -3.072388181017329e+05, 9.295844496254786e+05, 2.065590117742631e+05, -2.468420434071773e+04, 1.823531440796532e+06
2531, 6.442510154834484e-01, 8.805648093190925e-01, -2.485025860778271e-02, 2.193900907871294e-05, 8.360926497040962e-04, 1.237367282874996e-02, 3.809488850301827e+05, 2.070573809134303e+06, 1.994216180183884e+05, 2.260508848315188e+05, 7.217586160085237e+04, 1.683551573561908e+05, 1.833169573080167e+06
2532, 4.540156751355952e-01, 1.174526284995524e+00, -3.569130695237831e-02, 7.830725227513102e-05, 1.118857536119990e-03, 1.936783820313726e-02, 1.001153528670031e+05, 1.116478903454498e+06, 1.654065947702917e+05, 1.505540718504409e+05, 3.122660557765756e+04, 9.917909854356531e+04, 1.048230730352044e+06
2533, 4.997033713856692e-01, 5.592539305084200e-01, -3.339835030697044e-02, 1.860519126507809e-05, 8.388458690447229e-04, 5.675689753751739e-03, 8.753556787106815e+05, 3.952943164119123e+06, 2.142110792893009e+05, 4.928361110112515e+05, 7.925464317921801e+04, 1.400933721648835e+05, 3.318205071741659e+06
2534, 7.377326904744177e-01, 1.720009504596169e+00, -1.872912622776816e-02, 5.223168218065899e-05, 5.471455669591816e-04, 3.439715471427122e-02, 2.851949865762722e+03, 1.858445738753020e+04, -1.530649211600476e+04, 1.302515891719616e+04, 4.839852977134027e+03, 3.820903239257736e+04, 7.310188089063298e+04
2535, 4.601618461814010e-01, 5.306489398589660e-01, -3.539907850627786e-02, 2.421321384040581e-05, 8.255777843537773e-04, 5.171319148507880e-03, 1.120136006548977e+06, 4.627923514693819e+06, 5.038018003543513e+05, 7.578428515116913e+05, 1.223927356497107e+05, 2.752329016937131e+05, 3.839313101828839e+06
2536, 4.109286013775865e-01, 1.961502243788651e+00, -3.757277360724182e-02, 9.312508395716880e-05, 9.766418238147251e-04, 4.031051735981001e-02, -8.650894785144830e+03, 1.693395513783981e+04, 3.470114778767720e+04, 7.460846036957394e+03, 3.973969214207732e+03, 8.766393150921902e+03, 6.627511962185643e+04
2537, 5.232557303239044e-01, 1.924451815148968e+00, -3.212059338264670e-02, 8.116992469520135e-05, 8.404769523122566e-04, 3.953805050215703e-02, 1.441429052429580e+04, 2.348025049076546e+04, 3.926440340527963e+04, 4.036000878605393e+03, 4.414058324008345e+03, 5.886388190688722e+03, 7.121425587132829e+04
2538, 6.859354157410631e-01, 6.468774282460075e-01, -2.215946679674207e-02, -2.934907827864541e-06, 6.934141013949201e-04, 7.317587746983878e-03, 7.283320025641717e+05, 3.587078526760042e+06, 2.327571601042567e+05, 6.266295622520570e+04, -1.521761803575940e+05, 2.396099950014069e+05, 3.304960717890592e+06
2539, 9.453120761473586e-01, 1.079536659429602e+00, -4.148525461364974e-03, 5.054628939828165e-06, 3.332605107495886e-04, 1.738942373999935e-02, 4.097209461873316e+04, 7.285001095644686e+05, 8.012174591910992e+03, -4.029943502805060e+04, 1.505238673087783e+04, 6.666149594515318e+04, 7.412016320171636e+05
2540, 9.442448294145875e-01, 5.916143218983873e-01, -4.227752798839223e-03, -2.921839776447513e-05, 3.271150437407222e-04, 6.007843519984846e-03, 1.230427423802778e+05, 1.787780042531538e+06, -1.104306095737728e+05, -5.528815224642596e+04, 1.945012884677067e+05, 2.405178070794627e+05, 1.850310713732676e+06
2541, 6.914551524167311e-01, 6.098068850512048e-01, -2.179812224305631e-02, -9.429284341616259e-06, 6.661064894581195e-04, 6.592751997066795e-03, 5.099990496148459e+05, 1.490942268045601e+06, 1.248395585751261e+05, 4.396444755482050e+05, 4.765482279871248e+02, 3.333526861200134e+05, 1.190101119096300e+06
2542, 6.363496947002116e-01, 1.291174818999875e+00, -2.535206184393290e-02, 5.351483223483069e-05, 8.495733108511982e-04, 2.265270390068181e-02, 4.627630873058875e+04, 5.725154077820734e+05, 1.366228747522187e+05, 1.032002283919475e+05, -8.717527945246919e+03, 8.255117792937791e+04, 5.717358099093949e+05
2543, 4.601906206314426e-01, 7.688345516283155e-01, -3.539769822840720e-02, 5.409202925732784e-05, 1.005163894350992e-03, 9.762620844123999e-03, 3.137648811250251e+05, 3.068853431028746e+06, 3.374019491975387e+05, 2.790504470405693e+05, 7.715164184580534e+04, 2.826084302871326e+05, 2.878600228878671e+06
2544, 5.028706204732345e-01, 4.673176577189805e-01, -3.322989829341582e-02, 7.944430200898522e-06, 7.449306372034007e-04, 4.149357977141110e-03, 1.298493372303403e+06, 4.841081401693983e+06, -1.989419237214692e+05, 8.704825064649659e+05, -3.845870664863664e+04, 1.985721122070180e+05, 3.806685297165747e+06
2545, 5.222217888855276e-01, 7.603651336028740e-02, -3.217785423353293e-02, -8.702871443496546e-06, 1.679258721205895e-04, 1.518422302366580e-04, 3.022959076728591e+06, 8.281177699064773e+06, 1.670270569586125e+04, 8.187019325056730e+05, 8.162111496628473e+04, 3.334800126382138e+05, 6.667272929703460e+06
2546, 5.086565861600054e-01, 4.276643587753703e-01, -3.291947948096293e-02, 1.028480778884205e-05, 7.056734588400462e-04, 3.544614706568951e-03, 1.067171970686169e+06, 4.892364051734138e+06, 3.860780563842225e+05, 7.361328071484930e+05, 3.071078140343131e+04, 4.384039771424944e+05, 4.127294775789517e+06
2547, 8.754118657887089e-01, 1.937245638730119e+00, -9.225674562652260e-03, 3.318605508456640e-05, 2.027888107624873e-04, 4.061253857241520e-02, 3.761959440047251e+03, 1.144087151558775e+04, 1.893802916972680e+03, -6.518760552266044e+03, 2.583479516835154e+03, 9.696187348309610e+03, 2.358886080559505e+04
2548, 4.073757965322545e-01, 3.431866442629049e-02, -3.771284100513228e-02, 3.287209364238007e-08, 9.517581306886166e-05, 6.608958281873085e-05, 5.243222711431662e+06, 1.213368368539263e+07, -3.315403908790149e+04, 4.099241901889895e+06, 4.401926957381028e+04, 3.880009335563105e+05, 7.558468395244727e+06
2549, 5.875114233557910e-01, 1.654782339537710e+00, -2.838102812429615e-02, 7.257390172170277e-05, 8.327080397895759e-04, 3.233681219396871e-02, 1.752882374346504e+04, 1.434303668695774e+05, 8.068629999091412e+04, 6.932607997970369e+04, -2.708053455617018e+03, 8.040798092433020e+04, 2.257475751663946e+05
2550, 4.632591410530857e-01, 1.962949361263493e+00, -3.524978552811059e-02, 8.754851424377756e-05, 9.119520169786760e-04, 4.045939847503871e-02, -3.512207769933079e+04, -4.810568522195304e+03, 4.730022687835854e+04, -1.554864488702256e+02, 1.185116354096511e+04, 1.295568503557019e+04, 9.337234004227507e+04
2551, 4.579248770886782e-01, 3.816417990342576e-01, -3.550603833245694e-02, 8.239588185961905e-06, 6.718387251897495e-04, 2.889430328240227e-03, 1.000285203060405e+06, 5.573211726659684e+06, 6.474842816050588e+05, 5.434911997320611e+05, 1.619298897052290e+04, 1.871766042086132e+05, 4.957096199621030e+06
2552, 4.608312623841921e-01, 8.198874911906866e-01, -3.536693450399634e-02, 5.067413498646700e-05, 1.039952177358708e-03, 1.086873549927074e-02, 4.670067239084793e+05, 2.723579143725671e+06, 4.874287148637207e+05, 4.693863257657497e+05, 6.582086360433386e+04, 1.296322784114451e+05, 2.421347972051877e+06
2553, 6.372133511524550e-01, 1.249655900858267e+00, -2.529735545835930e-02, 4.890958871289763e-05, 8.534111198181295e-04, 2.156409817544310e-02, 7.554361306482861e+04, 9.036862610015769e+05, 1.577627665709189e+05, 1.661189644721362e+05, 6.290841271357860e+04, 1.350298435150504e+05, 8.719252725433819e+05
2554, 6.781116839609868e-01, 9.448828757409675e-01, -2.266977104240543e-02, 2.282052499632051e-05, 7.942648097635820e-04, 1.391212965449118e-02, 5.889257333699587e+03, 1.190660207834999e+06, 1.267218367535000e+05, 3.258617178154197e+04, 7.280098645173579e+04, 1.493641234010139e+05, 1.226282735905796e+06
2555, 9.745096860498514e-01, 1.979359035338525e+00, -1.956451083052573e-03, 1.740033448473233e-05, -1.618449773266306e-05, 4.197453809813922e-02, -3.912443082791645e+03, -8.378777021218661e+03, -6.021409854418199e+02, 1.219205276482934e+04, 1.040521393838693e+04, 1.222629089457403e+04, 3.354952609869708e+04
2556, 6.383993049758200e-01, 1.207505180004503e+00, -2.522217358380541e-02, 4.894589511376252e-05, 8.574205314572213e-04, 2.046554402048015e-02, 6.835632696096145e+04, 8.316918862211835e+05, 1.483702085574131e+05, 7.120711691688250e+04, -8.185505284579245e+03, 1.209764224730581e+05, 8.310603118454727e+05
2557, 4.166320954131624e-01, 1.197579694502192e+00, -3.734212837785481e-02, 8.046802343267094e-05, 1.158961389629315e-03, 1.989935765236553e-02, 2.788302674993601e+05, 1.473810362191025e+06, 1.787637856607317e+05, 2.022198370972558e+05, 6.900348998951215e+04, 1.376092919938906e+05, 1.300906374011834e+06
2558, 6.407004112608305e-01, 9.731339946442357e-01, -2.507610639943884e-02, 3.128950228403066e-05, 8.559934763421873e-04, 1.456985038977912e-02, 1.720995177545436e+05, 1.521110273020160e+06, 2.555587831299439e+05, 5.814464612226534e+04, -7.393701112258006e+04, 1.045942501441287e+05, 1.493885159332312e+06
2559, 4.568877566763447e-01, 1.127408302370309e+00, -3.555539823910082e-02, 7.192759973521923e-05, 1.115808992212690e-03, 1.817998657654676e-02, 1.182207445087483e+05, 1.465517074046221e+06, 2.036694599477624e+05, 2.533600390676121e+05, 4.000182912296870e+04, 1.332237528129200e+05, 1.354210930272695e+06
2560, 9.727904794879543e-01, 1.752231429836178e+00, -2.086906018094943e-03, 1.913516377369251e-05, 7.280964625281522e-05, 3.573080375521265e-02, -7.423901290666334e+03, 4.930159016095038e+04, -9.997046790906486e+03, -8.257136783635277e+03, -4.320580752066812e+02, 2.560937259895326e+04, 7.438846755743532e+04
2561, 8.336268999919130e-01, 2.610689702748337e-01, -1.217019075577228e-02, -2.968202497277694e-05, 2.688620905580349e-04, 1.267731335688832e-03, 4.825273698449839e+05, 2.496089068766933e+06, -2.246437634648879e+05, 3.722849816940855e+05, 2.938434323771403e+05, 1.393954817574736e+05, 2.181119804260356e+06
2562, 9.431883083966399e-01, 6.347557292034871e-01, -4.306120025056769e-03, -2.521752822204348e-05, 3.393371099923888e-04, 6.880136807220882e-03, 1.981981239283185e+05, 1.685406201710888e+06, -1.129685186255689e+03, -2.966631414415440e+04, 1.736262257624046e+05, 7.083782054902759e+04, 1.645626907760182e+06
2563, 9.757850200082580e-01, 2.128021199014480e-02, -1.859572997165466e-03, -9.925731687636732e-06, 9.743491344924374e-06, -1.840262682842320e-05, 5.394728987215008e+05, 3.268012403992634e+06, -4.242853122143798e+05, 2.336315320938329e+05, 1.810947129727710e+04, -8.778586325576621e+05, 3.350509259524321e+06
2564, 5.027597732483731e-01, 8.800841248078437e-01, -3.323581191578777e-02, 4.888646287714432e-05, 1.019429385882762e-03, 1.226076158018564e-02, 3.027948308964671e+05, 1.997777414649485e+06, 2.712431086560086e+05, 1.298148103484408e+05, 2.250890695061352e+04, 2.203365694528452e+05, 1.887847770629878e+06
2565, 4.664061251252993e-01, 3.350100324056595e-01, -3.509665804567901e-02, 5.859894007054570e-06, 6.186146964461906e-04, 2.286999569309452e-03, 1.742342609613414e+06, 5.778494856523522e+06, 4.430779463762910e+05, 6.258479059146672e+05, 9.408321447386415e+04, 3.063164867781902e+05, 4.789616531025265e+06
2566, 6.406416404014263e-01, 1.160433046220627e+00, -2.507984005007770e-02, 4.360964859903560e-05, 8.564106822437807e-04, 1.925377456065649e-02, 8.638218330398515e+04, 9.474071858790268e+05, 1.612253758777110e+05, 8.195181379150854e+04, -1.496497709318090e+04, 1.732613476047142e+05, 9.559861625434683e+05
2567, 6.369645358976851e-01, 1.066038796058383e+00, -2.531311994323837e-02, 3.649161850152044e-05, 8.691402960169931e-04, 1.685753206180924e-02, 2.110114481716537e+05, 1.385571472355485e+06, 2.519576865911750e+05, 1.646124652807099e+05, 1.460177255853925e+05, 1.735850083204466e+05, 1.334559600723730e+06
2568, 6.825696290713634e-01, 1.024614836962171e+00, -2.237928878851758e-02, 2.901389188988621e-05, 7.976404782014980e-04, 1.586422971425583e-02, 2.355555650360874e+05, 1.570440986397670e+06, 2.859562264503811e+05, 1.110142029275346e+05, -6.017044470609958e+04, 3.316608143739501e+05, 1.596824696901308e+06
2569, 7.038557778711488e-01, 1.740184755979616e+00, -2.098254147940628e-02, 5.721816318751682e-05, 6.022149804779985e-04, 3.488305526804703e-02, -2.673809534971477e+04, 6.089589869030719e+04, 6.664156152145489e+04, 2.532293726498540e+04, 1.243084093689287e+03, 1.508893391591831e+04, 1.408499503970229e+05
2570, 6.273978855080459e-01, 7.063527769790778e-02, -2.591685919764904e-02, -1.924159278982734e-06, 1.269850118473526e-04, 1.140448817583406e-04, 3.995932471183531e+06, 8.771374697518963e+06, -3.165139633180344e+05, 1.958481814331639e+06, -3.040243135255364e+04, 2.366660629104244e+05, 6.095664869675988e+06
2571, 6.804415560691385e-01, 1.106383552467146e+00, -2.251805432208398e-02, 3.660785520704637e-05, 7.985867738512543e-04, 1.791418403304906e-02, 1.158189403957207e+05, 1.107160646653107e+06, 3.647267694648970e+05, 1.234152362289725e+05, 6.647810576272137e+04, 1.167332252700128e+05, 1.195198878755849e+06
2572, 4.555566004259420e-01, 1.025958797255079e+00, -3.561853413590799e-02, 6.797020274072751e-05, 1.105415339786168e-03, 1.566109201262324e-02, 1.362726825155743e+05, 1.994810522267369e+06, 1.224788292246529e+05, 1.961549669169983e+05, -4.871553778389709e+04, 2.158880157135951e+05, 1.881063796355478e+06
2573, 9.492246127646238e-01, 5.505324756066301e-01, -3.857528116020881e-03, -3.008196657347528e-05, 3.050174069256367e-04, 5.229806540474002e-03, 4.172033236910910e+04, 1.726104020216526e+06, 1.746860723500681e+04, -1.344655423845988e+05, 1.242493648242770e+05, 1.334952830326731e+05, 1.807110020525394e+06
2574, 4.155750888647948e-01, 1.243889725127948e+00, -3.738535782191301e-02, 8.483903713485397e-05, 1.155567205912533e-03, 2.108465597397240e-02, 1.656826666572262e+05, 1.052110093991675e+06, 2.525657241267783e+05, 1.563190154596384e+05, 5.541821531084296e+04, 1.523276183763216e+05, 1.031665856696067e+06
2575, 6.667039070532134e-01, 1.430799502360228e+00, -2.340965710686316e-02, 5.464806205776607e-05, 7.667912206540950e-04, 2.641987899995956e-02, 2.000125514059587e+04, 4.525807324865417e+05, 1.827413052366781e+05, 8.273332799210490e+04, 1.894882745562541e+04, 5.230928349974113e+04, 5.228697939483762e+05
2576, 4.537606447355407e-01, 9.234324743972691e-01, -3.570331837062027e-02, 6.188353561263626e-05, 1.082059813070461e-03, 1.321778636724856e-02, 5.375936721290385e+05, 2.934213124975284e+06, 2.371805617446551e+05, 2.237273069299389e+05, 1.866210087070727e+05, 3.572550609304330e+05, 2.692703980826137e+06
2577, 9.690422966737305e-01, 1.563541256697411e+00, -2.370696154696748e-03, 1.912731842979021e-05, 1.485804509208377e-04, 3.052166139096234e-02, -1.948999035019190e+04, 1.300199083826525e+05, 5.494566360179500e+03, 2.070337689963662e+04, 5.102365915964239e+03, 2.963904498307310e+04, 1.440954630706234e+05
2578, 4.949951240084719e-01, 1.058599160292729e+00, -3.364667593823691e-02, 6.036428859925932e-05, 1.062715896579358e-03, 1.651213993384468e-02, 9.156693812170661e+04, 1.745006219447213e+06, 1.198784050612729e+05, 1.220493129745972e+05, 1.328808147908568e+05, 2.749285529253692e+05, 1.734137085900790e+06
2579, 9.838018304779368e-01, 2.776531937252256e-01, -1.248172703688153e-03, -4.069717902726103e-05, 1.603775321657556e-04, 1.217757146557044e-03, 1.395263217253053e+05, 2.572500776815480e+06, 1.142049339786932e+04, -4.753706579399428e+05, 8.381396342643643e+04, 3.163104267068046e+05, 2.848703937108039e+06
2580, 9.476110535264459e-01, 1.769488254762528e+00, -3.977637369598882e-03, 2.305469627847390e-05, 1.195633040477345e-04, 3.615726821410292e-02, -1.373481625778041e+04, 3.074162301392158e+04, 8.562848875939031e+03, 6.755805091116326e+03, 7.201475389968441e+03, 3.081965998874904e+04, 6.864236701155768e+04
2581, 8.144353384914211e-01, 1.936397873165291e+00, -1.350407568861113e-02, 4.178530935874947e-05, 3.222594839862800e-04, 4.046332740513080e-02, 1.631495929771876e+04, -1.912486003573310e+03, 9.353102492738144e+03, -4.844513520680484e+03, 3.291772564895781e+03, 8.067259115704130e+02, 2.629032554815202e+04
2582, 4.161409450256083e-01, 1.291630717712321e+00, -3.736224085051916e-02, 8.842821217100796e-05, 1.152228185474721e-03, 2.232472095482478e-02, 6.610002937385534e+04, 9.702063219903904e+05, 1.959386807604594e+05, 1.457247339848638e+05, -7.260733584012877e+04, 2.047702844738328e+05, 1.004262450341043e+06
2583, 7.575297248738491e-01, 1.965147793255554e-01, -1.739648036563161e-02, -1.341208304833121e-05, 2.430420818190365e-04, 7.691456195687701e-04, 1.553814117698403e+06, 4.290322299927072e+06, -1.949040700483424e+05, 1.608859242880704e+06, 1.010713327893751e+05, -8.674784395844785e+04, 2.740083969434446e+06
2584, 9.493975153730492e-01, 4.084013275015410e-01, -3.844649893405430e-03, -3.721758030145184e-05, 2.509442650061172e-04, 2.913644413142236e-03, 2.613226214007399e+05, 2.363081489013114e+06, 2.263502968921707e+04, -1.513195570826397e+05, 1.336243986460880e+05, 1.171768210385646e+05, 2.356105464202076e+06
2585, 7.438024306601033e-01, 6.176702588208284e-02, -1.832174051382761e-02, -6.380157393653940e-06, 8.929227541637497e-05, 9.629618526046241e-05, 1.647056677064504e+06, 5.076902973404074e+06, 6.166876856187616e+04, 1.151021899474175e+06, 2.893547762054553e+05, -1.480015869090385e+05, 3.746934779474616e+06
2586, 7.436987930826046e-01, 1.866789303566948e+00, -1.832870541422731e-02, 5.233671021720454e-05, 4.821936502708152e-04, 3.841758164984756e-02, -1.086496512174444e+04, 5.578178146696291e+01, -2.157613537552102e+03, -8.838573537840708e+03, -1.008206337293862e+04, 1.265314892372429e+04, 3.000759392751572e+04
2587, 5.023986135254946e-01, 9.704897060507642e-01, -3.325507056226305e-02, 5.249121751806085e-05, 1.039968299188109e-03, 1.438528336456588e-02, 5.286785695471357e+05, 2.460136123737058e+06, 4.586593789716110e+05, 5.091052703512001e+05, 8.812014915330926e+04, 5.202581133467076e+05, 2.288039044159134e+06
2588, 5.804331593163481e-01, 1.338152505489631e+00, -2.880823719787202e-02, 6.376874662665944e-05, 9.292775247882017e-04, 2.381314525294273e-02, 5.803990368687720e+04, 5.174048296600089e+05, 1.407244667314574e+05, 1.072609100235486e+05, 7.025148979150580e+03, 1.194299328710056e+05, 5.414583549163713e+05
2589, 3.723503847475355e-01, 1.964543081706912e+00, -3.902384013818413e-02, 9.641677876117555e-05, 1.015279469659347e-03, 4.031168732227458e-02, -3.332238008837425e+03, 2.688556893392034e+04, 3.356436438753475e+04, 1.449797970864075e+04, 5.951151383686249e+03, 1.127769470196442e+04, 6.752592032333060e+04
2590, 9.580460664457933e-01, 5.630900044602931e-02, -3.198442020563843e-03, -2.074496963236361e-05, 3.636461159819363e-05, -1.784365849349934e-05, 5.603151257040133e+05, 3.851014568690090e+06, 1.619008012108420e+05, 1.227602467393300e+05, 1.259501059555839e+05, -7.848408427135531e+05, 3.799232821728929e+06
2591, 8.256440682673714e-01, 9.995756447554163e-01, -1.272636904817463e-02, 7.845336218822996e-06, 5.582751701521151e-04, 1.531397242842494e-02, 9.449026580933417e+04, 1.154934476066421e+06, 4.710918602694874e+02, 1.301865734292025e+05, 1.413237876386831e+05, 3.355961715301259e+05, 1.218915289255046e+06
2592, 6.654804223049597e-01, 1.720387218194973e+00, -2.348870520835058e-02, 6.279177216937312e-05, 6.777495619790606e-04, 3.426958985260964e-02, -2.804594744865832e+04, 4.594659958126597e+04, 8.337463932784562e+04, 1.369318886778082e+04, 1.034444543913400e+04, 2.195457410168344e+04, 1.635533294829821e+05
2593, 8.282428641030766e-01, 1.342323884581437e+00, -1.254552428252378e-02, 3.143391157019865e-05, 4.997786087749152e-04, 2.426819845089723e-02, -1.710597096388502e+04, 2.721272939557803e+05, -3.894332477947854e+04, 5.037345665562923e+04, 3.908065024301835e+04, 1.350118665985820e+05, 3.640169105891034e+05
2594, 6.944948545494019e-01, 1.898208804080556e+00, -2.159870233258527e-02, 5.880850090577219e-05, 5.606916585923633e-04, 3.917516442188843e-02, 9.170306660354932e+03, 4.830675337488425e+02, 6.160018653429891e+04, 1.733836814847804e+04, 4.744349775481884e+03, 2.021211564659998e+04, 1.135341693929935e+05
2595, 6.367385035141905e-01, 1.325132151565008e+00, -2.532743826156247e-02, 5.477636892065388e-05, 8.419427979015279e-04, 2.355287958124669e-02, 6.047102798277166e+04, 6.291506530259213e+05, 1.377635718549473e+05, 1.431227368847238e+05, -2.274408373397798e+04, 8.103239437911607e+04, 6.011759394203371e+05
2596, 8.600132464262864e-01, 2.858453075692053e-01, -1.031768293278507e-02, -3.736297665354882e-05, 2.610672714165735e-04, 1.494111952323393e-03, 7.463683234600740e+05, 2.872872593166456e+06, -2.184193225995906e+05, 7.271220356148126e+05, 1.375801431641730e+05, 3.300991013853774e+05, 2.256129491184927e+06
2597, 8.014047965267728e-01, 1.330891243089289e+00, -1.440338620460853e-02, 3.442520298542126e-05, 5.549234191030913e-04, 2.392593808197063e-02, -1.008946514413370e+05, 1.308275500992240e+05, 4.146096430120331e+04, -6.357332379938557e+04, 1.435990728961460e+04, 9.434507723787606e+04, 2.809243960030368e+05
2598, 9.448904172749627e-01, 1.848428329991435e+00, -4.179835525511726e-03, 2.304658006335725e-05, 9.542585434843542e-05, 3.832159350975595e-02, -2.704386730753065e+04, -1.709538796029383e+04, 9.176605313751124e+03, -2.076074227586429e+04, 1.513522470674061e+04, 1.312384638671746e+04, 3.914720590083629e+04
2599, 8.916466312306710e-01, 3.444531703037651e-01, -8.064976736034098e-03, -3.760958494070446e-05, 2.839070470845306e-04, 2.135599265924049e-03, 2.900067086378512e+05, 1.996796628154204e+06, 1.452145339478742e+04, 2.104525443930840e+05, -1.509119852213621e+05, 1.932475669781920e+05, 1.798953225102104e+06
2600, 6.253017034421047e-01, 1.933792197751977e+00, -2.604855439785141e-02, 6.840017192665145e-05, 6.700855536218714e-04, 4.000309783748279e-02, 9.455256022327967e+01, -6.179401972174277e+03, 3.644017567747480e+04, 2.655133222863027e+03, 5.199954375429061e+03, 1.099233925319389e+04, 6.700191339779519e+04
2601, 3.684156926954009e-01, 3.201978090121883e-02, -3.916442821065036e-02, 2.458461945062385e-07, 8.792627376020407e-05, 5.276263410117655e-05, 6.005070901941933e+06, 1.204236411603611e+07, 1.433681405116114e+05, 4.921170498648070e+06, 1.666063732712677e+05, 6.057716768087553e+05, 6.738945635781931e+06
2602, 9.497935872659744e-01, 7.909377673312684e-02, -3.815143989156484e-03, -2.609263778567683e-05, 5.253609596472808e-05, 1.702414621593262e-05, 2.675876767151872e+05, 2.957904244835797e+06, 3.048544454221268e+04, 3.198887393823114e+05, 1.349616737536415e+05, -4.366234427811628e+05, 2.780141068710161e+06
2603, 9.025533811674566e-01, 1.946672322721753e+00, -7.279396921583406e-03, 2.891973234042319e-05, 1.450278460683463e-04, 4.092719080149448e-02, 2.471948837125659e+03, 7.604154453790035e+03, 9.454755034016996e+03, -3.135875613220115e+04, 5.827118642838533e+03, 8.708041159891856e+03, 4.406830292957422e+04
2604, 9.776751885498496e-01, 8.168656406703990e-01, -1.715784529778736e-03, -1.060600609002760e-05, 2.968871326802930e-04, 1.087327207889935e-02, -8.323611686287455e+03, 1.185409332595362e+06, -4.476193243609270e+04, -9.903934817181400e+04, 6.336276202842584e+04, 1.536348095461867e+05, 1.276865077074208e+06
2605, 6.326196608914451e-01, 1.698570314582772e+00, -2.558788714086656e-02, 6.646616129641486e-05, 7.426619553799994e-04, 3.361266766542814e-02, 3.093295337807667e+02, 9.117980937175575e+04, 8.640819746938428e+04, 2.530207456771509e+04, 1.880296876213613e+04, 3.591268444249659e+04, 1.842279187874254e+05
2606, 4.114951616650785e-01, 1.915325825651067e+00, -3.755018658139925e-02, 9.378643168173268e-05, 9.926202523512437e-04, 3.905758477926484e-02, -2.338372034709324e+04, 2.828655396389146e+04, 3.805641122923958e+04, 2.881837824224767e+03, -1.892098699324862e+02, 1.624092889458680e+04, 8.449159851682805e+04
2607, 6.606937649632021e-01, 5.736166142359592e-02, -2.379734131878306e-02, -2.453065756875122e-06, 7.790756304785346e-05, 7.175131460255418e-05, 3.135162548923850e+06, 6.327576408276848e+06, -2.857703566385622e+05, 2.174997934611833e+06, 4.630866562782510e+05, 2.080765960045036e+04, 3.881791580948043e+06
2608, 5.380576314526206e-01, 1.610960393438267e+00, -3.128937267253722e-02, 7.793761528744831e-05, 9.259694649601385e-04, 3.105669913116994e-02, 5.216594597074179e+04, 2.923662296256184e+05, 1.425556502637825e+05, 5.136728979442297e+04, 1.156423637416857e+04, 2.027645610876242e+04, 3.471161052613374e+05
2609, 9.630534787356212e-01, 9.517109443221132e-01, -2.822380606273385e-03, -2.712713278535395e-06, 3.160587258360797e-04, 1.414219977913043e-02, 4.205735212966320e+04, 9.668319968102011e+05, 4.856366392181167e+04, -6.035631412299782e+04, 5.805965395154072e+03, 4.169368527906267e+04, 9.863051102666213e+05
2610, 8.253597405865796e-01, 1.088830019885536e+00, -1.274614266371740e-02, 1.513485683934251e-05, 5.536991141727940e-04, 1.757605446141039e-02, 1.078874920041646e+05, 7.516974362957885e+05, 6.963433735672527e+04, 2.080060014081588e+05, 3.520601787116560e+04, 1.129143276854676e+05, 6.454237510523333e+05
2611, 8.303878244192966e-01, 1.370922665582399e+00, -1.239610107506393e-02, 3.182030674784078e-05, 4.886653038096893e-04, 2.504333544813392e-02, 7.338297695405968e+04, 2.990427979359682e+05, -8.090725336553418e+03, 1.102012308823461e+05, -5.264732913691220e+03, 1.122279095316240e+05, 2.864164464874155e+05
2612, 5.633910358039473e-01, 6.712140297831069e-02, -2.982268783389927e-02, -1.113402680880202e-05, 1.247764115441356e-04, 1.320278069116970e-04, 4.386536393333471e+06, 1.155877910404628e+07, -8.808199248156095e+05, 1.053902107631025e+06, 2.173039411954882e+05, 3.764529282559286e+05, 9.452212619102713e+06
2613, 1.090306015770284e-01, 1.965184716841076e+00, -3.844465346118359e-02, 9.780160181090125e-05, 1.004632240782698e-03, 3.976353729447213e-02, -2.016442169708684e+04, 2.303472561833612e+04, 3.500280209806738e+03, 1.304260740489619e+04, 8.563635869253849e+03, 8.540165483398987e+03, 4.483218163855051e+04
2614, 1.667833027204925e-02, 1.746996936134189e+00, -1.891439089461999e-02, 6.268374522218345e-05, 5.545942070657034e-04, 3.364344591650575e-02, -3.455188471120486e+03, 8.638698896305864e+04, -2.892589151585717e+03, 8.427708114915094e+03, 5.600276421848253e+03, 3.028762789614966e+04, 1.000821986599222e+05
2615, 1.773649815524338e-02, 1.834386985538830e+00, -1.945698442524668e-02, 6.164803811615767e-05, 5.388669655289891e-04, 3.601221088944842e-02, -2.390317007489338e+04, 3.535284657666202e+04, 1.831201054414657e+03, -3.945192228454410e+03, 3.366491800922600e+03, 2.859055479726526e+04, 7.227229957194379e+04
2616, 1.759140874806836e-02, 1.646715320149756e-01, -1.938389910656923e-02, 7.053525215510977e-05, 1.919923586124056e-04, 3.201416678900726e-04, 1.231552856223660e+06, 4.070903638581792e+06, 2.658030567577531e+05, 1.335709380806912e+06, -4.159755010097107e+05, -2.938420853920365e+05, 2.960931390295391e+06
2617, 1.731193353289540e-02, 2.540423120908195e-01, -1.924196695003472e-02, 8.837213450296755e-05, 2.914091974975039e-04, 9.321937063971747e-04, 1.377933643898506e+06, 5.653242891241552e+06, 4.475127101656770e+05, 2.291025132311939e+05, -7.943245705522057e+05, 1.559778685920333e+05, 5.203492598023437e+06
2618, 1.728140567006091e-02, 3.731343283574025e-01, -1.922637011137787e-02, 1.003511717196717e-04, 4.061137276574756e-04, 2.145493259902098e-03, 9.821066687129524e+04, 3.674330648272342e+06, -1.194502791857357e+05, 5.592361432513667e+05, -2.294665799635222e+03, 2.025017519641619e+05, 3.393867701596704e+06
2619, 1.728140567004319e-02, 4.626865671631112e-01, -1.922637011136882e-02, 1.045973157770431e-04, 4.956631915761997e-04, 3.367575077875933e-03, 1.819356585222028e+05, 2.060889420974917e+06, 6.457256224523518e+04, 1.156778276108891e+05, -3.237325239347949e+04, 1.694362280569328e+05, 1.939363704467492e+06
2620, 1.650048972771069e-02, 1.631395693946348e+00, -1.882095236950160e-02, 6.570862904735700e-05, 5.894075423900358e-04, 3.052153710062097e-02, -5.464367881974412e+03, 1.249873372479003e+05, -7.122130557780300e+03, 5.196496285106103e+03, 3.117527552558733e+03, 6.054924342579478e+04, 1.640747917591384e+05
2621, 1.652970221477087e-02, 1.537802019473582e+00, -1.883634681195973e-02, 6.923300066985494e-05, 6.181811212637167e-04, 2.800690899656461e-02, 1.423994150313980e+04, 3.136756655749275e+05, 1.902922600853370e+04, -3.346127343337695e+04, -2.848714253957369e+04, 2.647051352736512e+04, 3.344301975708895e+05
2622, 1.728140567006091e-02, 5.223880597002506e-01, -1.922637011137789e-02, 1.072244390694296e-04, 5.288083660898724e-04, 4.290202312714625e-03, 2.819444653914578e+05, 2.981451018092494e+06, -1.144482822697348e+05, 4.009760118916358e+05, -5.615952741651546e+04, 3.226562424925629e+05, 2.709475180794864e+06
2623, 1.728140567006514e-02, 6.119402985059597e-01, -1.922637011138004e-02, 1.067217646273464e-04, 5.945747415592659e-04, 5.842988031029284e-03, 4.960587134863288e+05, 3.033079308477017e+06, -4.902360081585446e+04, 3.110582707666982e+05, -2.415341919700862e+05, 2.568264033058574e+05, 2.705578355687248e+06
2624, 1.728140567019762e-02, 1.477611940297132e+00, -1.922637011144777e-02, 7.130360130085892e-05, 6.448459521565895e-04, 2.640048462455634e-02, -2.154662729790389e+04, 2.117291435122779e+05, -3.355418927023853e+03, 4.286602520803954e+04, -3.521710836774372e+03, 6.904399022688752e+04, 2.406509204142303e+05
2625, 1.728140567020464e-02, 1.388059701490926e+00, -1.922637011145135e-02, 7.502066204041150e-05, 6.671719779314036e-04, 2.402259032978310e-02, 3.992147199455634e+04, 5.874982437210723e+05, 5.207162978102384e+03, -5.868272395260807e+03, -1.871421523924777e+04, 4.376235629558278e+04, 5.778303061603857e+05
2626, 1.728140567006087e-02, 6.716417910430990e-01, -1.922637011137785e-02, 1.018420718992136e-04, 6.256027028612166e-04, 6.969444140241057e-03, 3.115682310745942e+03, 1.770024952876295e+06, 1.534685591378580e+05, 3.107677037485929e+05, -7.489857475854876e+04, -7.119725964982841e+04, 1.666048997688118e+06
2627, 1.747766235139150e-02, 7.662175628448781e-01, -1.932631730333741e-02, 9.645646055141816e-05, 6.606774590663493e-04, 8.891325528459879e-03, 1.027153262701567e+05, 1.398938620804761e+06, 8.196647115769635e+04, 1.491448294864956e+04, -1.273170107474303e+05, 2.454590031905876e+04, 1.368322034574380e+06
2628, 1.728140567019765e-02, 1.328358208953455e+00, -1.922637011144777e-02, 7.774074659952501e-05, 6.767983808774747e-04, 2.245214886169444e-02, 3.732902373261342e+03, 4.708052180577639e+05, -3.764826166743569e+01, 7.081771879657166e+04, -4.414023730555826e+04, 1.018817744788150e+05, 4.778161089085756e+05
2629, 1.769009745715197e-02, 1.239211794593789e+00, -1.943365520800805e-02, 8.113580893555523e-05, 6.979468411155570e-04, 2.014114335331055e-02, 4.533643616165662e+04, 7.578221821685402e+05, -4.203477401654424e+04, 4.926544806012498e+04, -2.196068822422016e+04, 1.062602932739789e+04, 7.154986583379761e+05
2630, 1.752233034062858e-02, 8.198070615669544e-01, -1.934895959471835e-02, 9.621828370427743e-05, 6.744168158043864e-04, 1.003841790006127e-02, 1.897028975431982e+05, 1.634754444807020e+06, 4.107387430512474e+04, 1.335427938138989e+05, -8.629254006794203e+04, 1.332771978866700e+05, 1.501056630372076e+06
2631, 1.728140567004303e-02, 9.104477611916562e-01, -1.922637011136875e-02, 9.172397897394546e-05, 6.929321107944225e-04, 1.206863556077753e-02, 2.100248028297998e+05, 1.299663285217824e+06, -7.158363134776519e+04, 2.112657997490143e+05, 2.669260036958271e+04, 4.006326817461699e+05, 1.298072068491647e+06
2632, 1.725886268688047e-02, 1.181509664109565e+00, -1.921484089296765e-02, 8.355890381213371e-05, 7.003275174854709e-04, 1.866190293548656e-02, 1.076345539269236e+05, 8.717939267680115e+05, -7.174841374525349e+04, 1.171491532155637e+05, -4.919803422055238e+04, 1.615222736545273e+05, 8.232451539324303e+05
2633, 1.941932298762494e-02, 1.091890230547840e+00, -2.027629952204162e-02, 8.957644749701260e-05, 7.304334223144637e-04, 1.641141669068008e-02, 1.371743687808991e+05, 1.263005365381558e+06, 1.077413675266128e+04, 2.783997039040536e+04, -7.837043437597984e+03, 1.647436859505018e+05, 1.218398723029716e+06
2634, 1.867089826609966e-02, 9.692213366299822e-01, -1.991819423546865e-02, 9.413778444936072e-05, 7.096929873361482e-04, 1.344108916769080e-02, 3.008735969244454e+04, 6.582240065221372e+05, 1.098058893749987e+05, 2.025676909665393e+05, -8.773968880651506e+04, 2.573921543202577e+05, 7.576165370113384e+05
2635, 2.937937128614793e-01, 1.026399398159199e+00, -4.142615989970221e-02, 1.019289312649621e-04, 1.236448730567950e-03, 1.541891113987141e-02, 2.107147166275743e+05, 1.755859889484449e+06, 2.119577986039775e+05, 9.581711754792577e+04, -9.938720330863033e+04, 1.760112357050540e+05, 1.683912163107940e+06
2636, 2.947099832796782e-01, 3.241289359443984e-01, -4.140455684921061e-02, 4.800179975256516e-05, 6.395757749097439e-04, 2.069627392555957e-03, 1.399758875149991e+06, 6.104065388524372e+06, 1.742051777074392e+05, 8.253775197827389e+05, -1.339019786885749e+05, 5.253805772384587e+05, 5.112277913876920e+06
2637, 2.942826345212328e-01, 1.675343551895440e+00, -4.141465832367738e-02, 1.057800592831060e-04, 1.178578321862342e-03, 3.231159396108972e-02, -2.860607608964037e+04, 2.505426185470690e+05, 6.544564205032142e+04, 4.424479783928753e+04, 2.888398050271880e+04, 4.716092435968608e+04, 2.914098912661416e+05
2638, 2.948083976965218e-01, 5.742780273236322e-01, -4.140222419879983e-02, 7.726795989035015e-05, 9.492376729737344e-04, 5.760348807471186e-03, 4.771972789963860e+05, 3.951815326999202e+06, 2.214254887023921e+05, 4.671005520712149e+05, -1.544167193335312e+05, 2.570837035952923e+05, 3.539075048050655e+06
2639, 2.935458547081953e-01, 1.425059162584106e+00, -4.143197002952608e-02, 1.059684648591526e-04, 1.238628718174477e-03, 2.560338921707300e-02, 4.230248562391549e+04, 7.335840639916933e+05, 1.138021867217774e+05, 1.429967662690640e+05, 4.189376321370643e+03, 1.941523628572713e+05, 7.552432344796937e+05
2640, 2.926931790761784e-01, 7.219471952488163e-01, -4.145185844603279e-02, 7.876241717669555e-05, 1.090072986947466e-03, 8.576103480565686e-03, 3.867304039205741e+05, 3.536051796769202e+06, 1.637089607732302e+05, 5.086902244291538e+05, 9.301485205324258e+04, 2.704418484859901e+05, 3.142416633951365e+06
2641, 2.926931320130288e-01, 1.271946989241603e+00, -4.145185953947872e-02, 1.091474557529740e-04, 1.257492872142161e-03, 2.158670371162999e-02, 1.184545219489903e+05, 1.100942211509744e+06, 1.757535917775973e+05, 1.959306786464781e+05, -4.368761134254983e+04, 6.971902222481459e+04, 1.004062382627625e+06
2642, 2.924963466549521e-01, 8.743537020606555e-01, -4.145642739777435e-02, 9.229230904936325e-05, 1.185300622101655e-03, 1.185525177574271e-02, 4.678810798753188e+05, 3.150992609019478e+06, 1.804489920173587e+05, 6.023972288331126e+05, 1.725890447786527e+05, 1.659756079710173e+05, 2.669447583424167e+06
2643, 2.943452933164886e-01, 1.825862443445452e+00, -4.141318004847935e-02, 1.043499069742354e-04, 1.130179361992844e-03, 3.638474284300541e-02, -3.855671270816201e+04, 9.323806641812652e+04, 4.268764210387877e+04, 2.082458475917020e+04, 5.430707991568188e+03, 3.178366059953782e+04, 1.471585630748918e+05
2644, 2.966670647980061e-01, 1.747595549999946e-01, -4.135772873929296e-02, 2.476175572846406e-05, 3.813171407422260e-04, 6.867866276833029e-04, 1.947607151982487e+06, 8.196863779464274e+06, 3.541842525201082e+05, 6.638280848324354e+05, -1.501504833879861e+05, 6.108115675699143e+05, 7.091347488552778e+06
2645, 1.441187986421095e-01, 3.335536912286512e-02, -4.075376922840058e-02, 2.152469622331184e-05, 6.505244520445784e-05, 3.593998633980716e-05, 4.630104845549755e+06, 1.040014791945673e+07, 1.162389191602072e+06, 3.092842376779453e+06, -1.305212585403931e+05, 2.289116336011729e+05, 6.984869256928407e+06
2646, 1.820263252159190e-01, 1.967254891499309e+00, -4.200948816498401e-02, 1.046922604667558e-04, 1.098837285604504e-03, 3.997877238723491e-02, -1.375928687168758e+04, 2.617776224231434e+04, 1.280776766943540e+04, 9.835702803894867e+03, 7.146890829798192e+03, 1.071154765578733e+04, 4.689285458761721e+04
2647, 2.948083987043357e-01, 1.124278026374510e+00, -4.140222417490013e-02, 1.004309501447271e-04, 1.248957380453091e-03, 1.783305536256562e-02, 1.362429156122947e+05, 1.741399788821829e+06, 1.347385734204178e+05, 2.986632275733580e+05, 8.446759623724953e+04, 2.105680943778230e+05, 1.597211133917595e+06
2648, 2.948385704948325e-01, 1.575239563510664e+00, -4.140150855716732e-02, 1.069691966232994e-04, 1.206455266259655e-03, 2.961671907511929e-02, -2.080870550558106e+04, 3.674388146876300e+05, 7.061980952892386e+04, 3.647513683851653e+04, -1.214548838437667e+04, 5.700131791822994e+04, 3.961423073642620e+05
2649, 2.943132262127773e-01, 4.727708610218143e-01, -4.141393671198319e-02, 6.765029371116199e-05, 8.564988082465641e-04, 4.091455501094750e-03, 8.272577050539192e+05, 4.825497476213734e+06, 2.240747649549722e+05, 6.215891015507726e+05, 7.188904282153539e+04, 2.914340120382197e+05, 4.155895473514288e+06
2650, 1.658037620992905e-02, 1.047220113919427e-01, -1.886300803721921e-02, 5.992615860374653e-05, 1.144006156788193e-04, 8.248236346371229e-05, 6.236830341543988e+05, 3.625479405478774e+06, 2.034916528292700e+05, 6.587567679060644e+05, -4.418615947017584e+05, -7.875602779565218e+05, 3.387835969194272e+06
2651, 1.785899756629894e-02, 1.030405398111014e+00, -1.951837693764230e-02, 9.032039755928808e-05, 7.085100065350181e-04, 1.490262577601492e-02, 2.359579736151366e+05, 1.419019009463744e+06, 5.196131243081029e+04, 2.193279107642491e+05, -8.665535086478545e+04, 1.382759068858667e+05, 1.227832405363462e+06
2652, 1.646159511503539e-02, 3.134488409950391e-01, -1.880042736073922e-02, 9.359321639146323e-05, 3.516997348921736e-04, 1.477178257611456e-03, 3.564123116879556e+05, 3.467132830487628e+06, 4.162709192652204e+05, 4.801866102540435e+05, 3.376906019641317e+04, 4.039034054319654e+05, 3.212406315915417e+06
2653, 1.728140567020461e-02, 1.686567164178280e+00, -1.922637011145133e-02, 6.528521399364225e-05, 5.831062764929673e-04, 3.201166609310288e-02, -1.602922689503431e+04, 1.312040671307716e+05, -7.924283091667302e+03, 7.074689086841112e+03, -7.724402560141545e+03, 2.721845267099007e+04, 1.462863035905029e+05
2654, 2.248619618019883e-01, 3.151258649719632e-02, -4.237143056946142e-02, 1.097202940292252e-05, 7.332318766201627e-05, 4.858678965076121e-05, 4.941260555690099e+06, 1.195509959613817e+07, 2.851513555988674e+05, 3.903208286286536e+06, -2.570606465501527e+05, 8.299518852868514e+05, 7.749893995596549e+06
2655, 1.798617629172831e-02, 1.895273043003393e+00, -1.958181411271966e-02, 6.005080713079522e-05, 5.207621041277838e-04, 3.766310904059425e-02, -2.399856179793337e+04, 2.330328363603690e+04, 3.740588657237003e+03, 2.252865500420595e+03, 3.855738158003791e+03, 1.971139231088309e+04, 5.419459550001239e+04
2656, 2.948526994817568e-01, 1.874609041163875e+00, -4.140117336760939e-02, 1.038912568684172e-04, 1.113382575449344e-03, 3.770765439346280e-02, -2.793382248420562e+04, 5.691320316072057e+04, 4.709150429331324e+04, 2.237988144384538e+04, 1.032661218047389e+04, 1.583461315537984e+04, 1.148323536500777e+05
2657, 2.524212579037856e-01, 1.849993717962530e+00, -4.217596567408079e-02, 1.066101676626546e-04, 1.143494391132786e-03, 3.695003014848791e-02, -1.011481094263509e+04, 9.942763300625005e+04, 3.836230213741344e+04, 3.726777914097556e+04, 6.965373296729804e+03, 2.580742703416444e+04, 1.249514704701203e+05
2658, 1.867499128025030e-02, 1.926074048841141e+00, -1.992017932128998e-02, 5.987239094862318e-05, 5.189293301382202e-04, 3.850003271080793e-02, -2.734019438263142e+04, 1.293073750051973e+04, -8.435563455577075e+02, -4.399213244747840e+03, 3.417113934407682e+03, 1.282205080702770e+04, 4.188748747669554e+04
2659, 6.932915619183513e-02, 2.982076762410864e-02, -3.371186430700129e-02, 2.464626613438506e-05, 3.793210224863064e-05, 8.217367577208722e-06, 2.930738541193960e+06, 8.217595357254349e+06, 1.114748011058693e+06, 2.969601750970173e+06, -2.001730671805094e+05, -4.300663090230777e+05, 5.670094299261737e+06
2660, 2.522640134487986e-01, 1.802696278557724e+00, -4.217784660204418e-02, 1.079910858569344e-04, 1.159342899592866e-03, 3.566805022413788e-02, -2.788580314714439e+04, 1.154690632868804e+05, 3.631745068810183e+04, 2.391091013948664e+04, -1.045203364660012e+03, 2.420688172151764e+04, 1.467183516619354e+05
2661, 2.120611385782268e-01, 1.825496184787811e+00, -4.235819326251574e-02, 1.082941780482516e-04, 1.157088638013393e-03, 3.620013859336801e-02, -2.359453732393138e+04, 8.202525964134147e+04, 2.041475734680624e+04, 1.324072207162611e+04, 6.388068071142674e+03, 3.121940881790345e+04, 1.136596185179736e+05
2662, 2.115952564602540e-01, 1.781165183220767e+00, -4.235630330112086e-02, 1.091414983427435e-04, 1.172383879360861e-03, 3.499847816854346e-02, -1.365576602347974e+04, 1.191742755348029e+05, 3.656306523055322e+04, 1.882745678448345e+04, 9.043339840851793e+03, 2.442541006539115e+04, 1.429333867331849e+05
2663, 1.735073680870107e-01, 1.803581315936646e+00, -4.181619642914371e-02, 1.084000756896835e-04, 1.151081028578482e-03, 3.552366288145439e-02, -1.230988611665347e+04, 1.170544938993988e+05, 2.648445920686950e+04, 2.990946571015865e+04, 9.131831033122700e+03, 2.113089993701146e+04, 1.294215274241348e+05
2664, 1.728247835521448e-01, 1.759841809009252e+00, -4.179868549679177e-02, 1.092323812396205e-04, 1.164711572142964e-03, 3.433814267641472e-02, -7.813607627438189e+03, 1.730943326357007e+05, 1.915141544653165e+04, 3.997801704186172e+04, -2.028938835224889e+03, 3.143044166161176e+04, 1.744767484978178e+05
2665, 1.730705207083437e-01, 1.841484045185972e+00, -4.180502456968068e-02, 1.072347536451700e-04, 1.137691484791136e-03, 3.654938976352298e-02, -1.192134086427046e+04, 8.412092610324574e+04, 2.049039884159213e+04, 2.325424819811120e+04, 1.176243868106518e+04, 2.251597479108463e+04, 1.013836149596896e+05
2666, 1.375022579719727e-01, 1.779601177328272e+00, -4.041642616780133e-02, 1.065653267209934e-04, 1.121803934334219e-03, 3.479644666332216e-02, -8.407880010725688e+03, 1.435561772694543e+05, 2.237014326427050e+04, 2.869191333141896e+04, 5.830062747395349e+03, 2.469660920074128e+04, 1.492134062090442e+05
2667, 1.346270299845245e-01, 1.738527000748439e+00, -4.025708156001272e-02, 1.077244070483152e-04, 1.131127631666482e-03, 3.367904395731931e-02, -6.369797415053247e+02, 1.881045555508390e+05, 1.522421973813529e+04, 2.896866322816634e+04, -2.093915834124713e+02, 2.737789986643048e+04, 1.840004268213682e+05
2668, 1.715719670090291e-01, 1.716405646144997e+00, -4.176575015628070e-02, 1.106085640311845e-04, 1.177380737022966e-03, 3.316135097038009e-02, 9.102554659683807e+03, 2.549133691609510e+05, 2.374068340733477e+04, 5.569068796136777e+04, -1.134603722357050e+04, 4.299987525175875e+04, 2.424161078400311e+05
2669, 1.340464611919287e-01, 1.695626570336970e+00, -4.022392486777007e-02, 1.083056477320724e-04, 1.143590722073238e-03, 3.251854154830237e-02, -2.632735750848349e+03, 2.485288918541221e+05, 2.740096532716216e+04, 3.834001749063714e+04, 3.585520306042976e+03, 2.811128607276900e+04, 2.431704876870311e+05
2670, 1.702613648054194e-01, 1.673563055137038e+00, -4.173017484523617e-02, 1.106718250428289e-04, 1.189712853996359e-03, 3.200145169743382e-02, -2.575826786426256e+03, 2.829515469751559e+05, 3.134529576976991e+04, 4.823864434754563e+04, 1.304795841445673e+04, 5.224594583960957e+04, 2.850373941764664e+05
2671, 1.332687417834500e-01, 1.652606260630645e+00, -4.017898043596101e-02, 1.091047329412655e-04, 1.155049573449161e-03, 3.135621938036390e-02, -2.551611741879441e+04, 3.392798498349235e+05, 2.497344787515497e+04, 3.760821919614556e+04, 1.449219071870482e+04, 3.620078562613204e+04, 3.470819166660865e+05
2672, 1.692685619782941e-01, 1.630897020264634e+00, -4.170244913173714e-02, 1.110958382233634e-04, 1.200414785297107e-03, 3.084957895356390e-02, -9.064299056184818e+02, 3.748328551013645e+05, 2.321907906425177e+04, 6.496508434575675e+04, 3.326600537390238e+04, 4.877863576003003e+04, 3.644775372754862e+05
2673, 1.318813356972989e-01, 1.610333671646464e+00, -4.009727794508200e-02, 1.096130582819918e-04, 1.164215943791971e-03, 3.021496157113756e-02, -6.573799082283565e+03, 3.977479694704588e+05, 1.097242529179934e+04, 3.664073932936875e+04, 3.319353528237453e+04, 5.632355990734706e+04, 4.013161536293406e+05
2674, 1.676969702965412e-01, 1.588390529154570e+00, -4.165716337031922e-02, 1.119592371500219e-04, 1.211204179891658e-03, 2.970325735987392e-02, -2.517598595695094e+03, 3.487958265547180e+05, 3.997885359228278e+04, 6.078556755868471e+04, 3.444887300963368e+04, 5.304148208853899e+04, 3.492627358258115e+05
2675, 1.309007646763062e-01, 1.567993713354843e+00, -4.003833538235342e-02, 1.105228751372214e-04, 1.172920777757019e-03, 2.907555423285181e-02, 3.038483860140062e+03, 4.608514085153088e+05, 1.574305616109288e+04, 5.968520928503344e+04, 1.824500584118810e+04, 6.255882611619802e+04, 4.476057582127298e+05
2676, 1.675623617108791e-01, 1.546420774344299e+00, -4.165320391168478e-02, 1.134421359323943e-04, 1.222176065513225e-03, 2.857732318602429e-02, 2.353483850969218e+03, 4.738407659998214e+05, 1.786021808330276e+04, 1.053129104072771e+05, -1.278468712810622e+03, 5.211812066225031e+04, 4.398495216174164e+05
2677, 1.298310962596805e-01, 1.525554753696837e+00, -3.997290508897269e-02, 1.131243237419231e-04, 1.181609790367300e-03, 2.793642424230557e-02, 1.220957601277411e+04, 4.792659974256979e+05, 1.290985118046778e+04, 1.017673295131449e+05, -7.516280534933941e+03, 5.746009269564829e+04, 4.414841232535303e+05
2678, 1.662605900746539e-01, 1.503495825684087e+00, -4.161424570077035e-02, 1.150875162686249e-04, 1.229725718611695e-03, 2.742673965321152e-02, 9.322424388325046e+03, 5.127024453695735e+05, 4.341683100014718e+04, 7.788694696473013e+04, -3.485781347494326e+04, 7.755032905992720e+04, 5.009201076030880e+05
2679, 1.288216815476521e-01, 1.483046356520431e+00, -3.991008410832216e-02, 1.128711695528584e-04, 1.191652484413878e-03, 2.679979856951592e-02, -1.748173711910331e+03, 5.638263221045963e+05, 1.421644619738993e+04, 8.824467434347908e+04, -7.902066102798040e+03, 7.350798185861466e+04, 5.422909583586156e+05
2680, 1.662999719443424e-01, 1.459415202633743e+00, -4.161544215013640e-02, 1.146399441306414e-04, 1.240413823811471e-03, 2.625260078442893e-02, 5.483642103568084e+04, 6.368038756141324e+05, 4.420872742696193e+04, 6.578085085170601e+04, 2.551953745415877e+04, 6.147651688359718e+04, 5.929516491863817e+05
2681, 1.277137085077244e-01, 1.440481607967429e+00, -3.983990737067621e-02, 1.133561169606896e-04, 1.196686865562700e-03, 2.566552157461646e-02, 7.923666368645197e+04, 7.297643795357132e+05, 2.038895795671097e+04, 8.909450564498571e+04, 9.710371357199747e+03, 7.168744734462106e+04, 6.586485859693148e+05
2682, 1.648664892024395e-01, 1.415566570042837e+00, -4.157116368668114e-02, 1.159539213701766e-04, 1.246377415662664e-03, 2.508716102362302e-02, 2.188105886145300e+04, 8.685972650859755e+05, -1.157105616526669e+04, 1.117914140008497e+05, -6.863505589709102e+03, 8.586003812977427e+04, 8.194769555227463e+05
2683, 1.260209473166801e-01, 1.398220225060092e+00, -3.973017493246031e-02, 1.157337440612603e-04, 1.201309270345882e-03, 2.454362987886780e-02, 9.289672882446033e+04, 8.579811461930738e+05, 2.504438307523805e+04, 8.511060218653068e+04, 4.393293110053459e+03, 1.076223610062216e+05, 7.925018093608380e+05
2684, 1.625745788138958e-01, 1.374719624403425e+00, -4.149724039950794e-02, 1.168646934553569e-04, 1.250293203022626e-03, 2.400376063141374e-02, -6.393645885857479e+04, 1.045477354982405e+06, 5.762246642772936e+04, 9.384703979972834e+04, 3.159152571190560e+04, 1.338382374987836e+05, 1.071139855777371e+06
2685, 1.249540215910102e-01, 1.355880823568668e+00, -3.965941869419776e-02, 1.165273303013331e-04, 1.205488127605766e-03, 2.342545518881792e-02, 5.975395792914876e+04, 8.635604984690350e+05, 2.692872866072281e+04, 6.425996339135822e+04, 1.463435125101416e+04, 1.023899135364293e+05, 8.226617453189056e+05
2686, 1.616289882091407e-01, 1.333235740497649e+00, -4.146563587121074e-02, 1.159882868818902e-04, 1.251306119146921e-03, 2.291454047920111e-02, -4.907182601581620e+04, 1.083201793665877e+06, -1.811568542562500e+04, 8.220196155672564e+04, 5.156986860298568e+04, 1.229388489463205e+05, 1.097699084661131e+06
2687, 1.239534396898275e-01, 1.314185259332540e+00, -3.959192138605203e-02, 1.178495596872720e-04, 1.206457491843206e-03, 2.233414843297293e-02, 3.831007840091661e+04, 1.175895212463567e+06, -7.231420524909695e+04, 7.387602346027934e+04, -1.000891238146200e+04, 9.586246054188072e+04, 1.139501200155980e+06
2688, 1.599041086037526e-01, 1.291525207704669e+00, -4.140629323468440e-02, 1.205660430088143e-04, 1.253573862258810e-03, 2.182463470441675e-02, 5.319819314860745e+04, 1.018972296683241e+06, -1.046760576904027e+04, 1.095659372203423e+05, -5.858990316325649e+03, 1.101161102890931e+05, 9.582623873347526e+05
2689, 1.235259387190357e-01, 1.271671157969014e+00, -3.956274202194179e-02, 1.189055926790195e-04, 1.208685502963922e-03, 2.122917053731660e-02, 2.979629038780759e+04, 1.176262965082150e+06, 5.658137087895369e+04, 6.285243137846111e+04, -2.312571395381073e+04, 1.278959628480621e+05, 1.156659700633622e+06
2690, 1.603756658448354e-01, 1.249383857921760e+00, -4.142273594911995e-02, 1.185778605597987e-04, 1.257613423192239e-03, 2.073603315309644e-02, 1.276073571334992e+05, 1.128040012639668e+06, 9.093985525779922e+04, 2.496436731761930e+05, 4.561105851441422e+04, 1.497553833584822e+05, 9.959922425619073e+05
2691, 1.224193771607243e-01, 1.229216821341910e+00, -3.948625240858580e-02, 1.209277029960154e-04, 1.207526086452762e-03, 2.013268359206277e-02, 1.251770715366175e+05, 1.305193980093654e+06, -2.372249327091891e+04, 1.807891904270383e+05, -2.251627563412879e+04, 1.296859054883968e+05, 1.176254178292220e+06
2692, 1.597953774870798e-01, 1.206682139011895e+00, -4.140247828222736e-02, 1.225579606021487e-04, 1.256474349408405e-03, 1.963867172977604e-02, 1.183198783080788e+05, 1.075736308131609e+06, 4.524781690497820e+04, 1.194797285407921e+05, 3.133841797671060e+03, 1.391317392182071e+05, 9.898391717600134e+05
2693, 1.214473778550360e-01, 1.186968305864955e+00, -3.941790613928960e-02, 1.194557299062995e-04, 1.206379645774288e-03, 1.905303828852220e-02, 1.556045655380773e+05, 1.586587505898088e+06, 5.262435977185093e+04, 6.102532654589369e+04, 3.850107567314392e+03, 2.060381447215300e+05, 1.525682233136924e+06
2694, 1.565869143127125e-01, 1.165046385851762e+00, -4.128585190218111e-02, 1.208574906566978e-04, 1.255349660699331e-03, 1.857654487378885e-02, 2.132284635346209e+05, 1.860190575281399e+06, 3.251794605891738e+04, 2.065652948608981e+05, 8.913284863474997e+03, 2.076209315829936e+05, 1.690039208355532e+06
2695, 1.202396777435872e-01, 1.144889868175852e+00, -3.933145256255845e-02, 1.238532374074333e-04, 1.203460869580735e-03, 1.798445914697775e-02, 1.106702986883420e+05, 1.633664352199877e+06, -2.171669756686054e+03, 1.232961466264093e+05, -5.090945673663113e+04, 1.979085781529254e+05, 1.557476834646739e+06
2696, 1.553851186405044e-01, 1.123794919281127e+00, -4.124010498838460e-02, 1.232600123242736e-04, 1.245471997018403e-03, 1.753352582340544e-02, 6.208590467566589e+04, 1.545972957752867e+06, 7.754816230526654e+04, 1.225422145983685e+05, 4.110004936514981e+04, 1.755623900235480e+05, 1.493800746118791e+06
2697, 1.185974664682691e-01, 1.102914892580855e+00, -3.921117752970559e-02, 1.233174904967105e-04, 1.192823120597271e-03, 1.693104167751576e-02, 1.606640415391679e+05, 1.263319785200865e+06, 2.690661484031632e+04, 9.496769845783656e+03, 9.238962757882146e+02, 1.474585571844082e+05, 1.213586927347165e+06
2698, 1.543848001595574e-01, 1.080985368008705e+00, -4.120114824431383e-02, 1.275510651106322e-04, 1.242127532764538e-03, 1.647228619105885e-02, 1.185158165639834e+05, 1.779054129366852e+06, 2.628074367116439e+04, 1.568074761978824e+05, -3.464823291699155e+04, 2.066135147986286e+05, 1.681966092907252e+06
2699, 1.178355717922424e-01, 1.061097163181714e+00, -3.915430349534522e-02, 1.262814588233498e-04, 1.188945865459159e-03, 1.590338240118200e-02, 4.893442434339277e+05, 2.382999924201955e+06, 9.899148386981152e+04, 5.275840179852369e+04, 1.177213670108459e+04, 2.103531694334192e+05, 2.183080702240096e+06
2700, 1.536414078712228e-01, 1.039043394843842e+00, -4.117167267518441e-02, 1.252344492680829e-04, 1.232745424582335e-03, 1.544281064036104e-02, 3.034681953083049e+05, 2.160204629317306e+06, 1.385589259523443e+05, 3.087109596758623e+05, 7.362797584706849e+03, 1.789346303326824e+05, 1.895144956562270e+06
2701, 1.173183792326798e-01, 1.018847323170370e+00, -3.911530253249105e-02, 1.255940250173143e-04, 1.180396580530242e-03, 1.487300063485453e-02, 7.188539524935230e+04, 2.243645349131630e+06, 7.766618070045416e+04, 1.469113547940486e+05, -2.350109964611616e+04, 1.202755513720402e+05, 2.149972896143729e+06
2702, 1.521903689690893e-01, 9.971322167489015e-01, -4.111283351515635e-02, 1.217629479432492e-04, 1.217278971278060e-03, 1.443031012020893e-02, 2.022458838518026e+05, 2.127390694682627e+06, 4.694260987476697e+04, 2.500530302081429e+05, 6.477539799769012e+04, 1.577572965617153e+05, 1.926212050232599e+06
2703, 1.161434010507477e-01, 9.770066132738137e-01, -3.902550060265672e-02, 1.243535034881338e-04, 1.163087905151863e-03, 1.387011265900532e-02, 1.184794235191103e+05, 2.505204379074455e+06, 4.895893583425383e+04, 1.376773293103733e+05, 9.419561146777216e+04, 1.527444995609704e+05, 2.398917770683866e+06
2704, 1.510960730254528e-01, 9.552838549955469e-01, -4.106733596995336e-02, 1.255155044749545e-04, 1.206249292552426e-03, 1.344407907419710e-02, 5.880989434024827e+05, 3.119027016596624e+06, 2.688561819173612e+04, 4.590412850469887e+05, -2.379353498668134e+04, 2.075454786314089e+05, 2.623352954688750e+06
2705, 1.152841393261415e-01, 9.354609408217978e-01, -3.895876084022301e-02, 1.276942939259160e-04, 1.143891200406415e-03, 1.289293846741439e-02, 1.526442196494233e+05, 2.192947745922833e+06, 2.065244994111614e+04, 2.630910829769186e+05, 2.413933239804113e+04, 2.739025752728280e+05, 2.043963654183828e+06
2706, 1.500037387772208e-01, 9.134877535505034e-01, -4.102095282096863e-02, 1.270321557193949e-04, 1.195768116278522e-03, 1.246585363517637e-02, 3.056078383358594e+04, 2.341660717350244e+06, 9.745597679424059e+04, 2.410715794224289e+05, -3.006119400986295e+04, 1.043616717172238e+05, 2.227748710253409e+06
2707, 1.141504239567559e-01, 8.935814518330116e-01, -3.886930027995088e-02, 1.333132290270884e-04, 1.129469647067220e-03, 1.193122344172191e-02, 4.557499311227321e+05, 2.810182536274574e+06, -1.797323618057898e+04, 3.357152347667654e+05, -1.138351579249711e+05, 1.717161153842312e+05, 2.443087910294085e+06
2708, 1.486011679780957e-01, 8.717888941891587e-01, -4.095995462248412e-02, 1.289369665535556e-04, 1.168238506067024e-03, 1.151619883432026e-02, 2.704772820602135e+05, 3.221349627412371e+06, 1.350798610063123e+05, 2.296964887768049e+05, -2.901733971034150e+04, 2.587462277510218e+05, 3.014591869967260e+06
2709, 1.129979826089482e-01, 8.517520591436047e-01, -3.877669703661333e-02, 1.285369232518485e-04, 1.113748274983739e-03, 1.098543127778016e-02, 2.514629928842622e+05, 2.753045950696884e+06, 5.740347818463783e+04, 1.685883455649839e+05, 2.509869755418877e+04, 9.426885817284486e+04, 2.551575684160465e+06
2710, 1.478250038688244e-01, 8.300526737588467e-01, -4.092549119123817e-02, 1.241831471420138e-04, 1.142427133701232e-03, 1.059387199844868e-02, 4.967897380198131e+05, 3.839739205584729e+06, 2.933761802585684e+04, 1.749390546585930e+05, 4.581142673884740e+04, 1.730109403780315e+05, 3.528952547155564e+06
2711, 1.118679103766712e-01, 8.100945383086395e-01, -3.868423016762162e-02, 1.267280641493486e-04, 1.090329444075607e-03, 1.007650716885954e-02, 4.901141103121705e+05, 4.020087396164982e+06, -1.645570559594464e+05, 2.691075484895461e+05, 1.418865344364796e+05, -6.972363621273189e+04, 3.666867758010462e+06
2712, 1.467386251778572e-01, 7.884138670213975e-01, -4.087639295436786e-02, 1.274856657123916e-04, 1.123465475830651e-03, 9.687163596371340e-03, 1.225439302185548e+05, 3.015128617881341e+06, -1.481433041547599e+05, 8.678022436666441e+04, 8.644576062438280e+04, 1.306741266276785e+05, 2.934494824032904e+06
2713, 1.108917811370841e-01, 7.684887639513631e-01, -3.860301125006396e-02, 1.331226012360343e-04, 1.061418254088392e-03, 9.181034280845726e-03, 3.111480485947001e+05, 3.488647425711875e+06, -4.323883764850665e+04, 3.996785428900609e+05, -9.228526119657455e+04, 1.617768095294149e+05, 3.151619910041711e+06
2714, 1.456542547193506e-01, 7.468276639947886e-01, -4.082636970403106e-02, 1.274194731173128e-04, 1.093962680399505e-03, 8.809514379483900e-03, 1.443823039846289e+05, 3.618432530044246e+06, 8.577825066787192e+04, 5.699226520384713e+05, -4.843023013894263e+04, 1.805796720535360e+05, 3.301317654962404e+06
2715, 1.853800795634696e-01, 8.054060400229551e-01, -4.207316916876495e-02, 1.170149453938920e-04, 1.149429050191844e-03, 1.013675713586695e-02, 4.596561576336904e+05, 3.688411737486809e+06, 2.397259701450038e+05, 3.158358657901557e+05, 7.367636397586459e+04, 3.482372192221633e+05, 3.385617397939597e+06
2716, 1.097930013908461e-01, 7.269277811032626e-01, -3.851007436729855e-02, 1.355234770994626e-04, 1.028159204973417e-03, 8.317264183406385e-03, 3.518875758868293e+05, 3.622134190657686e+06, 6.021722236323994e+04, 4.810477120271756e+05, -1.079830028728968e+05, 3.400867450951870e+05, 3.268278763373134e+06
2717, 1.449528779222750e-01, 7.053005619504149e-01, -4.079346616213328e-02, 1.284297898963838e-04, 1.061129197999168e-03, 7.965641237734633e-03, 7.008391651686137e+05, 4.544165394658066e+06, 9.660967231220205e+04, 9.902574307007300e+05, -7.976133082903249e+04, 4.592265828776197e+05, 3.797676090294739e+06
2718, 1.088457868823742e-01, 6.854177907839694e-01, -3.842867826306737e-02, 1.317244634792547e-04, 9.975320305095833e-04, 7.487609830424138e-03, 7.865496890012737e+05, 4.341896265749404e+06, 9.216482579947282e+04, 6.001755590233976e+05, 6.871735572105476e+04, 3.379897865435411e+05, 3.704080155697226e+06
2719, 1.439709741577988e-01, 6.637730522330485e-01, -4.074666879710553e-02, 1.333103373749867e-04, 1.016966294608984e-03, 7.152607073218083e-03, 2.971886583714023e+05, 4.447102521843353e+06, -3.536869822952101e+05, 2.909958904400382e+05, -6.197642246169026e+04, 4.926027736172159e+05, 4.285125672718110e+06
2720, 1.080699485524819e-01, 6.441761316090852e-01, -3.836111539675997e-02, 1.333719646975096e-04, 9.688658473190614e-04, 6.691998076096675e-03, 4.107961231165612e+05, 3.506744444396824e+06, -2.049930059194601e+03, 1.056655203515026e+05, -5.712777331938471e+04, 2.453895864997802e+05, 3.288331000943213e+06
2721, 1.429200743293348e-01, 6.223205896450608e-01, -4.069562189399686e-02, 1.287582362814454e-04, 9.885701615231501e-04, 6.368500487200220e-03, 6.497116923449201e+05, 4.796485122858243e+06, -1.952432661769633e+05, 2.183879867262941e+05, -1.516763107653595e+05, 3.910305482505331e+05, 4.451119329241751e+06
2722, 1.069738930359798e-01, 6.026096268044552e-01, -3.826427452443279e-02, 1.361997562546353e-04, 9.279473847514860e-04, 5.925261195556412e-03, 5.808694227519003e+05, 5.030591986893825e+06, -1.206992465624336e+05, 4.103453862546365e+05, -7.665205362533603e+04, 1.125622567540206e+05, 4.548322363142412e+06
2723, 1.418150731714490e-01, 5.809327215568435e-01, -4.064085800767563e-02, 1.278471220395733e-04, 9.427253149968153e-04, 5.617630796251018e-03, 3.230188958167836e+05, 3.996547643606874e+06, 2.365067689991900e+05, 1.951202794933849e+05, -2.472747252054778e+04, 5.247230758081498e+05, 3.869968265846636e+06
2724, 1.056204297846257e-01, 5.611702197220669e-01, -3.814240076648255e-02, 1.237671992376926e-04, 8.912427480779698e-04, 5.183769396776741e-03, 3.171958149806994e+05, 4.311126169471786e+06, 1.543418660044516e+05, 5.535034321781999e+05, 9.135465000566981e+04, 1.913393902325768e+05, 3.907666610517101e+06
2725, 1.407650117919126e-01, 5.396045870080511e-01, -4.058777808443748e-02, 1.207625996098444e-04, 9.039737153382146e-04, 4.906308773566813e-03, 4.773899373687676e+05, 5.301441498651344e+06, -3.340727461748178e+05, 5.053307354933956e+05, 1.209924704584423e+05, 4.793032439757790e+05, 4.919897604146503e+06
2726, 1.795659778708675e-01, 6.421448919710540e-01, -4.195843132090762e-02, 1.259098746190868e-04, 1.031672304615643e-03, 6.824937730725593e-03, 6.986930168239113e+05, 5.249883626144275e+06, 4.206952768388008e+05, 3.910153488809119e+05, -2.687464963307753e+05, 4.255263581865461e+05, 4.847591861226006e+06
2727, 2.012303046954650e-01, 1.351643463793169e+00, -4.228748520126101e-02, 1.122697072066942e-04, 1.270725818033926e-03, 2.348081081951195e-02, -4.033111385439433e+03, 1.026526591878359e+06, 5.808919040064959e+04, 1.054474067628998e+05, 1.185542891680257e+05, 1.429139428497607e+05, 1.036713403644560e+06
2728, 1.044843604812531e-01, 5.199289612794405e-01, -3.803810975560940e-02, 1.338827811042526e-04, 8.478880545597992e-04, 4.495806464828833e-03, 6.906078351253569e+05, 5.296178886286256e+06, 1.927082221607062e+05, 8.010311206567672e+05, -9.307827819668053e+04, 4.128185381678780e+04, 4.566993362235835e+06
2729, 1.393740257303125e-01, 4.983825075296624e-01, -4.051592861796675e-02, 1.268722425253610e-04, 8.504776762077795e-04, 4.227233653003405e-03, 3.985836638282860e+05, 4.804473556381797e+06, -8.048884076136202e+04, 1.857125337297043e+05, -2.520547188568636e+05, 3.638650094182728e+05, 4.582825543640589e+06
2730, 1.007004619768169e-01, 4.786530598818120e-01, -3.767715597066647e-02, 1.312272004520415e-04, 8.029131057781958e-04, 3.832627415140219e-03, 6.671397100463215e+05, 5.023071971502521e+06, 1.523441917176049e+05, 6.349970717477133e+05, -1.017081735968235e+05, -3.045233620751619e+05, 4.415207075648107e+06
2731, 1.381208210267571e-01, 4.572043723829231e-01, -4.044967130647922e-02, 1.285897809165867e-04, 8.055132081290217e-04, 3.600337439440111e-03, 1.001797244107485e+06, 6.227020729245059e+06, -3.581325266862233e+04, 5.205196941125939e+05, -2.474896243406191e+05, 1.081411627838770e+05, 5.502004720990229e+06
2732, 9.862116325897996e-02, 4.379941942816282e-01, -3.746963978079725e-02, 1.300231959258762e-04, 7.452505101880405e-04, 3.223733035127463e-03, 1.375497261225707e+06, 6.948401369669835e+06, 2.302656938936195e+05, 8.590097826929832e+05, 1.670926997090061e+05, -1.019892223411625e+05, 5.871659637030388e+06
2733, 1.370528906446396e-01, 4.160421467355711e-01, -4.039204748313889e-02, 1.175462774171670e-04, 7.534402505573867e-04, 3.004254130978469e-03, 1.010363756724895e+06, 6.756805620587811e+06, 2.231755972363280e+05, 6.539741891179325e+05, 3.676934399639386e+04, 1.132148146531657e+04, 5.945623774945981e+06
2734, 9.694521503671041e-02, 3.956189687764949e-01, -3.729751362019641e-02, 1.255358155467096e-04, 6.748025261198720e-04, 2.636238963746242e-03, 9.692743695541273e+05, 7.036854778491297e+06, 3.414287836625756e+05, 4.550796455023980e+05, -4.619760306735769e+04, -6.675231304786060e+04, 6.369406344363268e+06
2735, 1.359794491871451e-01, 3.741841660719452e-01, -4.033303003256247e-02, 1.078517376697646e-04, 6.790474567756020e-04, 2.451286764789812e-03, 1.268411284812881e+06, 7.454281724776482e+06, 5.050503296901120e+05, 9.178302066442998e+05, 2.999862094911899e+05, 2.766695408479640e+05, 6.466945964622941e+06
2736, 1.733075593296607e-01, 3.942697867165904e-01, -4.181110194335046e-02, 1.013520005730545e-04, 7.251613628818376e-04, 2.778566790135738e-03, 1.178128431354213e+06, 6.047117410684688e+06, 4.731713607466960e+05, 6.825658163535876e+05, 4.616519724742918e+04, 3.223675772957608e+05, 5.230234655167209e+06
2737, 1.720335187368665e-01, 3.519347432666916e-01, -4.177800465715269e-02, 9.473090066514089e-05, 6.649084761679112e-04, 2.265444639298245e-03, 2.538130088232472e+06, 9.399302673982538e+06, 8.333089148440452e+05, 1.124035178889816e+06, 1.389721864047486e+05, 4.720528696493286e+05, 7.847761188606477e+06
2738, 1.343125018242056e-01, 3.319725274106283e-01, -4.023916025746083e-02, 1.027730316401493e-04, 5.944797124795495e-04, 1.943454353002513e-03, 9.954333182552645e+05, 6.568480060258358e+06, 2.869916974206554e+05, 8.375911926941960e+05, 9.216409351694252e+04, 8.010703459061641e+05, 5.844753384840041e+06
2739, 1.701046538902850e-01, 3.092517366997601e-01, -4.172584326682423e-02, 9.523466560941093e-05, 5.970496988355958e-04, 1.757545897121859e-03, 1.348243731534264e+06, 6.812301772724544e+06, 6.625003765844540e+05, 9.972229624988372e+05, -1.006629812871709e+05, 4.534159050933319e+05, 5.819022342006130e+06
2740, 1.326702484363309e-01, 2.894815077353854e-01, -4.014397729005139e-02, 1.023603064847570e-04, 5.349919340536594e-04, 1.499258825291148e-03, 1.201733134151039e+06, 6.723441223019878e+06, 4.063285634237875e+05, 9.626192123681078e+05, -2.325079950821956e+05, 3.869720735911331e+05, 5.742254237427298e+06
2741, 1.684503852249268e-01, 2.666230848138033e-01, -4.167908875204904e-02, 8.264805935529959e-05, 5.098874614856003e-04, 1.330272386950409e-03, 9.991413344060795e+05, 6.631187757540761e+06, 6.147338865195208e+05, 4.840676083215331e+05, -5.050155768421035e+05, 9.300235918626133e+05, 6.275333783060522e+06
2742, 1.310715611283843e-01, 2.468888925301582e-01, -4.004867423486400e-02, 8.650739524523540e-05, 4.866683822583892e-04, 1.106231554341603e-03, 1.279284634538562e+06, 7.667769233487939e+06, 3.555121657189669e+04, 8.815102362496012e+05, -1.455197775031722e+05, 4.702239233193859e+05, 6.651525152804542e+06
2743, 1.661712213746425e-01, 2.241060384008688e-01, -4.161152645113301e-02, 8.060652552374648e-05, 4.415479279910274e-04, 9.617952902009619e-04, 1.877336924401635e+06, 7.799131078720092e+06, 1.980919957881741e+04, 5.595306905272732e+05, -3.815868516321327e+05, 3.055510423548406e+05, 6.732467871150357e+06
2744, 1.290244452855839e-01, 2.044727538899626e-01, -3.992278776683598e-02, 8.737976087595453e-05, 3.987468324983916e-04, 7.553906639392012e-04, 1.308818457803742e+06, 7.199838133082279e+06, 5.602158382689570e+05, 5.867847546889519e+05, -3.466628800698193e+05, 2.425717276713011e+05, 6.399807354679462e+06
2745, 1.643151367101153e-01, 1.819847624678514e-01, -4.155373027060773e-02, 6.949561834551643e-05, 3.787834843609027e-04, 6.399527742442374e-04, 1.772128593479936e+06, 7.442616682729698e+06, 6.359901496315970e+05, 7.750808111390537e+05, -2.271918609177699e+05, 3.048828010079042e+05, 6.359987926726711e+06
2746, 1.277361104777197e-01, 1.627805491040113e-01, -3.984133906371603e-02, 7.503929961689276e-05, 3.178089715855439e-04, 4.884655704466973e-04, 1.715262589276925e+06, 9.580180650590263e+06, 1.303883227967425e+06, 6.826972303258481e+05, -3.139742544561417e+05, 1.984535173783433e+05, 8.749765401561746e+06
2747, 1.620886676720273e-01, 1.403504440262932e-01, -4.148108098244589e-02, 4.617345353089691e-05, 2.811613723244632e-04, 4.011839871568695e-04, 2.886324170492051e+06, 1.107921561838259e+07, 7.828604012484249e+05, 1.994656015957549e+06, -1.874156788035620e+05, 5.051479297650838e+05, 8.827989080120202e+06
2748, 1.755528970204245e-01, 5.167954883123903e-01, -4.186687703134729e-02, 1.142382753941571e-04, 9.033711656899097e-04, 4.603697072209503e-03, 6.143795103176001e+05, 5.498524049628843e+06, 3.152225109829404e+05, 5.668931146024028e+05, 8.460738200087106e+04, 6.815651946974130e+05, 5.079588322336060e+06
2749, 1.807025848064629e-01, 9.311709537941462e-01, -4.198248515560081e-02, 1.246411740488534e-04, 1.215038723302267e-03, 1.294072992014053e-02, 2.455692224607380e+05, 2.308179987550125e+06, -9.521586464577449e+03, 2.508420461499782e+05, -4.348825290849546e+04, 2.912202697266204e+05, 2.122236695276209e+06
2750, 4.400479028468418e-02, 1.910447761190588e+00, -2.862960595368769e-02, 7.898314608817403e-05, 7.599409099660311e-04, 3.813455827388676e-02, -2.057146536194954e+04, 4.980679158692000e+04, -1.243573781046242e+03, 7.199838399399065e+03, 8.512046091949927e+03, 7.675930523525445e+03, 6.456479190171704e+04
2751, 1.943316313505098e-01, 1.185124537245007e+00, -4.221119502333343e-02, 1.209124237188802e-04, 1.275432717296771e-03, 1.916585475705893e-02, 1.067224349545070e+05, 1.515198348523504e+06, 1.857057505979263e+04, 2.494108601866031e+05, -8.291869688534866e+04, 2.109707417499018e+05, 1.399420689782703e+06
2752, 2.046154779834983e-01, 2.423454489456605e-01, -4.231582152639815e-02, 6.465331272068747e-05, 4.971609568415573e-04, 1.154898106615496e-03, 1.761072175854263e+06, 8.007949125110140e+06, 7.424359884194377e+05, 8.260192998067203e+05, -1.544173343370234e+05, 5.985348325574229e+05, 6.966983229874457e+06
2753, 1.258088236085938e-01, 1.222798331274355e-01, -3.971620640033972e-02, 6.246460896524447e-05, 2.272985067071197e-04, 2.810109853944136e-04, 2.426216551360909e+06, 1.026069530535688e+07, 3.759345780535712e+05, 6.663758652185153e+05, -2.290650421269888e+05, 6.083845803057061e+05, 8.941773831157934e+06
2754, 2.104301026276011e-01, 1.475838043767652e+00, -4.235114539307386e-02, 1.147871561453309e-04, 1.254962014014659e-03, 2.678355702672960e-02, 4.463973286287493e+04, 6.921291261630009e+05, 6.817694114511856e+04, 1.037622913278325e+05, -2.820261836583095e+04, 8.780410540815274e+04, 6.510882379402503e+05
2755, 1.787915833461984e-01, 7.249245239004436e-01, -4.194157606308786e-02, 1.200512626073902e-04, 1.100317989887052e-03, 8.432525666551043e-03, 4.998377538053495e+05, 3.633403614194893e+06, -6.908789755306802e+04, 7.273866758975419e+05, 4.257522737319093e+04, 1.873200369676725e+05, 3.046801229318858e+06
2756, 7.187248103301766e-02, 1.960196069592796e+00, -3.411095169879395e-02, 8.896956947219287e-05, 8.899461377797849e-04, 3.954615268855488e-02, -1.999482515911613e+04, 2.339543928980489e+04, 6.369210932392642e+02, 1.189006299098461e+04, 8.633386492207810e+03, 6.612438416442077e+03, 4.326503819918410e+04
2757, 1.873609960935715e-01, 1.057363837889996e+00, -4.210769780824575e-02, 1.233032445423013e-04, 1.257494941853704e-03, 1.596392674288926e-02, 1.214886795846221e+05, 1.844298567138016e+06, 8.067811015036466e+04, 1.879983246908535e+05, -1.562970936079132e+04, 1.988120581398262e+05, 1.731113054233895e+06
2758, 9.555761765952125e-02, 1.589093011840364e+00, -3.715161666937039e-02, 1.055126129183492e-04, 1.091815805333877e-03, 2.956356626310154e-02, -1.509610295988387e+04, 4.098639046402695e+05, -1.562954696477375e+04, 1.796315785324273e+04, 1.364259506490893e+04, 6.884115660414277e+04, 4.279527812758164e+05
2759, 9.472553835260117e-02, 1.714385760890695e+00, -3.706262356356230e-02, 1.020788809835277e-04, 1.053437496837964e-03, 3.293872875625173e-02, 4.062396873310534e+03, 2.112648302492314e+05, 1.173483740042538e+04, 2.635189537866235e+04, -1.527510436322707e+02, 2.745700277399009e+04, 2.036813247221382e+05
2760, 9.078544804655581e-02, 1.422479401418280e+00, -3.662532006839167e-02, 1.096882279541522e-04, 1.115636418290884e-03, 2.510539174663681e-02, 4.672158262492516e+04, 7.784893169933904e+05, -4.908113370964138e+04, 4.258668025092858e+04, 1.688300782703704e+04, 7.679449682176246e+04, 7.511997522412470e+05
2761, 8.922901472536982e-02, 2.270444569331414e-01, -3.644514267435418e-02, 9.630497903129198e-05, 3.949118757815822e-04, 8.545483774530412e-04, 1.127780886690015e+06, 7.378047522613648e+06, 5.499336079519013e+05, 8.362478221145705e+05, -2.759892563666177e+05, -6.539000978360468e+04, 6.490115763463564e+06
2762, 9.279745387650484e-02, 1.505201852490483e+00, -3.685196169879128e-02, 1.075154945491853e-04, 1.104692502753211e-03, 2.731067713311505e-02, 1.715355276690796e+04, 2.689307365295477e+05, 2.694697199579218e+04, 1.819500836524147e+04, -2.425301953421489e+03, 4.793310917410580e+04, 2.687367358007818e+05
2763, 8.770036386504224e-02, 1.293375501063499e+00, -3.626394890608567e-02, 1.149346404790419e-04, 1.122441655769746e-03, 2.171062504238310e-02, 9.431591785629842e+04, 1.203689789701108e+06, -5.552127277358662e+04, 3.462035777691979e+04, -1.963059350154554e+04, 1.511127473966540e+05, 1.174481904975339e+06
2764, 2.106874114465502e-01, 3.724310935201832e-01, -4.235233783967903e-02, 9.636004445463808e-05, 7.205864955403887e-04, 2.564132924011725e-03, 1.739456020879184e+06, 7.545164331797611e+06, 6.451008550505579e+05, 1.147856661037036e+06, -3.922433711313980e+05, 2.101897020077020e+05, 6.271639432623915e+06
2765, 2.117306253501258e-01, 4.167867418880922e-01, -4.235686253808003e-02, 8.584456676956342e-05, 7.860944733499367e-04, 3.148170182518506e-03, 8.904074408376457e+05, 5.925216068121367e+06, 6.519510056164841e+05, 7.251604642349054e+05, 5.829082282649459e+04, 2.105574331897999e+05, 5.256130561481878e+06
2766, 2.518432583559545e-01, 1.891166418711679e+00, -4.218283956174022e-02, 1.058370792651371e-04, 1.129135922896665e-03, 3.806534010078313e-02, -1.028355461597864e+04, 5.522300927002955e+04, 3.596084588413260e+04, 2.090879015882752e+04, 1.207369828045463e+04, 2.030225385741210e+04, 9.367061105084453e+04
2767, 8.950103931460629e-02, 1.450041443188247e-01, -3.647694316638517e-02, 7.313496265594355e-05, 2.566088647414089e-04, 3.336687914599788e-04, 1.298186279987072e+06, 6.561616801005881e+06, 8.871453583625872e+05, 4.336685742280456e+05, -3.330979307773893e+05, -6.715932892665893e+04, 5.975692016248781e+06
2768, 9.799834340050004e-02, 3.120888462394547e-01, -3.740618876738473e-02, 1.143045947686328e-04, 5.374497105981833e-04, 1.664975622830037e-03, 1.015362176242316e+06, 7.691247779765575e+06, -5.790590425134874e+04, 2.464177223690457e+05, 3.348657018474843e+04, 9.437962265078801e+05, 7.278584110793421e+06
2769, 8.371750109840856e-02, 1.127123423541560e+00, -3.577125342911611e-02, 1.208886241931967e-04, 1.112414002065132e-03, 1.745305398036701e-02, 2.163941666901699e+05, 1.784749095251423e+06, -5.410722228939033e+04, 1.759723136053074e+05, -7.114659974481315e+04, 2.140309424727392e+05, 1.638951782128163e+06
2770, 1.966306136374316e-01, 1.269440735621083e+00, -4.223938400299857e-02, 1.189963515217385e-04, 1.276141960124488e-03, 2.133117261926437e-02, 1.366161280193994e+05, 1.061004872198033e+06, 1.271966278082484e+05, 2.562348990724606e+05, -5.714512624319123e+04, 1.314946208365155e+05, 9.318986553604971e+05
2771, 2.001711280645798e-01, 1.593191553722574e-01, -4.227737928047708e-02, 3.866592932592547e-05, 3.440308261090722e-04, 5.357326654805566e-04, 2.417775479240865e+06, 9.109317522604426e+06, 1.084901350362278e+06, 1.364127883234050e+06, 1.142965971760149e+05, 3.421096099024880e+05, 7.540475865237969e+06
2772, 9.016711834777349e-02, 1.051104862246153e-01, -3.655425312433114e-02, 5.732041345539451e-05, 1.869796697702257e-04, 1.867527080802178e-04, 2.262911507399014e+06, 9.802638288919056e+06, 8.825559249376318e+05, 8.272403902632068e+04, -3.608784628148533e+05, -3.391544540469962e+05, 9.006176052523181e+06
2773, 2.058586485337193e-01, 1.608701068071173e+00, -4.232475721358265e-02, 1.119242910235241e-04, 1.222800509505201e-03, 3.033043461750501e-02, 1.482822562055611e+04, 3.355486587760056e+05, 3.353828351620297e+04, 5.884443285919927e+04, 9.393338922818175e+03, 4.735589533137828e+04, 3.178820881892568e+05
2774, 8.370655483979034e-02, 1.210877008350320e+00, -3.576985682389636e-02, 1.150184999335474e-04, 1.118760445776815e-03, 1.957475366146078e-02, 1.058411802143615e+05, 1.026952388339022e+06, -2.644890976017420e+04, 1.721472132502823e+05, 4.902303332919403e+04, 1.001974422774828e+05, 9.116984741370920e+05
2775, 7.769789957763476e-02, 8.735599650364845e-01, -3.496619735662262e-02, 1.272993380774870e-04, 1.042254336480253e-03, 1.138837149023753e-02, 2.916820016849804e+05, 2.860107624089792e+06, -3.903207925998072e+04, 2.095514899849605e+05, 1.347161685560408e+04, 7.357539236338732e+04, 2.614547128569241e+06
2776, 1.975756406587710e-01, 1.166905121292439e-01, -4.225015810294921e-02, 4.692550012548157e-05, 2.578715956636614e-04, 3.035785694233128e-04, 3.271484678748659e+06, 1.023603618934090e+07, 7.507587683645397e+05, 1.563342719739003e+06, -6.348298577506945e+05, 5.843711631012755e+05, 8.200218372412152e+06
2777, 6.481329849644568e-02, 4.176954344328985e-01, -3.296108285900270e-02, 1.237090703688354e-04, 6.428270002623443e-04, 2.849611705520227e-03, 1.230684615157824e+06, 6.564134649087493e+06, 1.712457301982216e+05, 2.506469720214849e+05, -1.974244963083451e+05, 9.986366758208111e+04, 5.904910473436197e+06
2778, 7.915044835457782e-02, 9.990920676223340e-01, -3.516742631559143e-02, 1.238928275156086e-04, 1.082601593836281e-03, 1.430615348453426e-02, 2.212593798687390e+05, 2.267492010427020e+06, 7.207546025433854e+04, 2.132575903104813e+05, 3.625930118920171e+04, 1.384331919941181e+05, 2.068943112439879e+06
2779, 2.529341345252781e-01, 1.753160165500833e+00, -4.216977026621832e-02, 1.080762551130161e-04, 1.175385118614650e-03, 3.432875657957531e-02, -5.469617999143886e+03, 1.744224171310081e+05, 5.120546050149604e+04, 3.537881175762787e+04, 1.304672406616020e+04, 2.643885903764492e+04, 1.927566334520522e+05
2780, 2.081326133934524e-01, 1.693934270098693e+00, -4.233913153050897e-02, 1.108957068211326e-04, 1.198627810826219e-03, 3.263233009453525e-02, -3.464615687848800e+03, 2.668876985504919e+05, 5.531777358580726e+04, 4.987756199306982e+04, -2.013108366124779e+02, 6.045934336203342e+04, 2.857636557579630e+05
2781, 7.456268734947921e-02, 7.081307469441078e-01, -3.451577581047093e-02, 1.320825056229781e-04, 9.403636185886712e-04, 7.848992285824703e-03, 3.351166635250933e+05, 4.025071459798613e+06, -1.828817442505236e+04, 2.219695136497921e+05, -2.747478081695315e+04, 2.928273420696745e+05, 3.782405063440310e+06
2782, 7.714929189698241e-02, 7.908408815222250e-01, -3.488899093995708e-02, 1.294571192181834e-04, 9.936299261262454e-04, 9.571226075055856e-03, 1.313101603772932e+05, 2.855097464181041e+06, -1.449601120141821e+05, 1.337012318320192e+05, 1.374350634869303e+05, 2.068692125472716e+05, 2.767778952349079e+06
2783, 2.502118858592820e-01, 3.938240691930320e-01, -4.220166807681947e-02, 7.632185020882420e-05, 7.598448041925138e-04, 2.897188792728392e-03, 1.172516262085209e+06, 7.127275712511180e+06, 4.851871035075551e+04, 7.306921581658791e+05, -6.622869672014356e+04, 3.564603480717946e+05, 6.219866378411484e+06
2784, 2.941295961936167e-01, 7.499999999985188e-02, -4.141826477733165e-02, 1.206309361594972e-05, 1.799553044401821e-04, 1.661899676429213e-04, 4.110525933710036e+06, 1.144681244332187e+07, 4.111177155921399e+05, 1.846486090518306e+06, -3.204859102998152e+05, 5.538095655712695e+05, 8.791582520262286e+06
2785, 7.190354455991563e-02, 5.841863629231421e-01, -3.411572580425304e-02, 1.355372363330692e-04, 8.391005918730390e-04, 5.501732460529807e-03, 1.853865014717382e+05, 4.520165426677795e+06, 2.226291289158294e+05, 2.811244388910797e+05, 1.329654388721658e+05, 1.934657466789127e+05, 4.324174937019407e+06
2786, 4.388602489642207e-02, 1.879383652634103e+00, -2.859973951238347e-02, 7.982086243191883e-05, 7.702131863887018e-04, 3.729193130200744e-02, -1.937914383647168e+04, 6.147546960320172e+04, 4.945717225579938e+03, 1.226687973144324e+04, 9.238814280428060e+03, 1.592429426799392e+04, 7.791283070204417e+04
2787, 7.350214498128382e-02, 1.893293376712437e+00, -3.435824589126363e-02, 9.160696538969282e-05, 9.204851727147162e-04, 3.773555131674272e-02, -1.332330674647816e+04, 5.358309851587241e+04, 4.759813090402106e+03, 1.691060575807788e+04, 9.628871542988561e+03, 1.397475543443047e+04, 6.557216223111766e+04
2788, 7.311543426150208e-02, 1.857670567056727e+00, -3.430014335042213e-02, 9.245196214895113e-05, 9.314300597361158e-04, 3.676912107179986e-02, -1.346143611878290e+04, 8.544657428887789e+04, 8.401528861474420e+03, 1.724045091675203e+04, 9.377199193012162e+03, 1.468323753722386e+04, 9.386736854397076e+04
2789, 1.052747067166538e-01, 1.874842016953128e+00, -3.811085777877823e-02, 9.981760153416480e-05, 1.027787182087375e-03, 3.730567508669189e-02, -1.907703134617200e+04, 9.008712141982552e+04, 7.189404849361635e+03, 2.130807679489158e+04, 1.212769053830937e+04, 1.412036852565099e+04, 1.016544282146366e+05
2790, 1.728140567077951e-02, 4.477611940290016e-02, -1.922637011174523e-02, 3.681353859402020e-05, 5.027796358777516e-05, -1.779141638483944e-05, 2.914910724871041e+05, 3.374263798209253e+06, 5.311996131855394e+05, 8.806830035117071e+05, -4.723546493024214e+05, -1.785025474238943e+06, 4.371397220249698e+06
2791, 6.869078268971227e-02, 5.063650381781502e-01, -3.360908466735095e-02, 1.310669901922398e-04, 7.494181394833519e-04, 4.183187964248436e-03, 2.166930694530808e+04, 4.213253380616425e+06, 5.595029672098689e+05, 2.862936091854542e+05, 2.136621111803322e+05, 1.622739294044785e+04, 4.196079509050120e+06
2792, 2.362730381005325e-01, 1.334775574403277e-01, -4.232497130366666e-02, 2.951489200457395e-05, 3.038407667875186e-04, 4.208414807229440e-04, 3.027964739139157e+06, 1.102213776860565e+07, 5.664259637676787e+04, 8.712764761723792e+05, -6.846257615037635e+04, 1.010039452388891e+06, 9.427792501098150e+06
2793, 1.039426449291784e-01, 1.839632935721547e+00, -3.798772901226228e-02, 1.004723478871122e-04, 1.036626444373374e-03, 3.634863923298862e-02, -1.840693323165967e+04, 1.007202107167593e+05, 6.772375822781411e+03, 1.874831964204615e+04, 8.167112042504266e+03, 1.944728812534311e+04, 1.123293439417336e+05
2794, 7.067715885716447e-02, 1.819190007329446e+00, -3.392542544924422e-02, 9.287043601337308e-05, 9.346908222647374e-04, 3.572112947758746e-02, -2.518069449907904e+04, 1.044708216420673e+05, 9.219055107480784e+03, 1.568758070444713e+04, 6.162252569806425e+03, 1.606998186480924e+04, 1.196859376302444e+05
2795, 1.052892669331910e-01, 1.908595965855831e+00, -3.811218963391150e-02, 9.881794742230832e-05, 1.016054916087472e-03, 3.822079307970996e-02, -1.899056000145919e+04, 5.392218503171986e+04, 5.734896938873255e+03, 1.657564031501487e+04, 1.245274312983093e+04, 1.044539119100575e+04, 6.985121224589777e+04
2796, 1.388416567525188e-01, 1.894235247847221e+00, -4.048796038722445e-02, 1.038991126746658e-04, 1.084575784938334e-03, 3.790494196265540e-02, -1.088223561433606e+04, 9.695879008982531e+04, 1.346961892866103e+04, 2.923596258670032e+04, 8.794488144851068e+03, 1.393282802122214e+04, 1.013482168854849e+05
2797, 6.964141883675190e-02, 3.743541661026493e-01, -3.376175152250056e-02, 1.268730257753788e-04, 5.923738543406470e-04, 2.308890726611779e-03, 1.283794728401345e+06, 8.345686661345732e+06, 4.704915426723635e+05, 4.476103324141228e+05, -2.651864964117989e+05, 4.266974596834723e+04, 7.573314102005332e+06
2798, 2.697041315622880e-01, 1.963276305371120e+00, -4.192098373494066e-02, 1.037048377102515e-04, 1.096033044470382e-03, 4.005948613793776e-02, -1.641207169625018e+04, 4.418628382969445e+04, 3.131929256701626e+04, 1.364065467100278e+04, 5.805949809745230e+03, 1.160283829676588e+04, 7.875201741875985e+04
2799, 1.411685120399346e-01, 1.933192498865375e+00, -4.060829218013411e-02, 1.030796528703609e-04, 1.074001720127251e-03, 3.896623174519437e-02, -1.687915214224536e+04, 4.055093307194098e+04, 1.123787929403143e+04, 1.788335964298537e+04, 9.659314614773568e+03, 9.628438830067973e+03, 5.871226679083623e+04
2800, 1.740148095181722e-01, 1.912487226685584e+00, -4.182901850997379e-02, 1.058460213626475e-04, 1.113729199970798e-03, 3.847608024719629e-02, -1.908028109199475e+04, 6.162500054891174e+04, 2.099335318301665e+04, 2.239464676991514e+04, 5.902421878708330e+03, 1.420384766174093e+04, 8.317567338263136e+04
2801, 5.842143791464352e-02, 1.246429097978479e-01, -3.179684654748930e-02, 7.219465363646812e-05, 2.046651239080641e-04, 2.027322434794924e-04, 1.208728213115770e+06, 7.303829608396916e+06, 7.712912420612416e+05, 1.152728571432401e+06, 7.792190192342040e+04, -7.896204912649973e+05, 6.416237841765400e+06
2802, 5.721734864359954e-02, 8.723314831414469e-02, -3.156288783573347e-02, 5.304152147903723e-05, 1.220230419980292e-04, 9.331271277467079e-05, 1.255059552109451e+06, 7.653635568676075e+06, 7.681863626220457e+05, 7.067509699768110e+05, -1.995470928871842e+05, -1.058303511699504e+06, 7.071111542250953e+06
2803, 1.252443443404735e-01, 8.693122573544600e-02, -3.967879580620495e-02, 4.208667810869093e-05, 1.545869012000286e-04, 1.449774219378051e-04, 2.138826347344635e+06, 7.407765419728654e+06, 5.615097624258635e+05, 4.496992944268015e+05, -5.958769359266155e+05, -5.188693689018692e+03, 6.444062775343411e+06
2804, 2.331685974622888e-01, 1.004405587290500e-01, -4.234274353883161e-02, 3.230647687082859e-05, 2.196434139064788e-04, 2.358025253406323e-04, 2.419889828119459e+06, 9.006377692216741e+06, 4.590890090943679e+05, 1.368622621356790e+06, -2.756551712395520e+05, 4.254400783049210e+05, 7.267350760694883e+06
2805, 6.177539122974787e-02, 1.715607253914768e-01, -3.242347927296611e-02, 9.468290363981793e-05, 2.695602732924428e-04, 4.510925956007841e-04, 2.412387019648093e+06, 8.431618133976668e+06, 1.363238651952326e+06, 1.014938235724160e+06, -2.496388767055217e+05, 4.430064082039871e+05, 7.276438353907454e+06
2806, 2.363267002725843e-01, 1.753652360389818e-01, -4.232463253757723e-02, 4.385715310524854e-05, 3.742051597539486e-04, 6.615897753698280e-04, 2.454128931013487e+06, 8.594372494270036e+06, 9.151634268497516e+05, 1.150586923191920e+06, -5.183411407756907e+05, 3.605990517305081e+05, 7.149446002436046e+06
2807, 8.776091331984759e-02, 6.696453943797252e-02, -3.627120722550022e-02, 4.563945477556453e-05, 1.242349220756840e-04, 6.961381687063672e-05, 1.552489881772492e+06, 7.220358548435669e+06, 8.744653955887523e+05, 4.055345148596786e+05, -3.735756693521349e+05, -3.767083414831979e+05, 6.563498097241285e+06
2808, 1.990150988727982e-01, 7.655055396368238e-02, -4.226567913406079e-02, 3.061079028008132e-05, 1.788369555823129e-04, 1.369085113381661e-04, 2.653099760649206e+06, 8.496871614475820e+06, 8.239097809757221e+05, 1.320532149644700e+06, -6.449204417575912e+05, 2.050004885474923e+05, 6.864615919849445e+06
2809, 2.523307825525991e-01, 4.464915567533644e-01, -4.217704898967840e-02, 7.978912539184039e-05, 8.315716292593665e-04, 3.640081885333640e-03, 7.518170994432238e+05, 5.882658308363740e+06, 4.479399260341606e+05, 4.565208096346061e+05, 9.933865321830098e+04, 2.225166182153025e+04, 5.344238975566182e+06
2810, 2.108074149980135e-01, 4.561376031179971e-01, -4.235288357983569e-02, 1.058964441342757e-04, 8.361879637903274e-04, 3.722151909034440e-03, 9.469485461235318e+05, 5.926328065747716e+06, 4.286489428254074e+05, 9.875630127351475e+05, -3.279428987411339e+04, 3.509940095105461e+05, 5.051501917365024e+06
2811, 7.366655403021533e-02, 1.925371610398495e+00, -3.438284027801734e-02, 9.061017943851057e-05, 9.097558508516512e-04, 3.860570439514932e-02, -1.818845610712593e+04, 4.176856568324554e+04, 2.271038222444202e+03, 1.610897898253285e+04, 1.037181909229647e+04, 9.195735770090612e+03, 5.750363344528127e+04
2812, 7.127199376581789e-02, 4.601540860117428e-01, -3.401819523208343e-02, 1.298064531244369e-04, 7.139826563609883e-04, 3.477845735294629e-03, 7.596306512653367e+05, 5.076686794859794e+06, 3.024297829318143e+05, 7.426991596071114e+05, 2.197093012610219e+05, -2.509986762983718e+05, 4.395288782428836e+06
2813, 7.041131112120630e-02, 5.434724499061918e-01, -3.388367574516555e-02, 1.321938119296061e-04, 7.927884260541807e-04, 4.795831621004353e-03, 2.973666191059811e+05, 4.741393304662894e+06, 2.690076967963058e+05, 3.016633944946954e+05, 1.563100877701112e+05, 1.866384177124775e+05, 4.486111045220919e+06
2814, 4.183954015591489e-02, 5.639911858391087e-01, -2.807369089095264e-02, 1.271389793054654e-04, 7.167199307555536e-04, 5.067348577930508e-03, 6.765523241307379e+05, 5.116286308138015e+06, 2.504275792045298e+04, 3.607174685684389e+04, 5.961926788599088e+04, 5.767726406786345e+05, 4.896484599304129e+06
2815, 3.572058950603066e-02, 3.013629331365618e-02, -2.635812591283114e-02, 3.350169560389915e-05, 4.877929827741241e-05, -1.874242768849094e-07, 1.672844443227065e+06, 5.576352651041048e+06, 8.469398585184071e+05, 1.665436690260521e+06, -2.568063436469817e+05, -1.521394998085316e+06, 4.955809269396079e+06
2816, 3.659757077002532e-02, 1.972869083260815e+00, -2.661834515360499e-02, 7.267043497195813e-05, 6.830747973370632e-04, 3.981059330813680e-02, -2.342421759100853e+04, 8.814941562155931e+03, -6.847450178097646e+02, 5.129224507926732e+03, 8.068535727635215e+03, 8.076957899629024e+03, 3.642177445871959e+04
2817, 7.665106019143020e-02, 7.485546448483624e-01, -3.481829133639303e-02, 1.339004402859632e-04, 9.736046305282853e-04, 8.683505569336919e-03, 5.711584226765792e+05, 3.893842424809778e+06, -3.320890100901982e+05, 3.136147399514094e+05, -2.017538572866124e+05, 4.042732706168689e+05, 3.592432020463136e+06
2818, 4.151708056313619e-02, 7.295342021555993e-01, -2.798877597121764e-02, 1.248973278829349e-04, 8.313236187825479e-04, 8.194546068152722e-03, 5.012842846113223e+05, 3.166164875593094e+06, -6.385044684442414e+04, 3.107853034143422e+05, -2.278920698925945e+05, 7.095582576306423e+04, 2.797976889914876e+06
2819, 7.793462718842281e-02, 8.314187588958021e-01, -3.499930659989563e-02, 1.275363420486439e-04, 1.019508329330881e-03, 1.045245370359787e-02, 1.394948920129013e+05, 3.377040497502268e+06, 2.746054383906450e+05, 2.363415200334659e+05, 1.394781779270717e+05, 7.490428142612333e+04, 3.237121301849937e+06
2820, 4.358171626709850e-02, 8.504814718762396e-01, -2.852288900797397e-02, 1.221693641511833e-04, 8.844253003305741e-04, 1.078269128157403e-02, 2.993747596682691e+05, 2.256875128765289e+06, 9.476248302778140e+04, 2.359805651503157e+05, -2.655078285761141e+05, 2.276354341958895e+05, 2.086575509407720e+06
2821, 2.122554085831234e-01, 1.867650358906395e+00, -4.235895254953969e-02, 1.074230935867553e-04, 1.142819669666825e-03, 3.734298272709924e-02, -9.798292294017205e+03, 9.705888350261500e+04, 3.242845308565853e+04, 2.620495262008935e+04, 9.871107727277344e+03, 2.945096050788088e+04, 1.221339094147432e+05
2822, 9.234030881490174e-02, 2.721069343089725e-01, -3.680108454258287e-02, 9.788948810934839e-05, 4.726484243255322e-04, 1.255212852148413e-03, 1.206075724623916e+06, 7.365523592951776e+06, 6.839473852920813e+05, 6.606928053313427e+05, 4.778973127136420e+05, 4.008584107235715e+05, 6.645755805726512e+06
2823, 6.197677468570029e-02, 2.932558340257021e-01, -3.245997263901008e-02, 1.130489711117094e-04, 4.690596513291373e-04, 1.393352531251640e-03, 9.982811981631484e+05, 7.856761305919360e+06, 5.593087366393233e+05, 1.317597460723882e+05, 2.821209035728831e+05, 1.025499593133969e+06, 7.620028386129872e+06
2824, 6.388846704884113e-02, 3.270872033343044e-01, -3.280030106326837e-02, 1.127487613386546e-04, 5.185893954649072e-04, 1.735204599466168e-03, 4.068424217451828e+05, 4.236276840938726e+06, 1.758678277357956e+05, 4.073347258917156e+05, 7.228448844105507e+04, 2.408136168888416e+05, 3.865891899855252e+06
2825, 6.642073871127244e-02, 2.503631022889272e-01, -3.323475506077321e-02, 1.039498787003823e-04, 4.062395229043336e-04, 9.992948091814930e-04, -1.919547881102940e+05, 5.884644311214484e+06, -4.199762926415569e+05, 3.984336080967046e+05, 1.351897521443383e+04, 2.226425655953685e+05, 5.862120704907686e+06
2826, 5.646644742429655e-02, 2.146875373691770e-01, -3.141448522329318e-02, 1.039047385109071e-04, 3.280935281711147e-04, 7.178787211098662e-04, 1.062978370702256e+06, 9.191731648657469e+06, 2.758391791283734e+05, 5.136917528465808e+05, -4.912259628893037e+05, -8.026483493417212e+05, 8.586516450460767e+06
2827, 8.231436363729036e-02, 1.168969128457167e+00, -3.559026741684101e-02, 1.175078411132235e-04, 1.112188713743575e-03, 1.850461273493747e-02, 1.779441600351713e+05, 1.749123856073981e+06, -1.744695612376451e+05, 1.697235126148584e+05, 5.270969124673794e+04, 1.856512786143283e+05, 1.638487821256679e+06
2828, 5.039985135972297e-02, 1.143064372982013e+00, -3.013953886766593e-02, 1.095702168928542e-04, 9.758018575640355e-04, 1.777059724714318e-02, 2.411089420219159e+05, 1.544294998018103e+06, -9.716882480689531e+04, 1.137986855074632e+05, -1.769150770793909e+03, 1.688607458258342e+05, 1.412192385866949e+06
2829, 8.455152743082206e-02, 1.253259186225356e+00, -3.587696520790046e-02, 1.140068227956093e-04, 1.115960034337699e-03, 2.066491379150794e-02, 1.019686851938473e+05, 1.096348541397706e+06, -2.511488143534999e+04, 4.705251756315510e+04, 5.775416334630390e+03, 8.882768602942355e+04, 1.035412007989669e+06
2830, 5.359361538942117e-02, 1.281182850979590e+00, -3.082817892340064e-02, 1.048669993932161e-04, 9.855142813639250e-04, 2.131370963813978e-02, 9.204087987768844e+04, 1.064703466185125e+06, 6.024395634413086e+03, -4.625702657950933e+03, -2.513887205997821e+04, 1.674625710552034e+05, 1.065634463578806e+06
2831, 5.418970548745436e-02, 1.309790936213044e+00, -3.095232004974630e-02, 1.037064356052986e-04, 9.845813078138907e-04, 2.205712205498747e-02, 3.764067266716510e+04, 4.859983403910334e+05, 2.458812312031968e+04, 5.772483391719279e+04, -4.178561009518361e+04, 8.744051236747812e+04, 4.716062475007437e+05
2832, 5.282179384182070e-02, 1.235113692982275e+00, -3.066543574612992e-02, 1.045999733019151e-04, 9.849652368347714e-04, 2.012177431638162e-02, 3.074907515323098e+04, 7.907746882294384e+05, 2.744325158844345e+04, 1.388445379178606e+05, 3.998101091149630e+04, 4.559532195731877e+04, 7.214290549116043e+05
2833, 4.924188857121434e-02, 1.189889236427554e+00, -2.987965645790094e-02, 1.056975754258893e-04, 9.699602628648052e-04, 1.895434020835265e-02, 5.736098230806648e+04, 9.031984670290378e+05, -2.477988893091619e+04, 1.761093838359940e+05, 8.428365916500696e+03, 1.345449780793376e+05, 8.279267348521729e+05
2834, 8.995237041094201e-02, 1.463506094646959e+00, -3.652941389100501e-02, 1.077914916342709e-04, 1.106645945902687e-03, 2.619417164782716e-02, 9.422486661253622e+04, 7.473280635157021e+05, -3.785110912776789e+04, 5.818114493723565e+04, 1.370822875217838e+03, 1.283142129288453e+05, 7.106902096575471e+05
2835, 5.692393043406205e-02, 1.437851727055178e+00, -3.150513051725670e-02, 9.964869741866181e-05, 9.803505722728659e-04, 2.543507709678371e-02, 1.203498492651935e+05, 6.467875998335829e+05, -3.869421952261944e+04, 1.219479688967215e+05, -3.183549948992593e+03, 6.706850644549121e+04, 5.425077282588844e+05
2836, 5.583488555452859e-02, 1.404024794872414e+00, -3.128814564250958e-02, 9.965055110894034e-05, 9.811951221088966e-04, 2.453655815010337e-02, 9.464317930714339e+04, 7.536707761214034e+05, -5.871655830760916e+04, 5.771732815468149e+04, 3.573305185658792e+04, 4.133676375247398e+04, 6.923262861884226e+05
2837, 5.587260369208555e-02, 1.482643338824096e+00, -3.129573043679061e-02, 9.635172569670038e-05, 9.644533841524500e-04, 2.662499196491580e-02, 1.085810554055410e+03, 2.190761664615988e+05, 8.866899259509693e+03, 3.347447826430309e+04, 1.660815875366705e+04, 4.683604054784517e+04, 2.217038711092080e+05
2838, 5.951297408427181e-02, 1.530960852501649e+00, -3.200477000032978e-02, 9.708292163254466e-05, 9.704624670849940e-04, 2.792458763157937e-02, 5.933001040807946e+04, 5.473844846821105e+05, -3.041218706462776e+04, -7.309682033134827e+02, 2.689314864488890e+03, 2.616760182957767e+04, 5.253267089319207e+05
2839, 8.844929308170210e-02, 1.382208969767987e+00, -3.635325251995066e-02, 1.098031376757479e-04, 1.114911217058850e-03, 2.403642760352903e-02, 1.584934863021881e+05, 9.330985525162155e+05, -2.264644742253894e+04, 6.629482291486562e+04, 9.502000071819164e+03, 8.876586392673345e+04, 8.398682863684557e+05
2840, 5.277791953353818e-02, 1.372199548859226e+00, -3.065611568509349e-02, 9.939641684443556e-05, 9.698055884778435e-04, 2.368945088569463e-02, 6.837372095692417e+04, 8.636258997689669e+05, -3.912523852792326e+04, 5.829079215832918e+04, 2.194194889004757e+04, 4.583706438479051e+04, 8.080135977206543e+05
2841, 8.508097106905183e-02, 1.335638372573818e+00, -3.594336149101764e-02, 1.116083780503194e-04, 1.110743190774286e-03, 2.280436643357053e-02, 7.940427687193759e+04, 9.788010114165311e+05, -2.180656420947093e+04, 8.433224348825926e+04, -8.588717674409410e+03, 9.825658933322653e+04, 9.138476475133684e+05
2842, 9.396096611229382e-02, 1.549219265196377e+00, -3.697983748658316e-02, 1.065315747031254e-04, 1.096709242813743e-03, 2.849149692935700e-02, 2.962954675938746e+04, 5.681784566444015e+05, -4.348691007927717e+04, 1.186244722757691e+04, -1.174584266302473e+04, 1.682181426818869e+04, 5.539451227864804e+05
2843, 5.870561809697258e-02, 1.566318073074046e+00, -3.185135786600250e-02, 9.629916501062430e-05, 9.574453502096784e-04, 2.886957251757692e-02, 6.104654803790349e+03, 3.423406852994380e+05, -1.271495968033059e+04, 1.375969267281844e+04, -2.748309502459530e+04, 3.539639564499947e+04, 3.421243266288625e+05
2844, 5.737129640827288e-02, 1.604818800256955e+00, -3.159307347214644e-02, 9.400136257370351e-05, 9.398159572573117e-04, 2.990032359514695e-02, 8.862384131755622e+03, 2.111543832441237e+05, 9.293273263024528e+02, 2.969074199417367e+04, -4.970881738900689e+03, 4.987824607491642e+04, 2.113828315735725e+05
2845, 9.603036781402410e-02, 1.631323422362337e+00, -3.720167305172740e-02, 1.041970939405943e-04, 1.082183948801944e-03, 3.070111909423952e-02, 1.749257272499713e+04, 3.375716991082014e+05, -1.354865881726557e+03, 3.837627853563856e+04, 1.556092202305026e+04, 6.174949552021988e+04, 3.292009606021927e+05
2846, 5.807886573876248e-02, 1.645796984357427e+00, -3.173077890718771e-02, 9.283793212198910e-05, 9.315350846674716e-04, 3.100557593482541e-02, -1.935822980028093e+04, 1.543049665473853e+05, 2.069444508396724e+04, -3.224155176371494e+03, -3.369953975333808e+03, 5.276708940695432e+04, 1.931042885986487e+05
2847, 9.328393734534329e-02, 1.671876700128510e+00, -3.690570912865045e-02, 1.029693488331027e-04, 1.061718807950620e-03, 3.178795776978841e-02, 1.858739108330162e+04, 2.791341514500073e+05, 5.641498708046127e+03, 4.908907712216387e+04, 5.741197959130345e+03, 3.437409082926702e+04, 2.541789716945591e+05
2848, 6.662256408984465e-02, 1.691295920767959e+00, -3.326860754578382e-02, 9.519164887331413e-05, 9.589129916618595e-04, 3.225258194142146e-02, 4.176287035624693e+04, 3.178502494599386e+05, -5.984542086084011e+03, 3.908287970183862e+04, -3.034347381682792e+02, 3.821424398132391e+04, 2.854120540991656e+05
2849, 5.768341556733605e-02, 1.728819369899235e+00, -3.165402557863756e-02, 9.061083751720281e-05, 9.035209007555445e-04, 3.324613061081599e-02, -9.518874684941886e+03, 1.295311725684117e+05, 9.501353970627953e+03, 1.878145262184060e+04, -4.730909217000805e+03, 3.348849460611880e+04, 1.410782471480758e+05
2850, 9.831794019847603e-02, 1.757018811237353e+00, -3.743882380013772e-02, 1.014665593001007e-04, 1.049399187214384e-03, 3.409939635966566e-02, -9.926475481924355e+03, 1.310573923807221e+05, 8.384609304041565e+03, 1.367392312183416e+04, 1.293383382229726e+04, 3.189388824991568e+04, 1.444665077039566e+05
2851, 5.894538662186180e-02, 1.771115659405303e+00, -3.189714293980276e-02, 8.981056345379324e-05, 8.962415875477386e-04, 3.439303085483175e-02, -7.036738555904481e+03, 9.700872384029142e+04, 7.506862950927133e+03, 2.270947734867058e+04, 7.053252836952371e+03, 2.724672085188848e+04, 1.056446511184137e+05
2852, 2.813934614963344e-02, 1.579495460343077e+00, -2.386609121750746e-02, 7.885352708963955e-05, 7.404842641237572e-04, 2.915259095325294e-02, 2.285061530546034e+03, 2.335254215717827e+05, -6.629051156008734e+03, 3.404238545049014e+04, -1.338863207582155e+04, 3.336253560947701e+04, 2.261544437514238e+05
2853, 2.283791464423432e-02, 1.417818090620158e+00, -2.179978434544256e-02, 7.883678341007172e-05, 7.288152388866508e-04, 2.482344500834233e-02, 8.025286096775018e+04, 4.598398680409157e+05, -6.398351027277410e+03, 2.361416105573065e+04, -2.907064271999813e+03, 5.039239676235746e+04, 4.201903182614038e+05
2854, 5.005305741544641e-02, 1.107822806407029e+00, -3.006229542865597e-02, 1.110127722978443e-04, 9.732403668987755e-04, 1.688954390291332e-02, 1.991064420727029e+05, 1.923878034121807e+06, -1.145371725387543e+04, 4.587305493261207e+04, -7.777849531221958e+03, 2.459158683131631e+05, 1.855965786155056e+06
2855, 1.947187455219168e-02, 1.120769057992220e+00, -2.030108374871912e-02, 8.866237691235179e-05, 7.308631317189569e-04, 1.713357616405503e-02, 2.870842396842222e+05, 1.615139759430067e+06, 8.826487951321762e+03, 2.142131071260035e+04, -2.100544321873418e+04, 2.034078085168890e+05, 1.520790909648607e+06
2856, 4.809814131234630e-02, 1.076098499012601e+00, -2.961735086839609e-02, 1.089069513134609e-04, 9.588342863529956e-04, 1.609545647193892e-02, 1.011966895734793e+05, 1.746579653692842e+06, -1.827160378209162e+04, 5.898277273805946e+04, 7.546894482612507e+04, 1.317574863731408e+05, 1.687807310701811e+06
2857, 7.827341366345342e-02, 1.044304814162103e+00, -3.504647588834200e-02, 1.201040389550174e-04, 1.084080742895344e-03, 1.539695336132119e-02, 1.806399047159431e+05, 1.984327569682727e+06, 6.329487868442073e+04, -1.482840030075800e+03, 1.115644392677124e+05, 2.197012952610083e+04, 1.914616695900254e+06
2858, 8.233789511196327e-02, 1.083946594395908e+00, -3.559333528513226e-02, 1.186768360466398e-04, 1.103664965074996e-03, 1.637453084176727e-02, 1.729761266641452e+05, 1.564062714740453e+06, 2.765847748325163e+04, 3.329543668370359e+04, 1.035150852283859e+05, 1.753798031602171e+05, 1.508527707380072e+06
2859, 9.204751566752820e-02, 1.847142200325527e-01, -3.676830828565154e-02, 9.866060735370941e-05, 3.279829311722861e-04, 5.690352185280384e-04, 1.700282402579621e+06, 8.271239477745727e+06, 1.119723504337022e+06, 1.059228654327940e+06, -9.763672019820280e+05, -2.149598714919586e+03, 7.377126692323784e+06
2860, 7.377296473719136e-02, 6.679982764939569e-01, -3.439872442745556e-02, 1.317402385850874e-04, 9.072667452554861e-04, 7.056189048255722e-03, 2.863667784404776e+05, 3.532028876537009e+06, -1.073028467872460e+05, 2.504938440820282e+05, 4.670498577618667e+04, 1.332862269251874e+05, 3.278173602873016e+06
2861, 4.113827893516409e-02, 6.907096055441473e-01, -2.788829540758401e-02, 1.223509574870690e-04, 8.009381792412548e-04, 7.409220605163191e-03, 3.025432755989233e+05, 2.075062765100338e+06, 2.682221373449853e+04, 3.474529559712270e+05, -1.036096845595553e+05, -1.380613471645629e+02, 1.760284689236820e+06
2862, 1.605869629013570e-02, 7.076027921470299e-01, -1.858588717408888e-02, 1.025202521121107e-04, 6.271129270856990e-04, 7.673343023246166e-03, 3.665991225477161e+05, 2.157134269300362e+06, -6.456205566275834e+04, 4.400662629431562e+05, -2.122385118269498e+05, -7.011691423614706e+04, 1.800626978375230e+06
2863, 7.124410806128911e-02, 6.239893109647121e-01, -3.401386601132091e-02, 1.311400567504256e-04, 8.743763104211572e-04, 6.223504812514644e-03, 5.332081227111144e+05, 5.196985608758083e+06, -4.094111602881540e+04, 2.925437540885865e+04, -7.127862087535922e+04, 5.689822418832603e+05, 5.034541765098196e+06
2864, 4.210385541024739e-02, 6.535584292786677e-01, -2.814287392490302e-02, 1.195689342753034e-04, 7.899880555575153e-04, 6.696100548598601e-03, 2.810563356798585e+05, 2.944340242384657e+06, -2.395751730412803e+04, 4.170078139171426e+05, 6.685490968997293e+04, 1.030922203076715e+05, 2.607010017334912e+06
2865, 7.979329944116700e-02, 9.591567344089691e-01, -3.525503227228578e-02, 1.238147912547560e-04, 1.068302700855669e-03, 1.336483455940582e-02, 2.585014640827155e+05, 2.614705180867126e+06, 3.316771933480357e+04, 1.253936974584577e+05, 1.118531832812140e+04, -1.825680982638346e+04, 2.426462076181771e+06
2866, 7.851458787564872e-02, 9.173066802203069e-01, -3.507990187319614e-02, 1.243113433978954e-04, 1.060666321753684e-03, 1.238572581888731e-02, 3.288338267665249e+05, 1.956099614183847e+06, -9.919985270540704e+04, 2.092963272897092e+05, -2.056941629603536e+04, 1.012625967669865e+05, 1.708319617458837e+06
2867, 4.576473024854773e-02, 9.400558590379486e-01, -2.906402862186213e-02, 1.113026467135549e-04, 9.215223329169103e-04, 1.283091586265278e-02, 2.221479081305479e+05, 1.463668000547007e+06, 1.176185530227773e+05, 2.548286798344306e+05, 6.931953667430636e+04, 1.306315093930267e+05, 1.268454996555072e+06
2868, 4.609038899925166e-02, 8.950180482358300e-01, -2.914276857771672e-02, 1.153884018346429e-04, 9.163588284286650e-04, 1.179004658334280e-02, 8.374948868803050e+04, 1.288791383241671e+06, -1.290548066725634e+04, 8.715269062773659e+04, -1.426042556313615e+04, 1.681208781666277e+05, 1.238523383320612e+06
2869, 9.577142629826696e-02, 3.531655413439007e-01, -3.717430053484315e-02, 1.173471292917755e-04, 5.982622610771759e-04, 2.110219540409637e-03, 9.786416935965787e+05, 6.768168252474493e+06, 2.822427161239550e+05, 8.356886458969711e+05, -5.928136150209574e+04, 2.960913286272875e+05, 5.905863165759372e+06
2870, 2.931504419779589e-01, 1.777117313577653e+00, -4.144121217433976e-02, 1.056783238728340e-04, 1.147363293286116e-03, 3.506183290695425e-02, -1.323068159403851e+04, 1.348005040787771e+05, 5.525960095092541e+04, 2.178227155996482e+04, -5.434553545493727e+03, 2.622347004598403e+04, 1.710807253994765e+05
2871, 2.931990998643106e-01, 1.727020504403445e+00, -4.144007666348527e-02, 1.057806450690232e-04, 1.164135173216025e-03, 3.370598936740033e-02, -3.381178623689598e+04, 1.584524824242258e+05, 6.547723806794295e+04, 2.572916493524658e+04, 1.897790664634715e+04, 3.617787700478564e+04, 2.166376738440264e+05
2872, 2.520823532781852e-01, 3.487202150136764e-01, -4.218000912525927e-02, 7.173181906676299e-05, 6.820038876411919e-04, 2.319502863057337e-03, 1.380518605991350e+06, 7.030979416072344e+06, 5.123044439959034e+05, 1.034344812728503e+06, -2.685993110707226e+05, 4.560900876871471e+05, 5.969207980771672e+06
2873, 2.961751345564862e-01, 1.244277868757493e-01, -4.136958589270452e-02, 1.873718706410944e-05, 2.917915079655021e-04, 3.692967613224511e-04, 2.197604003694470e+06, 7.714515294890351e+06, 7.002927182739472e+05, 6.296884459179190e+05, -2.636614292998077e+05, 2.404330213873562e+05, 6.587710244888254e+06
2874, 1.057170504185513e-01, 2.945632056218646e-02, -3.815118602469108e-02, 1.927258054103265e-05, 5.443778810246573e-05, 1.755417955066202e-05, 4.382600698948246e+06, 9.900298904266465e+06, 1.019277747562164e+06, 3.739224336935865e+06, -3.331668886305039e+05, -3.089113547585616e+05, 6.176159308870664e+06
2875, 2.947849080848951e-01, 1.075368928147844e+00, -4.140278117327617e-02, 1.059618185739325e-04, 1.250268056581218e-03, 1.661892426346540e-02, 1.558635740250212e+05, 1.646258839776651e+06, 1.729104178771200e+05, 2.327294247108728e+05, -7.734683129142268e+04, 2.438154278346199e+05, 1.548743177718855e+06
2876, 2.534855629325204e-01, 1.100444600832227e+00, -4.216300664807478e-02, 1.093414613437104e-04, 1.263799101216684e-03, 1.715951722739082e-02, 7.442577362879556e+04, 1.665726181913818e+06, 2.287734471383666e+04, 2.376800168960182e+05, -1.803836617872993e+04, 2.775894038228424e+05, 1.591482419443666e+06
2877, 2.537410350017902e-01, 1.147611202285536e+00, -4.215983739888407e-02, 1.119072872073920e-04, 1.275083328140621e-03, 1.833773549223621e-02, 7.365377351289614e+04, 1.497531439352511e+06, 1.710276433072774e+05, 2.176488297339850e+05, 9.066686275667523e+04, 1.550417280637408e+05, 1.423958375656945e+06
2878, 2.180817966910333e-01, 1.123984068433185e+00, -4.237351344922258e-02, 1.153040948183789e-04, 1.273761963327822e-03, 1.767471093453753e-02, 2.090971482226235e+05, 1.862071036214728e+06, 1.103347499421907e+05, 3.438077512120518e+05, 1.632713077540271e+04, 2.081430511665791e+05, 1.641672347864702e+06
2879, 2.948793602782010e-01, 1.173685594614283e+00, -4.140054074592184e-02, 1.032567684418478e-04, 1.257890757846405e-03, 1.907566090760440e-02, -6.646412847235730e+04, 1.315713355231481e+06, 1.308107398427586e+05, 1.003402813261609e+05, 9.264805033586452e+04, 1.729306336620113e+05, 1.369118458360730e+06
2880, 2.480276284888908e-01, 1.195423979060693e+00, -4.222552475635975e-02, 1.102222724890453e-04, 1.276812251305299e-03, 1.953677011280638e-02, 9.785242099779536e+04, 1.336888337873972e+06, 1.256357910739798e+05, 1.792162510438984e+05, 6.374337251106813e+04, 1.887439938544022e+05, 1.267845796084512e+06
2881, 2.940822996503311e-01, 1.223520820103813e+00, -4.141937817475783e-02, 1.035701773170767e-04, 1.259640859008142e-03, 2.034430654174027e-02, 1.597444311372171e+05, 1.284162617298956e+06, 1.158007544071041e+05, 2.120254319065446e+05, -5.201392305030879e+03, 1.057408361253593e+05, 1.132306421972380e+06
2882, 2.493389825735826e-01, 1.245562976222605e+00, -4.221139051791248e-02, 1.118675895140338e-04, 1.277767931230613e-03, 2.082399822861442e-02, 1.946615140996727e+05, 1.461653372086638e+06, 2.329000447035352e+05, 2.378049712516323e+05, -2.748062003348386e+04, 1.395561421412907e+05, 1.332624445780740e+06
2883, 2.471541969722185e-01, 1.288943843811127e+00, -4.223461914099612e-02, 1.131953882336622e-04, 1.278246799181045e-03, 2.193958411361094e-02, 1.746681042754466e+05, 1.083817429784623e+06, 4.811032579953006e+04, 1.813953427703569e+05, -4.959492673555922e+04, 1.158081738877318e+05, 9.354352289219876e+05
2884, 2.866780233505354e-01, 1.323174079882844e+00, -4.158754308651334e-02, 1.064895349394829e-04, 1.256932321713807e-03, 2.290913569054009e-02, -9.615274204189658e+03, 8.565660376454754e+05, 1.374179187900870e+05, 7.711853517552780e+04, 3.069151018677192e+04, 1.713423254347578e+05, 9.111625271923136e+05
2885, 2.916802364571910e-01, 1.375952994335942e+00, -4.147528155201410e-02, 1.039674111057987e-04, 1.245913354064957e-03, 2.430357512732721e-02, 1.317175711125128e+05, 8.764850360393503e+05, 1.394972346600075e+05, 1.084477233431548e+05, 5.293547004032946e+04, 2.004576189652146e+05, 8.717140509153929e+05
2886, 2.523228312881746e-01, 1.401109845045561e+00, -4.217714405677166e-02, 1.096286999911524e-04, 1.262462766225849e-03, 2.488769872997856e-02, 7.708565194983064e+04, 7.422406975479013e+05, 9.194781657728179e+04, 1.261160897672599e+05, 3.538954024658771e+04, 1.507660436462247e+05, 7.138165287815796e+05
2887, 2.514970486674510e-01, 1.450011009605270e+00, -4.218690614243893e-02, 1.112143588639369e-04, 1.253425722288093e-03, 2.618254435581518e-02, 7.875272532601333e+04, 7.845509074553312e+05, 8.906693018358642e+04, 1.059885335862432e+05, -3.781189167502537e+04, 1.331445435600230e+05, 7.489594510000396e+05
2888, 2.112745906067234e-01, 1.426431166065532e+00, -4.235494547606253e-02, 1.131068363802862e-04, 1.264271351815241e-03, 2.547288013955115e-02, -1.848186496252589e+04, 7.044789952849033e+05, 6.256023468963040e+04, 8.452276733339205e+04, 2.917957886585959e+04, 1.024864449965000e+05, 7.103662074843416e+05
2889, 2.509045844781044e-01, 1.500591728119838e+00, -4.219377709687864e-02, 1.111024071523484e-04, 1.246549002211959e-03, 2.752725097866089e-02, 2.564153030410442e+04, 6.491811754051251e+05, 6.454967364196769e+04, 7.450758531888637e+04, -2.976401628227494e+04, 6.288641846855250e+04, 6.226888739370765e+05
2890, 2.102555040707647e-01, 1.523344330787516e+00, -4.235031889140040e-02, 1.133216799854863e-04, 1.245296438247544e-03, 2.805017070442979e-02, 1.413047909684703e+04, 4.567482198542270e+05, 5.250888606075509e+04, 8.532365380477700e+04, -2.271794323305499e+04, 7.288901367370828e+04, 4.418437048717734e+05
2891, 2.944633276484265e-01, 1.525578195206958e+00, -4.141039268704892e-02, 1.069476521491604e-04, 1.219595624502733e-03, 2.828426931442535e-02, -1.921710391468876e+03, 4.574582824907144e+05, 8.668903688302882e+04, 4.819522484209716e+04, 2.541528372073150e+04, 5.873645653560241e+04, 4.747121854058322e+05
2892, 2.535686273334880e-01, 1.053962441545124e+00, -4.216197866798354e-02, 1.140845840544372e-04, 1.257374985137671e-03, 1.601804708242328e-02, 2.633134278691266e+05, 2.162805770411003e+06, 1.776940280400823e+05, 2.415639543541648e+05, -1.010803502049944e+05, 2.328254646640527e+05, 1.984403553401754e+06
2893, 2.517288311954123e-01, 1.005681134913469e+00, -4.218418780676828e-02, 1.073666508063474e-04, 1.248396736726942e-03, 1.484578692319160e-02, 2.437347164357210e+05, 2.066864276060582e+06, 2.070440655577042e+05, 1.388884940789209e+05, 6.779420491985806e+04, 1.068481826549192e+05, 1.924209414028064e+06
2894, 2.922553696713261e-01, 9.781215938091369e-01, -4.146200964964056e-02, 1.043282740626275e-04, 1.229649774776298e-03, 1.426414154219612e-02, 4.600902120728693e+05, 2.729950750413903e+06, 1.884109948138768e+05, 2.586836708938958e+05, -5.879158509446448e+04, 1.255818643814675e+05, 2.411259855895261e+06
2895, 2.472645472153262e-01, 9.495945471892695e-01, -4.223348442423584e-02, 1.112072553346027e-04, 1.238585869968557e-03, 1.350374666290301e-02, 3.966112745965181e+05, 2.444326180959390e+06, 2.078410794085973e+05, 3.632343068850833e+05, -4.338715269318731e+04, 7.381254407974861e+04, 2.100995675136541e+06
2896, 2.094940558944660e-01, 9.815267528912512e-01, -4.234654928254142e-02, 1.162216310500279e-04, 1.243029392343158e-03, 1.418087959898771e-02, 2.795501234555788e+05, 2.148817420086459e+06, 8.994117157510344e+04, 2.786425444688889e+05, 5.620898693706757e+04, 1.242972777217572e+05, 1.891019193739124e+06
2897, 2.924032321542813e-01, 9.249496342354946e-01, -4.145858589397700e-02, 9.996107373193633e-05, 1.208768888424040e-03, 1.301031959608312e-02, 2.709442676684238e+05, 2.516759599231320e+06, 2.715489545446438e+05, 3.721388617616465e+05, 3.389894446965521e+04, 9.484278187671267e+04, 2.253511006794618e+06
2898, 2.513021414820282e-01, 8.982228633492376e-01, -4.218917884775561e-02, 1.081672060802286e-04, 1.213455727365996e-03, 1.232337458466974e-02, 2.948800631960084e+05, 3.355630390237026e+06, 4.533137529362443e+05, 4.003879135557860e+05, -4.894460714967798e+04, 1.281181945213680e+05, 3.119182729223784e+06
2899, 2.527918331571093e-01, 8.500963229817844e-01, -4.217149847713215e-02, 1.044332927051805e-04, 1.181283243114464e-03, 1.124149018264418e-02, 4.581224172070501e+05, 3.381961978704114e+06, 1.409854114572197e+05, 4.152261909374435e+05, -3.692988995749228e+04, 3.124339114393751e+05, 3.005439486515997e+06
2900, 2.151516648567475e-01, 8.731188347239873e-01, -4.236817503889159e-02, 1.110422116406100e-04, 1.195888505063886e-03, 1.168807984186696e-02, 5.010064483445967e+05, 3.390494916337725e+06, 1.777218864896690e+05, 4.673869231952621e+05, -3.375271720981914e+04, 3.320308266955233e+05, 2.979315938861263e+06
2901, 2.484313355762394e-01, 1.356945838892722e+00, -4.222123441536602e-02, 1.094235807074101e-04, 1.268865480038656e-03, 2.371745534714510e-02, 3.484141484113295e+04, 6.803927791182589e+05, 5.270811974836717e+04, 1.718935007267966e+04, 6.158801978950910e+04, 1.593713327216845e+05, 7.241234902222772e+05
2902, 2.932251160295213e-01, 1.475467894085137e+00, -4.143946932738510e-02, 1.068263533589115e-04, 1.230471698020355e-03, 2.694270987336408e-02, 4.364122436364130e+04, 6.657306903140420e+05, 9.665615765091481e+04, 9.503213251796948e+04, -1.135511829779065e+03, 1.141113344955726e+05, 6.517375875740887e+05
2903, 2.948899940978250e-01, 1.625168411367830e+00, -4.140028837235898e-02, 1.067584185756032e-04, 1.193219472104807e-03, 3.095969769772347e-02, 1.495079705565691e+04, 3.260355670514820e+05, 5.431747343961812e+04, 6.252839069647237e+04, -9.012836161128416e+03, 5.123942284136963e+04, 3.181320316067543e+05
2904, 2.491780922348827e-01, 1.650322365113566e+00, -4.221315531249432e-02, 1.091972358299529e-04, 1.207938051592188e-03, 3.154211573243718e-02, -3.386591484703073e+03, 2.578221929781666e+05, 5.694158504032837e+04, 1.658001988206927e+04, 2.266299903186750e+04, 3.709302602430442e+04, 2.807290241497551e+05
2905, 2.949442176627098e-01, 5.242380662585516e-01, -4.139900104822776e-02, 8.445420229685752e-05, 9.090450513627429e-04, 4.916112278908161e-03, 9.016099731011295e+05, 4.440571884879885e+06, 1.445774509495774e+05, 8.357941452556270e+05, -6.588237580768480e+04, 3.546476184783280e+05, 3.635183217435626e+06
2906, 2.531290175040805e-01, 5.492129966417572e-01, -4.216739198891511e-02, 9.131715684002062e-05, 9.498642581622363e-04, 5.274473595854867e-03, 5.366666458497749e+05, 3.581243228150734e+06, 1.075181222266965e+05, 2.266376662510523e+05, -2.055497576262455e+05, 2.239762221184728e+05, 3.259048955973633e+06
2907, 2.529968594240575e-01, 5.978494497901941e-01, -4.216900624163730e-02, 9.723017164411929e-05, 9.877199132099918e-04, 6.135284952119058e-03, 8.541073419893631e+05, 5.129438732043019e+06, 2.384500461436726e+05, -6.378567166066419e+04, -5.355208463036157e+05, 3.773721966016655e+05, 4.950094465922186e+06
2908, 2.157502112956468e-01, 5.752393844074580e-01, -4.236958631451142e-02, 9.867593825206925e-05, 9.768715531264759e-04, 5.673876141929022e-03, 7.334528202778634e+05, 5.628480248622010e+06, 2.206774655286957e+05, 3.326426315911277e+05, -3.059759336531084e+04, 1.537394583711130e+05, 5.128716304446410e+06
2909, 2.948382838392021e-01, 6.237292796311315e-01, -4.140151535714649e-02, 8.213251855341067e-05, 1.015215631213543e-03, 6.659851943109946e-03, 7.305948099112564e+05, 4.118858490897541e+06, 3.053355873974738e+05, 3.968570420877665e+05, -9.854144680960436e+04, 4.440533315374412e+05, 3.690917775298289e+06
2910, 2.528741618365567e-01, 6.458177779953425e-01, -4.217049948170534e-02, 1.002400394183815e-04, 1.048306778984327e-03, 7.019279504303203e-03, 6.762789947974654e+05, 4.474149904784876e+06, 2.551040625427104e+05, 5.068278706950289e+05, -4.040888337900665e+05, 3.063124658614288e+05, 4.007826120537997e+06
2911, 2.942674887407901e-01, 6.725536804792718e-01, -4.141501550379330e-02, 9.464511529040393e-05, 1.052338378245872e-03, 7.593461439426789e-03, 6.258903395475493e+05, 3.748673729533510e+06, 1.143700031111877e+05, 6.843316288211204e+05, -1.837903031458281e+05, 1.682312245639175e+05, 3.130203723691541e+06
2912, 2.518514962879890e-01, 6.929387396238266e-01, -4.218274233875404e-02, 1.021608039754873e-04, 1.082159224027802e-03, 7.932678761388661e-03, 6.279140641212042e+05, 4.265646262078514e+06, -1.328187818232316e+05, 8.915126636276867e+05, -9.487317024028045e+03, 2.588998910322254e+03, 3.520921935469452e+06
2913, 2.480994448409884e-01, 7.397031979203799e-01, -4.222476553121567e-02, 9.856765446744631e-05, 1.121980053748681e-03, 8.872106208815810e-03, 4.265898154649064e+05, 3.739612593625113e+06, 3.346151581509380e+05, 2.992968044955587e+05, 1.205001435035746e+05, 1.991540912702465e+05, 3.451448667769430e+06
2914, 2.895570904849786e-01, 7.715534403640192e-01, -4.152363826404900e-02, 9.537913828522315e-05, 1.125936511214169e-03, 9.608320214612234e-03, 5.342809145516362e+05, 3.737575401476126e+06, 4.224276881319571e+05, 4.332210134935188e+05, -1.338030715656813e+05, 2.939081461765058e+05, 3.382783548148004e+06
2915, 2.441885674080693e-01, 7.965622089514659e-01, -4.226353372762496e-02, 1.094878515845235e-04, 1.155256965122226e-03, 1.006099248811005e-02, 3.224501391942808e+05, 2.935675807481667e+06, 1.830855340643754e+05, 1.459315453889045e+05, -1.064570705427935e+05, 1.908895567243471e+05, 2.750503019117251e+06
2916, 2.489283703201238e-01, 4.957157319574589e-01, -4.221587759593647e-02, 8.963508235018116e-05, 8.930340696937655e-04, 4.390383269823047e-03, 7.772743244514059e+05, 4.968694962314310e+06, 5.094191643755457e+05, 4.342776073573575e+05, -1.085525222912257e+05, 2.754691668871760e+05, 4.490525762234388e+06
2917, 2.928735314454097e-01, 8.216720556813275e-01, -4.144766471858242e-02, 9.625543151131968e-05, 1.153844535702372e-03, 1.068410760997919e-02, 4.901934664635321e+05, 2.917240246192930e+06, 2.802315259475106e+05, 3.745900737657151e+05, -9.832130667936853e+04, 3.141298844848619e+05, 2.597136533337545e+06
2918, 2.260452912318442e-01, 1.965811252665476e+00, -4.236911255052434e-02, 1.051917480316827e-04, 1.108204614801396e-03, 4.003455554556273e-02, -1.448551782476175e+04, 2.945364265240150e+04, 1.608403566621443e+04, 1.039442634107484e+04, 7.114205766700992e+03, 1.036861697364317e+04, 5.202794076854204e+04
2919, 2.943167465158993e-01, 1.923491010219291e+00, -4.141385365847294e-02, 1.031999232739833e-04, 1.096235854456638e-03, 3.903247812039017e-02, -2.017845239554304e+04, 3.903622490659042e+04, 3.776810887533176e+04, 1.245865567095091e+04, 4.952865448419720e+03, 1.168540786793546e+04, 8.603192461135995e+04
2920, 2.510260598534140e-01, 1.598082437326814e+00, -4.219237742668767e-02, 1.100052623309996e-04, 1.221842398719948e-03, 3.014138072963133e-02, 8.229470422596643e+04, 4.801174579138895e+05, 9.049832107957511e+04, 5.446052137797493e+04, 1.455564478291709e+04, 2.129102634247771e+04, 4.434818130451932e+05
2921, 2.514621757771814e-01, 1.548501031154142e+00, -4.218731366034061e-02, 1.105124750054576e-04, 1.235726919246163e-03, 2.880997744551059e-02, -5.200232157831663e+03, 2.793703308280322e+05, 5.571684610957289e+04, 3.825327546685311e+03, 5.909139925145810e+03, 5.410658242558027e+04, 3.109563938081689e+05
2922, 1.618259753828533e-01, 1.012694076800273e-01, -4.147227347022792e-02, 4.969451619202259e-05, 1.887971479941353e-04, 2.196055327382870e-04, 2.527789272040253e+06, 9.388769164306985e+06, 8.039252692714831e+05, 1.084975085723547e+06, -5.839273443928086e+05, 8.122618739675867e+05, 7.999686617670337e+06
2923, 2.945777945177332e-01, 3.742234887598300e-01, -4.140768628192192e-02, 6.029086460160316e-05, 7.198397684518992e-04, 2.685237133582735e-03, 1.275885845086435e+06, 5.927908150824461e+06, 3.061150614898754e+05, 6.523807890283179e+05, 1.082810770250942e+05, 4.935236034330074e+05, 5.096824484471824e+06
2924, 2.524727029012347e-01, 3.009896851680972e-01, -4.217534840454303e-02, 5.358583779112996e-05, 5.952725218581409e-04, 1.792212509799371e-03, 1.753127220978916e+06, 7.385152109772726e+06, 1.079253584948548e+06, 6.565981491494062e+05, -3.992143947836100e+04, 6.495961452923652e+05, 6.622901999802582e+06
2925, 2.965653943230043e-01, 2.247840949040890e-01, -4.136018403359146e-02, 3.000331797085171e-05, 4.966236269886965e-04, 1.079273620217501e-03, 2.703127863462923e+06, 8.488978013736842e+06, 6.740089595915737e+05, 1.880880648619648e+06, -3.767732084138395e+04, 4.496847449007864e+05, 6.394006857913234e+06
2926, 2.955145760264443e-01, 2.750009785312888e-01, -4.138541672694068e-02, 5.782190784623525e-05, 5.744611546102917e-04, 1.559762895329960e-03, 1.542051483117398e+06, 6.449101139765562e+06, 1.014100978148892e+05, 1.337538075239528e+05, -5.007348848354985e+05, 3.713058687451663e+05, 5.845484389197866e+06
2927, 2.524647663944004e-01, 2.499934435834519e-01, -4.217544369261493e-02, 6.014521038428893e-05, 5.416981263735091e-04, 1.277956022728108e-03, 1.679015225501115e+06, 7.842248655517226e+06, 1.281933082211911e+06, 6.071765429010418e+05, -9.875312215772283e+03, 3.677169768630058e+05, 7.146766656815731e+06
2928, 2.695111034960130e-01, 3.240492568422652e-02, -4.192432778342185e-02, 8.352139689145170e-06, 8.041227771194304e-05, 5.215975819666124e-05, 5.750714254903228e+06, 1.258471142611062e+07, 1.995230709330138e+05, 4.511034078416012e+06, -2.111720695790524e+05, 9.580322936700897e+05, 7.727805770004857e+06
2929, 2.067541728322733e-01, 7.583971849288118e-01, -4.233071875221647e-02, 1.142721745462649e-04, 1.131337779187248e-03, 9.187392847486646e-03, 2.855513079148307e+05, 4.405428137486099e+06, 2.888426263984379e+05, 6.501445706837432e+04, 1.213867210964447e+05, 2.928327734392260e+05, 4.299110809404500e+06
2930, 1.832954742411296e-01, 3.401290816227811e-02, -4.203437464427998e-02, 1.981284215442185e-05, 8.013990034247322e-05, 5.743772973620595e-05, 4.912919456439761e+06, 1.245326755131212e+07, 1.031486019009232e+06, 3.245522593835729e+06, -9.579930459104868e+04, 1.034185967615369e+06, 8.867798996084204e+06
2931, 2.531684839626108e-01, 1.701575380672428e+00, -4.216690874358701e-02, 1.089410836071225e-04, 1.191930971615886e-03, 3.293410021787731e-02, -7.015519487362198e+03, 2.024071794184517e+05, 5.353292380253698e+04, 4.200716612493583e+04, 1.338186757698402e+04, 4.500655200858839e+04, 2.262872985748262e+05
2932, 2.206856989481176e-02, 1.298411917255836e+00, -2.147168986806971e-02, 8.379607959910912e-05, 7.398531252481577e-04, 2.168381779395250e-02, 8.955920815055973e+04, 5.995083052519006e+05, 3.166595452645525e+04, 6.912069534763487e+04, -6.177159263879580e+04, 1.213885260207700e+05, 5.740638686924251e+05
2933, 4.777280633614078e-02, 1.023054380364671e+00, -2.954169130591183e-02, 1.115962784728614e-04, 9.466493304761802e-04, 1.480289084690373e-02, 1.212776924883380e+05, 1.260445306801057e+06, 8.457695553614372e+04, 1.008683650774547e+05, 3.180414194355386e+04, 1.977368074413583e+05, 1.209612693621214e+06
2934, 2.098711380294889e-01, 3.288337576543674e-01, -4.234844973479536e-02, 8.099534789147989e-05, 6.513287617066765e-04, 2.036089537467550e-03, 1.651077065964310e+06, 7.712352538547258e+06, 8.414299061227960e+05, 1.117286911556707e+06, 3.821656981011106e+04, 2.784905899677869e+05, 6.528438317038357e+06
2935, 2.949966141843356e-01, 4.220363766280635e-01, -4.139775641664621e-02, 5.918501666522802e-05, 7.844848224712337e-04, 3.341586777738464e-03, 1.265081135953120e+06, 6.214018980846865e+06, 3.048686980800228e+05, 6.685720178446509e+05, 3.260744154776597e+05, 2.993622557900299e+05, 5.354115902098935e+06
2936, 1.789605054182845e-02, 8.772796071504676e-01, -1.953689054163221e-02, 9.781502921998864e-05, 6.888133265542107e-04, 1.131549969829116e-02, 5.099384202898578e+05, 2.345251667473310e+06, 1.346888262148316e+04, 2.952475487363030e+05, -2.307645030532604e+05, 3.670874388032897e+05, 2.091184460877146e+06
2937, 2.071713358947385e-01, 1.226730743568953e+00, -4.233336174902311e-02, 1.153318364389422e-04, 1.280493925567686e-03, 2.025326530579100e-02, 5.505290103746326e+04, 1.247398674660236e+06, 5.896652232753950e+04, 1.958263628778704e+05, 2.156702540772850e+04, 1.971381086806111e+05, 1.184091142131591e+06
2938, 4.800128322273864e-02, 9.690279276206195e-01, -2.959487480503414e-02, 1.165939304842954e-04, 9.391440240908086e-04, 1.351284570322001e-02, 1.298021975366097e+05, 1.499134827473228e+06, 1.613645099007480e+05, 1.607222627041616e+05, -1.402257074083465e+05, 1.192681130265590e+05, 1.418967215358126e+06
2939, 2.020540656006508e-01, 1.997444636285965e-01, -4.229493087682910e-02, 7.311846309480952e-05, 4.166558887881665e-04, 8.130974076115752e-04, 2.138691156844320e+06, 8.998476569850001e+06, 9.566387903739371e+05, 1.608914022159222e+06, -3.662535208639546e+05, 3.580010200600027e+05, 7.382673609678917e+06
2940, 1.758157418152623e-02, 1.955767955167957e+00, -1.937893048549464e-02, 5.767918869002686e-05, 4.935019526361162e-04, 3.930283054271305e-02, -2.735310600751878e+04, 1.580960363535666e+03, 1.266149070179617e+02, -3.782310161670505e+03, 4.316767386960672e+03, 8.381146388466270e+03, 3.126413316449085e+04
2941, 4.990945473523856e-02, 1.942533584734210e+00, -3.003016382990521e-02, 8.091222425602330e-05, 7.862731894957148e-04, 3.901796874831015e-02, -2.202559876051889e+04, 2.285218830265847e+04, -1.730660599447025e+03, 8.722536267087733e+03, 8.472880994233579e+03, 9.303544277898747e+03, 4.542662024360056e+04
2942, 2.059194264755430e-01, 2.863699617592898e-01, -4.232517431887216e-02, 6.765423520305180e-05, 5.631859995123365e-04, 1.573432958123153e-03, 1.163379040143415e+06, 6.335199980466750e+06, 6.245460450354740e+05, 6.844483893583914e+05, 3.110447218920142e+05, 9.019219467046082e+05, 5.775366595612979e+06
2943, 2.063062104634862e-01, 1.651398955420083e+00, -4.232778596296859e-02, 1.104027006985919e-04, 1.211129812811740e-03, 3.148096413379678e-02, 2.504587090799204e+04, 3.394198516808556e+05, 5.347085609842763e+04, 6.551627114089191e+04, 2.107232776829178e+04, 5.424267813159022e+04, 3.263163235242473e+05
2944, 1.841654629426780e-02, 1.864063083731514e+00, -1.979424377439378e-02, 6.155295209383377e-05, 5.376013905240423e-04, 3.681800655516559e-02, -2.255745005226201e+04, 4.814842228836971e+04, 1.178445693263929e+03, 7.919506983363926e+02, -1.060291285588283e+03, 2.380590680205113e+04, 7.484168358441924e+04
2945, 4.252788184689946e-02, 1.843918504779067e+00, -2.825307898992763e-02, 8.016803470454331e-05, 7.730327903242087e-04, 3.632777964092081e-02, -2.452749580172883e+04, 7.920904267940848e+04, 7.360830899125899e+03, 9.820851114956172e+02, 1.028835588471295e+04, 1.578290231166505e+04, 9.996563821394439e+04
2946, 1.991098518752708e-01, 1.308980544440095e+00, -4.226666357338961e-02, 1.155665773542817e-04, 1.274275570140246e-03, 2.236119890663264e-02, 3.637117137818695e+04, 9.149398526540503e+05, 2.195586107248388e+04, 1.255659430742981e+05, 3.178513559234223e+04, 1.486333981497091e+05, 8.787648304567840e+05
2947, 1.851223123943368e-01, 1.018342483171960e+00, -4.206851022892504e-02, 1.189782880912371e-04, 1.247633377897805e-03, 1.501359919298385e-02, 4.523834440049176e+05, 2.614148732192976e+06, 1.277757860119409e+05, 3.390270674711362e+05, 1.203830429748371e+05, 1.819033730289312e+05, 2.263371689811382e+06
2948, 2.094384246628992e-01, 1.737146888344820e+00, -4.234626328945337e-02, 1.099194908903527e-04, 1.186038568705833e-03, 3.380275722085171e-02, -3.541020915831426e+04, 2.263139278541062e+05, 3.351303760038632e+04, 4.059003988298059e+04, 1.004047927341795e+03, 4.066845760348131e+04, 2.504368740661957e+05
2949, 1.777335234175580e-01, 6.007636774098688e-01, -4.191792584502398e-02, 1.202410791960335e-04, 9.855078978802251e-04, 6.045683047613326e-03, 7.051038217887727e+05, 4.772118230162906e+06, 4.408653832145050e+05, 6.534973388867734e+05, 2.677253683998266e+04, 4.669866439273135e+05, 4.241770912942483e+06
2950, 1.793971226937306e-01, 6.835033613591582e-01, -4.195478853265783e-02, 1.168681857736040e-04, 1.061572659832331e-03, 7.610550684254921e-03, 3.970222476587987e+05, 3.563434720480314e+06, 8.151022225774465e+04, 4.877681760952802e+05, -3.615008929019731e+04, 3.604957565219597e+05, 3.187599024216194e+06
2951, 1.741807850994559e-01, 4.764747333720996e-01, -4.183317641162087e-02, 1.153058779055013e-04, 8.458633369858304e-04, 3.957417570835994e-03, 2.777568681604126e+05, 6.158546789638231e+06, 9.425311155859574e+03, 3.614175063760383e+05, -1.835694920971056e+05, 4.138984112086154e+05, 5.891858283602843e+06
2952, 1.779585745678266e-01, 5.570324339310324e-01, -4.192301679315680e-02, 1.080304506533881e-04, 9.361935466103317e-04, 5.276750790616569e-03, 7.632426093053338e+05, 5.179594556517071e+06, 2.163235167201772e+05, 8.150587438863638e+05, 1.398996631565522e+05, 3.613983790490085e+05, 4.457459012782974e+06
2953, 1.742219874400947e-01, 4.357862133428747e-01, -4.183420584472890e-02, 1.150363912750633e-04, 7.866782338157158e-04, 3.356557526166270e-03, 1.017733482003958e+06, 6.447961077242154e+06, 5.972189456169321e+05, 8.025587749638512e+05, -3.177497385221490e+05, 7.343939730980119e+05, 5.804569677570838e+06
2954, 1.764859822443622e-02, 1.344415775224408e-01, -1.941275532369019e-02, 6.271057360940704e-05, 1.488938883516212e-04, 1.927486189608196e-04, 1.629372691650566e+06, 6.157644240128702e+06, 4.137599080776798e+05, 1.028892305309602e+06, -5.541192273047817e+05, -2.197152830504189e+05, 5.016424893850739e+06
2955, 1.953968996184410e-02, 7.641108754054815e-02, -2.033299835436889e-02, 5.513939475469687e-05, 9.276655990259411e-05, 2.230833626376810e-05, 8.143179378387618e+05, 4.554094456308111e+06, 2.586100572554718e+05, 1.064804424524351e+06, -7.304166709775050e+05, -1.367465678548732e+06, 4.530227210405568e+06
2956, 1.663515018489918e-02, 1.805626535984101e+00, -1.889176524303421e-02, 6.133580744130396e-05, 5.336843335471131e-04, 3.523050700681055e-02, -1.857614591388365e+04, 5.661493286706789e+04, 2.386148018044955e+03, 1.313149187729318e+03, -1.928220057750996e+03, 3.400673613674331e+04, 8.972956227401859e+04
2957, 3.802135150278591e-02, 1.809473268902686e+00, -2.703010844227652e-02, 7.861877756787372e-05, 7.520600768213693e-04, 3.538428332427024e-02, -1.921300620420629e+04, 7.319604689084005e+04, 7.493153964120779e+03, 9.429044639424761e+03, 2.651743481278152e+03, 2.497923600349667e+04, 9.367197748904864e+04
2958, 1.948931492862838e-02, 1.776759047440278e+00, -2.030929870230896e-02, 6.498909138197978e-05, 5.819258155028359e-04, 3.445547969055566e-02, -8.990133615611536e+03, 6.353718780458279e+04, 2.361373067301052e+03, 1.357917008071306e+04, 2.522970038392744e+03, 3.553370037545059e+04, 8.919893859885047e+04
2959, 1.758156948869646e-02, 1.945739168287562e-01, -1.937892811413528e-02, 8.553876241964957e-05, 2.197415809952440e-04, 4.835734876130621e-04, 7.230476842270008e+05, 4.142183588032414e+06, 8.317382683466615e+04, 6.215006495017769e+05, -1.785488560201355e+05, -5.375064397673989e+05, 3.609866687019103e+06
2960, 1.938173758104922e-02, 1.718479953936737e+00, -2.025854512280472e-02, 6.675544479033818e-05, 6.003625672503232e-04, 3.287894716176468e-02, -7.607892006975322e+03, 1.291329779967904e+05, -4.312286731774461e+03, 1.420998933407821e+04, -8.975061221977487e+03, 2.019883620692980e+04, 1.330868550012114e+05
2961, 1.759680275500891e-02, 2.843928874306565e-01, -1.938662347217061e-02, 8.922891027716984e-05, 3.244326751734739e-04, 1.198632861219490e-03, 1.138131506987852e+06, 4.888237003564396e+06, 3.402248847969029e+05, 1.568557318294970e+05, -4.513198479958248e+05, 3.460788378817461e+05, 4.474787199278180e+06
2962, 1.758156950125855e-02, 1.060245558640222e+00, -1.937892812048310e-02, 8.912976753600033e-05, 7.051544751455408e-04, 1.562601811738109e-02, 2.370851542148808e+05, 1.376315546583634e+06, 1.101189060621971e+04, 2.799430210941435e+05, -7.653383786794433e+04, 1.369949496440808e+05, 1.151128410757752e+06
2963, 2.225360866915546e-02, 9.999638544556599e-01, -2.155133476180057e-02, 9.536582235375977e-05, 7.522408340904750e-04, 1.418412849746892e-02, 3.032164390762438e+05, 1.812988164523644e+06, 6.926681224671900e+04, 1.778163755764729e+05, -7.132645232460002e+04, 2.701488492260692e+05, 1.653196471561092e+06
2964, 1.748715949496063e-02, 9.402842262711362e-01, -1.933113468450438e-02, 8.992016013282395e-05, 6.951084145133696e-04, 1.276084842808572e-02, 2.234083673279113e+04, 5.518827869702927e+05, -1.322229027028470e+04, 8.743913559493350e+04, 4.180040527521787e+04, 3.142976265470762e+05, 7.431658550568287e+05
2965, 1.761568139225249e-02, 4.331934278457458e-01, -1.939615412384656e-02, 1.003973826601071e-04, 4.819951166114660e-04, 2.937831833436877e-03, 5.997409512964388e+05, 3.846079914035475e+06, -4.307340150210748e+04, 2.737046219519123e+04, 7.894939737731550e+04, 1.360859743090092e+05, 3.578303566032855e+06
2966, 1.767418979511225e-02, 3.426739878947886e-01, -1.942564769006182e-02, 1.027861101144389e-04, 3.812954688685866e-04, 1.793143540241467e-03, 5.122388503761951e+05, 3.036619310826387e+06, 6.242375380222016e+04, 8.214708825992817e+05, -2.492257937233789e+05, 4.605012652894052e+05, 2.553765214120737e+06
2967, 1.774875587663705e-02, 6.412200233738194e-01, -1.946314044744065e-02, 1.041003767196114e-04, 6.135246278011746e-04, 6.389792597628396e-03, 2.384945042146471e+05, 2.782639926038383e+06, 1.434862111403923e+05, 2.980921888166046e+05, -1.195820841606935e+05, 2.256153850400584e+05, 2.565535820015863e+06
2968, 1.777361347345120e-02, 5.515904153809462e-01, -1.947561551769680e-02, 1.117579835716720e-04, 5.584278327514236e-04, 4.777148561471989e-03, 4.291840813761799e+05, 4.062773534514095e+06, -9.339075451469199e+04, -4.326474777734526e+04, -2.404988423650490e+05, 5.877730458781621e+05, 4.047095419172763e+06
2969, 1.830246005325306e-02, 7.922963477862115e-01, -1.973826532300070e-02, 1.004338136658262e-04, 6.775371868912236e-04, 9.449732383779663e-03, 4.191362077880973e+05, 1.959927745300411e+06, 1.032724120429038e+05, 3.434933209050279e+05, -1.034833094828481e+05, -4.266881482849405e+04, 1.601840869423880e+06
2970, 1.728140567008982e-02, 4.925373134316810e-01, -1.922637011139267e-02, 1.086917738454540e-04, 5.111152294093452e-04, 3.820976199767095e-03, 3.227121463189355e+05, 2.634515492496641e+06, 4.631957645724063e+04, 5.674250488047632e+05, -2.966416635590162e+05, 2.872581194944122e+05, 2.314426069252374e+06
2971, 1.760165530615504e-02, 4.032395273442566e-01, -1.938907388208999e-02, 1.082329826551168e-04, 4.443021946001907e-04, 2.527411380069733e-03, 4.625476728357340e+05, 5.227964373103169e+06, -1.653154924212293e+05, -2.080354480978690e+05, -3.205527613028758e+05, 2.698663685285665e+04, 5.171742524800444e+06
2972, 1.728140567004306e-02, 5.820895522373900e-01, -1.922637011136876e-02, 1.032691594222007e-04, 5.785672216864629e-04, 5.305791236978219e-03, 2.156819232402057e+05, 2.559270903575444e+06, -4.952229062417238e+04, -3.717164608225394e+04, 3.614625629404862e+04, 2.581309272246952e+05, 2.521924033169572e+06
2973, 1.728140567022923e-02, 1.447761194028396e+00, -1.922637011146393e-02, 7.271696907749578e-05, 6.531169309018647e-04, 2.560529377998383e-02, 6.198092777411574e+04, 2.865815152328271e+05, -2.063588448563511e+04, 5.652384287000207e+04, 8.728190672361477e+03, 6.725661610734669e+04, 2.584130191981640e+05
2974, 1.758156228636970e-02, 1.657260470964748e+00, -1.937892447468747e-02, 6.654197291278141e-05, 5.966511793115310e-04, 3.122164038472491e-02, -3.851824876532546e+04, 1.537321877741086e+05, 1.087304278501419e+04, -3.108921566520634e+04, -2.911812199763009e+04, 4.000372751686208e+04, 2.080537068542464e+05
2975, 1.836486499567060e-02, 1.357796806638192e+00, -1.976891499205770e-02, 7.768472243028374e-05, 6.855556121890204e-04, 2.322737992297919e-02, 6.386459068268660e+04, 6.730843211159366e+05, -9.615341492762784e+03, 6.314354301212155e+04, -2.331757157708507e+04, 7.157865854622447e+04, 6.235923999000083e+05
2976, 1.758157164762210e-02, 1.269200786403680e+00, -1.937892920507380e-02, 7.958944087722505e-05, 6.916364039068956e-04, 2.091510279935001e-02, 1.780962698572721e+05, 7.972633015719503e+05, 1.407403527666656e+04, 1.839967121665659e+04, -5.057426476055852e+04, 8.856909184501669e+04, 7.345411098099685e+05
2977, 2.182016658927907e-02, 1.210524089619598e+00, -2.136402612177671e-02, 8.722279982036063e-05, 7.503622072607807e-04, 1.941372222218617e-02, -3.264657117296897e+04, 3.629070258841401e+05, 1.835232658991152e+04, 1.032803906509882e+05, -1.115599473166247e+04, 1.046169564999681e+05, 3.941957679885647e+05
2978, 2.353971021645378e-02, 1.509530728512230e+00, -2.209222599782643e-02, 7.643862923209510e-05, 7.121574213512921e-04, 2.726795225631759e-02, 1.825183637379932e+04, 3.707986492776402e+05, 1.617732945656737e+04, 1.620507403492170e+04, 3.576903931645998e+03, 3.031429720796383e+04, 3.586020002732227e+05
2979, 1.720573699087610e-02, 1.556557759644530e+00, -1.918763058319275e-02, 6.940177408692322e-05, 6.222879994966651e-04, 2.851117480071223e-02, 2.755829761626992e+03, 2.642275068181962e+05, 1.545186522256052e+04, 8.778602701554650e+03, -3.092364366332435e+03, 4.187500772693182e+04, 2.698785736967827e+05
2980, 4.651492562892166e-02, 8.142163335826709e-01, -2.924466415923594e-02, 1.185311569809611e-04, 8.841743009885342e-04, 9.991514063966700e-03, 2.002045718911165e+05, 1.623313836959766e+06, 1.115192018705846e+05, 2.314389399105225e+05, -1.257667348048386e+05, 1.341349374349349e+05, 1.456194905836033e+06
2981, 1.003309959749989e-01, 1.797301080969013e+00, -3.764076179732666e-02, 1.008190884446564e-04, 1.041626110600033e-03, 3.519397648142636e-02, -2.592507763252749e+04, 1.339194228939332e+05, 1.175132014472488e+04, 2.380755634650217e+04, 8.882150900629375e+03, 2.654293932555563e+04, 1.511246256115098e+05
2982, 2.153798637528498e-01, 6.199974429413879e-01, -4.236873279511872e-02, 1.120175888870041e-04, 1.020991514969351e-03, 6.474084686064197e-03, 4.560013366316163e+05, 5.274096783727624e+06, 2.866475856529383e+05, 3.366194496368158e+05, -2.942603542644524e+05, 2.981262175783498e+05, 4.957458502765839e+06
2983, 1.441187986421093e-01, 1.969015696969633e+00, -4.075376922840057e-02, 1.023393526160682e-04, 1.064978196769426e-03, 3.994421276221710e-02, -1.650501047646397e+04, 2.645098204386564e+04, 6.265166742013299e+03, 1.415512158975954e+04, 8.963282569060202e+03, 1.070504359968786e+04, 4.659180946887193e+04
2984, 1.696379254801823e-02, 2.243872157413409e-01, -1.906299101114772e-02, 9.255920886034469e-05, 2.620472646582680e-04, 6.910709790829556e-04, 4.255219999172575e+05, 4.187645187382235e+06, 2.209585812062129e+05, -6.699569005401533e+05, -5.497237517766248e+05, -9.776242268190457e+03, 4.530818346630687e+06
2985, 4.686369509978577e-02, 7.711652416782875e-01, -2.932774564926586e-02, 1.205043469558881e-04, 8.753912509409101e-04, 9.075444743047110e-03, 2.632659697882673e+05, 1.692092665566514e+06, 4.224884737337210e+04, 7.631369183571199e+04, -1.393376164945673e+05, 1.227258878834763e+05, 1.566015334046911e+06
2986, 2.087367902149426e-01, 1.569644979443513e+00, -4.234253152802591e-02, 1.110735432353592e-04, 1.233183875592896e-03, 2.928746236384341e-02, -1.282782754684616e+04, 4.158547466926820e+05, 3.156082163225700e+04, 7.941572133858982e+04, 2.170291020796970e+04, 5.653966832855270e+04, 4.083208632672512e+05
2987, 4.452667325990109e-02, 5.690791732645060e-02, -2.876001204565108e-02, 4.568863968684028e-05, 7.901792199354815e-05, 1.200337209012088e-05, 9.376878501730998e+05, 3.483591385398186e+06, 4.339797823619547e+05, 6.922627203238748e+05, -4.863080996492507e+05, -1.069633334816476e+06, 3.445799686785543e+06
2988, 2.118556514389362e-01, 1.902757504580212e+00, -4.235737170328854e-02, 1.064831161597807e-04, 1.130425077507255e-03, 3.829381527956508e-02, -2.719508028589534e+04, 4.954519032115696e+04, 2.580682499050021e+04, 1.447567884069170e+04, 1.099027248988445e+04, 2.200910013471214e+04, 9.078123346788187e+04
2989, 2.155664541865148e-01, 5.306549194669283e-01, -4.236917079496046e-02, 1.069753828793207e-04, 9.238369471825034e-04, 4.905218487470738e-03, 7.271855381793188e+05, 4.220617478198116e+06, 1.205205729396612e+05, 3.821138325920655e+05, -1.043320392271635e+04, 2.271924624071730e+05, 3.705047522650277e+06
2990, 1.374208798821356e-01, 1.817847184416898e+00, -4.041202553630779e-02, 1.055903751438630e-04, 1.108691527637378e-03, 3.583179614490446e-02, -1.707190701856630e+04, 9.526226066884675e+04, 1.916418468414079e+04, 2.235092821326536e+04, 1.287497373516877e+04, 2.369425868616657e+04, 1.141400027949120e+05
2991, 2.136342289999941e-01, 6.626010708573904e-01, -4.236384187898017e-02, 1.141584158618342e-04, 1.063505566360700e-03, 7.270961147571087e-03, 5.407452128803112e+05, 3.446140139730565e+06, 1.413844783565598e+05, 5.475295952678884e+05, -2.463839332573838e+05, 2.616544757270356e+05, 2.978108029019007e+06
2992, 4.231380957883224e-02, 5.327664323426932e-01, -2.819756094891574e-02, 1.262861119792763e-04, 6.822310951829710e-04, 4.540116925259380e-03, 2.983994442845334e+05, 5.276876627858847e+06, 3.141423589309362e+05, -1.471195377151070e+05, 1.819329100953518e+05, 2.553455534641060e+05, 5.271877027093817e+06
2993, 2.166905063953268e-01, 8.349600590114221e-01, -4.237146837395540e-02, 1.165131533569161e-04, 1.178586558760540e-03, 1.084112574654264e-02, 6.358969714463049e+05, 3.435010815786346e+06, 1.493035882354116e+05, 6.052020722907501e+05, -5.550118247893581e+04, 3.696403714614897e+05, 2.899640813683540e+06
2994, 4.228942494252834e-02, 5.950284091092753e-01, -2.819122153265279e-02, 1.250975443327085e-04, 7.368114044820073e-04, 5.609352630846054e-03, 4.796705452356066e+05, 3.786619630077441e+06, -2.842796848193529e+04, 4.402417945055290e+04, 4.675946571348292e+04, 3.632619820168084e+05, 3.601558266947701e+06
2995, 4.037391529674815e-02, 6.238437962595145e-01, -2.768309899885859e-02, 1.257908628435160e-04, 7.575981488104552e-04, 6.133023619792927e-03, 7.119610495177929e+05, 4.910952273428902e+06, 6.624419746521067e+04, 4.029364443197214e+05, -1.600654458064712e+05, 6.521324225278698e+05, 4.515581127801044e+06
2996, 4.271212779741942e-02, 3.526954769620541e-01, -2.830066788147045e-02, 1.169960969715405e-04, 4.952826127992858e-04, 1.971155179488093e-03, 3.147592823567221e+05, 3.127093600913728e+06, 8.258950370655788e+04, 3.570005834697642e+05, -2.274403382407082e+05, 1.688555515918781e+05, 2.837851119901700e+06
2997, 4.482871526585500e-02, 4.787726197016953e-01, -2.883487101515603e-02, 1.249282446678674e-04, 6.483207689822745e-04, 3.686922740485044e-03, 3.958676202275185e+05, 3.566718525401824e+06, 3.091833106401594e+05, 6.573475234687412e+05, -6.996128740280162e+04, 9.342468809629331e+04, 3.101806672851243e+06
2998, 1.811854672362510e-01, 8.516016318740836e-01, -4.199246052834946e-02, 1.213348082591478e-04, 1.177566835509986e-03, 1.113536751616778e-02, 3.156728388337934e+05, 3.258703789152388e+06, 6.204605960023155e+04, 2.345189678349154e+05, 4.641571409469222e+04, 3.427912888209374e+05, 3.045880082760022e+06
2999, 1.605647929619219e-01, 6.434420119005634e-02, -4.142928402492285e-02, 3.279803653368288e-05, 1.323696760520063e-04, 1.011968848680656e-04, 2.273148635464524e+06, 8.301484564632604e+06, 8.024602743825001e+05, 6.703791210928599e+05, -4.439741059334621e+05, 3.757134410403489e+05, 7.177630911812020e+06
3000, 1.964746531325142e-01, 1.391556169852324e+00, -4.223756084319572e-02, 1.155608489317381e-04, 1.266484057082877e-03, 2.451973836000319e-02, -4.468322092968062e+04, 8.311144438025590e+05, 4.663678437119994e+04, 1.077922271455905e+05, 5.915538247733233e+04, 1.002750992898620e+05, 8.390000023082393e+05
3001, 2.123588470835180e-01, 7.103938429269262e-01, -4.235934993886270e-02, 1.089301925341069e-04, 1.094446827942908e-03, 8.203238668945709e-03, 5.835386054722680e+05, 3.580962964254304e+06, 1.247821038070706e+05, 6.875417591029871e+05, 5.597976665010404e+04, 1.252403505943952e+05, 2.964253062049080e+06
3002, 1.798946356911281e-01, 8.918435967574240e-01, -4.196546996755619e-02, 1.219159782696426e-04, 1.201997819293761e-03, 1.204264263676747e-02, 4.200990467078857e+05, 3.787583079210056e+06, -2.910705702636755e+04, 4.087112911150047e+05, 5.125477359267057e+04, 3.986510985097581e+05, 3.444650546578420e+06
3003, 2.160960867438113e-01, 9.144366776430152e-01, -4.237032597206514e-02, 1.160393165457047e-04, 1.213038760297463e-03, 1.262717748962623e-02, 1.696282556447385e+05, 2.795384945280003e+06, 2.195409890652165e+05, 2.618001488590518e+05, -1.240792247135301e+04, 4.393511670862383e+05, 2.717575727956575e+06
3004, 4.559286876234854e-02, 4.415839620746813e-01, -2.902227085611357e-02, 1.223715638544870e-04, 6.227432620185408e-04, 3.137504453449846e-03, 1.099045028914327e+06, 4.932327469337149e+06, 1.779938807435853e+05, 7.208941986236734e+05, -9.523292566396960e+04, 1.984809267078451e+05, 4.065347302018167e+06
3005, 1.666633067575321e-02, 8.482933146678447e-01, -1.890810723775248e-02, 9.820432303937754e-05, 6.693726960279311e-04, 1.066231128002509e-02, 3.317643513770649e+05, 1.357587662988668e+06, -6.277796833616878e+03, 1.913433096772552e+05, -2.271751423828072e+05, 4.698952666822821e+05, 1.425982912490449e+06
3006, 1.354306510587658e-01, 1.859685511203127e+00, -4.030242682944504e-02, 1.044416149917973e-04, 1.091546256084468e-03, 3.696098184749427e-02, -2.553641635798231e+04, 9.195897629246737e+04, 1.396094181833259e+04, 2.106345600867750e+04, 1.109138497318913e+04, 1.683441721299495e+04, 1.109297888640801e+05
3007, 2.184178212989848e-01, 1.080741857677013e+00, -4.237387685795271e-02, 1.199682145170064e-04, 1.270208373703757e-03, 1.660420187371616e-02, 1.485041037393693e+05, 1.978394970580844e+06, 8.897150388694555e+04, 1.882900621967266e+05, -6.334061911078377e+04, 2.836935562466734e+05, 1.885340694462924e+06
3008, 2.459707588996908e-01, 1.930217989135287e+00, -4.224652564018866e-02, 1.052996003534090e-04, 1.117085271712072e-03, 3.911183084241077e-02, -1.028529174672537e+04, 4.559197478693683e+04, 3.068558113038084e+04, 1.669774260801933e+04, 1.055896227255878e+04, 1.701899095861588e+04, 7.981755907212451e+04
3009, 1.873129099573757e-01, 1.103072698975042e+00, -4.210688606920780e-02, 1.205304568865917e-04, 1.262423511587594e-03, 1.709092727114368e-02, 5.729499914216503e+04, 1.620438232260476e+06, -4.877292083571236e+04, 1.431115201484552e+05, 3.886693923668043e+04, 2.989956610628373e+05, 1.611366269580285e+06
3010, 2.348797079368247e-01, 2.172572866065133e-01, -4.233339560198335e-02, 5.431865709400532e-05, 4.687185988499088e-04, 9.682925325445388e-04, 2.318823692316594e+06, 9.746159745011231e+06, 5.147358273906905e+05, 2.159631316920441e+06, -7.386137788606948e+05, 1.775398096597205e+05, 7.674575514785503e+06
3011, 4.418343714470377e-02, 3.930685794630863e-01, -2.867439797664892e-02, 1.212708259306361e-04, 5.473037760292121e-04, 2.483232541941022e-03, 1.145640540834350e+06, 7.474417932205853e+06, 3.206198888234947e+05, 7.664165048532974e+03, -2.648250946828439e+05, -2.607850068377665e+05, 7.019489116124684e+06
3012, 1.892074278175320e-01, 1.145655552493891e+00, -4.213784820285225e-02, 1.178225838633501e-04, 1.274419009582631e-03, 1.815564315595687e-02, 1.491508006520527e+05, 1.463762496276271e+06, 1.330853701545886e+04, 2.320225943759462e+05, 2.233235786818973e+04, 1.859800495014119e+05, 1.316024584015887e+06
3013, 4.072083934933736e-02, 5.059276734450379e-01, -2.777664095144831e-02, 1.274269096536995e-04, 6.531818735446421e-04, 4.095079533660506e-03, -2.677911255668824e+04, 1.978381286581638e+06, 8.160287823999379e+04, 1.748741450520896e+05, -1.320300880873146e+05, 2.276366999106905e+05, 1.970967645394849e+06
3014, 4.425795782289674e-02, 1.339675262039372e+00, -2.869303545538255e-02, 9.834303210562792e-05, 9.223072141801144e-04, 2.281523187555226e-02, 2.199927848011838e+05, 1.118502630818964e+06, -3.126503486524997e+04, 1.645733455517399e+05, -3.847784684186598e+04, 3.896389705654445e+04, 9.338709046724072e+05
3015, 2.187915096150044e-01, 1.036821689343181e+00, -4.237422201393314e-02, 1.165388488160168e-04, 1.260726528861278e-03, 1.552971173996935e-02, 1.878775199336080e+05, 1.973054432890758e+06, 2.195803030055496e+05, 1.564913254198384e+05, 7.396652966604831e+04, 1.887785657396546e+05, 1.873991282044168e+06
3016, 3.814962464311741e-02, 4.177662021380101e-01, -2.706657640342974e-02, 1.189247935628607e-04, 5.667637486201499e-04, 2.787964225033523e-03, 8.183501577911362e+05, 7.690352338237897e+06, -1.086253375854534e+05, -1.741006910409299e+05, -2.952791237497191e+05, 3.531023902248246e+05, 7.463277337817752e+06
3017, 1.723346596071638e-01, 7.669380808667376e-01, -4.178592401754025e-02, 1.207537548962717e-04, 1.122831421599205e-03, 9.290733489867878e-03, 2.728623603617062e+05, 3.461682670267314e+06, 6.330112634924670e+04, 1.999510773365877e+05, 2.212315768746999e+05, 1.799943514054102e+05, 3.265338762428004e+06
3018, 3.047435688826307e-01, 3.369275900045239e-02, -4.115533689779693e-02, 3.772808429992197e-06, 6.675281105565211e-05, 5.653669847479779e-05, 5.441413911991740e+06, 1.238034345323509e+07, 5.739598559191928e+04, 4.547426231760540e+06, -1.679390253417111e+05, 1.608509762955577e+06, 7.937737655866643e+06
3019, 3.695677888784049e-02, 1.791464421247113e-01, -2.672345777218171e-02, 8.717995515148368e-05, 2.414473848780935e-04, 4.326448359589785e-04, 1.215913108921459e+06, 5.170826312364636e+06, 3.915426171200222e+05, 8.757926988613912e+05, -5.127493764597627e+04, -9.157516900450904e+04, 4.194654848268886e+06
3020, 6.440254029935918e-02, 1.907004318826864e-01, -3.288997731887843e-02, 9.556510021566100e-05, 2.980009210961296e-04, 5.713494355943111e-04, 8.354004195208057e+05, 5.237872604307937e+06, 5.944055043711194e+05, 2.300631101059628e+05, -6.120464731238142e+05, 4.948266215756739e+04, 4.960269874849478e+06
3021, 1.740557594867136e-01, 1.877594013039270e+00, -4.183004600316167e-02, 1.066404502405131e-04, 1.125798741550233e-03, 3.753019752737846e-02, -1.978378798468190e+04, 7.878673459373812e+04, 1.986286959077692e+04, 2.490753091020288e+04, 6.924565993082903e+03, 1.779815797151252e+04, 9.790805961214093e+04
3022, 3.052385442062068e-01, 1.966758431883791e+00, -4.114249129065545e-02, 1.015151179369761e-04, 1.073244706108284e-03, 4.022950810760953e-02, -3.522987363271082e+04, 9.009770455211012e+03, 3.658795032525462e+04, 4.566360358657585e+03, 3.496280013352093e+03, 9.528189861262454e+03, 7.813693477482935e+04
3023, 4.903641807824753e-02, 1.461141609609082e+00, -2.983295105719793e-02, 9.433396998194399e-05, 9.309846506934810e-04, 2.603686646217226e-02, 1.246644078386812e+05, 6.083260443443134e+05, -3.870915118312755e+04, 1.514983896879547e+05, 2.279282972051450e+04, 5.427658476595224e+04, 4.863760386897550e+05
3024, 3.682867713685650e-02, 2.388039979676808e-01, -2.668606887125335e-02, 1.048893632394007e-04, 3.378112089472141e-04, 8.518141746796520e-04, 1.096656012625004e+06, 7.328757979276842e+06, 1.702549939731891e+05, 5.542955603309744e+05, -9.404770685208754e+05, 2.782324843160335e+05, 6.744329989589728e+06
3025, 1.371730055579620e-02, 7.361672471889510e-01, -1.726285348617331e-02, 9.704129021824437e-05, 6.126493109369635e-04, 8.253056302668572e-03, 3.805040086130657e+05, 1.685701141006847e+06, -7.995308257886213e+04, 2.000044015693372e+05, -1.660524469434533e+05, 3.843817142498719e+04, 1.441539955318746e+06
3026, 1.596879745855813e-02, 1.154508819198766e+00, -1.853752914180138e-02, 8.321902502161915e-05, 6.878239018858357e-04, 1.797008638757339e-02, 3.535526491490957e+04, 5.955784762141358e+05, 4.021592046218302e+02, 1.469545824842544e+05, -6.318658986973003e+04, 1.513683783487787e+05, 5.869405460511750e+05
3027, 3.949956182280370e-02, 2.701011980708725e-01, -2.744426606497512e-02, 1.042842231625818e-04, 3.834199908723246e-04, 1.112236504904301e-03, 3.847695990387214e+05, 3.646699357419084e+06, 2.189349999662266e+05, -2.138285487137881e+05, -5.266746750542665e+05, 5.417942250741650e+04, 3.733075551699467e+06
3028, 4.236334540527686e-02, 1.048489024252727e+00, -2.821042932228032e-02, 1.106000564006868e-04, 9.183909694252881e-04, 1.540547881810186e-02, 2.346785058052261e+05, 1.722229330338703e+06, 4.739736982010421e+04, 1.385338717194740e+05, -6.223495789131458e+04, 1.217117867618883e+05, 1.558162910289404e+06
3029, 1.407040436982158e-02, 1.977418607016706e+00, -1.747139633105961e-02, 5.288172899212823e-05, 4.339511378934763e-04, 3.988175210233458e-02, -2.641588640078948e+04, -6.323569561023412e+03, 3.967759317979312e+02, -8.105989028690192e+03, 2.668001617601866e+03, 7.715180386188285e+03, 2.390531938610213e+04
3030, 2.204094307225329e-01, 1.158441534517542e+00, -4.237500840061181e-02, 1.154807643724085e-04, 1.273391852283475e-03, 1.854148230537448e-02, 1.345830399337018e+04, 1.231405712761835e+06, 7.209251397220723e+04, 1.637938445404762e+05, 4.555733771256692e+04, 2.296449202353540e+05, 1.225938275837258e+06
3031, 2.672967515357131e-01, 1.037277912481933e-01, -4.196189403464463e-02, 2.105237959314221e-05, 2.407329304032967e-04, 2.642367404307819e-04, 2.805672835894385e+06, 9.259900786316985e+06, 7.164240444811311e+05, 1.026920521767302e+06, -1.834442415812978e+05, 3.502022733536952e+05, 7.636109063808156e+06
3032, 2.664080276787033e-01, 1.996870484106248e-01, -4.197655105320150e-02, 3.836112956304844e-05, 4.343715208686566e-04, 8.375332025611438e-04, 1.668390750407619e+06, 7.537630781656418e+06, 6.173943816031736e+05, 9.654203661554325e+05, -2.584700332320955e+05, 3.209523164291062e+05, 6.381302902651658e+06
3033, 1.375459089357570e-02, 2.309531521957608e-02, -1.728503972048794e-02, 2.818898472659731e-05, 2.411811715287708e-05, -1.323119799299249e-05, 1.992006431082227e+06, 5.475917924816636e+06, 1.566862562145332e+06, 1.196082180169756e+06, -4.492147127015183e+05, -1.991930827387586e+06, 5.951301207201046e+06
3034, 1.012281857223868e-01, 1.937001770182834e+00, -3.772878294176386e-02, 9.723948497641910e-05, 9.955753195768913e-04, 3.898208230112616e-02, -1.416049656676105e+04, 3.583710631789629e+04, 4.761205333779206e+03, 1.863829179898215e+04, 8.799088501496319e+03, 7.822233183411496e+03, 4.918842462057580e+04
3035, 4.004836338041465e-02, 3.120628679634384e-01, -2.759469292865794e-02, 1.094009054751072e-04, 4.399169566475167e-04, 1.522977785443233e-03, 6.827502886526000e+05, 4.633539924140075e+06, 4.441520314225870e+05, 4.543243208327814e+05, -1.267961737204101e+05, 4.290907843640441e+05, 4.213760993047387e+06
3036, 2.316778363739386e-01, 1.323947502368399e+00, -4.234996685450750e-02, 1.121908190075769e-04, 1.276539036040502e-03, 2.282222937568357e-02, 2.265009526826578e+05, 1.194634883017649e+06, 2.827075110757374e+04, 1.344134967221279e+05, 5.240603697404417e+04, 1.435813007560801e+05, 1.052330770862344e+06
3037, 1.764369516206210e-01, 9.755588353136997e-01, -4.188795141191407e-02, 1.207410690169664e-04, 1.231917875129974e-03, 1.397000268255594e-02, 2.539179244729765e+05, 2.467775872449702e+06, -9.658485628255956e+04, 3.998744775645998e+05, -5.825953260859945e+04, 1.411100391164080e+05, 2.167313499777067e+06
3038, 2.689589274305484e-01, 1.499018175272357e-01, -4.193383299939438e-02, 2.645932879380419e-05, 3.344330853342348e-04, 5.297433597594280e-04, 2.818774120531142e+06, 1.082710701596945e+07, 7.475967454886585e+05, 4.243615651109443e+05, -4.384455303513077e+05, 3.927131067997954e+05, 9.579036327634590e+06
3039, 2.474448175849688e-01, 6.608131605064002e-02, -4.223162181608467e-02, 1.035414483527113e-05, 1.511784984582626e-04, 1.306674178303963e-04, 3.634686208455030e+06, 1.055050376182660e+07, 4.766439187431165e+05, 1.844466068966361e+06, -1.175346887962201e+04, 2.668009154624582e+05, 8.019338335412685e+06
3040, 2.022911336657308e-01, 4.949993997941339e-01, -4.229700726224646e-02, 9.602627067154153e-05, 8.831385828619795e-04, 4.301887467351226e-03, 1.239047672885252e+06, 6.284098511535574e+06, 4.042844076139966e+05, 9.104937860641740e+05, 1.850867423286957e+05, 2.496030460866225e+05, 5.291320315241193e+06
3041, 4.030408720907035e-02, 1.483500723886770e-01, -2.766418805180695e-02, 7.305926905285150e-05, 2.057730668842545e-04, 2.801771721264515e-04, 1.231239560050112e+06, 4.572095694717314e+06, 2.910855214164195e+05, 7.386941975808832e+05, -4.492310461424995e+05, -2.763333851100716e+05, 3.760072100692946e+06
3042, 3.562008708522336e-02, 1.701549686820645e+00, -2.632797279337868e-02, 8.015070471909663e-05, 7.691887098314008e-04, 3.245924147889374e-02, 6.965631162407979e+03, 1.474767737240620e+05, 3.587643377097639e+03, 1.943270778737367e+04, -1.027093124647056e+04, 3.872854306837608e+04, 1.516635611746825e+05
3043, 4.018314354804751e-02, 1.750532307770042e+00, -2.763136761732713e-02, 8.146809051394477e-05, 7.882069289169326e-04, 3.379362802706002e-02, 1.244780850428143e+04, 1.200206519754609e+05, 2.453401907308306e+03, 3.136277749918815e+04, -4.954976008301283e+03, 3.431395090459075e+04, 1.162712788702984e+05
3044, 1.971209754508036e-01, 1.936420884814302e+00, -4.224503288517872e-02, 1.059595111166795e-04, 1.115971186992318e-03, 3.917517816236121e-02, -8.888203416601264e+03, 6.416120843009317e+04, 2.418030927077171e+04, 2.206699236996285e+04, 7.755327725083965e+03, 1.463574261436262e+04, 8.130371547971961e+04
3045, 3.866441263180036e-02, 1.670183642497447e+00, -2.721191253747651e-02, 8.289911386248627e-05, 8.030410660585241e-04, 3.161894751046124e-02, -9.515137704324779e+03, 1.888164765345629e+05, 2.633943186625356e+03, 8.763601805249786e+03, -2.204847170624186e+04, 3.400390828354153e+04, 2.024655655439124e+05
3046, 1.247493816469519e-01, 5.440915490591006e-02, -3.964570448773680e-02, 3.639768471051102e-05, 1.057141357144768e-04, 6.378174689965904e-05, 3.399904717787595e+06, 9.988041580965014e+06, 5.098454022398070e+05, 1.860802832819937e+06, -8.187198027096401e+05, -3.147998453657986e+05, 7.681160457986698e+06
3047, 2.111372369697342e-01, 9.472878822869082e-01, -4.235434958713906e-02, 1.195989589898860e-04, 1.232192006611428e-03, 1.338429793712653e-02, 9.925210907629844e+05, 4.055894547604757e+06, 1.650592703817278e+05, 9.121077808505852e+05, -1.941941953762770e+04, 3.782457956117491e+05, 3.185770536484461e+06
3048, 3.785482779851994e-02, 1.545231462087144e+00, -2.698261335136830e-02, 8.656382979877223e-05, 8.335692936253247e-04, 2.825657072595227e-02, 1.663530132045637e+04, 4.512663777477943e+05, 1.242269654491648e+04, -8.487782383356564e+03, -6.044088557968576e+03, 5.486601841099743e+04, 4.583208679093679e+05
3049, 4.377886060886380e-02, 1.167124498517313e+00, -2.857272952589569e-02, 1.055476163532437e-04, 9.388772366717146e-04, 1.836108813659268e-02, 1.759500956410009e+05, 1.028637849279555e+06, -6.326117757791633e+04, 3.323102852183605e+05, -6.569472696125116e+03, 1.617064234603963e+05, 8.418912050412586e+05
3050, 4.100286861676922e-02, 1.063060900101225e-01, -2.785218354655169e-02, 7.013815576110971e-05, 1.513829579316700e-04, 1.162683459765071e-04, 6.672545073839808e+05, 4.754518633850614e+06, 4.423110717824303e+05, 3.217093139319218e+05, -7.488595298664245e+05, -7.993180266340106e+05, 4.735343805435247e+06
3051, 4.649736787350939e-02, 1.257262316498835e+00, -2.924046674404312e-02, 1.025129904782679e-04, 9.470489255477693e-04, 2.067752165921669e-02, 1.078914287028888e+05, 9.965073395123680e+05, 2.988136571308267e+04, 4.269993837942683e+04, -6.034938065628480e+04, 4.977558803641311e+04, 9.342676392157150e+05
3052, 3.987016583484519e-02, 1.625630023956125e+00, -2.754604221698175e-02, 8.475423329926818e-05, 8.253483346158039e-04, 3.042084082313012e-02, 3.415395194815555e+03, 2.546187127226311e+05, 5.987204160556093e+03, 7.168856972084884e+03, -2.796043055554786e+04, 6.741783417952365e+04, 2.797547195840289e+05
3053, 2.254126027214021e-01, 1.381815854947483e+00, -4.237042300081175e-02, 1.116243872690999e-04, 1.269173706309417e-03, 2.432569616814879e-02, 2.301581939024921e+05, 1.316261388016107e+06, 1.313684395315954e+05, 2.383419124791017e+05, 6.052312466827290e+04, 1.679007783783622e+05, 1.148099699216783e+06
3054, 1.657216072450095e-02, 1.608759411690492e+00, -1.885868930523080e-02, 6.660739691628781e-05, 5.979750476861126e-04, 2.991199582465065e-02, 8.633600061292553e+03, 1.652437118823566e+05, -7.685966674866592e+03, 2.243754226853152e+04, -1.309329770678216e+04, 4.910831231849117e+04, 1.745905026467017e+05
3055, 2.262418033653185e-01, -4.471809852782499e-19, -7.303260903104975e-03, 0.000000000000000e+00, 0.000000000000000e+00, 0.000000000000000e+00, 4.054833870896642e+06, 8.098014093097188e+06, 1.766497718423241e+05, 3.886396732247465e+06, 2.699618284829344e+04, 1.317290030847517e+06, 4.728452174865694e+06
3056, 1.449193238242516e-01, -3.897602096125148e-19, -6.365477500520018e-03, 0.000000000000000e+00, 0.000000000000000e+00, 0.000000000000000e+00, 3.328739539069267e+06, 6.174914348440470e+06, 6.109215651721641e+05, 3.002177421491061e+06, -2.319045048306364e+05, 5.822337059221591e+05, 3.381539527238647e+06
3057, 3.134913134229493e-01, -1.179425930180237e-19, -1.926212331822129e-03, 0.000000000000000e+00, 0.000000000000000e+00, 0.000000000000000e+00, 3.422041020934331e+06, 7.028138906635972e+06, 9.935370415195463e+03, 3.085472162538814e+06, 1.162323511964628e+05, 1.630316020529865e+06, 4.727106704940712e+06
3058, 3.991766304785749e-01, 2.409825238080572e-18, 3.935673256240683e-02, 0.000000000000000e+00, 0.000000000000000e+00, 0.000000000000000e+00, -5.053465077991633e+06, -9.861460746918093e+06, -3.650543249505354e+04, -4.681007735731855e+06, -4.580947360109947e+04, 2.103367588377242e+06, 6.191048312813522e+06
3059, 7.810584168872883e-02, -1.963021670404260e-19, -3.205963556006400e-03, 0.000000000000000e+00, 0.000000000000000e+00, 0.000000000000000e+00, 2.647844035968684e+06, 5.743187745018352e+06, 7.960951808885027e+05, 2.705244300500086e+06, -2.073911969150436e+05, -3.446666953099734e+04, 3.382406496934912e+06
3060, 4.901726375157037e-01, 2.263245006331616e-18, 3.696281665152766e-02, 0.000000000000000e+00, 0.000000000000000e+00, 0.000000000000000e+00, -3.742114936409439e+06, -8.085282457100052e+06, 2.289786781897328e+05, -3.101444317517519e+06, 3.422033916748495e+04, 1.534092499876224e+06, 5.410843647037822e+06
3061, 1.835861633255168e-01, 2.203241497132029e-18, 3.598285261635348e-02, 0.000000000000000e+00, 0.000000000000000e+00, 0.000000000000000e+00, -3.047800147418274e+06, -6.345810448149526e+06, -7.585834637224688e+05, -2.478193774498129e+06, -1.497564824818624e+05, 8.854270356111268e+05, 4.150356825823819e+06
3062, 2.688861753485315e-01, 2.317192126748261e-18, 3.784386908520579e-02, 0.000000000000000e+00, 0.000000000000000e+00, 0.000000000000000e+00, -3.228325464562312e+06, -6.728800800778558e+06, -1.509170413376814e+05, -2.981497653077933e+06, -5.362006021988338e+03, 1.529123992602987e+06, 4.501259921628622e+06
3063, 5.520534095668719e-01, 9.310471921477014e-20, 1.520565672783976e-03, 0.000000000000000e+00, 0.000000000000000e+00, 0.000000000000000e+00, 3.124004713292814e+06, 5.840722516354949e+06, -2.098989008099927e+05, 2.822396318510399e+06, 1.875095155745940e+05, 1.166466466837481e+06, 3.551125497174395e+06
3064, 1.075132742565010e-01, 1.490296742344748e-18, 2.433919663560574e-02, 0.000000000000000e+00, 0.000000000000000e+00, 0.000000000000000e+00, -1.927074232502780e+06, -3.545272236862693e+06, -3.819974581253289e+05, -1.840155477652791e+06, -1.027451631757561e+05, 2.728230047794067e+05, 1.859974317677545e+06
3065, 6.206454756587572e-01, 1.988672555202443e-18, 3.247856013477601e-02, 0.000000000000000e+00, 0.000000000000000e+00, 0.000000000000000e+00, -3.374637264934905e+06, -6.500831066178207e+06, 3.295275486186752e+05, -3.190633237943365e+06, 1.198655738751305e+05, 1.148966983967886e+06, 3.835547064957988e+06
3066, 4.610556913459721e-01, 4.280662605306760e-20, 6.991083448074208e-04, 0.000000000000000e+00, 0.000000000000000e+00, 0.000000000000000e+00, 3.751922967780137e+06, 7.225145367645711e+06, -8.338559415460547e+04, 3.303437861663083e+06, 7.242478823110563e+04, 1.812871047609122e+06, 4.870133578606991e+06
3067, 3.588635778984592e-01, -1.164333043266910e-20, -1.901562962877516e-04, 0.000000000000000e+00, 0.000000000000000e+00, 0.000000000000000e+00, 3.254795795195602e+06, 6.116227969686739e+06, -1.893477009062036e+03, 3.046813510025895e+06, 1.219899435757005e+04, 1.684569154695344e+06, 4.164127139710649e+06
3068, 6.812407840226001e-01, 4.016865683797856e-19, 6.560256152942513e-03, 0.000000000000000e+00, 0.000000000000000e+00, 0.000000000000000e+00, 1.821528634894161e+06, 3.774808288692773e+06, -9.001407698125823e+04, 1.756187706580448e+06, -9.225047747360691e+04, 1.084246936063060e+06, 2.742956845764275e+06
3069, 2.684703129896022e-01, -3.320684960547053e-19, -5.423269200232582e-03, 0.000000000000000e+00, 0.000000000000000e+00, 0.000000000000000e+00, 3.895965224034819e+06, 7.914923236042198e+06, 9.437148402480676e+04, 3.485915301962718e+06, -1.122794563636265e+05, 1.545312731052649e+06, 5.019626493148625e+06
3070, 1.852964493014683e-01, -6.224858479465971e-19, -1.016630113021414e-02, 0.000000000000000e+00, 0.000000000000000e+00, 0.000000000000000e+00, 4.379712836889299e+06, 9.485333096510399e+06, 6.472370994046367e+05, 3.660383350117559e+06, -9.348257467643281e+04, 1.134104361295959e+06, 5.949702431027161e+06
3071, 2.255706351014776e-01, 2.394771512793449e-18, 3.911087845197968e-02, 0.000000000000000e+00, 0.000000000000000e+00, 0.000000000000000e+00, -3.883624519519989e+06, -8.344705932413517e+06, -4.773702724302181e+05, -3.429569800510755e+06, -1.687520082609509e+04, 1.269004433498215e+06, 5.258194208342898e+06
3072, 4.373403225428193e-02, 3.199710075686320e-19, 5.225695695109004e-03, 0.000000000000000e+00, 0.000000000000000e+00, 0.000000000000000e+00, 1.107560965758003e+06, 3.085851738823114e+06, 5.808641392933142e+05, 1.004159290706620e+06, -1.957804886613416e+05, -1.265190313594196e+06, 3.171467152893384e+06
3073, 3.147630785049648e-01, 2.490234774233401e-18, 4.066996331450683e-02, 0.000000000000000e+00, 0.000000000000000e+00, 0.000000000000000e+00, -3.965343488383435e+06, -7.813980730410202e+06, -2.137674113390802e+05, -3.376595114653938e+06, 6.334292678299216e+04, 1.823316692041042e+06, 5.248532172103088e+06
3074, 1.440248504144698e-01, 2.007315094131604e-18, 3.278302595550238e-02, 0.000000000000000e+00, 0.000000000000000e+00, 0.000000000000000e+00, -2.329976946003511e+06, -4.751736960831080e+06, -4.626766719065608e+05, -2.225068362708397e+06, -2.044676800715127e+05, 6.868669130494836e+05, 2.883223797416771e+06
3075, 1.083931174160060e-01, -7.474351807061655e-19, -1.220694598510260e-02, 0.000000000000000e+00, 0.000000000000000e+00, 0.000000000000000e+00, 3.142757905508406e+06, 6.367696951353097e+06, 4.472407582375522e+05, 3.110851712673668e+06, -1.406824118324774e+05, 6.065111359195746e+04, 3.342847373849937e+06
3076, 3.582222590522779e-01, 2.767786645213311e-18, 4.520287905699964e-02, 0.000000000000000e+00, 0.000000000000000e+00, 0.000000000000000e+00, -4.742254065744150e+06, -9.684638972179629e+06, -1.588275412795974e+05, -4.218746089778047e+06, 1.118833123846286e+05, 1.807468428635482e+06, 6.099398792913455e+06
3077, 7.231985623330179e-01, 8.168678665748756e-19, 1.334090524722786e-02, 0.000000000000000e+00, 0.000000000000000e+00, 0.000000000000000e+00, 4.896997776773760e+05, 8.242476738880556e+05, -2.227808342301764e+05, 3.693171432442595e+05, 3.705569455607971e+04, 6.250824907876385e+05, 1.221427715948743e+06
3078, 5.772991428483061e-01, 2.101918041080968e-18, 3.432806035213241e-02, 0.000000000000000e+00, 0.000000000000000e+00, 0.000000000000000e+00, -3.480909639361131e+06, -6.592454829983715e+06, 2.613937186621643e+05, -3.384549912700010e+06, -8.506365581862924e+04, 1.176636101184976e+06, 3.790901128122177e+06
3079, 4.111474319802518e-01, -9.117123299920169e-20, -1.488988403736834e-03, 0.000000000000000e+00, 0.000000000000000e+00, 0.000000000000000e+00, 4.022296372824624e+06, 8.006095569592305e+06, -5.579060831779650e+04, 3.841353417044856e+06, -2.941543990249941e+04, 1.709779499635485e+06, 5.040457140743689e+06
3080, 4.436667940164936e-01, 2.312330830308968e-18, 3.776447546742617e-02, 0.000000000000000e+00, 0.000000000000000e+00, 0.000000000000000e+00, -3.771393651038947e+06, -7.720218529215993e+06, 1.923030450419598e+05, -3.398900763625473e+06, -1.446440637165821e+05, 1.816556862205038e+06, 5.222664229128763e+06
3081, 5.079376509492707e-01, 1.446416468257266e-19, 2.362255370866854e-03, 0.000000000000000e+00, 0.000000000000000e+00, 0.000000000000000e+00, 3.012021994756069e+06, 6.243663007665088e+06, -1.597285943597507e+05, 2.507899248661169e+06, -4.122692219987442e+04, 1.266094136578942e+06, 4.149386564085814e+06
3082, 7.649189679056057e-01, 6.379957410974776e-19, 1.041960527325529e-02, 0.000000000000000e+00, 0.000000000000000e+00, 0.000000000000000e+00, 1.566121261161341e+05, 2.144647138948992e+05, 1.781709072736090e+04, -5.067498494912637e+03, 1.667373287202779e+05, 2.807764223543798e+05, 5.997527508770388e+05
3083, 5.338762723894308e-01, 2.180029902626641e-18, 3.560376599095848e-02, 0.000000000000000e+00, 0.000000000000000e+00, 0.000000000000000e+00, -3.329471250274597e+06, -6.515935439067306e+06, 1.795500429315935e+05, -2.733267258918235e+06, 2.602643452689002e+05, 1.287495517515477e+06, 4.204956273055910e+06
3084, 7.089481894602874e-02, 1.509982957627553e-18, 2.466070754760385e-02, 0.000000000000000e+00, 0.000000000000000e+00, 0.000000000000000e+00, -1.808169818256098e+06, -4.047128976497687e+06, -6.997530714247446e+05, -1.839134909568842e+06, -1.125910785709400e+05, -5.851239076685804e+05, 2.734715830241943e+06
3085, 5.974187289561513e-01, 1.933709190114977e-19, 3.158091061800050e-03, 0.000000000000000e+00, 0.000000000000000e+00, 0.000000000000000e+00, 2.369731431295732e+06, 4.861405487141398e+06, -8.370794586235662e+04, 1.992821096694643e+06, -7.194535389990341e+04, 1.157367407633550e+06, 3.368187363287734e+06
3086, 6.392721291611754e-01, 2.772306974389148e-19, 4.527670407287919e-03, 0.000000000000000e+00, 0.000000000000000e+00, 0.000000000000000e+00, 3.958242561572099e+06, 7.457715731996730e+06, 2.786275187167137e+05, 3.703089189694572e+06, 1.151510295922572e+05, 1.503708459110765e+06, 4.501157033957165e+06
3087, 8.010810282004119e-01, 5.491684404327022e-19, 8.968897453758553e-03, 0.000000000000000e+00, 0.000000000000000e+00, 0.000000000000000e+00, -2.746090533472042e+05, -6.459935123430167e+05, 5.298291437443149e+04, -5.426264164542326e+05, 1.353338818419960e+05, 1.700739113221950e+05, 5.102597301559801e+05
3088, 2.002617959636798e-02, 1.390634129630996e-19, 2.271152889727288e-03, 0.000000000000000e+00, 0.000000000000000e+00, 0.000000000000000e+00, 1.414042087174200e+06, 3.006885730352417e+06, 9.759202713610826e+05, 7.255272207218976e+05, -6.622955696805994e+05, -2.297633477814904e+06, 4.911051446416021e+06
3089, 6.610712284493486e-01, 1.909026292885500e-18, 3.117779500207288e-02, 0.000000000000000e+00, 0.000000000000000e+00, 0.000000000000000e+00, -2.256970961496302e+06, -4.430684467073262e+06, -1.043613088945271e+05, -2.253520553665988e+06, 1.371141614919668e+05, 9.643939879249319e+05, 2.758946271279509e+06
3090, 2.054156032049777e-01, 8.915245194508199e-19, 1.456018118259958e-02, 0.000000000000000e+00, 0.000000000000000e+00, 0.000000000000000e+00, 5.208187477611674e+05, 1.366739819236656e+06, -1.775241489020843e+05, 6.002816886283981e+05, 3.067101025709709e+05, 1.514033864564170e+06, 2.812175457290205e+06
3091, 1.668475832523432e-01, 8.295710456488762e-19, 1.354837075701152e-02, 0.000000000000000e+00, 0.000000000000000e+00, 0.000000000000000e+00, 1.220818382297958e+06, 1.922964983076937e+06, 2.601577080930216e+05, 1.065604901039389e+06, -6.478495621556997e+04, 1.208282977578902e+06, 2.285074249259238e+06
3092, 2.469924033669181e-01, 9.871462671672770e-19, 1.612185440792610e-02, 0.000000000000000e+00, 0.000000000000000e+00, 0.000000000000000e+00, 4.021008894392277e+05, 6.761237614188555e+05, 1.002936217397409e+05, 3.646582390363081e+05, -2.196616621262343e+04, 2.134338559992761e+06, 3.712758794227047e+06
3093, 6.983763286450078e-01, 1.900396943526027e-18, 3.103686237776404e-02, 0.000000000000000e+00, 0.000000000000000e+00, 0.000000000000000e+00, -3.589194480916311e+06, -6.615504737767015e+06, 1.501319408708749e+05, -3.599179766923898e+06, 5.404345360707059e+04, 9.063887486182746e+05, 3.416055836443806e+06
3094, 3.128906852309558e-01, 1.989840814565851e+00, 1.904957841259824e-02, -2.743923690248784e-05, -5.686665242967091e-04, 4.085018502155612e-02, 2.314606217229506e+04, 6.468553971316202e+03, 1.662996719123877e+03, 1.475067110444655e+04, 1.052715699305147e+04, 7.310620679465751e+03, 2.664025092000757e+04
3095, 2.252237175069708e-01, 1.959650337459026e-01, 1.642376636364646e-02, -3.794380400122532e-06, -6.951007105030589e-06, 7.751111941572547e-04, -1.252350921956199e+05, 1.239541000683554e+06, 2.124735334654012e+05, -3.897876929352951e+05, -4.578941967835277e+05, 1.190497971366324e+05, 1.760855412366365e+06
3096, 1.903607675897656e-01, 6.295922253304995e-01, 1.567854826356609e-02, -3.818643008503264e-07, -4.826114238241225e-05, 6.578659667447827e-03, 1.897620673985141e+05, 5.918665413513986e+05, 6.155868248329780e+04, -1.494731710641312e+04, -1.897462648351090e+05, 3.329312874764536e+05, 8.589630814027666e+05
3097, 1.832568579501090e-01, 1.651038917918694e+00, 1.392768281161366e-02, -7.725831600019842e-06, -3.028386854503524e-04, 3.140093025757024e-02, 1.237521893071308e+04, 4.639218675097119e+04, 2.881411036273969e+04, 2.454021524734633e+04, 1.008811284232504e+04, 4.506673502257087e+04, 9.889603477269667e+04
3098, 2.473109415545175e-01, 1.974973665387581e+00, 1.739642280998382e-02, -2.348717862478422e-05, -5.166156524082088e-04, 4.030677985253295e-02, 1.328026453267302e+04, 1.124926733414633e+04, 5.773741976119079e+03, 1.286866538623598e+04, 1.096663008986825e+04, 7.203748758698011e+03, 2.489878734204098e+04
3099, 1.859583679132972e-01, 7.042963900132071e-01, 1.416279883709064e-02, 4.533434855985563e-06, -2.678881698690502e-05, 8.017025864349728e-03, 2.328065842924579e+05, 3.364306665863432e+05, 3.085890998746518e+04, 2.831825060360265e+05, -4.089147652547059e+04, 1.567635994839711e+05, 2.994213739298410e+05
3100, 2.199703534561743e-01, 1.183146613778880e-01, 1.432061650725243e-02, -1.665650778880090e-06, 5.438994378700879e-07, 2.812472607537364e-04, 1.482182347161243e+05, -1.225948653099355e+05, 6.126181052455273e+04, 7.620787886026507e+04, -4.840053366924398e+05, 5.696161564923439e+05, 1.321534752524792e+06
3101, 2.261727718842574e-01, 5.750259004776742e-02, 1.617249887965693e-02, -3.418274612922503e-06, -9.882743781768066e-07, 6.564330932885831e-05, 4.299029683428670e+04, 7.699722814559366e+04, 2.474219932556208e+04, 2.964132954967493e+05, -1.174026491244251e+05, 4.504313068452211e+05, 8.417917266317388e+05
3102, 1.974913721481166e-01, 8.811767200387129e-01, 1.570672055215078e-02, -4.963353143240534e-07, -9.791167907632556e-05, 1.180854099048322e-02, -4.490645087288271e+03, 3.204627058417062e+05, 7.490102290709842e+04, 3.471951545092360e+04, -1.378426561161496e+04, 2.460457222331272e+05, 5.416702353209618e+05
3103, 1.960265193317331e-01, 1.124059316087822e+00, 1.387587609248295e-02, 2.114926509446530e-06, -1.222576337887860e-04, 1.760902568752733e-02, 1.698492938314315e+04, -3.571313387615333e+04, 8.543896340668552e+04, 5.195549123365145e+04, 5.777965195577822e+04, 1.255812573679424e+05, 2.916672376164177e+05
3104, 1.475502037893391e-01, 1.988471917134243e+00, 1.266853180319458e-02, -1.349434838707891e-05, -3.908640290610083e-04, 4.045970662756235e-02, 4.263518896289641e+03, 1.305662965037618e+04, 3.606827209141066e+03, 1.644235301401725e+04, 7.510854632522262e+03, 8.258571118186743e+03, 2.305279527894222e+04
3105, 9.707911610212243e-02, 2.003620332458204e+00, -3.172211087422716e-04, 1.432895433226260e-05, -4.299610355429015e-05, 4.076614069177831e-02, -6.583330170214026e+03, 1.198179126947387e+04, 1.971467123655240e+03, 1.187835958936792e+04, 7.412767949563149e+03, 5.598967686573708e+03, 2.476503506615714e+04
3106, 1.603206450946115e-01, 1.899838054598310e+00, 1.298036086429420e-02, -1.162035339801609e-05, -3.671884847677824e-04, 3.808344548043220e-02, -1.846946919156563e+02, 2.242572368480637e+04, 1.387788824029941e+04, 2.165139965716381e+04, 5.853579745463442e+03, 1.406521715763404e+04, 4.205228104705473e+04
3107, 1.863948615606212e-01, 3.489387838139678e-01, 1.613133498528920e-02, -2.960973060704697e-06, -1.947057568765179e-05, 2.206874963949088e-03, -3.185257163090633e+05, -1.174501578477740e+06, 6.495743832625628e+04, -3.297692750048895e+05, -6.931672469578484e+04, 1.471204317866435e+05, 9.028859147620474e+05
3108, 1.761647484468626e-01, 1.302908667224726e+00, 1.477488404026826e-02, -3.324137934343496e-06, -2.033120170379923e-04, 2.213361060058897e-02, 2.342436695729860e+04, 9.256683477593260e+04, 5.168294093287823e+04, 5.276188893690118e+03, 1.469201466844989e+04, 8.905304960098123e+04, 1.970206309145862e+05
3109, 2.375034631072394e-01, 6.698415956493545e-01, 1.439811307209248e-02, 3.126323016407889e-06, -2.947747890445079e-05, 7.437303923186603e-03, -7.994173749515097e+04, -7.537240220386370e+05, 5.996266166294650e+04, 7.803236836918817e+04, -1.589559072635965e+05, 2.577610781085498e+05, 9.334282848416398e+05
3110, 1.755095357775868e-01, 9.529535798730422e-01, 1.310923551709989e-02, 4.343238426799539e-06, -5.931313653595449e-05, 1.341590899824530e-02, -4.225016932624845e+03, 1.916612294659388e+05, 3.761699855078430e+04, 4.754150950490284e+04, -1.348870580474949e+04, 1.249252053010906e+05, 2.872641924882319e+05
3111, 2.606342960613854e-01, 1.123985850995808e+00, 1.769928375774835e-02, -6.183454205695507e-06, -2.194863235473669e-04, 1.773722046786128e-02, 4.755972748379241e+03, -2.189092292230990e+04, 7.864085581503196e+04, 3.936469154826291e+04, 6.087203464066671e+04, 1.320455889310953e+05, 2.912172976787877e+05
3112, 1.778920630679534e-01, 1.218611827250938e+00, 1.452951011588949e-02, -7.844673200804037e-07, -1.700294380320511e-04, 1.996242497573811e-02, 3.756312982722194e+04, 1.853462049575758e+05, 6.686129656663261e+04, 1.369630843028624e+03, -2.549462619869124e+04, 1.458976336643407e+05, 3.282044768138044e+05
3113, 1.528997690647503e-01, 7.675094815958620e-01, 1.194440226701474e-02, 9.431800261930356e-06, 2.968724369611930e-06, 9.237090224900255e-03, -5.743243455075525e+04, -9.214352546559984e+04, 7.607380870563244e+04, 4.297788464717456e+04, -2.798343602072274e+04, 1.859850231957410e+05, 3.718260635018459e+05
3114, 1.637142030283810e-01, 1.017787371679988e+00, 1.115670588002231e-02, 1.012281203621561e-05, -2.967575058041103e-05, 1.492992669807694e-02, 2.014912259142403e+04, 1.150357541846515e+05, 6.768543166906176e+04, 7.490535984317245e+04, -1.181401859310807e+03, 1.656440044640022e+05, 3.207304666193922e+05
3115, 2.279011033968034e-01, 1.849339770352866e+00, 1.675372775984969e-02, -1.866747259123870e-05, -4.524570432957731e-04, 3.685820296971648e-02, 1.157873737240441e+03, 1.236120379910143e+04, 1.668702515702616e+04, 1.603150011059085e+04, 1.113028429488191e+04, 2.338083661569137e+04, 5.501923203997760e+04
3116, 2.774165485099599e-01, 9.356908647694742e-02, 1.910965516079897e-02, -2.817049210596112e-06, -1.883595403025934e-05, 1.956656105697868e-04, -1.598991179794678e+05, -6.133668127309505e+05, 1.591401632244878e+05, 5.286139839305778e+04, -2.498045624667837e+05, 5.546499269586060e+05, 1.238334916640279e+06
3117, 1.666442503281706e-01, 1.781835497176354e+00, 1.353773307612912e-02, -9.747052335161432e-06, -3.395205739653295e-04, 3.489957235574310e-02, 9.530306174144078e+03, 2.247605379395473e+04, 2.456343930863003e+04, 2.723764944604337e+04, 2.239288722020117e+02, 2.606810454126201e+04, 6.403736329454480e+04
3118, 1.455262865351330e-01, 1.154938759181144e+00, 1.323822679933103e-02, 2.405456067139378e-06, -1.182626944175990e-04, 1.827219132889184e-02, 9.222605470193230e+03, 3.625001673134942e+05, 9.603421412692549e+04, 8.711869536255499e+03, 2.917833323518864e+04, 1.577012899185925e+05, 4.793919637047250e+05
3119, 1.793708165820675e-01, 1.618714055267509e-01, 1.349472416743799e-02, 1.902245619913104e-06, 8.857637009568060e-06, 4.986277242624154e-04, -9.586322440771101e+04, 1.073459481971064e+06, 5.510177561870932e+04, -5.516666672956650e+05, -3.749068064512757e+05, 1.571442929438193e+05, 1.616450008391823e+06
3120, 2.303585594302076e-01, 1.324473978334917e+00, 2.132712199704322e-02, -1.688920935083438e-05, -3.821536429696615e-04, 2.280616298249767e-02, 1.368513177571787e+04, -1.087842297405369e+05, 5.844801945808777e+04, -2.192983956718889e+04, 4.550146641213156e+04, 1.048770167097984e+05, 2.477148705017398e+05
3121, 1.594150202359995e-01, 2.883787195974398e-01, 1.170793435013295e-02, 2.236289361969360e-06, 3.428063769990095e-05, 1.507552405230320e-03, 7.180364904478178e+04, 5.195791470397855e+05, 1.869533265064180e+05, 8.571497900930879e+04, -2.636143011335551e+05, 4.399532246349488e+05, 1.043300496868151e+06
3122, 1.668212616241516e-01, 1.074844754668648e+00, 1.432224023698217e-02, 1.224539818368148e-06, -1.211677214532775e-04, 1.632693400595677e-02, 1.752208402572313e+04, 2.534235257454306e+05, 7.052733221422508e+04, -1.303230484192825e+04, -6.296995570413997e+03, 1.443449452464345e+05, 3.759501897209958e+05
3123, 1.460354307184768e-01, 5.674776082257948e-02, 1.265797174187937e-02, -2.922030105982631e-06, -1.258610101382250e-06, 4.066259048967323e-05, 1.700047716002523e+05, 4.377297063599998e+05, 1.151913740577213e+05, -6.551161910465933e+04, -4.209476441492122e+05, 5.516262898725723e+04, 8.779093823087288e+05
3124, 1.463707204981730e-01, 1.587649634861015e+00, 1.175726172947247e-02, -1.942896623154632e-06, -2.214000814972014e-04, 2.961700405827697e-02, -7.559851363667463e+03, 2.682783607361576e+04, 2.934765002302413e+04, 2.492577803691701e+04, 3.708312534727664e+04, 5.627774505768348e+04, 1.316495556518356e+05
3125, 2.801044366772722e-01, 1.051143060157523e+00, 1.769544523400745e-02, -6.678477946765043e-06, -1.945607471370570e-04, 1.597312280071177e-02, 2.298633741626394e+04, 1.629571613437772e+05, 1.055075673230810e+05, -1.610493607418629e+04, -5.947949209411196e+04, 1.926291698960642e+05, 4.265191185445858e+05
3126, 3.070274869183938e-01, 1.500613896522990e+00, 1.859503780249376e-02, -1.502885258704290e-05, -3.766975764907289e-04, 2.761937747636598e-02, 1.407588173038531e+04, -2.254958724414056e+04, 4.060995463380875e+04, 3.969846066386921e+04, 2.572007549919138e+04, 7.902376826487636e+04, 1.691233882349133e+05
3127, 2.801065905075212e-01, 5.990116968620657e-01, 1.795052925585404e-02, -2.904833609290725e-06, -7.653999126731523e-05, 6.157633933361453e-03, -1.288765422840457e+03, -2.865614963741158e+03, 8.911949015691552e+04, -2.245263466522906e+05, -3.692182775670864e+04, 3.062806651465781e+05, 5.990204873376548e+05
3128, 1.558076079938637e-01, 5.599670879744989e-01, 1.178142311733076e-02, 1.010640434455454e-05, 3.505937426477417e-05, 5.262623574192937e-03, 1.115905425967868e+05, 8.357274831907989e+05, 7.466313090722875e+04, 1.215972545811439e+05, 5.415101374329353e+04, 3.222886279158010e+05, 9.243153349838322e+05
3129, 2.900990954683593e-01, 1.995525830401479e-01, 1.856248185597918e-02, -6.578913299880307e-06, -1.745072075145203e-05, 8.380537266869936e-04, -1.808686701060932e+05, -4.754744103097450e+05, -1.333292961355780e+04, -1.261016241321968e+05, -7.011001113005902e+04, 5.030566522564639e+05, 9.382985589673521e+05
3130, 1.409291247343296e-01, 8.929946239196312e-01, 1.004579813151302e-02, 1.340348982506456e-05, 2.441652211867748e-05, 1.195777520055230e-02, -3.496396627393772e+04, 5.596542153725531e+05, 8.913300675349023e+04, 2.511838797625663e+04, -3.908015525600164e+04, 1.823339156154836e+05, 6.705277292087254e+05
3131, 2.796433076161416e-01, 3.491403426029038e-01, 1.803890859170367e-02, -1.044582604674098e-06, -3.223280224917517e-05, 2.333576285746625e-03, -1.831109897796760e+05, -1.447758711042309e+06, -9.144551176092130e+04, 2.004794976017563e+05, -3.868268133583132e+04, 2.206738330907763e+05, 1.551531202674252e+06
3132, 1.878939601339969e-01, 4.147471056955030e-01, 1.264418716343964e-02, 3.805825993172252e-06, 2.557526483534345e-05, 3.057777124886987e-03, 5.382952148066510e+04, 4.176372532037591e+05, 1.197502369750225e+05, 1.507967243531175e+05, -1.339548880042336e+05, 4.000102555966994e+05, 8.266547003077300e+05
3133, 3.487509015830668e-01, 1.124999999997697e+00, 1.969050967566938e-02, -8.322621530949814e-06, -2.707660790880438e-04, 1.792173480995722e-02, 6.803381284347670e+04, -2.198462373509496e+05, 3.260877414769194e+04, 8.038495685335601e+04, 1.330194559376774e+03, 1.625591092276052e+05, 4.111627642447468e+05
3134, 2.926458411637111e-01, 1.850241298266409e+00, 1.857682585026109e-02, -2.280658761135996e-05, -5.039449380105504e-04, 3.702009696360348e-02, 8.027733526925418e+03, 4.602686217792074e+03, 1.628099211808517e+04, 1.672800512830160e+04, 1.089571383638349e+04, 1.967264194115168e+04, 4.929122531180724e+04
3135, 3.216554599759859e-01, 1.924283031490016e+00, 1.926028823545223e-02, -2.609795352184752e-05, -5.504173454814621e-04, 3.908975584513083e-02, 1.824560942602767e+04, 7.461657034351330e+03, 4.526788125095398e+03, 1.479541147086314e+04, 6.350894153412214e+02, 1.178205321007782e+04, 2.387732200322462e+04
3136, 3.486427874221243e-01, 1.624999999999013e+00, 1.968879303894831e-02, -1.955840890125338e-05, -4.519898529310416e-04, 3.104254957545258e-02, 5.441005018693349e+03, 4.843541913635942e+03, 2.368155240848964e+04, 2.558259049549337e+04, 1.092454382055421e+03, 5.227440369265719e+04, 1.014984840739423e+05
3137, 1.829313522638814e-01, 2.354170498147950e-01, 1.270335393848002e-02, 4.875859617835786e-06, 3.156450565975320e-05, 1.034674999254226e-03, 1.881221875560826e+05, 2.820142241497361e+05, 1.314209351832834e+05, -3.624944276151367e+05, -3.816383908036183e+05, 1.841822302535589e+05, 9.768419213268037e+05
3138, 1.163541505809758e-01, 1.050196323501067e-01, 9.060840613059472e-03, 3.487710674106304e-06, 2.499916593597107e-05, 1.640989104553237e-04, 4.385130317849056e+05, 1.715560489036235e+06, 3.481681931896548e+04, 1.374528195106384e+05, -6.958019084982451e+05, -4.562161882887833e+04, 1.888983100691132e+06
3139, 3.219875799014225e-01, 6.749999999983137e-01, 1.926556163585324e-02, -4.500694981812714e-06, -1.218710303876394e-04, 7.659691208373759e-03, -7.002253509449241e+03, -5.720487406549227e+04, 1.190941990712157e+05, 5.787797870005415e+02, -1.178217382280948e+05, 1.943269657391848e+05, 4.477091047870786e+05
3140, 2.089892356691485e-01, 1.380095146574130e+00, 1.520677067801359e-02, -5.340567247352768e-06, -2.422975918827328e-04, 2.422252607568665e-02, 1.946773203813420e+04, 1.378014364330474e+05, 6.013438771824973e+04, 4.435523679680264e+04, 4.775093236465156e+04, 1.119223047514395e+05, 2.587390928022772e+05
3141, 2.263910019634307e-01, 1.758879356260811e+00, 1.583621859022145e-02, -1.451090354729224e-05, -3.946356519236305e-04, 3.440514249582979e-02, 2.972871653868762e+03, 6.861165680584210e+03, 2.070173905906841e+04, 2.108151157971200e+04, 1.245498815822646e+04, 2.852900581277940e+04, 6.682371332257135e+04
3142, 1.921276937595885e-01, 1.710054768250620e+00, 1.390014177580568e-02, -9.157631306287717e-06, -3.237043890410088e-04, 3.301270936733222e-02, 6.313982988903693e+03, 1.065106534341974e+04, 2.239047649331632e+04, 2.147085241225522e+04, -4.599210369698937e+03, 4.264253583036840e+04, 8.488474827753754e+04
3143, 2.404548894949591e-01, 5.251824637499942e-01, 1.736383842166638e-02, 6.968257287003760e-07, -5.121626942632476e-05, 4.830180654526155e-03, 1.613907407218097e+05, -3.717268880336660e+05, 5.346441444602212e+04, -2.775828054987102e+04, -1.505560308227631e+05, 3.322149043208077e+05, 7.917259593333107e+05
3144, 1.479424446372970e-01, 6.645575870488535e-01, 1.409855832215687e-02, 2.019841727656131e-06, -2.004793374843321e-05, 7.150857127175426e-03, -5.284117105977050e+04, 1.972599479832917e+05, 6.696689094690692e+04, -3.190831251937939e+03, -2.169895617456439e+04, 2.982196612437820e+05, 5.781602261020452e+05
3145, 3.071253877161937e-01, 1.198939448106955e+00, 1.877594084229568e-02, -9.760912473823213e-06, -2.715657654266826e-04, 1.971754663590725e-02, 7.103066704124281e+04, -1.634240858115972e+05, 3.488447599110927e+04, 6.409953547304207e+04, 6.326017314757224e+04, 8.261245607070529e+04, 2.992036383316501e+05
3146, 2.256202830087313e-01, 1.073237699257385e+00, 1.553281697488718e-02, -2.568676809595882e-06, -1.493458528833772e-04, 1.640979311359564e-02, -6.423841387393654e+04, 1.337280210082472e+05, 8.980795642721228e+04, -7.466141887878162e+04, 1.748396771082473e+04, 1.826897047956586e+05, 4.081700781824553e+05
3147, 3.491920451374249e-01, 1.024999999997444e+00, 1.969751415332476e-02, -7.264479195438420e-06, -2.352807578231073e-04, 1.545874856244897e-02, 3.291588333476947e+04, -2.040275165466935e+05, 1.662484152759247e+04, 8.671172165612714e+03, -8.341492581975399e+03, 1.070375390900276e+05, 2.939291723524297e+05
3148, 1.525331419021669e-01, 1.842642195420882e+00, 1.213568136085981e-02, -8.219822949545597e-06, -3.233488085398716e-04, 3.651671508200360e-02, 2.839806418999950e+03, 2.533844685907457e+04, 1.688324302667526e+04, 2.285195805133042e+04, 8.141864839028180e+03, 2.117863395878817e+04, 5.344187509944280e+04
3149, 3.491556680095442e-01, 1.249999999997544e-01, 1.969693655726387e-02, 4.344764272279020e-06, -1.402676469873044e-05, 3.496704252156646e-04, 1.540035744150908e+04, -6.421654738404582e+05, 2.016824026503524e+05, 9.421849953507457e+04, 2.861914198251628e+05, 9.001048366486991e+05, 1.813489275114333e+06
3150, 3.076586913509848e-01, 4.502372225260967e-01, 1.926784303518005e-02, -5.498821328803194e-06, -7.467802970735973e-05, 3.741076825756487e-03, -3.415126660379370e+04, -6.986077721299941e+05, 1.043367120403707e+05, 1.330692324301658e+05, 1.924604136594467e+05, 3.288274980968754e+05, 1.024080047117286e+06
3151, 4.069193696421453e-01, 6.742104612589594e-01, 1.875841517406919e-02, -2.337010132942921e-06, -1.153924905939810e-04, 7.745932767819413e-03, 4.601207178392886e+04, -5.139924462098347e+05, -5.879689499190373e+04, 1.005918247411069e+05, 9.005612008564608e+04, 1.670295694817669e+05, 6.823101112938296e+05
3152, 2.404357421397884e-01, 1.523926879029913e+00, 1.733501030242082e-02, -1.251065392296469e-05, -3.498435544977609e-04, 2.810634831622796e-02, 2.430670709078731e+04, -6.910192809426787e+04, 2.342760579747647e+04, 3.028051228535729e+04, -1.104853743194480e+04, 5.043739634757196e+04, 1.377077557548989e+05
3153, 1.820880382110442e-01, 4.964348803161069e-01, 1.259540287634030e-02, 6.996922761848268e-06, 2.082577695795493e-05, 4.258769988388311e-03, 2.933324531692086e+05, 9.192256791594197e+05, 7.301932343729481e+04, 2.436966019820489e+05, -1.922666556955075e+04, 3.420563586751862e+05, 8.907215655920107e+05
3154, 2.155169329418802e-01, 1.923933556692321e+00, 1.391217174157581e-02, -1.452462113020470e-05, -4.026098806436795e-04, 3.885527593321197e-02, 8.271605455564339e+03, 1.331602145106932e+04, 1.403330118009465e+04, 1.836253295166465e+04, 9.315653817606160e+03, 1.444564721759566e+04, 3.941503684108789e+04
3155, 3.498493599160284e-01, 5.749999999986053e-01, 1.970795099782465e-02, -2.346844739473108e-06, -1.006087660481748e-04, 5.823068337405424e-03, 5.293058499793886e+04, -7.290886937663133e+05, 3.286298616553821e+04, 1.138342349899622e+05, 1.136962711499264e+05, 2.598906754223892e+05, 9.526495571279310e+05
3156, 3.643484443595132e-01, 1.550756071822859e+00, 1.981027824560994e-02, -1.816101176104791e-05, -4.278889560017061e-04, 2.907687465863758e-02, 1.219711464938659e+04, -5.745928234157086e+04, 4.534975290922714e+03, 9.140706394656547e+03, -2.693086205585463e+04, 4.506661916282696e+04, 1.139252797697141e+05
3157, 3.068421024898256e-01, 8.997781204950199e-01, 1.902508173523862e-02, -5.549053353166161e-06, -1.838407019587596e-04, 1.243569229714730e-02, 4.599666536363645e+04, -4.672436938922488e+04, 1.212990485477431e+05, 1.194058668589896e+05, 5.028697802718517e+04, 1.465298698288244e+05, 3.700437873307655e+05
3158, 8.879617839959747e-02, 1.909287156183467e+00, 8.184675621933007e-03, -1.133908141413148e-06, -2.388590892506703e-04, 3.818670124694693e-02, -6.219460462089434e+03, 1.532811051389195e+04, 6.957243818735141e+03, 1.583639714921815e+04, 7.277880229430951e+03, 1.337239110897951e+04, 3.627786365121014e+04
3159, 2.804555933340892e-01, 1.598719702519788e+00, 1.864049743712355e-02, -1.698992045110273e-05, -4.127517432860502e-04, 3.019561892398109e-02, 2.426615960710610e+04, -1.594591762434578e+04, 3.073370861776067e+04, 2.185074189040030e+04, -4.571463490131227e+03, 4.708263582702999e+04, 1.052255558076805e+05
3160, 4.763835973654726e-01, 1.176381059676366e+00, 1.908889133047922e-02, -8.035673848938440e-06, -2.740428254781116e-04, 1.943022191406835e-02, -7.014690729400954e+02, -1.386604572919314e+05, -3.557541071568430e+02, -1.314340063759528e+04, 7.051969530077196e+03, 9.218550015200533e+04, 2.076417049194535e+05
3161, 2.225102837782545e-01, 1.178151921068633e+00, 1.450097528596224e-02, -9.408519133571880e-07, -1.578933486877931e-04, 1.902265441740009e-02, -6.795957494566636e+04, -1.205765532855610e+05, 8.031005429456411e+04, -6.769739045383985e+03, -2.853160161977565e+04, 1.353991442543221e+05, 2.941469408766233e+05
3162, 9.740556370307700e-02, 1.860787177181233e+00, 8.439896062728602e-03, -3.870763390818877e-07, -2.283263927670420e-04, 3.689046359809585e-02, -3.964771541356845e+03, 2.714742261809821e+04, 1.056846240869118e+04, 1.586595456802688e+04, 7.386421310150350e+03, 1.545977455268230e+04, 4.427208671868852e+04
3163, 3.898222959683402e-01, 1.194058882948977e+00, 2.037454920091451e-02, -1.091669228214798e-05, -3.111650691711354e-04, 1.974148868440734e-02, 4.212436079387958e+04, -1.144865854268259e+05, 3.360175655109735e+04, -1.757017667634408e+04, 5.886350013051900e+04, 1.714791426999976e+05, 3.474749868676771e+05
3164, 3.834672641827840e-01, 2.009738006585812e+00, 1.977876813989304e-02, -2.956895282352906e-05, -5.977541805609610e-04, 4.154081560978579e-02, 2.785388025581216e+04, 1.260844510963461e+04, -1.681393399689591e+01, 1.268603685772869e+04, 1.278734442715642e+04, 4.809307858716326e+03, 2.812799495472931e+04
3165, 3.499372933744005e-01, 1.424999999998486e+00, 1.970934720533684e-02, -1.524969281553948e-05, -3.780909276325170e-04, 2.568945197955606e-02, 1.740844828412865e+04, -1.919864610602199e+05, 1.388155029024592e+04, 4.372446896051430e+04, 1.839646795077821e+04, 9.891528266996743e+04, 2.845967034577461e+05
3166, 2.754519107302418e-01, 1.444268847454863e+00, 1.752999300606828e-02, -1.149194498742054e-05, -3.259573479166967e-04, 2.605489853361219e-02, 1.012634672356800e+04, -7.015608104368288e+04, 3.491147613128334e+04, 4.164425747256091e+04, -1.815006669591264e+04, 9.440424092082671e+04, 2.033474161895652e+05
3167, 1.321840301201508e-01, 8.387026704072883e-01, 1.109107342633889e-02, 1.155222806293328e-05, 9.906438081033753e-06, 1.072091191039982e-02, -1.277153165239940e+04, 1.673382632809977e+05, 5.937224774858855e+04, -3.824758486461469e+04, 3.005715455666899e+04, 8.409399931335273e+04, 2.686595344070608e+05
3168, 3.210450151663926e-01, 2.749999999994791e-01, 1.966504212056640e-02, -5.474677722876187e-06, -3.215788617357213e-05, 1.540388011223748e-03, -1.228174526887723e+05, -8.197038014961035e+05, -2.878713231416170e+04, -2.133970918320790e+05, -2.604122313103296e+05, 3.475865271167795e+05, 9.995551056797641e+05
3169, 5.089924231135818e-01, 6.311211085231468e-01, 1.952804598788190e-02, 2.093652218732034e-06, -1.135187286580314e-04, 6.983103124252987e-03, 2.143806743343791e+04, -5.914974851091085e+05, -7.230382684757761e+04, 1.450860834761098e+05, 1.212645857981067e+05, 3.848774725414637e+05, 9.853719726693663e+05
3170, 2.261191732273413e-01, 1.010254080773062e+00, 1.517907402367724e-02, 2.578625552460134e-07, -1.250454095389191e-04, 1.487819120476188e-02, -9.041919150978083e+03, 2.131845822264484e+03, 3.762970383787436e+04, -1.572223397582272e+04, 6.304004461857004e+04, 1.716982923714609e+05, 3.238134651566789e+05
3171, 4.687638385263315e-01, 1.274026921528501e+00, 2.054152232215069e-02, -1.300157372081945e-05, -3.468962070596205e-04, 2.193324450434395e-02, 2.722835241323101e+04, -1.604575692417421e+05, -3.080990715725408e+04, 6.177961532533771e+04, 2.521229870998265e+04, 1.438552662438188e+05, 3.312737910164042e+05
3172, 2.324441877495592e-01, 9.311194247973686e-01, 1.396296181156977e-02, 3.496917957840351e-06, -7.505620928939527e-05, 1.302334409239180e-02, 3.885018214225476e+04, 3.487426126359396e+04, 8.287120771664663e+04, 8.735751366637828e+04, -8.323819805123565e+04, 2.702541764528851e+05, 5.128959876924151e+05
3173, 1.163204643495476e-01, 1.774274986580697e-01, 1.008750621500228e-02, 3.540697406829996e-06, 2.787786754067986e-05, 5.296218624585430e-04, 1.551643393073599e+05, 1.424714813239315e+06, 1.849562549212395e+05, 1.061933704709940e+05, -6.102858370137220e+05, -4.558360680787165e+04, 1.703682520675631e+06
3174, 3.213107513754520e-01, 1.774999999999408e+00, 1.925481495205904e-02, -2.221175176475576e-05, -4.950979933851379e-04, 3.504084099756519e-02, 4.172373273828221e+03, 4.494758819288033e+03, 1.766142085983332e+04, 1.469054032739619e+04, 2.713896047536851e+03, 2.414657298099693e+04, 5.305081414454155e+04
3175, 1.537917308198106e-01, 1.530996315815879e+00, 1.161167150826991e-02, -4.769881887176086e-07, -1.976114187972403e-04, 2.811495755287985e-02, -9.071061667092106e+03, 7.206994161212165e+04, 3.305869585228182e+04, 3.213400396907463e+04, -1.044928401909803e+04, 6.877559363234982e+04, 1.507804398576834e+05
3176, 3.062937932365163e-01, 1.701474831149688e+00, 1.875108378399899e-02, -1.928842288851686e-05, -4.538791321993182e-04, 3.302022284981871e-02, 3.076221195743189e+03, 1.938733719275115e+02, 2.584534436042776e+04, 1.735837243827704e+04, 1.985676459603302e+04, 3.755467076936767e+04, 8.758614368966292e+04
3177, 2.238033620904820e-01, 1.263625259134109e+00, 1.293165135583489e-02, 1.039736026388696e-06, -1.437205233351460e-04, 2.121592938094488e-02, 2.708034838752670e+03, -3.961439124874111e+04, 3.758669671367630e+04, 8.668355317398633e+03, -4.373766225572909e+04, 9.514712732154266e+04, 1.980280902145115e+05
3178, 4.798512789324079e-01, 5.414184443153386e-01, 1.997337413068376e-02, 3.443630311312368e-06, -9.735816478587123e-05, 5.338169317492661e-03, 5.388967876184669e+04, -3.062102157418331e+05, 1.698480527049376e+04, 4.757202636332616e+04, 9.835728181804852e+02, 1.503727695550481e+05, 4.428782263092579e+05
3179, 4.282386402543222e-01, 1.125880813749592e+00, 1.910796890230770e-02, -7.170857523597189e-06, -2.566833104694771e-04, 1.807671227485573e-02, -2.316815043772769e+04, -1.471612636755151e+05, 1.688373199758996e+04, 1.391210149219197e+04, 1.898936886592918e+04, 1.542176213988070e+05, 3.076249777700322e+05
3180, 3.912773178804403e-01, 8.983896559565294e-01, 1.951246074104952e-02, -3.158290958510390e-06, -1.903598364978304e-04, 1.253532137377468e-02, 1.103434798150369e+05, -2.107764062599742e+05, 1.240579550028092e+05, 4.658078009470877e+04, 4.980365567206470e+04, 1.748949608896593e+05, 4.817522965441413e+05
3181, 3.159199490695412e-01, 5.145015025516467e-01, 1.916921978938890e-02, -5.447189288269524e-06, -8.437787426834702e-05, 4.763536488964764e-03, -6.518659066043979e+04, -2.729562102827468e+05, 1.012664172826676e+05, 1.176055515039584e+05, -1.357588403589026e+05, 3.417272251689575e+05, 7.422589677478484e+05
3182, 3.811744903677604e-01, 7.987135848945512e-01, 1.984643472644021e-02, -4.069388278288202e-06, -1.671485853769767e-04, 1.029207417350199e-02, 1.385822004611498e+04, -4.147479210670816e+05, 3.903479618783721e+04, 1.218034788997461e+04, 1.152140649837380e+05, 1.594094687121059e+05, 5.510127199444036e+05
3183, 3.188534465186637e-01, 7.744431583163234e-01, 1.921579786387585e-02, -5.207727968321169e-06, -1.471669359338016e-04, 9.682801389695093e-03, 1.098088019598925e+04, -2.226422874459703e+05, 9.419083363948432e+04, 7.128025670783500e+02, -5.347683916661533e+04, 1.512252195192723e+05, 3.950805165011458e+05
3184, 4.903904467458177e-01, 1.875351921047848e-01, 1.977449984978229e-02, 2.527696122273104e-06, -2.488956012640202e-05, 7.714321705264843e-04, -3.051781725974472e+05, -1.175344301745874e+06, -2.141679549494050e+05, -1.205741451147291e+05, -1.047230092741122e+05, 6.059953948999245e+05, 1.491341554445359e+06
3185, 4.782349536899938e-01, 1.601566711364021e+00, 2.008546481388285e-02, -1.941106188986519e-05, -4.568011675358530e-04, 3.066765245283855e-02, 7.640570403402169e+03, -3.738249157761609e+04, 9.750691895787145e+02, 1.452194455289713e+04, 2.096295762897094e+04, 4.852400188681850e+04, 1.037746370263497e+05
3186, 2.116189601414400e-01, 5.755538619755091e-01, 1.555195853168818e-02, -1.701250806906279e-06, -3.895298832494627e-05, 5.640636493851020e-03, 4.426199641742296e+04, -2.921200883309308e+05, 5.453710241529265e+04, -1.523703725664717e+05, -1.525636969320941e+05, 2.589999530696434e+05, 6.047036032790127e+05
3187, 1.263668014137303e-01, 6.159359136593380e-01, 9.649165963418978e-03, 1.449707267360545e-05, 6.760086238626062e-05, 6.188304768627105e-03, -5.249467277348685e+04, 4.180680292821371e+05, -2.386428543645274e+04, -7.462069677250202e+04, -1.034182360534742e+05, 2.519692636992119e+05, 6.757148331163093e+05
3188, 5.240465583279023e-01, 7.910755190448656e-01, 1.843487821368626e-02, 8.793498054819604e-07, -1.354335581775085e-04, 1.027126192214657e-02, -7.034076836771502e+04, -5.589068270723607e+05, -7.463770759461733e+04, -8.367045428473767e+04, -1.289960510549873e+04, 1.241901926988083e+05, 5.439147135726894e+05
3189, 3.635491126409380e-01, 3.996698080130498e-01, 1.992547568088417e-02, -1.090038202179733e-06, -6.217538869431050e-05, 3.066045498355631e-03, 3.030918878725043e+04, -4.459224466886485e+05, 6.968201446989000e+04, -4.883640569963391e+04, -2.871083793138791e+05, 4.001077611336707e+05, 9.682396579608785e+05
3190, 4.015916229063872e-01, 1.069068977321974e+00, 2.051338604992375e-02, -9.344926990076385e-06, -2.709498810938718e-04, 1.661665165092910e-02, 1.414922019521674e+04, -2.050004055882366e+05, 1.548235065005388e+04, 7.051298764174963e+04, 8.536546436475797e+03, 1.513256844950970e+05, 3.649543082213398e+05
3191, 1.348926619153097e-01, 1.253303223790197e+00, 1.138568048420682e-02, 5.458434492535552e-06, -1.007934362082102e-04, 2.075978091175679e-02, 2.772426723666220e+04, 1.603649214331555e+05, 3.056505466083682e+04, 5.077002788481222e+04, 2.744574266706564e+02, 1.179655445731739e+05, 2.441686881234623e+05
3192, 3.635490177663614e-01, 1.993040449004654e-01, 1.992547417446558e-02, -2.982740117517951e-06, -1.892276425206896e-05, 8.615930558070334e-04, 6.010018767017232e+04, -6.791368254160837e+05, 8.032033611022256e+04, -1.445656368048382e+05, -4.119313109101269e+04, 5.911441038923073e+05, 1.228764279463202e+06
3193, 4.344979316469799e-01, 7.282058424592229e-01, 1.911084021060559e-02, -2.034250605832677e-06, -1.323356689803329e-04, 8.863358247369779e-03, 4.045844718345389e+04, 7.177924591119780e+04, -3.284342643694438e+04, -1.494454348596079e+05, 1.338847504515705e+05, 2.356762402988489e+05, 5.163658974313215e+05
3194, 3.202897274871042e-01, 1.274999999998091e+00, 1.848506772824255e-02, -1.032139635823853e-05, -2.921910108254558e-04, 2.169719689721095e-02, 1.888471426338370e+04, -2.653860318070892e+04, 7.345463170756503e+04, 2.248466566559181e+04, -3.457447345471848e+04, 8.290218938030787e+04, 2.064727816616304e+05
3195, 1.248273572433349e-01, 1.461936968788531e+00, 1.073048094429551e-02, 3.255472861618536e-06, -1.502872752484133e-04, 2.620927045097999e-02, -3.140202837945934e+03, 9.061640779697460e+04, 4.501073315673251e+04, 1.923979753050403e+04, 2.253440132658282e+03, 6.985517043510574e+04, 1.671085283833621e+05
3196, 3.632954756238612e-01, 1.849611760108191e+00, 1.992144843215498e-02, -2.564313397834285e-05, -5.419352240164030e-04, 3.715135468035931e-02, 1.302747704758336e+04, 4.307989856458831e+03, 8.143880205029327e+03, 9.875804947950510e+03, -3.735690931349683e+02, 1.104407109046605e+04, 2.497564942366588e+04
3197, 3.974501719631647e-01, 1.938273246760971e+00, 1.980572151543775e-02, -2.773063039950008e-05, -5.724938933345160e-04, 3.962986259018789e-02, 1.887117521164707e+04, 4.677754155152850e+03, 1.008296112828113e+03, 1.349588639874521e+04, 2.170416553033966e+03, 1.401922280198187e+04, 2.758352995532972e+04
3198, 4.075565408801611e-01, 1.321686252778795e+00, 1.936346712761646e-02, -1.264128900532041e-05, -3.327342836091166e-04, 2.307453722925593e-02, 2.077003210015103e+04, -3.315994668233568e+04, 1.875740664758449e+04, -4.576474200307402e+03, -3.134173244522807e+04, 1.339086813137040e+05, 2.449101666531700e+05
3199, 4.241854677639303e-01, 1.422424770680276e+00, 2.017956013709907e-02, -1.574822628967049e-05, -3.918626455570590e-04, 2.576214196301218e-02, 2.026159164262351e+04, -8.405293415502296e+04, -1.924195745044427e+03, 4.038623966784588e+04, 3.626154506713390e+03, 6.622726423931487e+04, 1.630782665756233e+05
3200, 3.166303185049699e-01, 9.681757620632867e-01, 1.918049903576653e-02, -6.398160422416144e-06, -2.067558128719602e-04, 1.404166939134331e-02, -1.068369875968947e+04, -1.233276439494175e+05, 4.471792437761926e+04, -1.622989758176672e+04, -7.052946472905703e+04, 1.993387873737074e+05, 3.901599978404305e+05
3201, 5.236359870507258e-01, 5.031700115364351e-02, 1.685352995192047e-02, 5.767469495009114e-07, -8.986874395194161e-07, 5.079839161973437e-05, -3.204390169172997e+05, -7.738867283178595e+05, 6.123223275329760e+04, 5.475857266220477e+04, 8.062126068901546e+04, 3.533831259058764e+05, 9.601598666642209e+05
3202, 1.302849143787490e-01, 7.155764162775454e-01, 1.028045011891032e-02, 1.234391391195799e-05, 4.764244768432069e-05, 8.121146252982207e-03, 5.683163262586651e+04, 5.686083107804712e+05, 1.579130068544128e+05, 2.130197622886435e+05, 8.809787211064583e+04, 2.074789563068516e+05, 6.584925727202544e+05
3203, 4.735851583072856e-01, 1.977701800696208e+00, 2.029729475050085e-02, -2.968377244613393e-05, -6.027576672471644e-04, 4.086158716675448e-02, 2.032710612478960e+04, 6.805052065730232e+03, 1.253135374056247e+02, 1.119789668547989e+04, 8.644380989143536e+03, 8.729943344763162e+03, 2.440494946359812e+04
3204, 2.349675055224275e-01, 4.625034845645732e-01, 1.615276577167795e-02, -2.410837484003586e-07, -3.142917533485376e-05, 3.827939908076301e-03, 5.579163211653820e+03, 4.542294472990984e+05, 1.370605523400119e+05, -1.529512347602531e+05, -7.260105193638688e+04, 2.956798862706696e+05, 7.949798621755354e+05
3205, 5.162137676128141e-01, 7.083135405490164e-01, 1.994628504422818e-02, -1.369959265189180e-06, -1.455825694224588e-04, 8.516149347993884e-03, -1.949918055195945e+04, -3.842186307009998e+05, 1.332196518550513e+04, -9.019002317565514e+04, -3.242674817674556e+04, 2.214570132066355e+05, 5.128856399354122e+05
3206, 4.632945885696233e-01, 7.942928471315118e-01, 1.978580107357635e-02, -6.601066979928724e-07, -1.657961668554558e-04, 1.029058335635354e-02, -1.162830771207178e+05, -7.610347223998079e+05, -7.027786984211608e+04, -1.245524623564452e+03, -4.316337843380796e+04, 2.256231477739845e+05, 8.223336044042397e+05
3207, 4.657807744474228e-01, 5.417900623232187e-02, 2.129455074464276e-02, 3.717131496008830e-07, -6.083643400551196e-06, 6.907042079647499e-05, -1.423962361490632e+05, -5.724749505297958e+05, -4.540905727808911e+04, -2.045765922337916e+05, 1.764929888238474e+05, 4.327245147972950e+05, 9.074571282004418e+05
3208, 1.810752082039812e-01, 1.437040396379180e+00, 1.383124610583396e-02, -3.071088748685374e-06, -2.248715300259795e-04, 2.566879401888729e-02, 1.653940019489805e+04, 1.213364721667665e+05, 6.095822804358127e+04, 4.443007205710166e+04, 1.377908246035792e+04, 7.676673840148380e+04, 1.955355659150230e+05
3209, 2.706320689752687e-01, 1.371716115540234e+00, 1.693761412906464e-02, -8.457376222986701e-06, -2.842696544389568e-04, 2.412757912426382e-02, 2.092170577023269e+04, -8.053670068066844e+03, 2.835597221009861e+04, 4.470566032165683e+04, 2.874129169386799e+04, 1.062706656094986e+05, 2.021512553832321e+05
3210, 5.130084786085544e-01, 9.155216919707279e-01, 2.046543552326975e-02, -3.133204256856870e-06, -2.212446063872137e-04, 1.307114760072381e-02, 2.683867191291570e+04, -1.350276317822771e+05, -5.769832568979915e+04, 4.105423952226985e+04, 5.216230834820001e+04, 2.083926201991061e+05, 4.208755945376959e+05
3211, 4.463932346124541e-01, 6.023687126255280e-01, 1.838836453156130e-02, 1.488161230828178e-06, -8.107906253661257e-05, 6.405021956747081e-03, 1.039853032266727e+05, -2.311720394884699e+04, 2.511196885193141e+03, 2.224913302529614e+04, -1.012295799784027e+05, 1.892222462042622e+05, 3.881022468151026e+05
3212, 5.292647670225329e-01, 1.811824864011574e+00, 1.897104081884617e-02, -2.262181772306332e-05, -5.070753907220997e-04, 3.646945979506472e-02, 1.673887189606432e+04, -1.876332824469875e+04, -9.348649447436801e+03, 5.409192947655057e+03, 4.531912514411350e+03, 2.524161425870013e+04, 5.676057623117357e+04
3213, 5.270437234011813e-01, 3.351158955601496e-01, 1.928973313315446e-02, 8.972615674895934e-07, -4.602133505554173e-05, 2.259385770701569e-03, 9.860249998843770e+04, -2.245904336624468e+05, -1.363020979580891e+05, 9.870236275068749e+04, -2.529756426113774e+04, 3.716980377452584e+05, 7.593542895516726e+05
3214, 4.068167386649995e-01, 5.268222122314853e-01, 1.730392308725026e-02, 5.325989773791173e-07, -4.914868526069774e-05, 5.050648526331941e-03, 1.671907863314110e+04, -6.835915902824012e+05, 2.750382578159053e+04, 1.284137051164485e+05, 7.242794700715574e+04, 3.503204174632564e+05, 9.835200301289007e+05
3215, 2.008522649724648e-01, 2.007491716244048e+00, 1.640410121816887e-02, -2.230217377889240e-05, -5.004747686928237e-04, 4.108929028158477e-02, 1.188300885416535e+04, 1.210065058919202e+04, 4.267386264715257e+03, 1.333348665275842e+04, 9.999198246374117e+03, 6.141986553670301e+03, 2.167005350820456e+04
3216, 3.943530788864726e-01, 1.256889466716876e+00, 2.048393651586077e-02, -1.334847125571831e-05, -3.387230797211030e-04, 2.136202110699326e-02, 1.479981324469756e+04, -2.495515144815105e+05, 2.771941911458666e+04, 3.840788797602922e+04, 4.352229399161730e+04, 1.440399334634793e+05, 3.832883609906979e+05
3217, 1.318791156416977e-01, 1.334936035356050e+00, 1.052421130772725e-02, 5.654474832576806e-06, -1.025131153553523e-04, 2.287266890353190e-02, -4.675334709114408e+03, 2.338511821050770e+05, 5.226684412141969e+04, 2.320695719689317e+04, 2.306748766504545e+04, 9.356795362454088e+04, 2.950903882499872e+05
3218, 4.790853676838855e-01, 1.352408393614000e+00, 2.090221720990411e-02, -1.458211699652528e-05, -3.855071556477102e-04, 2.400571638439716e-02, 5.887841118523448e+04, -1.208094687550724e+05, -2.348354020028564e+04, 5.759187585152505e+04, 6.096415113142536e+02, 8.458570686953870e+04, 2.348999466862760e+05
3219, 3.789435009648079e-01, 1.748483639429947e+00, 1.973933074782069e-02, -2.270137068760038e-05, -4.998533733298104e-04, 3.444235599780907e-02, 2.359905668112973e+04, -2.057139837550457e+04, -5.628681988717967e+02, 2.463013809879577e+04, 6.088051184561709e+03, 3.340739331728347e+04, 7.387787837026194e+04
3220, 5.551793043018094e-01, 2.515218769044713e-01, 1.870439451045850e-02, 4.593425491443079e-06, -2.592733826423804e-05, 1.314782646356264e-03, 1.638528068197049e+04, -4.731780516472476e+05, -6.959542459085099e+04, 1.543924229952278e+05, 2.764156766606844e+05, 2.795492705959026e+05, 8.969237963853278e+05
3221, 5.038680775500215e-01, 1.035269103987079e+00, 1.941794746977690e-02, -4.604475961685062e-06, -2.315688270836912e-04, 1.593060740380242e-02, -1.159225618882969e+04, -3.825148421961882e+05, -2.963052213154994e+04, 9.684017777888328e+04, 6.638144705232943e+04, 1.206252299392474e+05, 4.990650535934793e+05
3222, 4.737811655297969e-01, 3.071320280726293e-01, 1.786278010106900e-02, -3.271240836752454e-07, -2.505472965128736e-05, 1.932206800371717e-03, 4.835603970332177e+04, -2.699214602734966e+04, 2.906014688763687e+04, -1.314169753937572e+05, -2.660586045129323e+04, 3.925251909245327e+05, 7.009531253176474e+05
3223, 4.107805241648706e-01, 1.626193260875167e+00, 1.845597032934857e-02, -1.701341774877716e-05, -4.208859083244601e-04, 3.120012021093722e-02, 2.902753294135794e+04, -8.821718635009033e+04, -6.079496669311481e+03, 1.760181750392035e+04, 1.762056804597238e+03, 4.489808720388040e+04, 1.367661378095017e+05
3224, 4.985070755358572e-01, 1.124570607665649e+00, 1.991826791980063e-02, -8.650787048732414e-06, -2.790013331735314e-04, 1.814565054308018e-02, 4.547226334032858e+04, -1.825105210644113e+05, -1.394230557326476e+04, -1.210279382128906e+03, 3.796303177485395e+04, 1.813606912885767e+05, 3.835289216470316e+05
3225, 2.678246418340615e-01, 7.269785218908984e-01, 1.816735858246470e-02, -2.992556885461628e-06, -1.159981890442616e-04, 8.619784648118932e-03, 1.088556399965727e+05, -1.169088390937185e+05, 4.827822678193358e+04, 2.219287339629679e+05, 1.736890443775826e+04, 2.401744498437546e+05, 5.198381574081230e+05
3226, 1.264977372228397e-01, 2.303251396438225e-01, 1.101321434894940e-02, 4.691216452655522e-06, 3.154333193270201e-05, 9.265501841884379e-04, -1.494384975007405e+05, 4.410236823574562e+05, -4.367114291108421e+03, -2.215848931631440e+05, -2.712355805648853e+05, 1.284375667195466e+05, 8.165185040714167e+05
3227, 4.469183218263565e-01, 1.549325705588913e+00, 1.915047424670886e-02, -1.652267004841057e-05, -4.112771040513628e-04, 2.920073649627776e-02, 1.003733189669619e+04, -2.219754351624110e+04, 1.560007096605165e+04, -2.578577237332508e+04, 9.535606630606550e+02, 4.486243447319513e+04, 8.909745925792016e+04
3228, 4.306450878707325e-01, 1.769284166038433e-01, 2.057031319280034e-02, 3.271234776558440e-06, -2.406033465117419e-05, 6.980675993531124e-04, -1.945007838725469e+05, -1.125141839304006e+06, -9.323438254856682e+04, -6.155766846026316e+04, 3.314369055355518e+05, 8.269648847342038e+05, 1.847899062800966e+06
3229, 4.368193277691668e-01, 4.740961682608106e-01, 1.870044482822074e-02, 1.907889103916136e-06, -6.290646838453791e-05, 4.210794040055414e-03, 5.633479713876109e+04, -9.538480717165087e+04, -7.751671305295418e+04, 1.357163024392716e+05, 7.943676907110860e+04, 4.528544076139430e+05, 8.327979701132437e+05
3230, 2.375244933355471e-01, 8.351333633398584e-01, 1.497908433785620e-02, 1.013151572019921e-06, -7.270793602786631e-05, 1.086055611763593e-02, -1.539479310427480e+04, -3.741640216068159e+05, 9.451435528932381e+04, 8.497109628113698e+04, -5.582607854638633e+04, 1.878195805656256e+05, 5.628267864197856e+05
3231, 1.321814130250680e-01, 1.673381299128460e+00, 1.159495308262912e-02, -3.072656648121092e-06, -2.471199257037399e-04, 3.189460710086472e-02, 3.862625136141883e+02, 6.148377147395538e+04, 2.520898203962583e+04, 2.069308303485532e+04, -2.549859098179164e+03, 3.930912842967343e+04, 9.729431029856893e+04
3232, 1.229305325130462e-01, 9.561616854706585e-01, 9.045118341072571e-03, 1.602009518657938e-05, 3.374177359214553e-05, 1.337542181526102e-02, -7.303766424660484e+03, 3.164204453179339e+05, 8.978671158548452e+04, 5.838070646859071e+04, -3.200733966360981e+03, 1.236540736878504e+05, 3.974101730971528e+05
3233, 4.953265656577011e-01, 1.765347326637259e+00, 1.882926899668332e-02, -2.125697846806426e-05, -4.848086842114060e-04, 3.513821599898452e-02, 2.280155458306243e+04, -1.848591936877051e+04, -9.433619812711037e+03, 7.702526927404630e+03, -6.985496747443323e+03, 4.068762628062828e+04, 8.178664481584259e+04
3234, 4.836988630140909e-01, 9.648576045131669e-01, 2.070549117022352e-02, -5.402386988786340e-06, -2.388423490930457e-04, 1.420776877585136e-02, -2.399898377118776e+04, -2.698658154111071e+05, 2.821630420389481e+04, -2.073632183256844e+04, 4.634303102439668e+04, 2.805181815533835e+05, 5.533228567532292e+05
3235, 5.015894110002292e-01, 1.227050444541320e+00, 1.804600674619548e-02, -6.947515688686401e-06, -2.655762344041749e-04, 2.076823685109056e-02, 4.053853811725553e+04, 1.271373730758194e+04, 4.383916805134351e+03, 4.929786040404435e+04, 1.283880518664074e+04, 1.261567001633361e+05, 2.222461958925499e+05
3236, 4.006345716421288e-01, 9.607572500898471e-01, 2.023893028578756e-02, -7.161159714596469e-06, -2.262194411410540e-04, 1.399900243677276e-02, 3.780445078093163e+04, -2.935221446978200e+05, 8.181982965606888e+04, 5.488327979189742e+03, 3.929708440374762e+04, 1.830352088606429e+05, 4.746960636746747e+05
3237, 2.432062554232429e-01, 1.672203950798459e+00, 1.727309547801768e-02, -1.552445951022441e-05, -4.021916998938127e-04, 3.209750752811055e-02, 7.503343329433650e+03, 4.146994081335839e+03, 2.621355550346719e+04, 2.231962116547728e+04, 1.352094939650047e+04, 5.365456033827027e+04, 1.073631733956861e+05
3238, 5.379022082478745e-01, 1.552374578245424e+00, 2.010246176608751e-02, -1.810871621900356e-05, -4.410993498392621e-04, 2.945378538852458e-02, 1.403194438881073e+04, -1.505964201564364e+04, -6.858169780586285e+03, -1.600484886152015e+03, 1.576551786892792e+04, 5.092114146176845e+04, 9.644463261453820e+04
3239, 4.048520439499892e-01, 7.652799312747677e-02, 2.034386858668252e-02, -1.090388889868690e-06, -1.514569897085975e-05, 1.271415950897456e-04, -1.833220820991006e+05, -4.212211821504352e+05, 7.578484444699893e+04, -3.997006953278686e+05, 2.558619903280622e+03, 5.538130898095828e+05, 9.946436002884987e+05
3240, 4.871624923478783e-01, 4.451774148144969e-01, 1.809417441549078e-02, -5.793594616276820e-07, -5.045113405136026e-05, 3.785393110487430e-03, -2.314284853277109e+05, -1.338327244703082e+06, -1.050269292108566e+05, -9.240382892991589e+04, -1.048765844026970e+03, 1.294156863278466e+05, 1.217283642046283e+06
3241, 4.459049876481175e-01, 4.023608077183619e-01, 1.892164937395945e-02, 2.027856760157543e-06, -4.848694681426277e-05, 3.146315417530151e-03, -1.077038008839914e+05, -7.765149592513526e+05, -5.062808225111246e+04, 1.781690588654440e+05, 7.610349359482953e+04, 3.442079778208701e+05, 1.049156254000666e+06
3242, 3.539445076463665e-01, 3.310920171718513e-01, 1.977297375626561e-02, -3.604333274190297e-06, -5.002069738846426e-05, 2.175747469327392e-03, -4.185053414000035e+04, -5.391009478294461e+05, 1.037609804209284e+05, 1.287396041767743e+05, 1.160108104365457e+05, 5.363516455272459e+05, 1.138805864325496e+06
3243, 5.175521240104921e-01, 3.979401809499291e-01, 1.938091254338542e-02, 1.953548266445115e-06, -6.181760297735428e-05, 3.095992353732764e-03, 9.340802777409177e+04, 5.881253358726090e+04, -1.303347179377485e+05, 5.848262790347457e+03, 3.992321128069873e+04, 2.078319719294567e+05, 4.372182263886433e+05
3244, 1.293280530353955e-01, 1.940601197413758e+00, 1.045454227505194e-02, -7.165280609847807e-06, -3.128651361732557e-04, 3.912276718308266e-02, 6.647140074876734e+02, 1.321652366882391e+04, 7.162312616769050e+03, 2.012310783165305e+04, 6.539410503573902e+03, 1.019528269478309e+04, 2.976504935890184e+04
3245, 5.359186389979220e-01, 1.420042334204408e+00, 1.937211992750916e-02, -1.297945300174352e-05, -3.725697335566006e-04, 2.589866517511339e-02, 2.109077119425954e+04, -4.042624061745023e+04, -2.273235484953500e+04, 2.467773701979591e+04, 3.748536149274310e+03, 1.026139249633162e+05, 1.928708265007109e+05
3246, 1.330470107102530e-01, 3.532715448928632e-01, 9.318228810212492e-03, 1.503826769807095e-05, 6.249441708914769e-05, 2.165756432803798e-03, 1.814122114125850e+04, 3.562294706064932e+05, 6.869213643390061e+04, 2.747912741300011e+05, -2.413744018193111e+04, 1.650711160685491e+05, 4.370945480613851e+05
3247, 5.010919511135985e-01, 1.862240745767770e+00, 1.859612712943959e-02, -2.317498083186098e-05, -5.146083441119505e-04, 3.778173447398045e-02, 1.051463699417228e+04, -6.003683812375188e+03, -1.694594504922436e+03, 8.613901283777754e+03, -3.502053107338668e+03, 2.400128008391731e+04, 4.492953563953414e+04
3248, 5.681333573870250e-01, 1.886112716638215e+00, 1.801297537862462e-02, -2.255661652200008e-05, -5.099907441857598e-04, 3.856996516719485e-02, 1.538216416617109e+04, 5.358755652818186e+03, -5.635950436680354e+03, 8.583594204331797e+03, 5.119456503543489e+03, 1.974624947593906e+04, 3.771214458851019e+04
3249, 2.120751738427468e-01, 7.583642944029393e-01, 1.757552821166617e-02, -3.496934777441618e-06, -1.136526019934261e-04, 9.165259477603539e-03, -7.805638019800163e+04, 9.287968209064094e+04, 1.171748822936300e+05, -1.158946682230176e+05, 2.592356431529258e+04, 2.715050225614103e+05, 5.490625519013037e+05
3250, 4.474581890445272e-01, 1.729781633644278e+00, 1.883861040603790e-02, -2.053581581789102e-05, -4.703428168162278e-04, 3.407618417366753e-02, 1.786905544760981e+03, -2.122537132877954e+04, 8.892530163449397e+03, 1.142119319538586e+04, 7.099082345839008e+03, 4.416420882738315e+04, 8.416617784456941e+04
3251, 3.324788311202042e-01, 6.547779933151020e-02, 1.943214172982193e-02, -2.853446637578194e-06, -1.394048544051075e-05, 9.073422932474873e-05, -3.510024480520078e+05, -1.116822928509369e+06, -5.523428284250796e+04, -2.564338464045014e+05, -7.861524821248322e+04, 5.269343414163387e+05, 1.236333187658126e+06
3252, 3.575697130381637e-01, 1.361529762999680e+00, 2.031203753046614e-02, -1.516123339777298e-05, -3.700648955815011e-04, 2.402785231354382e-02, 4.000030590846001e+04, -7.078950014914155e+04, 2.959709435313835e+04, 4.235933265057785e+04, -2.582673830629076e+03, 4.745043622006549e+04, 1.481347647782600e+05
3253, 2.331138556714334e-01, 3.075023424856902e-01, 1.684132290210342e-02, -3.535586469817845e-08, -9.729700358274834e-06, 1.807533033542421e-03, 2.987823257706163e+04, 3.443378912562393e+05, 3.397236066751473e+05, 7.532200912824881e+04, -6.241938827306431e+04, 2.297591117895295e+05, 7.765001317100221e+05
3254, 3.948344346121948e-01, 1.496137975766727e+00, 1.851338893998117e-02, -1.410490760334927e-05, -3.741287099599047e-04, 2.767200082999278e-02, 2.597301537606374e+04, -1.666257673224618e+05, -6.851183056583381e+03, 1.490738513148185e+04, 4.635246797416654e+03, 7.218509809647608e+04, 2.256609185986847e+05
3255, 5.249609815542922e-01, 1.474840044405672e+00, 1.921874443638790e-02, -1.434974695553939e-05, -3.882086915012635e-04, 2.734458047350621e-02, 2.251292385768981e+04, -8.257261896137818e+04, -2.152458227616651e+04, 2.239330231580128e+04, -1.577382319894584e+04, 6.982157393689420e+04, 1.667091332432929e+05
3256, 5.534050072734739e-01, 1.085486761020031e+00, 1.838309807039099e-02, -3.921371088143766e-06, -2.283735651630139e-04, 1.723521788300648e-02, 3.501028199253829e+04, 1.299673167786918e+05, 1.612230338379959e+04, 1.241414684508839e+04, -2.488616375819824e+04, 1.738087605855662e+05, 3.239433453214914e+05
3257, 2.001770208170923e-01, 1.565875089697511e+00, 1.554727917598348e-02, -9.776906133095176e-06, -3.161953464620379e-04, 2.914689464495998e-02, 1.382977931160858e+04, 1.360125450027251e+04, 2.066592807461120e+04, 4.644402127607994e+04, 1.666227459074086e+04, 5.531302323420720e+04, 1.111931729787799e+05
3258, 1.691637646529590e-01, 1.042237264830712e-01, 1.077577583729961e-02, -1.600101162811673e-06, 1.667560601767426e-05, 2.023370767033524e-04, 8.451042712642928e+03, 5.080229212992516e+05, 1.339602782637474e+05, -8.738918618991919e+04, -5.235314421244650e+05, 3.380249588144032e+05, 1.235115660182631e+06
3259, 1.212984985906732e-01, 1.048763323281159e+00, 1.178567783127831e-02, 8.691300201590924e-06, -5.271386188903521e-05, 1.558502005248833e-02, 5.753423397285471e+04, 3.567815588503240e+05, 7.310592687517752e+04, -6.372121026230823e+03, -2.496465338520442e+04, 1.327374326039299e+05, 4.283895410293674e+05
3260, 1.087259640454173e-01, 1.119396149714831e+00, 8.448109593259638e-03, 1.454495360844743e-05, 1.080099734272928e-05, 1.729892969591022e-02, 2.002030218115432e+04, 2.362046192787919e+05, 7.284918907932464e+04, 7.211546201782035e+04, -2.167834961008435e+04, 1.566446269194257e+05, 3.593478691827359e+05
3261, 4.715516454653236e-01, 2.485622843317686e-01, 1.979697072925840e-02, 3.645625732955071e-06, -3.233058514012354e-05, 1.303532761395873e-03, -1.166901555083057e+05, -1.149586526817666e+06, -1.367721942271746e+05, -1.891191427729276e+04, -2.425914395857683e+04, 4.399337643656248e+05, 1.347568498261770e+06
3262, 4.181168864430300e-01, 2.799225526459358e-01, 1.879688519788206e-02, -2.147722338204094e-06, -3.090269795072084e-05, 1.622398333779064e-03, 2.548035674955854e+04, -3.904750231626878e+05, 3.750830161317154e+04, 8.093707223540908e+04, -1.648327443265906e+05, 5.645412803525721e+05, 1.114007421461727e+06
3263, 5.315429425840806e-01, 1.143922264516903e-01, 1.948386829665270e-02, 1.418609275827265e-06, -1.472287358313422e-05, 2.832442436666942e-04, -2.837640002598952e+05, -1.245808457810465e+06, 9.954164299944623e+02, -7.832552048295809e+04, -8.996378421871195e+04, 5.790081596926544e+05, 1.481691676787155e+06
3264, 5.551521367709515e-01, 9.953999610603994e-01, 1.789491845688795e-02, -2.200807508984104e-06, -1.826254187724599e-04, 1.501849143933448e-02, 1.212921411476362e+04, -1.670365867760173e+05, -7.291339848119457e+04, -3.635924200720953e+03, -1.538792750924145e+03, 1.646754967532695e+05, 3.561384597862538e+05
3265, 5.760392378722142e-01, 1.774527954839022e+00, 1.725934376515186e-02, -1.824084525101641e-05, -4.482326737297077e-04, 3.555082637090401e-02, 1.047648244028227e+04, -1.810678028602336e+04, -2.210462021379287e+04, 4.050858016904035e+03, 5.130817537010518e+03, 3.275007322903112e+04, 7.373701042177115e+04
3266, 5.541586145593725e-01, 1.644695029301094e-01, 1.812671034390630e-02, 3.767818022137881e-06, -1.128510369528151e-05, 5.887286368362280e-04, 1.624005373663204e+05, 2.480682474028247e+05, 4.379226797238600e+04, -1.419934098149336e+05, 3.648445301834595e+05, 4.621912219360831e+05, 1.082599382388816e+06
3267, 5.441532004988540e-01, 1.190052340843956e+00, 1.911765912058132e-02, -8.030099423850245e-06, -2.829427633071618e-04, 1.987617475063730e-02, 1.850260282336711e+04, -5.454491114467596e+04, -2.950819496297140e+04, -1.758315185512510e+04, 2.084536707491521e+03, 1.204434409978428e+05, 2.239358174716108e+05
3268, 5.494426984415554e-01, 1.620458289656084e+00, 1.986075597559914e-02, -1.916529602646877e-05, -4.604737401427451e-04, 3.131583235791910e-02, 1.745224758902022e+04, -3.144770257473796e+04, -1.798146729796673e+04, 1.809212409457476e+04, -1.295605427385669e+03, 5.455159341211335e+04, 1.110205783061344e+05
3269, 4.400590850258296e-01, 1.005546373439966e+00, 2.009531846987985e-02, -5.964986202977585e-06, -2.383350156683773e-04, 1.512485502715101e-02, 7.914330590714699e+04, -1.639758751311375e+05, -7.484313491893323e+03, 1.320774689438109e+05, 2.757309736988222e+04, 1.236975291814421e+05, 3.508993877016061e+05
3270, 4.718973551894928e-01, 6.735249883876143e-01, 1.980253447993624e-02, -1.236167629620200e-06, -1.318410026880852e-04, 7.785430546085312e-03, -1.002080683659007e+04, -7.998942496189461e+05, -2.721657028454449e+04, 3.751239757937063e+04, 2.978154106796201e+04, 2.531971113956387e+05, 9.278545437028420e+05
3271, 1.477807982168104e-01, 1.388062492212814e+00, 1.025667190162663e-02, 5.195991550429810e-06, -1.135617565922592e-04, 2.430306292098208e-02, 2.091124871101573e+04, 1.280530679723876e+05, 4.491881120160915e+04, 5.014543889923837e+04, 2.005729028818705e+04, 9.155635815941887e+04, 2.039840352278999e+05
3272, 1.285516648541855e-01, 5.143143214656900e-01, 9.114962453880764e-03, 1.328985797495463e-05, 7.814155101809259e-05, 4.436914619424890e-03, -6.086363051145038e+04, 5.002777825375958e+05, 1.334843580752303e+05, 1.842391443212963e+04, -1.262358549452569e+05, 1.208722602925048e+05, 6.494348927438655e+05
3273, 5.483320951684233e-01, 5.199181519759570e-01, 1.702095986095457e-02, 3.230858753658361e-06, -4.783000244925825e-05, 4.987120772188956e-03, -9.800564365931903e+03, -1.492676775607663e+05, 2.557429728523583e+04, 2.619576384344550e+04, 9.529364460956065e+04, 6.663110922137662e+04, 2.613254667851323e+05
3274, 1.049650781138889e-01, 1.185964398495121e+00, 9.083530822213783e-03, 1.172376421541832e-05, -2.177566428719635e-05, 1.896944269225902e-02, -3.362828778647376e+04, 1.382053742363494e+05, 6.153598499563336e+04, -5.399939192292817e+04, -2.391934716898633e+03, 1.393613364466216e+05, 3.210672412484819e+05
3275, 4.459822936034889e-01, 1.223131127827466e+00, 1.966804728148552e-02, -9.166684334954711e-06, -3.051716759014285e-04, 2.057773000412459e-02, 2.629731777705308e+04, -1.487522298193588e+05, -2.565734172115777e+03, 1.508746121542100e+04, 2.552900236972402e+04, 1.191181167745532e+05, 2.708284342002530e+05
3276, 5.463426620144036e-01, 1.257503140802128e+00, 1.915128615668248e-02, -9.289043033391953e-06, -3.075925514787158e-04, 2.162439876873620e-02, 1.737303905692999e+04, -2.548310203389603e+05, -6.857733768390570e+04, 5.331501965391664e+03, -4.740371935190981e+04, 1.206226188196768e+05, 3.680511287291722e+05
3277, 5.461658317369739e-01, 8.410750328616536e-01, 1.850759477222279e-02, 4.570248110652431e-07, -1.520284766581273e-04, 1.139385349539969e-02, -3.674048101837610e+04, -3.163750232287523e+05, -2.332049647466495e+04, 1.493545671075898e+04, 5.906444318244585e+04, 1.693781413556455e+05, 4.398641645413746e+05
3278, 4.797808542013657e-01, 1.409449089261530e+00, 1.701872017201657e-02, -9.350892287270096e-06, -3.046535574776459e-04, 2.551965594737186e-02, 3.881980767973510e+04, -8.780250843493533e+04, -1.609169836914350e+04, 4.048375230222654e+04, 9.453836909325424e+03, 1.094010285025584e+05, 2.306455736629782e+05
3279, 8.879249233858837e-02, 4.571184862141058e-02, 7.313635945150714e-03, 4.479647309610368e-06, 7.618257143768986e-06, 9.353517830407165e-06, 1.943900054693214e+05, 1.610040851003316e+06, 3.421040414785641e+04, 1.893057606917978e+05, -5.996167078699796e+05, -6.515270155126450e+05, 2.089709233740210e+06
3280, 5.719961712092700e-01, 6.650250692043069e-02, 2.057681057318084e-02, 6.195179022873420e-07, -8.197254913668451e-06, 8.159819267265604e-05, 2.076111694853640e+04, -6.406124671346189e+04, -5.983790335337042e+04, -2.364388064874464e+05, 1.960525589574506e+05, 2.427103416061258e+05, 5.952367595968189e+05
3281, 2.632516456483801e-01, 4.081459457692477e-01, 1.593292962934497e-02, 2.379675460920105e-06, -2.522566291830036e-05, 3.083126765043128e-03, 6.061912310778986e+04, -9.038613599026185e+05, 1.968907429999357e+04, 1.484922812286851e+05, 6.213522849616582e+04, 3.411949714230755e+05, 1.176725798301620e+06
3282, 1.477571496775066e-01, 4.529454164652312e-01, 1.396372920390442e-02, 2.104581922013349e-06, 4.110440423178707e-06, 3.527114461471845e-03, 3.108662025150635e+04, 4.212293531155077e+05, 1.829725680422537e+05, 7.577352357552064e+04, -3.875534239519067e+04, 2.540005289379600e+05, 6.597466320580562e+05
3283, 3.582286638014704e-01, 7.259132851918344e-01, 1.946624444222887e-02, -3.581379229532222e-06, -1.387886190981971e-04, 8.729763784283365e-03, 4.563739941441600e+04, -3.324584551039350e+05, 1.078405324382902e+05, -2.813011341914286e+04, 2.100972912921055e+05, 1.906716365489726e+05, 6.299883380194155e+05
3284, 4.048049089821849e-01, 1.686601665819815e+00, 1.724722352271550e-02, -1.612511511386015e-05, -4.105677819047525e-04, 3.282135727672868e-02, 2.598439282623813e+04, -7.390445944349913e+03, 5.161121894224457e+03, 3.026098252984514e+04, 9.561400801706930e+02, 3.998647207577276e+04, 7.844939496695374e+04
3285, 3.127531006802324e-01, 8.370973164885679e-01, 1.632745399190041e-02, -1.589782406080653e-06, -1.024237178097812e-04, 1.103523350830873e-02, 2.369937893181683e+04, -2.294765724959335e+04, 7.586615666087810e+04, 4.702322977779134e+04, 1.838112530467130e+04, 2.335495745333146e+05, 4.309579634872184e+05
3286, 5.205299022636233e-01, 1.947438908995546e+00, 1.873466007475357e-02, -2.551670732494596e-05, -5.507251362407524e-04, 4.013844187576546e-02, 2.546407570979587e+04, 5.245364553494800e+03, -9.327484639496050e+03, 1.032157147246165e+04, 2.089105412898125e+03, 1.338215788549942e+04, 3.381235334072298e+04
3287, 6.033583138221015e-01, 2.983261104609681e-01, 1.716402662024764e-02, 4.292589474486075e-06, -1.550185744476820e-05, 1.799032724807012e-03, 4.989512198192705e+04, 3.829897950077255e+03, -1.947938485165445e+04, -1.140845092624716e+05, 2.530647340681985e+04, 4.314861413185985e+05, 7.635823651838271e+05
3288, 5.823968555320780e-01, 3.633890660935508e-01, 1.871844486399531e-02, 4.541038530328501e-06, -4.864154185504899e-05, 2.612639856519064e-03, -9.160909081088213e+04, -8.593598758416194e+05, -1.514392695157771e+04, 3.174443220883606e+05, 1.669520474459675e+05, 2.205742701466432e+05, 1.140650271272771e+06
3289, 4.555643289637471e-01, 1.902947104535609e+00, 1.977252996389727e-02, -2.664747912860255e-05, -5.601253593361874e-04, 3.879263719843493e-02, 1.518897684732096e+04, -3.240008936492518e+02, 1.726566609921376e+03, 1.094309350524652e+04, -3.738661833219512e+02, 1.403902400366897e+04, 2.816839930562877e+04
3290, 3.777906080000555e-01, 4.589274555786177e-01, 1.923515937878063e-02, -1.646134671396543e-06, -6.424749788900425e-05, 3.934495057623999e-03, 5.574813150271830e+04, -7.497824886105941e+05, 1.792641846099218e+04, 1.313390886950354e+05, 1.016334255843222e+05, 4.418636474745198e+05, 1.154628503577866e+06
3291, 3.640587797271977e-01, 6.328335646425124e-01, 1.794364212648496e-02, 5.127355151811341e-07, -8.991660339997733e-05, 6.906119645355441e-03, 7.585456813054605e+04, -2.591151646795803e+05, 1.360609817824205e+05, -7.918292243236647e+01, 1.011687929771512e+05, 2.952544587878366e+05, 6.635539772745098e+05
3292, 1.140207913166674e-01, 1.780318335992697e+00, 1.037691088560651e-02, -2.766614636180026e-06, -2.520851730731660e-04, 3.474607421068019e-02, -5.619089906728680e+03, 2.816001418925192e+04, 1.759163332953752e+04, 2.281772950879556e+04, 1.151925579239263e+04, 2.652559739158387e+04, 6.653126100847808e+04
3293, 5.803379089401702e-01, 9.489429302098715e-01, 1.822738045010410e-02, -1.351336370883534e-06, -1.796611844859519e-04, 1.392503468735400e-02, 6.737418179242955e+04, 1.979876061917523e+05, -2.200565055025442e+04, -5.017929977201347e+04, 6.000189274251493e+04, 1.498918506918635e+05, 3.548082278025726e+05
3294, 2.665757118341088e-01, 1.486375316574648e-01, 2.282507846949001e-02, -4.092181427892919e-06, -4.405270571389763e-05, 4.640707412710450e-04, 6.524473748447839e+03, -1.055879043120442e+05, 5.354037737584173e+04, -2.547536825567000e+05, -4.116790530788800e+05, 5.148603716181037e+05, 1.167829266582480e+06
3295, 5.901223461768323e-01, 5.491086556366260e-01, 1.718127087715307e-02, 4.611159274192644e-06, -5.328858389295338e-05, 5.491763599767802e-03, -1.050378499629383e+05, -6.864295188173938e+05, -7.144265277683279e+04, -2.201077669647477e+05, 5.640288833952171e+04, 2.343942827210004e+05, 6.885017952009409e+05
3296, 4.715960879094193e-01, 1.497054334217693e+00, 1.917099946792936e-02, -1.520968789821969e-05, -3.930513804751394e-04, 2.784257452895864e-02, 4.887067277819256e+02, -4.887249699794436e+04, 1.172278620377898e+03, 2.774197747605982e+03, 8.786741075588110e+03, 6.442081953653294e+04, 1.234521592652494e+05
3297, 5.624375567051896e-01, 4.525859336616426e-01, 1.771380538798491e-02, 2.455197620594533e-06, -4.610817328967731e-05, 3.900709723929766e-03, 6.235164640672113e+04, -8.317580108580334e+04, -5.168952018541001e+04, -8.213127056299213e+04, -6.626084825396263e+04, 2.598257573869421e+05, 4.947145775970037e+05
3298, 5.510705944478812e-01, 6.635915955207945e-01, 1.771833803896096e-02, 3.073650151078078e-06, -8.820930896855095e-05, 7.634215092554575e-03, -2.244734745077292e+04, -1.225470605877653e+05, 1.884953203416035e+03, 3.547213349155404e+04, 2.645952888779291e+03, 3.098976249101665e+05, 5.543587452099948e+05
3299, 5.824940424166559e-01, 7.694141415050136e-01, 1.738697554635386e-02, 2.916892587270098e-06, -1.049811315783720e-04, 9.836379986973561e-03, -1.065473186871188e+04, -1.034930418036704e+05, -5.666736051985968e+04, -5.444603681281609e+03, 2.487217752227190e+04, 1.896278690459458e+05, 3.584625890779328e+05
3300, 5.438310170914633e-01, 1.328814179453229e+00, 1.955739533050361e-02, -1.124782750916431e-05, -3.429983812147878e-04, 2.349118809648670e-02, 9.086275413491143e+03, -4.360850172020730e+04, -1.081148732591646e+04, -1.478916282662082e+04, -8.367122732065586e+02, 6.724147733099351e+04, 1.265135528279037e+05
3301, 5.426410719985706e-01, 5.725631008763453e-01, 1.929687729064439e-02, 5.011715157689223e-06, -9.580868842966328e-05, 5.907750732236400e-03, -1.637893622942556e+05, -6.055670657010877e+05, -6.719133035848159e+04, -2.656114223073154e+04, 8.888159742908891e+03, 2.554394688138259e+05, 6.958106646006741e+05
3302, 5.936606279155224e-01, 1.488101773169171e+00, 1.718095563030900e-02, -1.116994205113187e-05, -3.407721526178572e-04, 2.782409722400233e-02, 2.393677132950269e+04, 1.881536548873474e+04, -8.717812869249046e+03, 2.412186210935938e+04, 6.997633330924637e+02, 8.181783915180789e+04, 1.426154170545168e+05
3303, 4.370685040909355e-01, 8.584141777114594e-01, 2.074159573634317e-02, -4.676980516656049e-06, -2.056690329862553e-04, 1.167755166079731e-02, -2.149027475164479e+04, -1.147209651333708e+05, 4.571166342956371e+04, -6.844598619576990e+04, 2.278649660025394e+03, 2.868703372245544e+05, 5.095950386947243e+05
3304, 1.006402178381279e-01, 1.566866407795943e+00, 9.622158408685591e-03, 3.625460456513352e-06, -1.558690336178163e-04, 2.896005049320056e-02, -1.231086411514986e+04, 7.989554817955609e+04, 2.303135418557303e+04, 1.558086307931563e+04, -3.873096126673459e+03, 4.867013056578945e+04, 1.243014565176278e+05
3305, 1.126247796765555e-01, 3.071734712234693e-01, 1.061129114288842e-02, 9.452738494522550e-06, 5.004882544147604e-05, 1.614211872889570e-03, -1.045644785320565e+05, 4.761206530736646e+05, 1.843205357397476e+05, -2.996784871147930e+04, 7.822389297897778e+04, 1.960467139958445e+05, 7.314538807293762e+05
3306, 1.840197139487315e-01, 8.152257699546236e-01, 1.573192300882342e-02, 3.465923570020180e-08, -8.504219149680498e-05, 1.032032623843508e-02, -1.913720641801349e+04, 2.585647793966644e+05, 1.184382716201131e+05, 6.185512381177078e+04, 3.343369993194680e+04, 2.618320043725792e+05, 5.588297813365723e+05
3307, 4.187461138654596e-01, 1.821575089269520e+00, 2.113014518951470e-02, -2.742119758579464e-05, -5.659066246613137e-04, 3.650587579111500e-02, 2.427655181796901e+04, -2.221416537593638e+03, 4.729094352103255e+03, 2.095290610334448e+04, 3.486536562813191e+03, 2.369496461479912e+04, 4.912264187634914e+04
3308, 5.503182323835835e-01, 1.137918202343065e+00, 1.697503054167138e-02, -3.644850427557064e-06, -2.097141379499533e-04, 1.855316457193640e-02, 1.994371567846184e+03, -3.698349987183256e+05, -7.833774796778083e+04, 3.666048119769637e+03, -1.384808483345223e+04, 1.319262116720645e+05, 4.583456623102376e+05
3309, 4.728834141287195e-01, 1.123640600649091e-01, 1.787475493903802e-02, 1.880554585890343e-06, 6.177119603011094e-07, 2.825330413227106e-04, -1.399718492143087e+05, -4.148578342337129e+05, -8.552306419610912e+04, -6.667939779798957e+04, 1.434896338897054e+05, 7.647309826283272e+05, 1.392563101587035e+06
3310, 5.472856696543080e-01, 1.719762289341322e+00, 2.153566376646162e-02, -2.517607048927069e-05, -5.429194322259829e-04, 3.400351532531165e-02, 1.160350843958326e+04, -2.705117054016200e+04, -2.560405222121447e+04, 8.060738406131185e+03, -2.324098280774127e+03, 4.707072827361609e+04, 9.999828967395824e+04
3311, 5.945690984127641e-01, 1.820704095378385e+00, 1.862097767023215e-02, -2.209185242801144e-05, -5.031570476352193e-04, 3.684402537938336e-02, 1.480091325005821e+04, -5.377966773345086e+02, -2.351419988020394e+04, 1.417126882776013e+04, -1.607299441848576e+03, 3.084400969654375e+04, 6.889540163299361e+04
3312, 4.933637225869574e-01, 8.597598849223197e-01, 1.810605372498951e-02, -1.446939450507403e-06, -1.456348103713589e-04, 1.177028630380597e-02, 1.298907591691955e+05, -2.741363343595430e+05, -8.401456874670768e+04, 1.817381615409638e+05, 5.448554419503984e+03, 2.124674222102855e+05, 5.861445391268135e+05
3313, 8.536722466802238e-02, 1.954646896868141e+00, 8.981948162736175e-03, -4.185232871677103e-06, -2.769714137967408e-04, 3.940906692848628e-02, -3.702858746578674e+03, 9.383981328943755e+03, 5.088226101802665e+03, 1.621531944753212e+04, 7.280824775371941e+03, 1.017887961414257e+04, 2.923804587397034e+04
3314, 2.683443425559242e-01, 1.902430659258162e+00, 2.280258748720457e-02, -3.293811870862945e-05, -6.370021792038959e-04, 3.838203434885376e-02, 2.211054683419382e+04, 7.270330737468627e+03, 7.989501758884239e+03, 2.034013956870672e+04, 1.094010462128625e+04, 1.465175938014660e+04, 3.730508504915919e+04
3315, 4.571735474687659e-01, 9.157305219675882e-01, 1.950125403955708e-02, -2.888430291163313e-06, -1.957640200453484e-04, 1.301674707628134e-02, -1.119065104638073e+04, -2.144655652377816e+05, -7.506724362335952e+03, -2.865850997453829e+04, 6.663235994677964e+04, 2.300066869367773e+05, 4.585552685613944e+05
3316, 2.549108325953201e-01, 2.476115159075535e-01, 1.730398030606349e-02, -4.990325549139585e-06, -1.542900901109153e-05, 1.220657870998272e-03, -9.718502939485904e+04, 5.565113152037869e+04, 1.451282657878515e+05, -1.059700399102420e+05, -1.849503255085852e+05, 1.989639980336998e+05, 5.561881539762061e+05
3317, 5.994730238645962e-01, 2.268453408191771e-01, 1.916717133011696e-02, 4.913305676444712e-06, -2.873542065108883e-05, 1.071508932591454e-03, -3.160203561493119e+05, -1.134064901980497e+06, -1.498448189876036e+05, 4.803676099267520e+05, 1.580157335752814e+05, 5.947280938539584e+05, 1.777155971165955e+06
3318, 5.936244528237749e-01, 1.207662076023097e+00, 1.910312430419293e-02, -7.658685337620652e-06, -2.889481741683332e-04, 2.039550231548458e-02, 2.744944191142074e+04, -1.160484800788678e+05, -5.197793466564451e+04, -9.965359674308458e+03, -2.259133787388497e+04, 4.464594160846646e+04, 1.795510449355092e+05
3319, 1.446506265407097e-01, 1.733602764928825e+00, 1.159993737863343e-02, -4.511100237259043e-06, -2.689002569127921e-04, 3.354808669010922e-02, -5.672713511398546e+03, 3.054374013354162e+04, 2.367331601728838e+04, 2.214290979912494e+04, 2.808768117025055e+03, 2.827400536067506e+04, 7.198027874851313e+04
3320, 6.230669639072156e-01, 5.238365502232546e-02, 1.848056755210247e-02, 2.141206032202359e-07, -1.207197867524046e-06, 4.814255411025349e-05, -4.756101558044169e+05, -1.392828563417914e+06, 9.305309194559745e+04, -1.672981544934210e+04, 3.429216549619929e+05, 2.559956989824687e+05, 1.431124760765162e+06
3321, 7.745922334856631e-02, 1.391866662372877e+00, 6.814295011578812e-03, 1.393427909556974e-05, -2.340860505792297e-05, 2.424890337455810e-02, 4.845394341809336e+03, 1.978210156235845e+05, 4.260740832070269e+04, 1.024253555388340e+04, 3.365891948608454e+04, 6.618502294108328e+04, 2.412747748175786e+05
3322, 4.090497399896385e-01, 3.549579646693645e-01, 1.983553466879932e-02, -1.082397792805979e-06, -5.399166421485562e-05, 2.497927839680072e-03, 4.644271332733237e+04, -5.076229039509218e+05, 2.700219523954960e+04, 5.636597709617594e+04, 2.682096687666309e+04, 3.753911831368902e+05, 8.600502242577827e+05
3323, 5.793057594758081e-01, 1.040938045545090e+00, 1.642077470473152e-02, 3.184673993406051e-07, -1.649663886437586e-04, 1.615674621291695e-02, 9.201203374053257e+03, -1.643840425940719e+05, -6.748592676710949e+04, 9.330517313149327e+04, 7.749798948839666e+04, 2.065516978318839e+05, 4.598654165240037e+05
3324, 9.226536909866065e-02, 8.998622535852048e-01, 8.778279223417430e-03, 1.759088426039890e-05, 5.172313211807087e-05, 1.200052789553976e-02, -3.711747213235509e+04, 2.088853057548600e+05, 9.678940199749860e+04, 9.540757542014595e+03, 3.048033018455241e+03, 9.917750225212095e+04, 3.299352518377377e+05
3325, 1.929813012244505e-01, 1.491616737038932e+00, 2.032614974836287e-02, -1.853421484786927e-05, -4.164291492366468e-04, 2.714286612140562e-02, 1.078997498570968e+04, -1.113946357059575e+05, 3.266494563166304e+04, 2.831936843933746e+04, -1.883583437565578e+03, 6.546292656542906e+04, 1.828824889980135e+05
3326, 2.610283131860369e-01, 1.803570124313279e+00, 1.371431730857588e-02, -1.130377645172740e-05, -3.542183968886503e-04, 3.568969737332851e-02, -8.756150507707880e+03, 5.588970346608477e+03, 1.707550376974906e+04, 1.369161781525589e+04, 1.944542435569927e+03, 2.404003727691865e+04, 5.484068968525143e+04
3327, 6.106172166989023e-01, 1.691795065318869e+00, 1.820160291467143e-02, -1.787068721383414e-05, -4.441928759579203e-04, 3.336931952123873e-02, 2.045094941605709e+04, -3.973480031442832e+03, -2.210206427239046e+04, 1.831848153068023e+04, -1.968667735284933e+03, 3.063473034843266e+04, 6.958165466216404e+04
3328, 6.004725776152562e-01, 1.072648050737431e-01, 1.689544052836266e-02, 2.391165741907203e-06, -3.257275076920876e-06, 2.407800549265177e-04, -1.902299909759314e+05, -5.614121144821008e+05, -1.376569558902671e+03, 3.264009950074630e+04, 4.247061418485597e+05, 5.238597897775143e+05, 1.278511432537433e+06
3329, 5.974075425659459e-01, 1.976617876433146e+00, 1.981076807431574e-02, -2.844032176867878e-05, -5.934960986544446e-04, 4.109345480624771e-02, 2.483185223103904e+04, 1.069740412883989e+04, -9.678372261769922e+03, 7.008818944642762e+03, 1.262469802468158e+04, 4.693282307101521e+03, 3.302675832819898e+04
3330, 9.069725126330513e-02, 6.878585798165977e-01, 6.457301693711982e-03, 2.437640144574427e-05, 1.218014934984135e-04, 7.468389228003081e-03, -4.681650159644894e+04, 7.724014412310316e+05, 1.094641320965787e+05, 9.473111011080604e+04, -2.253996488126252e+04, 1.227981539274570e+05, 8.111133826272675e+05
3331, 1.048395706454332e-01, 1.293061456185235e+00, 1.054167731718750e-02, 6.975640113906969e-06, -9.033329123487796e-05, 2.172147782718412e-02, -1.080009047807217e+04, 1.302817702217041e+05, 2.649164349704911e+04, 4.025048911153092e+03, -3.249196439098666e+04, 8.999668840311479e+04, 2.181814255896163e+05
3332, 4.885647949091745e-01, 1.659849989165150e+00, 1.868446602806354e-02, -1.824605341898676e-05, -4.413391929571769e-04, 3.226445014666032e-02, 2.552307431526648e+04, -2.181838352322840e+04, -1.968357520414816e+03, 2.013301380522360e+04, 5.010471397269152e+03, 4.557598280244145e+04, 9.128823281382534e+04
3333, 8.769425553502751e-02, 5.634605079454237e-01, 7.618504818422828e-03, 2.305702094355933e-05, 1.010132397258152e-04, 5.166097570104222e-03, -3.915867818938436e+04, 1.389543784581488e+06, 1.484319945045192e+05, 2.607155016693060e+04, 3.638670096108891e+04, 1.426759739878487e+05, 1.443394807243537e+06
3334, 5.909375156095413e-01, 1.291364895172464e+00, 1.740518314150479e-02, -7.504120332671102e-06, -2.750095710060520e-04, 2.257783631050785e-02, 3.257103547901256e+04, 1.073321993512287e+05, 1.018840197315171e+04, 2.265093839022220e+04, -2.625667498539574e+04, 8.817724423687061e+04, 1.792612805534274e+05
3335, 9.334300568199881e-02, 8.109343676218449e-01, 5.649073107032984e-03, 2.687024969123906e-05, 1.315266298251884e-04, 1.002752266130116e-02, -2.530451012979615e+04, 7.776258734962951e+05, 2.282700284711766e+04, -3.508097898705042e+04, 2.455854988481713e+04, 1.336114822888963e+05, 8.423605356828588e+05
3336, 5.991190232020808e-01, 1.394721228535406e+00, 1.817875334872769e-02, -1.064068622934691e-05, -3.329587031587385e-04, 2.532910417172642e-02, 1.038646440887550e+04, -9.995184858226124e+04, -4.736800940449571e+04, 2.629966439784185e+04, 1.411331329828626e+04, 6.587633713106150e+04, 1.858263330416542e+05
3337, 5.661089275544565e-01, 7.206505921414791e-01, 1.776288887909562e-02, 1.648403491448514e-06, -1.017639178634427e-04, 8.796365325589257e-03, -1.269965533932537e+04, -2.510899563394661e+05, -8.007836109496771e+04, 9.876997071448524e+04, -6.760055285640096e+02, 1.245501283268680e+05, 4.020023593798488e+05
3338, 5.948095643078088e-01, 8.826446387141023e-01, 1.679902995932563e-02, 6.395738993665925e-07, -1.270469188511952e-04, 1.237688674490434e-02, 1.765977201243201e+04, -6.933427146676839e+04, -6.141354207070459e+04, 1.129127614931177e+04, -5.908452551797731e+04, 1.884431831380325e+05, 3.679331635828068e+05
3339, 4.798618787406308e-01, 3.601142956497286e-01, 2.101176840023777e-02, 2.241735092833874e-07, -6.996027319877175e-05, 2.584114792848678e-03, -2.681240943765732e+05, -1.595161732283966e+06, -8.738297941151095e+04, -1.608446119894587e+04, 5.215562240631567e+04, 2.780768322096351e+05, 1.556299169356501e+06
3340, 6.244698929872546e-01, 1.759230761435258e+00, 1.919785337456724e-02, -2.166597248903085e-05, -4.972694174826021e-04, 3.523065967103928e-02, 1.970652331237359e+04, -3.255141085135604e+03, -2.974298997822854e+04, 1.325015609516477e+04, -1.736364867989315e+03, 3.002124883293142e+04, 7.607549647648966e+04
3341, 6.003881008849556e-01, 6.524567461521106e-01, 1.854622130796176e-02, 3.964912557802291e-06, -1.015172061943036e-04, 7.416914544651071e-03, -1.225518910956492e+05, -8.747545760490496e+05, -1.270897555887817e+05, 3.012434751725661e+04, -2.655177311980743e+04, 1.965375272133763e+05, 9.329596970957615e+05
3342, 7.587600113563447e-02, 1.592223812959747e-01, 7.840264509442342e-03, 1.384556920833169e-05, 3.152322640540516e-05, 3.799681207264215e-04, 4.278823977405584e+05, 1.765732871840491e+06, 1.390923102558834e+05, 3.623901207392637e+05, -4.297904150404463e+05, 2.370907139686965e+04, 1.579758772196146e+06
3343, 9.294963084841826e-02, 3.798203142806393e-01, 7.967262539302945e-03, 1.749478729255564e-05, 8.230545735302131e-05, 2.402680571666052e-03, 1.415070872946242e+05, 1.522324849922382e+06, 7.332791802305351e+04, 2.888596114036682e+05, -8.796990070986960e+04, -5.393325825189028e+04, 1.331531797332053e+06
3344, 3.965058965920353e-02, 4.081439214744724e-01, 3.823120499238296e-03, 3.383858846588150e-05, 1.415040761828289e-04, 2.639667773801729e-03, -9.161801851222570e+04, 1.085636560269274e+06, -7.292796810242500e+03, -4.586876626593069e+04, -2.031700968370351e+05, -6.502774116465682e+04, 1.212782940771146e+06
3345, 9.445393888895520e-02, 4.233001189274017e-01, 2.574944584005312e-03, 3.540604150404497e-05, 1.577829558958993e-04, 2.981583090496634e-03, -2.147613984778604e+04, 1.297597606634194e+06, 1.058826091885477e+05, 5.363221799563547e+04, -3.140140171040606e+04, 5.488388176981570e+04, 1.300827274241872e+06
3346, 5.995702836405156e-01, 1.621619424637166e+00, 1.820219664231200e-02, -1.611415514364773e-05, -4.177554425679325e-04, 3.144284461662339e-02, 1.801122491637383e+04, -1.485583024996142e+04, -2.876492856442251e+04, 2.493662228904206e+04, -3.499097287379828e+03, 6.134469046189143e+04, 1.231435316880145e+05
3347, 6.466049508743826e-01, 1.275623801863378e+00, 1.776215076220802e-02, -6.483047334229254e-06, -2.806953319184902e-04, 2.224149931568772e-02, -1.012895160827582e+04, -4.243452567159358e+04, -5.256160828510834e+04, 2.834517833989899e+03, -1.408355889062081e+03, 7.790695954223041e+04, 1.677292324210428e+05
3348, 6.026341040628902e-01, 1.771360428537251e-01, 1.716904654051290e-02, 8.287937425729974e-07, 1.052773097014875e-06, 6.633143711738260e-04, -2.609755109577780e+05, -6.368671076882636e+05, 2.029816917669977e+04, -1.438338510368919e+04, -2.454329900527371e+03, -9.509627342057291e+03, 5.443523621813405e+05
3349, 2.270616746921357e-01, 1.615384627135538e+00, 9.763553508356726e-03, 1.434302849871727e-06, -1.793065871908721e-04, 3.053496994659943e-02, 2.067635635663275e+04, 5.932111172364905e+04, 3.345288156279954e+04, 3.263143872583655e+04, 1.685945414597207e+04, 4.131687454293881e+04, 1.024968374201658e+05
3350, 6.043603307656895e-01, 1.554735493449005e+00, 1.825085987697175e-02, -1.449851036974814e-05, -3.941640856637008e-04, 2.964052012090915e-02, 1.355123675569429e+04, -5.037119933363869e+04, -3.817003869830137e+04, 5.904330530075498e+03, -3.314760350249045e+03, 4.972859638259151e+04, 1.244120673476103e+05
3351, 1.051321023239897e-01, 7.574969736186123e-01, 8.709478426110827e-03, 1.855063249166927e-05, 7.306396198958343e-05, 8.919682536370238e-03, 1.123815426388959e+03, 5.129120603173371e+05, 4.845116184659325e+04, 1.642859316667593e+05, -9.542498851942780e+04, 2.001658565165643e+05, 5.996699688836550e+05
3352, 5.926781904191625e-01, 4.125088324505916e-01, 1.711489681191683e-02, 5.438633287804112e-06, -3.542433274607987e-05, 3.288477156902208e-03, 2.511798701957260e+04, -2.180972736231695e+05, -5.670826407106617e+04, -1.291083038475082e+05, 2.462822405158271e+05, 3.856596934965907e+05, 8.265843752811537e+05
3353, 3.281458547967387e-01, 1.074999999997565e+00, 3.058144547334429e-02, -2.785305540652094e-05, -5.213579321562576e-04, 1.664233453250063e-02, 1.083159326787761e+03, -4.523982438257152e+05, 3.991294300902713e+04, -1.041478073609903e+04, -1.051905804176757e+05, 9.394143027633533e+04, 5.147939046741037e+05
3354, 6.252697176744227e-01, 3.413319020900407e-01, 1.633068456369078e-02, 4.212101933314619e-06, -1.235171533840729e-05, 2.311010847087680e-03, 1.265751592122184e+05, 1.873546467578497e+05, -5.050865128392073e+04, 4.049186784583088e+05, 3.557250225093183e+05, 3.521443255999978e+05, 9.074925944542701e+05
3355, 6.179818217515627e-01, 1.916300889753116e+00, 1.885900214052763e-02, -2.491298259225949e-05, -5.460342286986997e-04, 3.949477959587031e-02, 9.016931738152511e+03, 6.052333357290242e+02, -5.154159945284679e+03, 2.738733914444545e+03, 1.340655189129197e+03, 1.481081166225238e+04, 2.829365159961584e+04
3356, 5.956832845715282e-01, 8.323899731218144e-01, 1.797919904170384e-02, 1.137575556092382e-06, -1.382335947921337e-04, 1.123248540636998e-02, 8.325637305816901e+03, -3.384242031203701e+05, -8.279968296547380e+04, 1.925754144555650e+04, -5.088258778358648e+04, 8.393198916046361e+04, 4.166699011318484e+05
3357, 5.473224776123666e-01, 1.992813999343484e+00, 1.652541121410563e-02, -2.198568352223748e-05, -5.083667732539085e-04, 4.142980757686476e-02, 2.779394051096521e+04, 8.229920566992176e+03, -2.053850918321471e+03, 8.522545250839225e+03, 1.586473538553164e+04, 6.352181240079089e+03, 3.557930026414539e+04
3358, 6.268858772968211e-01, 1.130674721828575e+00, 1.741007305094359e-02, -3.095356567103802e-06, -2.214933570883343e-04, 1.846059865094790e-02, 1.167799886014025e+03, -1.443402162104427e+05, -8.698635602950031e+04, 4.701980389533679e+04, 1.334697048293018e+03, 1.233288178412106e+05, 3.134996614707545e+05
3359, 6.263827124350936e-01, 7.356357085202321e-01, 1.862905094868729e-02, 1.948189732776462e-06, -1.295642299549496e-04, 9.124479194525303e-03, 1.414217292497697e+04, -3.880455135421752e+05, -1.383621082123231e+05, 1.639236899066738e+03, 3.199130519305532e+04, 1.684083416941124e+05, 5.499721721032663e+05
3360, 6.290355550153937e-01, 9.457883825824454e-01, 1.679177319360894e-02, 7.698096795190346e-07, -1.460676695419806e-04, 1.388854638566849e-02, 1.232077240812075e+04, -1.653917162935030e+05, -6.022052381046944e+04, -8.533786699993938e+04, -7.098788138284827e+04, 1.065268765804178e+05, 2.894910660361975e+05
3361, 2.566814705560993e-01, 1.219653670868987e+00, 2.641661413232609e-02, -2.530868972648592e-05, -4.748709654935485e-04, 2.014643572460646e-02, 1.073068022415750e+04, -2.650294062344735e+05, 3.037589038126582e+04, -3.697010162055316e+03, 1.092333892719861e+04, 6.997902913177165e+04, 3.001506923017954e+05
3362, 5.026940004423170e-01, 4.948324153528507e-01, 1.509624662265650e-02, 1.344144033051456e-06, -1.266542877842447e-05, 4.573291785995928e-03, 1.742423636164154e+05, 3.136681751852786e+05, 1.439001371466454e+05, 2.568719873812921e+05, 1.161324715763100e+05, 1.915852566415753e+05, 4.769100987241784e+05
3363, 4.914718620943422e-01, 7.523537185206585e-01, 1.628285820575658e-02, 3.227254886850085e-06, -7.915826337641201e-05, 9.417268845855323e-03, -1.991678772055609e+04, 6.252083055409085e+04, 9.846555454749265e+04, -2.285140468441655e+05, -8.691794857245513e+04, 2.434591574646110e+05, 5.450437673717138e+05
3364, 6.113650423786363e-01, 1.336452962278718e+00, 1.783727221811329e-02, -8.346819683927725e-06, -3.033347002074508e-04, 2.379899492278970e-02, 1.667708728026525e+04, -4.446290515234054e+04, -4.498912714418405e+04, 3.113846578952577e+04, 1.162005279324274e+04, 1.195850693262638e+05, 2.328310690120851e+05
3365, 5.689128505657070e-01, 1.935854133742614e+00, 1.858202422963424e-02, -2.484154977233990e-05, -5.439306919664058e-04, 3.992472667883178e-02, 2.323890420905969e+04, 7.065200349489698e+03, -1.308801921606844e+04, 5.659127478919690e+03, 6.536112420379687e+03, 1.307441448554469e+04, 3.796286506315764e+04
3366, 5.638596533537646e-01, 1.669988732682600e+00, 1.882851650510985e-02, -1.868826915626173e-05, -4.513641725674145e-04, 3.268653064264873e-02, 1.214544314863469e+04, -1.825513758722668e+04, -1.358829758780330e+04, 1.016561805085573e+04, -5.457373675451927e+03, 4.813185523200860e+04, 9.198493313742886e+04
3367, 6.446805018048326e-01, 1.659397380634539e+00, 1.773167919539784e-02, -1.605133195551212e-05, -4.208787191821439e-04, 3.255427341686027e-02, 1.910375920615268e+04, -5.895378118701428e+02, -2.311676864519310e+04, 6.383497413116473e+03, -1.235002306133877e+04, 4.082296286942691e+04, 8.578691154736219e+04
3368, 4.759621536037869e-01, 1.815117722439429e+00, 1.868417897056490e-02, -2.223627772271475e-05, -4.986942881369718e-04, 3.644979755200115e-02, 1.292826599919693e+04, -4.205731318670030e+03, 2.079780822281061e+03, 1.849181477729162e+04, -1.856824189350890e+03, 2.749865989074636e+04, 5.207400031987263e+04
3369, 6.790514341634788e-01, 1.912681707014111e+00, 1.575215323480386e-02, -1.846678578175560e-05, -4.624783469862337e-04, 3.952393398943660e-02, 1.913312468404478e+04, 1.349664368233133e+04, -2.150054820277637e+04, 7.015058487815474e+03, -9.021512806777280e+02, 1.760234412216623e+04, 4.928594223682059e+04
3370, 1.059347882657839e-01, 1.616105796049829e+00, 8.878999915408303e-03, 4.209535647239915e-06, -1.529375588961782e-04, 3.029517665582998e-02, 3.659820263504037e+03, 7.477891931314477e+04, 2.134539644631192e+04, 3.418290986481398e+04, 1.167654787932405e+04, 5.416673407623801e+04, 1.199867451709911e+05
3371, 6.396280793849352e-01, 1.500613484189810e+00, 1.716980708455101e-02, -1.115519995830913e-05, -3.463671285853370e-04, 2.824058323307665e-02, 3.129652804271565e+04, -4.338066379689037e+03, -3.922932208258405e+04, 1.560009961716937e+03, 3.714332439188722e+03, 6.243867354929484e+04, 1.320924216571487e+05
3372, 6.088269240163198e-01, 1.442109878513030e+00, 1.998985016790876e-02, -1.432427347056175e-05, -3.997783042238873e-04, 2.661213333650124e-02, 1.687876425501087e+04, -5.637301317713910e+04, -4.703021533999474e+04, -1.395669250909965e+04, 1.639480953263484e+04, 8.517271336951450e+04, 1.823813652397268e+05
3373, 5.662859908481925e-01, 6.162937729273363e-01, 1.941400126022196e-02, 4.130371844058775e-06, -1.081191716002308e-04, 6.717201334414082e-03, 4.631552456430855e+04, 4.488712189235131e+04, -1.966228302873085e+03, -4.431124312595442e+03, -6.044584755234434e+04, 2.442681620186623e+05, 4.387234671244377e+05
3374, 8.843960315276549e-02, 1.435002401994762e+00, 6.547712181118466e-03, 1.343506111128878e-05, -3.004605292330695e-05, 2.541491558670295e-02, 8.577131756564309e+03, 2.039940592479068e+05, 3.614322908237225e+04, 4.056261763267623e+04, 9.616562360389167e+03, 7.144783090175227e+04, 2.290658266628885e+05
3375, 6.306832715502986e-01, 9.934610855005249e-01, 1.895131147918366e-02, -2.143155942908756e-06, -2.139152021808019e-04, 1.503943898160040e-02, 3.280036671688663e+03, -9.176531298393811e+04, -7.355573156013378e+04, 1.254470581060682e+03, -1.611825117797001e+04, 1.698318934484501e+05, 3.352380465696256e+05
3376, 6.322658393368457e-01, 2.604135630355041e-01, 1.562819702774327e-02, 2.147777275640639e-06, -4.290051534662498e-06, 1.380395066543937e-03, 3.054566302892778e+05, 5.917332499437130e+05, -3.889340433607598e+04, 1.500374735894435e+05, 4.928461493493286e+04, 4.184885007061205e+05, 8.293522618404086e+05
3377, 5.917615856223708e-01, 4.938741638284321e-01, 1.751652302840424e-02, 3.733650594764382e-06, -5.214827596956850e-05, 4.552280125664555e-03, 1.086761077422603e+05, 1.675261293521411e+05, -1.240368715284673e+05, -2.345293291741363e+05, 1.871248908496610e+05, 2.257960350166344e+05, 6.675365933501454e+05
3378, 6.374497819107188e-01, 5.488770767848210e-01, 1.739063012319174e-02, 5.288453171409246e-06, -6.119543192223409e-05, 5.478273395289376e-03, -3.848427707945181e+04, -3.176993170433991e+05, -1.051629037871791e+05, 5.996095589592587e+03, -1.928658007148007e+04, 3.554930385910670e+05, 7.111811710800484e+05
3379, 3.105304352015019e-01, 1.554172270675344e+00, 3.042613069909897e-02, -4.021559909563304e-05, -7.127974756539095e-04, 2.905639732375728e-02, 8.976794979037950e+03, -1.224930669701682e+05, 2.633471809856058e+04, 2.475906184114746e+04, 2.129163189628730e+04, 6.374116083782475e+04, 1.877169588692789e+05
3380, 6.351472333185262e-01, 8.073826053411974e-01, 1.892059848442355e-02, 2.364813016702931e-06, -1.541867781170991e-04, 1.068752070134374e-02, -6.668967515736274e+04, -4.385776124729487e+05, -1.320152912663548e+05, 4.957362299706782e+04, -2.954828045577467e+04, 1.882392666653445e+05, 5.968753547575626e+05
3381, 2.363512019992490e-01, 6.165146980399352e-01, 2.454228596992486e-03, 1.967218508809945e-05, 1.982370943939687e-04, 6.421510433341784e-03, 1.945387605982747e+05, 1.896334495618927e+06, 1.578281250038950e+05, -1.768293934651635e+05, -3.484798357439364e+05, 3.682795480553057e+05, 2.124134879363638e+06
3382, 6.587924080707251e-01, 1.211934258810956e+00, 1.742015167288756e-02, -4.942984365013947e-06, -2.503349140952210e-04, 2.059044703337234e-02, 1.425331672634236e+04, -3.679237200249204e+04, -8.116400562885996e+04, 4.367572047946270e+04, 1.137942322845185e+04, 1.167908891863445e+05, 2.569918747413254e+05
3383, 6.447764129069169e-01, 1.829729338771708e+00, 1.646897552594917e-02, -1.790224852901701e-05, -4.499713467367820e-04, 3.719221279521800e-02, 2.120366823856394e+04, 1.018975985264747e+04, -2.986271951501127e+04, 8.008863317096049e+03, 1.676063360196925e+03, 1.465057785965452e+04, 5.897265970598709e+04
3384, 4.545103265081489e-01, 1.057747260570638e+00, 1.408462036829100e-02, 2.588058113581204e-07, -1.092895490245847e-04, 1.641772287135165e-02, 6.578387745055227e+04, -3.698674169354699e+05, -1.532041598000119e+04, 8.804288848067996e+04, 6.325458686386562e+04, 1.181206279655708e+05, 5.045291892522988e+05
3385, 5.718445234783326e-02, 1.861442849261144e+00, 5.031553979482999e-03, 7.238056545073868e-06, -1.350898168382911e-04, 3.682208081070630e-02, -1.611107146759138e+04, 2.361966121475775e+04, 6.722305732527188e+03, 7.595798846979800e+03, 6.052833058000690e+03, 1.865961618688494e+04, 4.988665020102265e+04
3386, 8.774560681913776e-02, 1.739133758703188e+00, 6.911115619103382e-03, 6.004355207069045e-06, -1.429433669653396e-04, 3.357614233767305e-02, -1.980629798830222e+03, 2.248480952840720e+04, 1.501788213589334e+04, 2.013700721866290e+04, 5.056897030983175e+03, 2.971262053804367e+04, 6.283690248731994e+04
3387, 8.984532946267182e-02, 1.692514736416796e+00, 7.191724538086933e-03, 6.369206053371407e-06, -1.340519994299412e-04, 3.232064394487303e-02, -2.656189531415018e+02, 8.489230063626240e+04, 1.690291025470341e+04, 2.410785530848500e+04, 1.523225052446763e+03, 2.705746988718789e+04, 9.397206475382282e+04
3388, 6.885885137637132e-02, 1.059136412824648e+00, 5.437446026621627e-03, 2.432266116596249e-05, 1.005647086570749e-04, 1.571557870008652e-02, 6.713552080376873e+04, 5.365473511029226e+05, 3.541040929203133e+04, 6.195276433634288e+04, 4.309069809653649e+04, 1.041165919368964e+05, 5.144512462658266e+05
3389, 3.646996937468422e-01, 8.508031500308298e-01, 3.119265239449946e-02, -2.210745016483287e-05, -4.367436759468008e-04, 1.141155492584350e-02, -9.528107973024446e+03, -9.435659753793136e+05, 9.495915230518403e+02, 4.473339872055309e+03, -9.068280264942054e+04, 2.087231394584547e+05, 1.020328145683480e+06
3390, 5.337209302668433e-01, 2.083176600994631e-01, 1.100456263403957e-02, -1.854508561785484e-07, 4.434750352149200e-05, 9.309264488014737e-04, 2.369150949705421e+05, 3.999113497701304e+05, 2.522207114196759e+04, 1.579627529479952e+05, -1.074111688617177e+05, 3.719898582628497e+05, 7.052088255296487e+05
3391, 2.711625209657596e-01, 2.022266565620717e+00, 1.433733236671685e-02, -1.834438838731883e-05, -4.516389460803528e-04, 4.164229218255193e-02, 1.876874503732997e+04, 1.088984322796962e+04, 4.453444196286596e+03, 1.251450895570771e+04, 1.490263301628561e+04, 4.290699143562987e+03, 2.886020194334818e+04
3392, 6.684295778401794e-02, 2.302442745248832e-01, 5.402917980424384e-03, 1.968070564261487e-05, 8.182105500549597e-05, 8.226990857993985e-04, 4.160048639227226e+04, 2.319947367913746e+06, 8.318679377029203e+04, -6.615746536609804e+03, -4.558008377793875e+05, -1.421517305198433e+04, 2.438784979074194e+06
3393, 5.566166592035003e-01, 2.984917217962899e-01, 2.553713932827354e-02, 5.777415437842326e-06, -1.117954310346295e-04, 1.816846447350112e-03, -4.552659515298163e+05, -2.036290327473723e+06, 3.416103117983803e+03, -8.120162184347426e+04, 2.323109135463958e+05, 5.577090955085524e+05, 2.079909954795270e+06
3394, 4.367520899442564e-01, 2.016772631491182e+00, 1.468260721909073e-02, -1.886538211323674e-05, -4.635388840173275e-04, 4.184713459027078e-02, 2.684175302222942e+04, 9.014125294128855e+03, 2.048170387818262e+03, 9.662378851216086e+03, 1.665361503940114e+04, 2.326001301765037e+03, 3.416917109937840e+04
3395, 6.103297858194544e-01, 1.865102054933252e+00, 1.633639388531561e-02, -1.863951043767909e-05, -4.580698546075221e-04, 3.808549120937521e-02, 1.361548435745063e+04, 5.817044603758514e+03, -7.482100721712332e+03, 3.180790422216732e+03, 1.098363477544595e+03, 1.596903431203238e+04, 3.201435676855609e+04
3396, 6.381340541249680e-01, 4.014527027261511e-01, 1.690927815702910e-02, 5.358019341509743e-06, -2.799144648461815e-05, 3.120663787812842e-03, -1.158752562300578e+05, -3.133798556769415e+05, -8.121888353601292e+04, -1.437885415098632e+05, 2.047203290665023e+05, 2.789020430204956e+05, 6.427705853569923e+05
3397, 6.424724705095861e-01, 9.009610655689411e-01, 1.723375144554910e-02, 1.682372336109239e-06, -1.446391616935563e-04, 1.283276404987521e-02, 7.443188618118146e+03, -2.431900583570381e+05, -9.901104401016112e+04, 4.441965083763729e+04, 2.291193155069620e+04, 1.136669056474251e+05, 3.784134520386306e+05
3398, 1.862482479690339e-01, 3.925060968492353e-02, 9.607650158773249e-03, 2.055618403537518e-06, 1.304459359487836e-05, 2.335452948670595e-05, 4.615859072276923e+05, 9.268159819817131e+05, 7.783135838265752e+04, 2.815861274503142e+05, -2.437686291906177e+05, 1.581446992796377e+05, 7.772078786806669e+05
3399, 6.465469828733107e-01, 1.499596548778918e-01, 1.575262246528654e-02, -8.909778425720237e-07, 7.794513927537883e-06, 4.626192178781158e-04, 1.836910938248487e+05, 6.775811674125129e+05, -8.738146613298038e+04, -3.263724526358994e+05, 2.682288108925567e+05, 2.984824694060233e+05, 1.123400885343132e+06
3400, 6.502531313455251e-01, 1.572178414319840e+00, 1.844158155914592e-02, -1.538734459891056e-05, -4.081043395709610e-04, 3.019535519934004e-02, 1.584642665090142e+03, -2.712849479299227e+04, -4.855661274981055e+04, 5.525729849083830e+03, 9.604546344077273e+03, 3.037920446979869e+04, 1.052226280712099e+05
3401, 2.332452764085760e-01, 3.675696567600981e-01, 4.070190739295335e-03, 1.374191283357723e-05, 1.361789436834515e-04, 2.508373039688920e-03, 5.090559915920109e+05, 1.560450870391419e+06, 3.144127753458199e+05, 5.100315088571367e+05, -1.238097742253119e+05, 1.444766268525382e+05, 1.228649558070175e+06
3402, 4.962519409815236e-01, 1.714106473615885e+00, 2.202040518314858e-02, -2.633108692980460e-05, -5.521597595285806e-04, 3.374841746193452e-02, 4.007592310102203e+04, -4.735762735477506e+04, -2.326950923468915e+04, 1.506980720260648e+04, -4.388576820493926e+03, 4.620564675707768e+04, 1.190404656318232e+05
3403, 2.857254347833898e-01, 1.318448929112906e+00, 2.330017733706417e-02, -2.028925462314521e-05, -4.318969984066744e-04, 2.275849374529178e-02, 1.019081413127494e+04, -8.989026765975403e+04, 2.991026908450613e+04, 2.743643602528899e+04, -8.404435222336218e+03, 9.020720319086971e+04, 1.983617644839461e+05
3404, 7.416851926914242e-02, 1.056284177200630e-01, 2.955820895402611e-03, 1.533989377818651e-05, 4.128802514012306e-05, 1.378708017709951e-04, -1.224962299689116e+05, 1.619922247478282e+06, 1.550333768750734e+05, -3.407917307839589e+04, -4.986191727622161e+05, -4.998056060313587e+05, 2.111200233631633e+06
3405, 4.073996054300463e-02, 1.531777674146132e+00, 3.673307378946375e-03, 1.858247244093669e-05, 1.683448373970831e-05, 2.789051419006260e-02, -1.283569588856918e+04, 1.422253625566011e+05, 1.531584386021708e+04, 1.106922001775466e+03, -1.920049177924581e+04, 3.138485099491572e+04, 1.638325359666533e+05
3406, 1.764725606686290e-01, 1.348428426961835e+00, 1.065887636859931e-03, 2.498435494489859e-05, 1.388740043772735e-04, 2.332682457620616e-02, 1.696635139756672e+04, 3.140224567309446e+05, 4.252052526468243e+04, 6.174935092057237e+04, 6.248504935197697e+04, 1.097025624455854e+05, 3.608127898841102e+05
3407, 1.200003322039529e-01, 1.002596660527726e+00, 4.623333225238661e-03, 2.470596323249710e-05, 1.286975412352100e-04, 1.447074911214319e-02, -1.048020179917465e+04, 5.188244895299431e+05, 1.109209925137346e+05, 6.088025229159738e+04, 3.764189367424361e+04, 1.498940212366976e+05, 5.966993686705222e+05
3408, 1.832354674573378e-01, 1.608004514044962e+00, 3.095639956587207e-02, -4.359656506114709e-05, -7.450890337945548e-04, 3.023659052623405e-02, -1.240830225848763e+04, -1.153993945394586e+05, 1.811900601286214e+04, 6.820511106100974e+03, 3.212011702266947e+04, 4.554639991394321e+04, 1.525146988621702e+05
3409, 6.578879148607527e-01, 6.876708426790095e-01, 1.572046805130197e-02, 5.085482359501459e-06, -5.622294991210891e-05, 8.131205363405808e-03, -9.082465461518145e+04, 2.803704623780435e+04, -7.344673903007081e+04, -1.211484572161124e+05, 1.438648297135910e+03, 3.097163780190718e+05, 5.679913376771710e+05
3410, 6.222633689604724e-01, 1.060619936261442e+00, 1.936234921599912e-02, -3.656571370507650e-06, -2.450344546022082e-04, 1.668958303658333e-02, 5.916855405693595e+02, -2.727326474753271e+05, -9.905830274391780e+04, 5.187601657250183e+03, 5.836276568945496e+04, 1.081016581398100e+05, 3.881979829065805e+05
3411, 1.396769133784216e-01, 4.027399689059741e-01, 7.670034231875816e-03, 1.564122360171727e-05, 8.801656634727095e-05, 2.807569044156993e-03, 1.174686869816230e+04, 8.708207774795520e+05, 2.304432706327774e+05, 1.452119412940700e+05, 9.011341255164283e+04, 3.238458368837723e+05, 1.067457965100717e+06
3412, 3.003183992327062e-01, 1.648338746222657e+00, 3.030797779575751e-02, -4.244273541609538e-05, -7.459943370661439e-04, 3.156911266894340e-02, 1.409611639990745e+04, -6.790813342754323e+04, 1.449740622106116e+04, 1.985321550855730e+04, 2.004894085998379e+04, 4.854191379587603e+04, 1.270248180814774e+05
3413, 5.124656477374420e-01, 2.763900761009188e-01, 2.174835198299105e-02, 4.847952678781881e-06, -6.290726026122323e-05, 1.578563664232760e-03, -2.372837874141848e+05, -1.505332944958529e+06, -8.838224809855857e+04, 6.615376509335038e+02, 2.378623072574351e+05, 3.899358436473236e+05, 1.617285564184913e+06
3414, 6.416779439745961e-01, 1.373266386789921e+00, 1.430611605084929e-02, -4.029487237613982e-06, -2.242315890137320e-04, 2.482465114936643e-02, -2.268133713318184e+02, 1.933317397077107e+04, -3.412645090639524e+04, 1.792995147574298e+04, 1.374944391360060e+04, 7.009473928699797e+04, 1.384121314382850e+05
3415, 6.673803410041245e-01, 3.577700517641287e-01, 1.640306911132332e-02, 4.582443588578566e-06, -1.663794011717065e-05, 2.508320497052616e-03, -9.246914716210973e+04, -5.695686569213540e+05, -1.026609375737525e+05, -3.927725837783531e+04, 3.481557910753520e+05, 2.052831986318627e+05, 8.817652108793814e+05
3416, 6.285859946460014e-01, 1.176900758017136e+00, 1.923922824836587e-02, -7.018707658672241e-06, -2.831794843326622e-04, 1.964648145196640e-02, 2.078174284950010e+04, 1.212246679262694e+05, -1.427438669613321e+04, -3.428252819198318e+03, -2.235319317453457e+04, 1.292420143845395e+05, 2.555922393144652e+05
3417, 2.856530937081846e-01, 4.641382818071895e-02, 3.622371534373784e-03, -1.329128817643618e-06, 1.882462346860028e-05, 5.049143018141106e-05, 9.326100935123778e+05, 2.269050694260152e+06, -6.211195320373495e+04, 5.627730226712993e+05, -1.423990559558364e+05, 7.873341716212021e+05, 2.085475884885762e+06
3418, 7.950824860074580e-02, 9.787099832364262e-01, 7.600979815572485e-03, 2.015965999833599e-05, 6.391448508799580e-05, 1.380226990127223e-02, -1.877230464379807e+04, 4.703067947353332e+05, 4.196972862405946e+04, 3.796161042737924e+04, -3.140804592625830e+04, 1.256146822218769e+05, 5.198563706060559e+05
3419, 6.383748168740944e-01, 5.016262008634238e-01, 1.501674702149498e-02, 2.673155876703817e-06, -1.228425419662338e-05, 4.667475731055099e-03, 1.269794126183339e+04, 7.638098522167420e+04, -6.738399392035969e+04, 5.945009178315724e+04, 8.361873755822309e+03, 1.918373117646926e+05, 3.570717122272593e+05
3420, 6.683165375155384e-01, 8.369471526369586e-01, 1.535240766708542e-02, 1.860952907051239e-06, -8.309470240658486e-05, 1.136809186808585e-02, 5.906794704523107e+04, 2.745564457276339e+05, -4.943732188550661e+04, -6.381598754344594e+04, 6.536486145093323e+04, 1.632590589504957e+05, 4.337352092376497e+05
3421, 6.423266249765360e-01, 1.985125064418354e+00, 1.669585883924702e-02, -2.202944303319326e-05, -5.136958320288709e-04, 4.142085198263845e-02, 2.523513211878252e+04, 7.605693867514343e+03, -1.128413797449773e+04, 8.686918992264942e+03, 1.601171561868832e+04, -2.258838890330726e+02, 3.800234519724909e+04
3422, 6.864107504645294e-01, 1.758834397817073e+00, 1.589843751226877e-02, -1.505339378435333e-05, -4.097522541883121e-04, 3.534350491681265e-02, 8.778005440918125e+03, 1.280929850178963e+04, -2.486535072712884e+04, 9.242711665322899e+03, 2.127153371911968e+03, 1.815014724864126e+04, 5.358459469692958e+04
3423, 6.612986228631850e-01, 1.930253630382180e-01, 1.640207111599089e-02, 2.613396891389813e-06, 2.612807007208381e-06, 7.576986080770481e-04, 4.018512950441235e+04, 5.617704188262968e+04, -1.958439712895000e+05, 3.442103108039481e+05, 2.877173970418167e+05, 3.172327396158988e+05, 8.678383641388083e+05
3424, 6.314589446120544e-02, 6.103121917788804e-01, 4.615048317230183e-03, 3.071142938703211e-05, 1.596636238896472e-04, 5.927240815258560e-03, 2.464168619687247e+04, 1.262561325590035e+06, 9.288418789560153e+04, -1.421342218866956e+04, -2.039805866864820e+04, 1.495415902378108e+05, 1.294709610651032e+06
3425, 1.745033064323379e-01, 1.260606198423843e+00, 3.120256003170243e-02, -3.765006629084626e-05, -6.131972517208258e-04, 2.102986641504181e-02, -6.798776517065155e+04, -6.779630762027680e+05, 9.948443600775587e+04, -1.074186050442808e+05, -1.332162499740387e+04, 1.222635233003771e+05, 6.516454525861561e+05
3426, 5.424227270661212e-02, 1.926113884720876e+00, 5.082433787414749e-03, 5.332958863693560e-06, -1.599788057897074e-04, 3.856911276376541e-02, -1.662629922751164e+04, 8.388933908478855e+03, 4.222666139652463e+03, 8.267854062923141e+03, 5.237279445178027e+03, 1.284846948089112e+04, 3.540871684427490e+04
3427, 2.090246463307761e-01, 1.804288607741848e+00, 2.846785203090293e-02, -4.236960465242579e-05, -7.528075655546676e-04, 3.559294125541168e-02, 1.434527137927897e+04, 1.746313471167132e+03, 1.824363252636923e+04, 2.652723141111056e+04, 2.339607788793416e+03, 2.399759425600301e+04, 5.659663558535834e+04
3428, 9.086287825372244e-02, 4.703198348470242e-01, 8.006923332558383e-03, 2.086094801546142e-05, 8.996603643606979e-05, 3.663495559194783e-03, 3.765884518709371e+04, 1.445886917497751e+06, 7.763461150345852e+04, -5.243972648674947e+04, -9.507620212675697e+04, 3.896244009341297e+03, 1.470832685135267e+06
3429, 1.753519039304365e-01, 1.949902374385505e+00, 2.417167218288993e-02, -3.719313770121635e-05, -6.893407824186959e-04, 3.946934506756541e-02, 1.007516002684838e+04, 1.146794501998569e+04, 7.816369825702711e+03, 1.733934794937415e+04, 6.774766777041222e+03, 8.741252649570015e+03, 2.438849368743939e+04
3430, 4.028253002904725e-01, 1.305443429467295e-01, 2.829373677615864e-02, 5.317702862678991e-06, -5.711129435494958e-05, 3.908532583806468e-04, -9.510201573899760e+05, -2.810848989838933e+06, -3.602905920494204e+04, -9.465207821946035e+04, -8.326640405920421e+04, 8.703070047426575e+05, 2.842890189020628e+06
3431, 3.047480915124239e-01, 1.148724787958836e+00, 3.897707529817600e-03, 1.838131778167038e-05, 1.193751464647515e-04, 1.844585204968363e-02, -9.226624535804382e+03, 2.927154210117116e+05, 4.089892961177523e+04, 6.029577613106259e+03, 7.355817255343161e+04, 1.282926116003073e+05, 3.967654544455050e+05
3432, 3.505289222750658e-01, 1.226817193592126e+00, 5.825982136222686e-03, 1.404778534061946e-05, 4.901118439791866e-05, 2.051142897252791e-02, 5.289894377838665e+04, 5.057047502005710e+05, 4.408660332087828e+04, 4.553442529613862e+04, 4.907317541357142e+04, 1.061402512761794e+05, 5.052471726075544e+05
3433, 7.600297533523814e-02, 1.150958106766446e+00, 6.635528539037254e-03, 1.942981071388628e-05, 4.958456308115644e-05, 1.801662115166239e-02, 5.616589115530018e+04, 4.280521129182636e+05, 7.188943202755832e+03, 8.923841446401924e+04, -1.820393724909761e+04, 1.611792373512110e+05, 4.540697857865785e+05
3434, 4.099200874542802e-01, 2.268372352098149e-01, 2.960150284038204e-02, -8.468401652660107e-07, -1.128383241073682e-04, 1.101303754147909e-03, -5.779679138955714e+05, -3.182725372005276e+06, -4.347599456866477e+04, -6.980163815944832e+04, -1.382538375765373e+05, 5.511809741673893e+05, 3.056314534211852e+06
3435, 6.718795778898370e-01, 2.902162988541195e-01, 1.577396975882000e-02, 4.558513892988919e-06, -3.913738871652583e-06, 1.681845086437622e-03, 8.355999478232587e+04, 3.063432076196498e+05, -1.568086974694067e+05, 4.155647144214335e+04, 2.382111349193183e+05, 3.484679847169165e+05, 8.179515157380267e+05
3436, 5.553156767856052e-01, 1.376594141175760e+00, 2.575824446170290e-02, -2.220138990828568e-05, -5.257978506544338e-04, 2.477356755246066e-02, -1.732515651483765e+04, -1.739462429299774e+05, -3.839450681504232e+04, 4.572668565605702e+04, 2.633461413831158e+04, 1.130933680253259e+05, 2.885380865195637e+05
3437, 2.802167784558883e-01, 6.482148322533011e-01, 3.430514593037467e-02, -2.731415300894803e-05, -4.028479031558674e-04, 7.078639602437781e-03, -2.559904977612786e+05, -2.157855123499840e+06, -9.108813137697012e+04, -5.961544214112637e+04, -1.400087117798117e+05, 3.363429986914310e+05, 2.110025897525693e+06
3438, 6.806277714314524e-01, 1.168301355866141e+00, 1.510538474396941e-02, -1.211673706411065e-06, -1.765504982325534e-04, 1.948485939360695e-02, 6.010429500752907e+04, 7.594598683190244e+04, -3.781354472073516e+04, 4.296293467315924e+04, 2.047859983718521e+04, 1.152105494284968e+05, 2.149056940325288e+05
3439, 6.844297846612791e-01, 1.084965741595221e+00, 1.589265717565008e-02, -1.835786342871404e-07, -1.691334359454760e-04, 1.736091043668447e-02, 3.714676287473656e+04, 1.475051835067169e+05, -3.928042272232551e+04, 1.220156810223698e+04, 4.353210218508393e+04, 3.112797156876453e+04, 1.696319382537445e+05
3440, 1.483505908207589e-01, 1.112966667346481e+00, 2.696165989925670e-02, -2.676569623225045e-05, -4.440183407108250e-04, 1.722277897032537e-02, -3.747194218781791e+03, -4.366825351437179e+05, 1.075857155678603e+05, 7.940216863634776e+04, -3.378808532718068e+03, 8.218575982478897e+04, 5.341974622724849e+05
3441, 3.126536826187455e-01, 3.897181349796446e-01, 6.562411534935746e-03, 1.227331143915239e-05, 1.080221532070349e-04, 2.889120001505471e-03, 2.060596310370401e+05, 6.728358012857030e+05, 2.417914677070826e+05, 1.285006235633325e+05, 1.712778536536223e+05, 5.765765536852913e+05, 1.233214217819602e+06
3442, 7.825101343513124e-02, 2.755644774120335e-01, 7.682605147494859e-03, 1.735969207214416e-05, 6.927998404498981e-05, 1.229967959639887e-03, 1.150848462514860e+05, 2.013286957493742e+06, 9.806805015819627e+04, 1.385506171588474e+05, 6.708013891182307e+04, 3.086771936310609e+05, 1.971642770318491e+06
3443, 7.010653677994798e-02, 1.348425332583400e+00, 5.909240322665026e-03, 1.702094908347454e-05, 1.348131851744427e-05, 2.308930365454694e-02, 1.299276078268658e+03, 1.416973092608162e+05, 3.552118450814608e+04, 3.251827801319779e+04, -1.651540148271308e+04, 7.272618784061578e+04, 1.917654338827285e+05
3444, 8.072626069317552e-02, 8.552510525174103e-01, 7.239156950599776e-03, 2.226580699224179e-05, 9.388068214093506e-05, 1.096827002369426e-02, -3.403201466109259e+04, 5.817711827092138e+05, 1.018007948213613e+05, -2.460380284827945e+03, -7.423059865872911e+04, 1.144080071397666e+05, 6.690715654525547e+05
3445, 3.965336914492956e-01, 5.939470280764132e-01, 7.053675427248107e-03, 1.110562494584244e-05, 1.201195795987389e-04, 6.212907776963032e-03, 2.684214311885893e+05, 8.642209142947122e+05, 1.574152537458999e+05, 1.656738839899200e+05, 2.336655326013815e+05, 3.777309020929013e+05, 1.045433092520667e+06
3446, 6.903478094250590e-01, 1.272872233812761e+00, 1.451627559569070e-02, -2.590463111306479e-06, -1.955530654847298e-04, 2.222641473238578e-02, 3.806830562166507e+02, 4.529733684625330e+03, -6.672403981362280e+04, -3.087565726707246e+04, -5.020687761697563e+04, 5.283454712481999e+04, 1.744041565643566e+05
3447, 7.029733140552440e-01, 2.605104982812838e-01, 1.495886951849004e-02, 5.329559574706114e-06, -1.219218742076755e-07, 1.341030443338734e-03, -1.264904338528386e+05, -1.976005156526755e+05, -1.052070274835677e+05, -1.295029012276804e+05, 1.909568234310976e+05, 3.756118313863509e+05, 7.554490893928695e+05
3448, 2.626736700329065e-01, 7.844321852191016e-01, 2.333545940700369e-02, -1.380119424557180e-05, -2.390062887527022e-04, 9.807691368771737e-03, 5.750667913678626e+00, -2.166748436968563e+05, 7.904852779334752e+04, -2.640859728694981e+03, -6.410373501582837e+04, 1.618284138998525e+05, 3.949977187414172e+05
3449, 2.769078615180326e-01, 1.745520063423659e+00, 2.983139475401080e-02, -4.371549825036777e-05, -7.690549799185091e-04, 3.414572567428334e-02, 1.943571434491115e+04, -3.358342291306064e+04, 7.677841703834581e+03, 1.422777396016265e+04, -2.092631670244851e+03, 2.600078460992176e+04, 6.913854594323215e+04
3450, 4.972659228905087e-01, 5.853954350613417e-01, 2.974055506225838e-02, -9.915982976268188e-07, -2.876868275281316e-04, 6.124927914730981e-03, -1.653404254410804e+05, -1.239211061616991e+06, -9.827810138729525e+04, -7.945909937061492e+04, 1.165809015726734e+05, 2.083115931093702e+05, 1.205292252781065e+06
3451, 6.114833512962053e-01, 1.248235923588972e+00, 1.155506993822795e-02, 2.684606471722861e-06, -1.075915816921534e-04, 2.147832003631885e-02, 2.647809651666275e+04, 1.447665805594604e+05, 1.590472662322964e+04, 4.418356945471142e+04, 3.678665328998676e+04, 1.348378156094307e+05, 2.675325397006525e+05
3452, 3.571228654024936e-01, 1.967488866387995e+00, 3.513151241228175e-02, -6.100889337642967e-05, -9.981049472138816e-04, 4.033194809297774e-02, 3.368334500264320e+04, 6.676785420541893e+03, -6.894777676838579e+03, 1.515838237247812e+04, 5.736099878580118e+03, 1.123424057730748e+04, 3.452795796191180e+04
3453, 1.541466887800498e-01, 1.972970788244804e-01, 2.658881341533688e-02, -1.466911466199358e-05, -8.001990381249595e-05, 7.141411554423618e-04, -6.578778772883430e+05, -2.691204592628472e+06, -2.129460727725267e+05, -9.529231033497930e+05, -3.356656204334582e+05, 1.755639482432162e+05, 2.046476555466033e+06
3454, 6.741352378818858e-01, 1.702081233637237e+00, 1.554413405830241e-02, -1.291188753007808e-05, -3.784874182418546e-04, 3.377336706301923e-02, 1.074053506246515e+04, 1.193145003726668e+04, -2.054915535013563e+04, 1.501891904148109e+04, 9.010104354258499e+03, 2.490059591795178e+04, 5.818157771875736e+04
3455, 6.522926074774488e-01, 1.456687946932893e+00, 1.742575016462537e-02, -1.023201593421466e-05, -3.376834931393541e-04, 2.707638934285671e-02, 1.119879017534658e+04, -1.796699862086426e+04, -3.802634509519280e+04, -1.574353251682425e+04, 1.625862146945685e+04, 2.697506482194070e+04, 9.002631471650978e+04
3456, 6.722953023683297e-01, 4.304103819996363e-01, 1.594063404660270e-02, 3.755958241346766e-06, -2.275692725578482e-05, 3.518967268994665e-03, 6.524557881434738e+04, 8.192827279051457e+04, -8.882145508582491e+04, -4.757712825297409e+04, -8.631823658550753e+04, 1.949053687211777e+05, 4.181794316143098e+05
3457, 6.545271593365076e-01, 1.323138856222496e+00, 1.849913244719750e-02, -8.775701169846939e-06, -3.178583540407506e-04, 2.350906722685405e-02, 5.825732701732617e+03, -1.189838551018662e+05, -6.750704443196081e+04, 4.174712874499869e+04, -1.337755568419026e+04, 1.115858929711591e+05, 2.700256084105195e+05
3458, 6.821948247372497e-01, 8.525599720846590e-02, 1.492592799747212e-02, -1.810141961856209e-06, 1.287550216708122e-06, 1.406503827488014e-04, 8.417388546585300e+04, -4.099872427901261e+05, -3.215933028897615e+04, 7.204628818557085e+04, 3.668800437618978e+05, 2.032636250911481e+05, 8.770422926527794e+05
3459, 1.392308148354928e-01, 1.413981932981153e-01, -1.990672971804650e-03, 2.083706414446329e-05, 9.022127161883303e-05, 3.622305862696906e-04, 9.587058763191566e+05, 4.442739325747102e+06, 3.692997701508210e+05, 6.592964054928498e+05, -3.247478265998402e+05, 2.743183106224968e+05, 3.771282240745221e+06
3460, 6.168205751928491e-01, 6.069076465439255e-01, 1.812155465773389e-02, 1.946204479661567e-06, -8.184846275204744e-05, 6.543765993466233e-03, 1.856855055000874e+05, 1.800385819833686e+05, -3.721964953806253e+04, 2.468354176556583e+05, 1.982957977560440e+04, 2.649105575845932e+05, 4.690254391561446e+05
3461, 4.477639710209162e-02, 5.482906496634224e-01, 4.423914004545709e-03, 3.496124936948342e-05, 1.558423548597698e-04, 4.786348350106912e-03, 6.154982536817787e+04, 1.773791768554949e+06, 1.424372306028966e+04, -4.871878707781081e+03, -2.807731604818493e+04, 3.035412697879494e+05, 1.824636924925029e+06
3462, 8.773776446359494e-02, 1.816799905694447e+00, 7.693402007542940e-03, 2.353611939891198e-06, -1.919783778086270e-04, 3.567797803187300e-02, -1.107749468670844e+04, 3.218140542142203e+04, 1.216899334684440e+04, 1.303320221001243e+04, 5.226883501529449e+03, 2.089873983673269e+04, 5.697492453484008e+04
3463, 2.820873283842897e-01, 5.502510789843728e-01, 3.455342590732625e-02, -2.190187308137408e-05, -3.484385587987689e-04, 5.316611984790309e-03, -3.268953962228689e+05, -2.046740094330995e+06, 3.249919491871859e+04, -7.220015979929466e+04, -1.811432220441326e+05, 3.930007046875183e+04, 1.888653589562999e+06
3464, 4.046281705883193e-01, 1.884609566353449e+00, 2.817563508675607e-02, -4.382968827762023e-05, -7.800167894415205e-04, 3.818501240291507e-02, 1.818726011463771e+04, 2.183882583522063e+00, 2.478309579611445e+03, 1.208298693071914e+04, 2.608047888200531e+03, 1.587276879264733e+04, 3.242867002193933e+04
3465, 6.579031066185567e-01, 5.888272598503018e-01, 1.797441367429482e-02, 4.505953862157797e-06, -7.676702237125431e-05, 6.197583617564492e-03, -2.414785391354861e+04, -3.866576812288186e+05, -1.862528794187552e+05, 1.102607765233562e+05, 5.118545093428917e+04, 3.273993448023903e+05, 7.947985616581793e+05
3466, 6.769878411639590e-01, 1.859901949904311e+00, 1.380897904862288e-02, -1.325063965658402e-05, -3.898673834571223e-04, 3.808151533339277e-02, 1.417573588567977e+04, 6.136482065954273e+03, -8.349945188219877e+03, 2.603398097496706e+03, 4.713224192589234e+03, 1.514956765874151e+04, 3.270859282578495e+04
3467, 6.806587868926486e-01, 5.454414612627189e-01, 1.629763558263135e-02, 4.356705537195138e-06, -4.183999691538456e-05, 5.399832016517656e-03, -1.189750032277399e+04, 3.671256699359603e+05, -1.208447647776720e+05, -3.868470093258215e+04, -1.228779214572050e+04, 1.902796322700761e+05, 5.544469711410154e+05
3468, 2.757775320133946e-01, 9.999252051645183e-01, 3.021752088538301e-02, -2.709821457912154e-05, -4.791398339787853e-04, 1.472202771251088e-02, -7.962659503599927e+03, -8.631883042209385e+05, 6.898290886909117e+04, -3.992265085214700e+04, -8.151156047223005e+04, 1.060443567026985e+05, 8.792291428338862e+05
3469, 2.289533714328188e-01, 1.425513270158094e+00, 2.767017788979678e-02, -3.175326823680324e-05, -5.869442776895682e-04, 2.545896190733524e-02, 2.348903565114032e+03, -2.385200986881686e+05, 1.493969824022213e+04, 1.462733815873052e+04, 1.722432098700694e+04, 9.243172082830436e+04, 2.971811147921752e+05
3470, 6.783243215845502e-01, 1.955016030767915e+00, 1.847541512174445e-02, -2.504456180686069e-05, -5.523393454454906e-04, 4.067543390581055e-02, 1.859511842524117e+04, 1.352899034509666e+04, -6.994122739911575e+03, 1.085362652955644e+04, 4.599313357078081e+03, 6.080304703636626e+03, 1.917033086986956e+04
3471, 3.182226387131999e-01, 2.035492299916924e+00, 1.185816007306369e-02, -1.344417648224162e-05, -3.904708906426885e-04, 4.210324719054266e-02, 2.001048645595599e+04, 1.220072116845978e+04, 5.297318674535933e+03, 1.320927453577999e+04, 1.742510528753912e+04, 2.102635603089662e+03, 3.259576531336858e+04
3472, 5.132812003511840e-01, 1.291990473049425e+00, 2.777611963358841e-02, -2.438302008299364e-05, -5.439844264404220e-04, 2.247212500541775e-02, 2.942351309727344e+04, -3.155146884023829e+05, -7.245410937384183e+04, 2.391362767675173e+04, -1.905156193066380e+04, 6.753456416163730e+04, 3.842298579297443e+05
3473, 1.469731785606592e-01, 1.630143013828750e+00, -2.735363614303890e-03, 2.877015198757618e-05, 1.533808457066244e-04, 3.076630136044931e-02, -5.629120625431346e+03, 1.465207510115456e+05, 2.914508623336655e+04, 2.561708755897112e+04, 2.082754626499576e+04, 4.603123733453016e+04, 1.719828335538427e+05
3474, 1.235702929232699e-01, 1.890388423794145e+00, -2.608216071401307e-03, 2.251820177741337e-05, 5.965730820672432e-05, 3.775359903814324e-02, -9.985491839752973e+03, 3.634116489571195e+04, 1.054197535827800e+04, 1.863374121380669e+04, 9.338167168182063e+03, 1.423732818525425e+04, 5.331505052295549e+04
3475, 1.950572638257564e-01, 1.043673728469903e+00, 3.112716901781991e-02, -3.365298523826457e-05, -5.193504719830308e-04, 1.561812455405499e-02, -1.356164108920144e+05, -8.974558041836023e+05, 4.928886870136563e+04, -5.575036755590134e+04, -1.356683974498326e+04, 1.392470200242939e+05, 8.447677177552199e+05
3476, 6.828465975041337e-01, 8.786351413840970e-01, 1.609454909059400e-02, 4.317919326916018e-06, -1.140650462635347e-04, 1.233177961210463e-02, 2.247528816198474e+04, 2.123367812020078e+03, -9.841082132402691e+04, 5.223573442322238e+04, 8.369066308425106e+04, 1.444072461043158e+05, 3.384263225005381e+05
3477, 3.494673636653089e-01, 9.285467055298393e-01, 3.258031636007020e-02, -2.613491314849836e-05, -5.035821245769553e-04, 1.315972602443949e-02, 2.291630384879260e+04, -1.120595423746895e+06, -4.560200887771275e+04, 1.040523862587001e+05, 7.987631260085829e+04, 1.303595078488633e+05, 1.217925410782439e+06
3478, 3.497255418283474e-01, 1.474999999998617e+00, 3.669502008881755e-03, 1.520237707404448e-05, 2.972867334986168e-05, 2.702641557736619e-02, 8.650994905402384e+03, 1.538681782935052e+05, 4.296690630534113e+04, 4.323987698194332e+04, 1.422901796225686e+04, 1.187453153467059e+05, 2.563371428451458e+05
3479, 2.871865818662158e-01, 1.952983548107525e+00, 1.747561878514770e-03, 1.048006748275137e-05, -8.502685990886827e-05, 3.980147003955112e-02, 4.921336751946940e+03, 1.530894510348034e+04, 1.560915006585337e+04, 1.491803423828846e+04, 7.660934863997507e+03, 1.006929077595711e+04, 3.626531271201108e+04
3480, 6.629573201197480e-01, 7.615040637094249e-01, 1.637373563431984e-02, 3.134448993453651e-06, -8.755808551876021e-05, 9.687911576884360e-03, 1.898834976390614e+05, 3.995183517099775e+05, 2.801737895228035e+04, 1.229044763592368e+05, 1.214006799042537e+04, 1.042366214714754e+05, 3.128369907389673e+05
3481, 5.541543406002317e-01, 1.509717496694586e+00, 2.818681469418708e-02, -3.133601091332566e-05, -6.435066387015866e-04, 2.833150118251648e-02, 1.858697740081204e+04, -1.240371682547860e+05, -4.995976008595995e+04, -5.744302316485713e+03, 2.904658716950352e+04, 7.176422016668126e+04, 2.072022817557907e+05
3482, 6.916199677675896e-01, 1.436084536733573e+00, 1.552439436412742e-02, -6.912134329517539e-06, -2.811438325171431e-04, 2.658608867364909e-02, 3.342450502411414e+04, 1.150876683836034e+05, 2.196543674433514e+03, 4.094757802260853e+04, 1.665467180297516e+04, 6.237645651312802e+04, 1.364924415867629e+05
3483, 6.676280126119886e-01, 2.356611278097734e-01, 1.259291321061871e-02, 3.524596552489240e-06, 3.177436824170626e-05, 1.122630949695752e-03, -1.687563448617462e+05, -1.000087583217521e+06, -1.573674219660764e+05, 3.349822996381019e+05, 3.386976977691859e+04, 2.508527323277216e+05, 1.276774921949922e+06
3484, 6.612481021454855e-01, 1.617911710908927e+00, 1.760642406751514e-02, -1.482407514909016e-05, -4.028067061168129e-04, 3.145715300204138e-02, 9.171246611330242e+03, -2.204317286155186e+03, -3.673557276000699e+04, -1.408423310198287e+03, -4.217216722741478e+03, 5.261857103192956e+04, 1.119329570744527e+05
3485, 7.291168713345185e-02, 1.264704993805463e+00, 4.103487503601885e-03, 2.297274738992383e-05, 8.500239775235952e-05, 2.091681179089679e-02, -9.423340835562976e+02, 3.511563250513854e+05, 4.551644558046029e+04, 1.142926774429143e+04, -2.346904028347161e+04, 8.479748589951600e+04, 3.862770595523745e+05
3486, 4.291295546936620e-01, 1.369820683431880e+00, 2.547898288102943e-02, -2.280856769847420e-05, -5.110071876391429e-04, 2.437582008902123e-02, 5.725119030436905e+04, -2.479145454832175e+05, -2.570779196192483e+04, 8.310352871995793e+04, -6.621712237403841e+03, 8.121627222738577e+04, 3.515482600153675e+05
3487, 3.532653908218930e-01, 1.677659651671015e+00, 3.037138166202669e-02, -4.281814432493744e-05, -7.602119730927143e-04, 3.246962559128372e-02, 3.097506236987359e+04, -7.337604673551751e+04, 3.235386165477858e+03, 2.830318065250201e+04, 1.901230517604887e+04, 4.756691660939875e+04, 1.360923222861898e+05
3488, 6.298242843389075e-01, 4.458723303183562e-01, 1.606175307854445e-02, 4.453675658362341e-06, -2.030757286734797e-05, 3.780550164108793e-03, -4.816002112020821e+04, -5.144770634989662e+05, -5.306332200620315e+04, 8.814665936638885e+04, 9.409895847128185e+04, 2.389085632175499e+05, 7.112215677116999e+05
3489, 7.048020279230118e-01, 2.156316746078146e-01, 1.420833249399312e-02, 1.036968974230112e-06, 1.383727605062945e-05, 9.272172747143426e-04, 1.244127148279122e+05, 1.352081425602494e+05, -2.239243457735267e+05, 1.610681997904632e+05, 2.505986655281936e+04, 4.029008167009655e+05, 8.002262099675399e+05
3490, 6.741578505312503e-01, 1.799294305384070e+00, 1.830666503913815e-02, -2.092081555390979e-05, -4.899273233399393e-04, 3.642146823871784e-02, 1.415434588724742e+04, 1.206231916427101e+04, -1.715964248257970e+04, 1.291273812143950e+04, -4.671540306279541e+03, 1.907868485984359e+04, 4.521215758909717e+04
3491, 6.724682722329881e-01, 1.126199366445564e+00, 1.812495917663488e-02, -4.291598938499508e-06, -2.393348210594365e-04, 1.839520567418029e-02, 1.524994000809117e+04, -1.326581382581788e+05, -9.073694746553163e+04, -7.591265718252651e+04, -1.139395362817669e+04, 9.509088835306914e+04, 2.625254516613430e+05
3492, 7.265065675745142e-02, 7.287837490773549e-01, 3.861254862459522e-03, 3.232820637770473e-05, 1.748323258623022e-04, 8.246962833842512e-03, 5.490270083110753e+04, 8.468126029867403e+05, 8.524038857596816e+04, 9.850042765493934e+04, -1.535866181584800e+05, 2.216005987067786e+05, 9.134447869140812e+05
3493, 1.793700893639150e-01, 1.177445604162893e+00, 3.126248070510335e-02, -3.697059108340867e-05, -5.807995878968075e-04, 1.891132302372324e-02, -6.398975761336948e+04, -5.128182848542268e+05, 7.332444003286491e+04, -3.878276269533345e+04, 6.231176740507287e+03, 9.377293524602753e+04, 5.059862164390506e+05
3494, 1.897957720919352e-01, 1.870129196526095e+00, 3.246633410800681e-02, -5.274175311248581e-05, -8.849840787244698e-04, 3.733426927740863e-02, 1.624456302016310e+04, 1.021690931138211e+03, 1.160147563346129e+04, 2.284982470053066e+04, 8.513368394954079e+03, 1.735713854936772e+04, 4.359979565263529e+04
3495, 2.681349808268337e-01, 1.170862903140002e+00, 3.469988742374109e-02, -4.007523264725876e-05, -6.649940917139857e-04, 1.892508847930550e-02, -3.067533368410346e+03, -7.357528732872844e+05, 1.869232219842591e+04, -3.549512692073178e+04, 8.181032747905151e+04, 7.711548275285051e+04, 7.436985441466258e+05
3496, 5.357545519743740e-01, 9.549104976633171e-01, 2.952808053514411e-02, -1.285168730192840e-05, -4.457915117226357e-04, 1.402237533821819e-02, -7.282512191166670e+03, -4.040244099014005e+05, -8.728775433988705e+04, -1.029204528641775e+05, 2.947463319935390e+04, 1.964785960590478e+05, 5.195020744203022e+05
3497, 2.377774501993621e-01, 1.475193317530715e+00, 1.177965859474550e-03, 2.131588786728625e-05, 9.804915303358169e-05, 2.680634503683905e-02, 1.222430974554546e+04, 2.130834309253285e+05, 3.866137571843342e+04, 5.698920130721369e+04, -1.441308647661098e+04, 7.267437189929141e+04, 2.330426042473772e+05
3498, 5.283557244444601e-02, 1.985346596818788e+00, 5.432858469799338e-03, 2.735355904288916e-06, -1.911180061816148e-04, 4.017245433607908e-02, -1.323651346745521e+04, 4.439072636423060e+03, 1.510793498086719e+03, 4.878183592177447e+03, 5.026420771531140e+03, 6.920030695585142e+03, 2.338126148943241e+04
3499, 6.760080297742926e-01, 1.012838622437830e+00, 1.864660011351121e-02, -1.872335076927995e-06, -2.143361141877347e-04, 1.555024049828492e-02, 3.546488736095371e+04, 3.375721544352773e+04, -6.447133822068610e+04, 6.807430203940971e+04, 8.797928760003031e+03, 1.282171376000838e+05, 2.512822126237991e+05
3500, 6.923363604480921e-01, 9.730894895718825e-01, 1.614163913630223e-02, 2.098733161321441e-06, -1.387002177572760e-04, 1.458662525533322e-02, 9.597265923212084e+03, 8.750619068003424e+04, -6.709643477340105e+04, -1.824485364954062e+04, 2.237456033221924e+04, 5.967682333040718e+04, 1.862948228868470e+05
3501, 6.739055061028519e-01, 4.752887213937260e-01, 1.656566210936076e-02, 3.493818565309531e-06, -3.345533828632424e-05, 4.216312923871354e-03, -1.403291080897240e+05, -7.229881871363935e+05, -1.666744099069822e+05, -1.446639035934651e+04, -4.100020471390199e+04, 2.651953176096458e+05, 8.532513567927056e+05
3502, 3.677314775322574e-01, 2.513889987558512e-01, 6.798086613639795e-03, -1.044027994603555e-06, 8.301831905458464e-05, 1.322307976952083e-03, 5.916372882321543e+05, 1.549184859713888e+06, 1.705967517311973e+05, 2.037765822433158e+05, -4.542268363717892e+05, 7.211780035116832e+05, 1.924914882789756e+06
3503, 8.237938834470049e-02, 5.175102590387427e-01, 9.175292176369074e-03, 1.705093866276796e-05, 7.459750853432146e-05, 4.381564800111308e-03, -1.351837219511570e+05, 1.166134399056879e+06, 1.263840366605617e+05, 2.091821201832253e+04, -2.416569404841639e+04, 9.183015466143428e+04, 1.260804282529141e+06
3504, 3.633821527427711e-01, 1.800414717196928e+00, 3.569641244797256e-02, -5.721515119328641e-05, -9.512207538980386e-04, 3.581195066464982e-02, 2.777337622417977e+04, -5.471576706318583e+04, -8.777896354722961e+03, 1.417613857682021e+04, 4.566680219402655e+02, 1.844462621167873e+04, 8.438075542368712e+04
3505, 7.027091343242875e-01, 1.231576004834697e+00, 1.584063570686681e-02, -3.322997051115328e-06, -2.171357516971631e-04, 2.115513079854282e-02, 9.888610968591984e+03, 5.235070576340926e+04, -6.731288978509943e+04, 1.139002499126497e+04, 6.111182325249340e+03, 5.279605684938317e+04, 1.543013818872163e+05
3506, 5.583898649879839e-01, 9.092000461631100e-01, 2.788506510305343e-02, -1.050157384202728e-05, -3.901998960690774e-04, 1.296329024933664e-02, -7.172992717066038e+03, -5.666493868581434e+05, -8.550093350000553e+04, -8.072206652872052e+04, -2.693529070531554e+04, 1.078564550010546e+05, 5.798975206461346e+05
3507, 6.701709274779353e-01, 1.532691357406718e+00, 1.548246271212752e-02, -8.968745863646710e-06, -3.141969183061838e-04, 2.916151724387561e-02, 1.283861485361678e+04, -3.015315866219129e+04, -5.844170709498897e+04, 2.151755194224566e+04, 1.520245541630117e+04, 6.532034439096728e+04, 1.613586841398449e+05
3508, 2.570159738058409e-01, 8.842324905947607e-01, 8.804796561400022e-03, 1.162812075752211e-05, 5.317476930663794e-05, 1.199340140119298e-02, 1.336100648922360e+04, 2.602001447282458e+05, 9.963209572043200e+04, 2.927474774010796e+04, 5.789867131514240e+04, 2.578364038437117e+05, 5.445456257329973e+05
3509, 6.895892732536257e-01, 7.963945330435664e-01, 1.471285230729074e-02, 3.925176071319092e-06, -5.962377096117855e-05, 1.045815856534180e-02, 1.789702574175869e+04, -5.994234851516871e+04, -1.513865689278092e+05, -4.113464269646697e+04, 1.192281244020628e+05, 1.555227831716458e+05, 4.346382897164092e+05
3510, 6.867843889243719e-01, 1.351427592410127e+00, 1.555341030305140e-02, -5.179571108693878e-06, -2.512312489949438e-04, 2.430807097264508e-02, 2.716133237054859e+04, 1.600204947518234e+04, -5.886450208231307e+04, 1.675516595188028e+04, 1.474135791455863e+03, 5.458726387762249e+04, 1.394905327162962e+05
3511, 4.059895017164541e-01, 1.576895116539001e+00, 5.829792681138785e-03, 8.804507939476347e-06, -6.237621331414765e-05, 2.986606818703368e-02, 1.293975649034376e+04, 7.478056756944989e+04, 3.508348719275399e+04, 3.611329133250783e+02, -7.012098737217031e+03, 3.961435261604684e+04, 1.153617465919919e+05
3512, 5.581800658198113e-01, 1.844140431432068e+00, 2.874687325264615e-02, -4.348714800928195e-05, -7.857473950298247e-04, 3.740364912948327e-02, 1.766512642319205e+04, -1.866960788169980e+04, -2.950413539990627e+04, 8.553749283694990e+03, 7.102646784350320e+03, 1.761290660912237e+04, 6.903360682778117e+04
3513, 5.658400790470581e-01, 1.452922899109614e+00, 1.026435987283614e-02, 1.627454058648892e-06, -1.416230856285746e-04, 2.683262094642256e-02, 2.721382023037627e+04, -2.658889068856165e+04, -1.545666241207994e+04, 2.648266540441159e+04, 2.147072268034634e+04, 1.009250332610137e+05, 1.884495057836187e+05
3514, 3.145626225061949e-01, 1.584945342329740e-01, 3.426257157435117e-02, -1.079063460877319e-05, -1.190955367096225e-04, 5.410443717540001e-04, -5.266959280890115e+05, -2.872884262280256e+06, -6.174700368437602e+04, 2.437694442593384e+04, -1.854392661532212e+03, 6.349901195364256e+05, 2.884837517874423e+06
3515, 2.740432188048615e-01, 4.897599458756925e-01, 3.357025446844959e-02, -2.320508758659520e-05, -3.043086268144351e-04, 4.302667048589420e-03, -2.753624778378786e+05, -1.258486164615743e+06, -1.610484463274190e+04, 7.379047942031153e+04, 1.294728509373181e+05, 4.513883222607691e+05, 1.447073778881549e+06
3516, 6.452840675178746e-01, 6.436075146845849e-01, 1.598725658762779e-02, 3.206472280151140e-06, -5.395339814969272e-05, 7.244814649666101e-03, 9.768473427853671e+04, 1.283371542130279e+05, -1.551381121974222e+05, 2.266925941961507e+05, 3.957128224636677e+04, 2.054067373552941e+05, 4.659454255903404e+05
3517, 7.016593537047984e-02, 1.101593633575281e+00, 6.856638971577705e-03, 1.943004973928297e-05, 5.544296720823468e-05, 1.676617704302553e-02, 2.285116878128620e+04, 5.464464602603790e+05, 1.823867644836765e+04, -1.694123308990868e+04, 2.950975529264754e+04, 1.769417856033742e+05, 6.277787748624098e+05
3518, 7.042932709487312e-01, 6.550576305027076e-01, 1.563544470110038e-02, 3.639770849376243e-06, -5.223353481243094e-05, 7.455761064243421e-03, 1.532787027013996e+05, 2.914582862953944e+05, -2.948885536843193e+04, 1.329774066530310e+05, 4.264684207825780e+04, 2.365050100551447e+05, 4.451739672442135e+05
3519, 5.081230078315289e-01, 1.080398840326495e+00, 8.488922448767901e-03, 8.918194824847347e-06, 2.017219629951023e-05, 1.705512070011057e-02, 1.031855248187474e+04, 1.941190975290390e+05, 2.689647062650290e+04, 2.120474146116258e+04, 1.043409514427041e+05, 2.148909601680728e+05, 4.530629085772857e+05
3520, 1.867068693551878e-01, 6.672618557076051e-01, 3.479039553833059e-02, -3.795695748049985e-05, -4.190886894312254e-04, 7.287078653748145e-03, -3.881674741273773e+05, -2.788849935215514e+06, 2.433754390482404e+04, -1.979987574914600e+05, -5.696177743383631e+04, 8.180224564098883e+04, 2.507500912264955e+06
