"PointID","x","y","z","Displacement_x","Displacement_y","Displacement_z","Sxx","Syy","Sxy","Szz","Sxz","Syz","Von_Mises_Stress"
0, 1.000080000000000e+00, 7.697936770445155e-20, 1.257210000000000e-03, 0.000000000000000e+00, 0.000000000000000e+00, 0.000000000000000e+00, -5.086749048081357e+01, -4.699015689963674e+01, -6.689237938693373e+00, -9.445246648777227e+01, 3.168380377197385e+01, -1.772865436084333e+00, 7.238048406083672e+01
1, 0.000000000000000e+00, 0.000000000000000e+00, 0.000000000000000e+00, 0.000000000000000e+00, 0.000000000000000e+00, 0.000000000000000e+00, 1.247287595566533e-05, 6.716163976127486e-06, -7.195889974422306e-07, 6.716163976127486e-06, -8.994862468027881e-07, -9.894348714830682e-07, 6.329085906381468e-06
2, 1.200032000000000e+00, 1.600000000000000e+00, 5.028840000000000e-04, 0.000000000000000e+00, 0.000000000000000e+00, 0.000000000000000e+00, 1.095766721712719e+03, 7.719798858909276e+02, 1.480213825986920e+02, 1.205378695733534e+03, 7.802208310631879e+02, -3.189008678246992e+02, 1.532775759668950e+03
3, 8.000000000000000e-01, 1.600000000000000e+00, 0.000000000000000e+00, 0.000000000000000e+00, 0.000000000000000e+00, 0.000000000000000e+00, 4.059952052319934e+03, 2.802216402943030e+03, 9.189533118084497e+02, 4.098925066672171e+03, -1.579687197820146e+03, 1.218058998473089e+03, 4.012866715588904e+03
4, 1.100016000000000e+00, 1.620000000000000e+00, 2.514420000000000e-04, 2.447317227131423e-10, 2.267932735447693e-09, 1.759268329028573e-09, 1.855816594498990e+03, 5.053398047830535e+03, 8.563201419173402e+02, -1.699297548220647e+03, 1.343236610579012e+03, -1.524412557690619e+03, 6.986797409127159e+03
5, 9.000000000000000e-01, 1.620000000000000e+00, 0.000000000000000e+00, -1.449564414526511e-09, 9.924929298744391e-09, 3.270980283186452e-09, 1.311996001413945e+04, 3.017427633152418e+04, 2.523403338890773e+02, 1.467032878663506e+04, 1.267305776924786e+01, 4.654295298185673e+03, 1.822064136766459e+04
6, 9.807414746802866e-01, 3.206523386851996e-19, 5.236823044145473e-03, 0.000000000000000e+00, 0.000000000000000e+00, 0.000000000000000e+00, 5.325479150234438e+02, 7.432004443466583e+02, -7.417256030119813e+01, 6.915097721314498e+02, 8.835678124583191e+01, -2.481255608693128e+02, 5.106681830809378e+02
7, 9.613817344196114e-01, 5.579204785797668e-19, 9.111833804198770e-03, 0.000000000000000e+00, 0.000000000000000e+00, 0.000000000000000e+00, -2.306837597982204e+02, -6.513716073570167e+02, -9.200339479410002e+01, -2.045653960342797e+02, 1.424237170033046e+02, 1.574121456629167e+02, 5.909579363250888e+02
8, 9.420018996814820e-01, 7.889569505800320e-19, 1.288507034309355e-02, 0.000000000000000e+00, 0.000000000000000e+00, 0.000000000000000e+00, -2.685250152236505e+02, -4.265820461243281e+02, -9.252123255502886e+01, -6.854929738714184e+02, -2.928714888044965e+01, 2.657318531704080e+02, 6.107647551133920e+02
9, 9.226029285055426e-01, 1.013891913439322e-18, 1.655865838478871e-02, 0.000000000000000e+00, 0.000000000000000e+00, 0.000000000000000e+00, -3.208857269945130e+02, -3.741654907549578e+02, -4.692268065303743e+01, -5.310889594742558e+02, 1.500142195786121e+02, 1.067286916288621e+02, 3.796256136772995e+02
10, 9.031856293570263e-01, 1.232818014732416e-18, 2.013411102897527e-02, 0.000000000000000e+00, 0.000000000000000e+00, 0.000000000000000e+00, -6.716163976127762e-06, -1.247287595566552e-05, 4.314268022782367e-05, -6.716163976127667e-06, 9.273703204536753e-05, 1.370169328927168e-06, 1.772656642845886e-04
11, 8.837507927406829e-01, 1.445830181203289e-18, 2.361297859823123e-02, 0.000000000000000e+00, 0.000000000000000e+00, 0.000000000000000e+00, 2.976699819419332e-04, 1.580697164381415e-04, 5.393536324016445e-05, 1.595088944330260e-04, -4.407482609333624e-05, 2.078179841145672e-06, 1.840032427301551e-04
12, 8.642991503480206e-01, 1.653011579524109e-18, 2.699661935224402e-02, 0.000000000000000e+00, 0.000000000000000e+00, 0.000000000000000e+00, 6.980013275189455e-05, 3.525986087466810e-05, 7.419422984128751e-05, 3.238150488489920e-05, -2.203741304666802e-05, 1.343138791455718e-06, 1.388432228271719e-04
13, 8.448313605107234e-01, 1.854426626577720e-18, 3.028608533329062e-02, 0.000000000000000e+00, 0.000000000000000e+00, 0.000000000000000e+00, -2.158766992327080e-05, -4.317533984655870e-06, 1.634878303566305e-04, -1.151342395907818e-05, -1.821459649775656e-04, -6.906475506213759e-07, 4.241974364713948e-04
14, 8.253479940007556e-01, 2.050113502799940e-18, 3.348200009580056e-02, 0.000000000000000e+00, 0.000000000000000e+00, 0.000000000000000e+00, -2.362650541602011e-04, -1.355225945182881e-04, 1.166720761319622e-04, -1.398401285029415e-04, -9.066821367772160e-05, -7.224754973290726e-06, 2.745698663288380e-04
15, 8.058496153109587e-01, 2.240111911118109e-18, 3.658501205919801e-02, 0.000000000000000e+00, 0.000000000000000e+00, 0.000000000000000e+00, -2.895146399709259e-04, -1.628669764210926e-04, -1.113084451508561e-04, -1.758195783750528e-04, -4.659338758438449e-05, -2.820007981463140e-06, 2.413967322193186e-04
16, 7.863367269535149e-01, 2.424441079164812e-18, 3.959543524492384e-02, 0.000000000000000e+00, 0.000000000000000e+00, 0.000000000000000e+00, -2.859166949837159e-04, -1.391205395054997e-04, 8.202300074417082e-05, -1.448772514850376e-04, -4.893205182607152e-05, 5.184783801216770e-06, 2.195089720247609e-04
17, 7.668097795231795e-01, 2.603101218612915e-18, 4.251327310997246e-02, 0.000000000000000e+00, 0.000000000000000e+00, 0.000000000000000e+00, -4.821246282863012e-05, -1.798972493605619e-05, 5.655043838995086e-06, -3.094232689001636e-05, -9.570533665981665e-05, -4.475846496759196e-06, 1.682982271230943e-04
18, 7.472691915617692e-01, 2.776079595707654e-18, 4.533831768947869e-02, 0.000000000000000e+00, 0.000000000000000e+00, 0.000000000000000e+00, 1.679040994031853e-04, 9.306684366919399e-05, 1.547412514673014e-04, 7.579670773058048e-05, -6.890064650509346e-05, 6.670166615422939e-06, 3.056161929159248e-04
19, 7.277153463939030e-01, 2.943346872218490e-18, 4.807008983795304e-02, 0.000000000000000e+00, 0.000000000000000e+00, 0.000000000000000e+00, 1.807302103391242e+02, 2.259492812967701e+02, -7.016945698778095e+01, 2.188696768807251e+02, 6.720774725234904e+01, -6.013567417955159e+01, 2.023500727049379e+02
20, 7.081486003051424e-01, 3.104858921919424e-18, 5.070786889563643e-02, 0.000000000000000e+00, 0.000000000000000e+00, 0.000000000000000e+00, -3.974529895872613e-04, -2.103598502522804e-04, 1.660190536526364e-05, -2.146773842369338e-04, 2.464592316239647e-05, 3.186379433298680e-06, 1.920788804399994e-04
21, 6.885692720386610e-01, 3.260549071948737e-18, 5.325056597610407e-02, 0.000000000000000e+00, 0.000000000000000e+00, 0.000000000000000e+00, 4.077670985505613e-05, 3.214164188575068e-05, 1.622018259894088e-04, 1.774986193690609e-05, -1.115362946035443e-05, 6.977158161912528e-06, 2.825836360236542e-04
22, 6.689776597456625e-01, 3.410333684547470e-18, 5.569681512598327e-02, 0.000000000000000e+00, 0.000000000000000e+00, 0.000000000000000e+00, -1.338435535242564e-04, -6.476300976980170e-05, -1.350220354339048e-04, -7.339807773910844e-05, 1.978869742966416e-06, -1.628361669351539e-07, 2.428061947622916e-04
23, 6.493740639207167e-01, 3.554119148151486e-18, 5.804508750192216e-02, 0.000000000000000e+00, 0.000000000000000e+00, 0.000000000000000e+00, -1.180125955805270e-04, -6.188465378003259e-05, -6.596916950657783e-05, -5.181040781584134e-05, 7.123931074678097e-05, -4.292856367020282e-06, 1.793139174303667e-04
24, 6.297587364427932e-01, 3.691774997172279e-18, 6.029325236879755e-02, 0.000000000000000e+00, 0.000000000000000e+00, 0.000000000000000e+00, 7.075958474848579e-05, 3.621931287125877e-05, 6.630121178100200e-05, 5.636780479964122e-05, 2.050828642710352e-05, 6.661192262585247e-06, 1.244407234538275e-04
25, 6.101319640397244e-01, 3.823171578619950e-18, 6.243919226266699e-02, 0.000000000000000e+00, 0.000000000000000e+00, 0.000000000000000e+00, -4.797259982948259e-05, -1.487150594713977e-05, 1.619183566308446e-05, 1.247287595566496e-05, 2.590520390792025e-05, -6.357189321641731e-06, 7.529630504573813e-05
26, 5.904939896849905e-01, 3.948135452127749e-18, 6.448007459383809e-02, 0.000000000000000e+00, 0.000000000000000e+00, 0.000000000000000e+00, 2.350657391644539e-05, 2.638492990621462e-05, 4.121556887516734e-05, 4.077670985505922e-05, -2.536602364789240e-05, 4.219679719132055e-06, 8.565468370347570e-05
27, 5.708451201326903e-01, 4.066503028829917e-18, 6.641322766515290e-02, 0.000000000000000e+00, 0.000000000000000e+00, 0.000000000000000e+00, 3.813821686443813e-05, 1.223301295651786e-05, -3.148201863809762e-05, 9.354656966748927e-06, -5.765732416408569e-05, 3.091983973384546e-07, 1.170498582415717e-04
28, 5.511856191402290e-01, 4.178055344423915e-18, 6.823507540007291e-02, 0.000000000000000e+00, 0.000000000000000e+00, 0.000000000000000e+00, 1.429583474918560e-04, 7.243862574251753e-05, 3.058253239129479e-06, 7.099944774763307e-05, -6.721613664374547e-05, 3.187554387107369e-06, 1.367083031279385e-04
29, 5.315158007058185e-01, 4.282565188933989e-18, 6.994190705554927e-02, 0.000000000000000e+00, 0.000000000000000e+00, 0.000000000000000e+00, -2.144375212377859e-04, -1.367219095140246e-04, -1.151342395907567e-05, -1.539920454526381e-04, -6.714297589231564e-05, 3.597944987211152e-07, 1.375442383634123e-04
30, 5.118360063419699e-01, 4.379777891649717e-18, 7.152956340589069e-02, 0.000000000000000e+00, 0.000000000000000e+00, 0.000000000000000e+00, -2.460994371252440e-04, -1.338435535242556e-04, 4.326891473479760e-05, -1.252084855549489e-04, -2.648190525069150e-05, -1.066107389758297e-06, 1.461819606029526e-04
31, 4.921466277043444e-01, 4.469417774036275e-18, 7.299354213026631e-02, 0.000000000000000e+00, 0.000000000000000e+00, 0.000000000000000e+00, 1.050599936265650e-04, 7.627643372887598e-05, 4.326891473479745e-05, 9.066821367772058e-05, 1.159546948128708e-05, -1.859105792378111e-06, 8.155795790593059e-05
32, 4.724480908830985e-01, 4.551165037692980e-18, 7.432862035195846e-02, 0.000000000000000e+00, 0.000000000000000e+00, 0.000000000000000e+00, 1.569663466420634e-04, 8.328043330397964e-05, -1.521538852632175e-07, 8.097774851216450e-05, -3.383332784373511e-05, -1.538809123410938e-06, 9.510965821433133e-05
33, 4.527409053551655e-01, 4.624681204126912e-18, 7.552927011511647e-02, 0.000000000000000e+00, 0.000000000000000e+00, 0.000000000000000e+00, 1.990862892923503e-05, -1.750999893776099e-05, -3.630532394240429e-05, -4.341520284568132e-05, -7.168180413022493e-05, -1.435547005403868e-05, 1.517494046677170e-04
34, 4.330256653217979e-01, 4.689587471985040e-18, 7.658930491986064e-02, 0.000000000000000e+00, 0.000000000000000e+00, 0.000000000000000e+00, -3.046260089172160e-05, -2.902342289683697e-05, -4.677328483374501e-05, -1.894917693264570e-05, -3.116088267417327e-06, -2.878355989768923e-06, 8.206866416881141e-05
35, 4.133030970842013e-01, 4.745525924956260e-18, 7.750287935619471e-02, 0.000000000000000e+00, 0.000000000000000e+00, 0.000000000000000e+00, 1.616676614253541e-04, 8.539122769647778e-05, -6.906114320520980e-06, 7.963451571693995e-05, -2.781061061213238e-05, 4.354602656152485e-06, 9.386477859547015e-05
36, 3.935736888159320e-01, 4.791522303614942e-18, 7.825408203475526e-02, 0.000000000000000e+00, 0.000000000000000e+00, 0.000000000000000e+00, 1.312050605336328e-04, 8.227300870756131e-05, 2.763415755670609e-05, 1.052998566257127e-04, 4.242418411028585e-05, 5.074191653594702e-06, 9.780310297696112e-05
37, 3.738376147037298e-01, 4.825033514596549e-18, 7.880137971742705e-02, 0.000000000000000e+00, 0.000000000000000e+00, 0.000000000000000e+00, -3.573958687296539e-05, -1.703027293946697e-05, 1.837347943347071e-05, 2.038835492752895e-05, 2.827305909254489e-05, -1.084343451956947e-06, 7.658099142756528e-05
38, 3.540966121260357e-01, 4.844847462483737e-18, 7.912497673005635e-02, 0.000000000000000e+00, 0.000000000000000e+00, 0.000000000000000e+00, -5.324958581072597e-05, -2.446602591303645e-05, 1.909306843091289e-05, 1.439177994883831e-06, 8.500106031184826e-05, -1.444137950678087e-06, 1.581791707218116e-04
39, 3.343531750222402e-01, 4.850395612208830e-18, 7.921558788371849e-02, 0.000000000000000e+00, 0.000000000000000e+00, 0.000000000000000e+00, -4.989150382266200e-05, -3.118218988916379e-05, 2.302684791815139e-05, -1.966876593008811e-05, 3.183818250829110e-05, -2.518561491047797e-06, 7.313516151487436e-05
40, 3.146101354157785e-01, 4.841024224618034e-18, 7.906253645520771e-02, 0.000000000000000e+00, 0.000000000000000e+00, 0.000000000000000e+00, 1.602284834304698e-04, 6.668191376297988e-05, -1.942890293094020e-05, 6.236437977832648e-05, -1.528174042907237e-05, -2.518561491047802e-06, 1.050026824649123e-04
41, 2.948707533850322e-01, 4.815983802687925e-18, 7.865358182497978e-02, 0.000000000000000e+00, 0.000000000000000e+00, 0.000000000000000e+00, -5.157054481669342e-05, -4.725301083203997e-05, 5.773448734486400e-06, -4.725301083203997e-05, -1.250285883055878e-05, 2.565308192108927e-06, 2.464439258228967e-05
42, 2.751388110396201e-01, 4.774445024203225e-18, 7.797517968612031e-02, 0.000000000000000e+00, 0.000000000000000e+00, 0.000000000000000e+00, -1.419988954952672e-04, -9.594519965896437e-05, 1.157217748887411e-05, -9.882355564873331e-05, -3.732867924231580e-05, 5.197168341288960e-07, 8.111421562412634e-05
43, 2.554187386397022e-01, 4.715470701494125e-18, 7.701202409697898e-02, 0.000000000000000e+00, 0.000000000000000e+00, 0.000000000000000e+00, -3.933753186017538e-05, -2.926328589598412e-05, 2.090800665437228e-05, -2.062821792667736e-05, 2.230725892070916e-05, 3.116222636773014e-06, 5.564579757926189e-05
44, 2.357157930725315e-01, 4.637975721499600e-18, 7.574639323114789e-02, 0.000000000000000e+00, 0.000000000000000e+00, 0.000000000000000e+00, 8.826958368624680e-05, 5.516848980390423e-05, 2.332572202486019e-05, 6.524273576809544e-05, 2.248715617006970e-05, 2.164172517268544e-08, 6.334816645639743e-05
45, 2.160362708976908e-01, 4.540718201907183e-18, 7.415800494149306e-02, 0.000000000000000e+00, 0.000000000000000e+00, 0.000000000000000e+00, -1.175328695822315e-05, -1.031410896333868e-05, 1.756251585040952e-06, -2.326671091729885e-05, -1.007424596419124e-05, 3.290245252387885e-06, 2.230250493921222e-05
46, 1.963878452536379e-01, 4.422236927323708e-18, 7.222299498153886e-02, 0.000000000000000e+00, 0.000000000000000e+00, 0.000000000000000e+00, 2.014849192838242e-05, 5.756711979537437e-07, 4.696244073907886e-06, -2.878355989768969e-06, 2.072416312633626e-05, 3.683972735462264e-06, 4.310432197025455e-05
47, 1.767800337066593e-01, 4.280791384162375e-18, 6.991293766851189e-02, 0.000000000000000e+00, 0.000000000000000e+00, 0.000000000000000e+00, -6.716163976127728e-06, -3.837807986358732e-06, 1.611278148212134e-06, -1.535123194543443e-05, -7.195889974422318e-06, 3.436061308867038e-06, 1.750013808486875e-05
48, 1.572249834593176e-01, 4.114231790556605e-18, 6.719272324065294e-02, 0.000000000000000e+00, 0.000000000000000e+00, 0.000000000000000e+00, 4.317533984653381e-05, 1.439177994884458e-05, 5.037122982095622e-06, 2.014849192838243e-05, 8.578658154364746e-06, 4.317533984653384e-06, 3.238449689661659e-05
49, 1.377384611867422e-01, 3.919919434511331e-18, 6.401925683753060e-02, 0.000000000000000e+00, 0.000000000000000e+00, 0.000000000000000e+00, -4.605369583630295e-05, -4.605369583630293e-05, 1.709225260196502e-05, -6.332383177491651e-05, -5.003584172357369e-06, -1.058426126360397e-06, 3.540001770721046e-05
50, 1.183419902570362e-01, 3.694394869675872e-18, 6.033603954682280e-02, 0.000000000000000e+00, 0.000000000000000e+00, 0.000000000000000e+00, 5.037122982095608e-06, -6.476300976980086e-06, 8.345288065372112e-06, -1.655054694117132e-05, 2.878355989768931e-06, 5.832946623828463e-06, 2.618958810491530e-05
51, 9.906594200757987e-02, 3.433078213265797e-18, 5.606827373629236e-02, 0.000000000000000e+00, 0.000000000000000e+00, 0.000000000000000e+00, 2.470588891218321e-05, 8.874930968454140e-06, -2.172775041181598e-05, 1.175328695822305e-05, -7.915478971864528e-06, -3.709545975785434e-06, 4.311460379007141e-05
52, 7.995642156727899e-02, 3.129442663392544e-18, 5.110936512169123e-02, 0.000000000000000e+00, 0.000000000000000e+00, 0.000000000000000e+00, -2.878355989768979e-06, -3.981054852095212e-20, 2.555279239429359e-07, 2.878355989768874e-06, -6.476300976980074e-06, -1.343951700875066e-06, 1.250186884939263e-05
53, 6.108883705637669e-02, 2.773726133838719e-18, 4.529988147098955e-02, 0.000000000000000e+00, 0.000000000000000e+00, 0.000000000000000e+00, 6.236437977832656e-06, 6.236437977832659e-06, -6.813977682519390e-07, 4.797259982948093e-07, 2.158766992326692e-06, 2.266213868171047e-07, 6.976212304069964e-06
54, 4.259920263757813e-02, 2.350360126165273e-18, 3.838556151254757e-02, 0.000000000000000e+00, 0.000000000000000e+00, 0.000000000000000e+00, 2.878355989768917e-06, -2.878355989768930e-06, -6.549989076773932e-06, -7.623296525288703e-21, -2.158766992326692e-06, 1.242242966054817e-06, 1.312144038856653e-05
55, 2.454509340310661e-02, 1.862494719312127e-18, 3.041785163858904e-02, 0.000000000000000e+00, 0.000000000000000e+00, 0.000000000000000e+00, 2.158766992326684e-06, 1.223301295651791e-05, -2.875473278601525e-06, 5.037122982095605e-06, -4.022056039198361e-06, -6.767549036083332e-07, 1.246948011792435e-05
56, 1.079501348678390e-02, 1.012097097395115e-18, 1.652934584629657e-02, 0.000000000000000e+00, 0.000000000000000e+00, 0.000000000000000e+00, 1.918903993179272e-06, 6.236437977832658e-06, 3.597944987211158e-07, 4.797259982948195e-06, -2.017554224818039e-06, -1.439177994884462e-06, 5.771677780660480e-06
57, 1.388929087393163e-02, -8.746596024851640e-19, -1.428474709044387e-02, 0.000000000000000e+00, 0.000000000000000e+00, 0.000000000000000e+00, 3.112628794277624e+02, 3.074642076721901e+02, 1.404263251088848e+02, 2.017169062686662e+02, 1.921059568133647e+01, 6.676858141987184e+01, 2.919564190985087e+02
58, 3.022304466619743e-02, -1.551364506040887e-18, -2.533654183972826e-02, 0.000000000000000e+00, 0.000000000000000e+00, 0.000000000000000e+00, 8.078289344073511e+01, 2.516488775076679e+02, 1.645518742615412e+02, 1.138632502062622e+02, -9.679002360441428e+00, 1.027913909297297e+02, 3.712794152383254e+02
59, 4.958823502461023e-02, -1.836829963379144e-18, -2.999870052357358e-02, 0.000000000000000e+00, 0.000000000000000e+00, 0.000000000000000e+00, 2.741652417295174e+02, 5.249210976621940e+02, 1.866124869555122e+02, 2.215435211698945e+02, -5.488362106519011e+01, -4.268142345346062e+01, 4.447664078026232e+02
60, 6.916478739779469e-02, -2.063350985925189e-18, -3.369819174112284e-02, 0.000000000000000e+00, 0.000000000000000e+00, 0.000000000000000e+00, 1.715317914092082e+02, 6.746017150109693e+02, 9.290028298280031e+01, 3.099962070762577e+02, -1.222365554995003e+02, -6.003912870108862e+02, 1.163924510532912e+03
61, 8.890332346997189e-02, -2.229555641552852e-18, -3.641260940046107e-02, 0.000000000000000e+00, 0.000000000000000e+00, 0.000000000000000e+00, -4.582841473846984e+02, -6.391417193879008e+02, -3.170929976411596e+02, -4.683779317674243e+02, -9.987333301289370e+01, -1.612640192354260e+03, 2.857337735355748e+03
62, 1.087266702266891e-01, -2.352554993311510e-18, -3.842140759711812e-02, 0.000000000000000e+00, 0.000000000000000e+00, 0.000000000000000e+00, -4.521387803141125e+02, -6.110080158063342e+02, -4.357143896399075e+02, -5.372489834933790e+02, -1.537384494664223e+02, -2.270082921712638e+03, 4.014877186498291e+03
63, 1.285970311425439e-01, -2.442964857693488e-18, -3.989796149706776e-02, 0.000000000000000e+00, 0.000000000000000e+00, 0.000000000000000e+00, 1.147979648062739e+02, -9.444947333853037e+01, -3.102230911163426e+02, 2.556777763931685e+01, 3.897881974645016e+01, -2.486913971447635e+03, 4.345177991371389e+03
64, 1.484941693899059e-01, -2.507806876472936e-18, -4.095694700007543e-02, 0.000000000000000e+00, 0.000000000000000e+00, 0.000000000000000e+00, -6.874512958488410e+02, -9.161172089244110e+02, -4.052776602010231e+02, -6.379320029673647e+02, 7.863335884793625e+01, -2.339130752270877e+03, 4.122130665577559e+03
65, 1.684064605911773e-01, -2.552040590938902e-18, -4.167936223706808e-02, 0.000000000000000e+00, 0.000000000000000e+00, 0.000000000000000e+00, -1.227649646854437e+02, 1.083629798271208e+02, -4.503124181869646e+02, -1.237663213020536e+02, 5.939868096147281e+00, -1.922704800645740e+03, 3.428189535344260e+03
66, 1.883269098418351e-01, -2.579370458703495e-18, -4.212570759007542e-02, 0.000000000000000e+00, 0.000000000000000e+00, 0.000000000000000e+00, -1.100239607405852e+03, -2.240613841132013e+03, -7.575292372383594e+02, -9.624867410797262e+02, -1.305095156243432e+02, -2.524403096037587e+03, 4.729376478477749e+03
67, 2.082512183685958e-01, -2.592637464441391e-18, -4.234238139217493e-02, 0.000000000000000e+00, 0.000000000000000e+00, 0.000000000000000e+00, -1.850785118531599e+03, -3.992062704522180e+03, -5.758300463563897e+02, -1.618795614768722e+03, -2.790523302703307e+02, -3.367537021858660e+03, 6.354912341758046e+03
68, 2.281767164677554e-01, -2.594136466616305e-18, -4.236686276400899e-02, 0.000000000000000e+00, 0.000000000000000e+00, 0.000000000000000e+00, 2.024379424177785e+02, -1.489384889199061e+02, -3.458339967198012e+02, 8.360498470356968e+02, 2.085344799132389e+02, -2.565192428639204e+03, 4.580116337792545e+03
69, 2.481017747518363e-01, -2.585730676009330e-18, -4.222958125177876e-02, 0.000000000000000e+00, 0.000000000000000e+00, 0.000000000000000e+00, -9.681707665890146e+02, -1.771062425998344e+03, -4.558827056427333e+02, -8.429097449930214e+02, 5.523229657388078e+01, -2.774220036651531e+03, 4.947971882368796e+03
70, 2.680254415819140e-01, -2.568984672514142e-18, -4.195608922811059e-02, 0.000000000000000e+00, 0.000000000000000e+00, 0.000000000000000e+00, -9.103551438136697e+02, -1.628808190484860e+03, -6.280429027626285e+02, -7.800837803219174e+02, 5.268590232339293e+01, -2.506148130551893e+03, 4.545405999386681e+03
71, 2.879472184159328e-01, -2.545231124110512e-18, -4.156815153156856e-02, 0.000000000000000e+00, 0.000000000000000e+00, 0.000000000000000e+00, 1.606216487333978e+02, -3.684966387737084e+02, -8.068674604687817e+02, -1.959648717843663e+02, -3.476241688657193e+01, -1.807969860455524e+03, 3.461421569503641e+03
72, 3.078669122715693e-01, -2.515627019586640e-18, -4.108466384703273e-02, 0.000000000000000e+00, 0.000000000000000e+00, 0.000000000000000e+00, -1.761601983846419e+03, -3.198206335349523e+03, -1.352243843695284e+02, -1.592213002180257e+03, 6.019738050084869e+01, -2.230426041104594e+03, 4.162451043409426e+03
73, 3.277845343873612e-01, -2.481180182290264e-18, -4.052208572241568e-02, 0.000000000000000e+00, 0.000000000000000e+00, 0.000000000000000e+00, -1.152820385208506e+03, -2.192740347565691e+03, -3.057473205616033e+02, -1.126402340569291e+03, 2.766879479069776e+01, -2.080515130787022e+03, 3.791829990939311e+03
74, 3.477002255364895e-01, -2.442767833573877e-18, -3.989474374274212e-02, 0.000000000000000e+00, 0.000000000000000e+00, 0.000000000000000e+00, -8.834822076323869e+02, -1.705217928745064e+03, -3.178399146576580e+02, -7.166114815276244e+02, 1.017763533143162e+02, -1.646881927686050e+03, 3.051396603946953e+03
75, 3.676142247923256e-01, -2.401192424430655e-18, -3.921574336007299e-02, 0.000000000000000e+00, 0.000000000000000e+00, 0.000000000000000e+00, -9.621163861706184e+02, -1.881657047808163e+03, -3.669179798352138e+02, -1.026565554024317e+03, 1.039837301544528e+01, -1.391479338594783e+03, 2.646374904026896e+03
76, 3.875268109852439e-01, -2.357149409287487e-18, -3.849644258222393e-02, 0.000000000000000e+00, 0.000000000000000e+00, 0.000000000000000e+00, -1.212874663155281e+03, -2.279316242309251e+03, -2.635791588181319e+02, -1.175377280630985e+03, -3.159047606442382e+01, -1.400752669959005e+03, 2.697486308379253e+03
77, 4.074382458671655e-01, -2.311199866277338e-18, -3.774600481311183e-02, 0.000000000000000e+00, 0.000000000000000e+00, 0.000000000000000e+00, -1.372057482147312e+03, -2.535063909211899e+03, -3.334259334838108e+02, -1.334012095014826e+03, -1.983514256524829e+01, -1.504893385548425e+03, 2.920118078816924e+03
78, 4.273472932624887e-01, -2.261526538913666e-18, -3.693475102190574e-02, 0.000000000000000e+00, 0.000000000000000e+00, 0.000000000000000e+00, -1.457345577150726e+02, -8.122261662493197e+02, -6.391274553368388e+01, 1.688656724996702e+01, -3.659976234436936e+02, -1.928933622612677e+03, 3.486475924089009e+03
79, 4.472535187618114e-01, -2.207782322281734e-18, -3.605701236794270e-02, 0.000000000000000e+00, 0.000000000000000e+00, 0.000000000000000e+00, -4.863046328461422e+01, -3.810035932571401e+01, -2.348772269000972e+02, 2.535366535276884e+02, 3.006463590899276e+02, -2.136804142444468e+03, 3.771299041812184e+03
80, 4.671570441940828e-01, -2.150408471517298e-18, -3.511999533246261e-02, 0.000000000000000e+00, 0.000000000000000e+00, 0.000000000000000e+00, 2.410939326832242e+02, 1.997279417373036e+02, -3.710301950939173e+02, 3.983323728358266e+02, 8.927533798151911e+00, -1.403437180706807e+03, 2.520927701526667e+03
81, 4.870580279116951e-01, -2.089816824891178e-18, -3.413042596697641e-02, 0.000000000000000e+00, 0.000000000000000e+00, 0.000000000000000e+00, -6.229711549856207e+02, -1.182234023312879e+03, -2.954245092782828e+02, -4.940170841743659e+02, 7.037423895321827e+01, -1.372718298392211e+03, 2.516202383471350e+03
82, 5.069566585689664e-01, -2.026392949246192e-18, -3.309460126384595e-02, 0.000000000000000e+00, 0.000000000000000e+00, 0.000000000000000e+00, 9.318439553548157e+01, 1.085986328941509e+02, -2.927768964441227e+02, -5.084915698841243e+01, 2.002162594701496e+01, -9.401135679340616e+02, 1.712600806365685e+03
83, 5.268531183634069e-01, -1.960464408255168e-18, -3.201787092049536e-02, 0.000000000000000e+00, 0.000000000000000e+00, 0.000000000000000e+00, 4.775197938248562e+01, -5.641047403422573e+01, -2.812551981400513e+02, 1.605764214503813e+01, 1.967855291918551e+01, -7.363036437145093e+02, 1.368742982012258e+03
84, 5.467476078067892e-01, -1.892341950191135e-18, -3.090531000895997e-02, 0.000000000000000e+00, 0.000000000000000e+00, 0.000000000000000e+00, -5.313515170299395e+02, -9.853225532631809e+02, -1.238143780110601e+02, -4.862721529974410e+02, 2.122604265877393e+01, -7.004354395315655e+02, 1.322027846350376e+03
85, 5.666403201395195e-01, -1.822300507005885e-18, -2.976140865704180e-02, 0.000000000000000e+00, 0.000000000000000e+00, 0.000000000000000e+00, -2.849652235826392e+02, -5.379465894428427e+02, -1.800122654559906e+02, -2.285166730590549e+02, 2.806273898573590e+01, -5.667078753268672e+02, 1.069820400214638e+03
86, 5.865314480303959e-01, -1.750591496370510e-18, -2.859027296251354e-02, 0.000000000000000e+00, 0.000000000000000e+00, 0.000000000000000e+00, -2.333711641248122e+01, 4.313558034283616e+00, -2.032854198232781e+02, 1.254778866067213e+01, -3.304681055355113e+01, -4.448051300287925e+02, 8.496269865552757e+02
87, 6.064211644397690e-01, -1.677428908476019e-18, -2.739539776582477e-02, 0.000000000000000e+00, 0.000000000000000e+00, 0.000000000000000e+00, 2.624413379871218e+02, 2.236458043142881e+02, -8.305146988644140e+01, 1.056291818136793e+01, -7.275500424320268e+01, -7.291482886723430e+02, 1.298737951466488e+03
88, 6.263096402532672e-01, -1.603012393045539e-18, -2.618004370207682e-02, 0.000000000000000e+00, 0.000000000000000e+00, 0.000000000000000e+00, 3.038226442928491e+02, 5.026496146494489e+02, -5.235378494547520e+01, 5.353289816840876e+02, 2.057053281025660e+01, -7.270518150694049e+02, 1.281562666026687e+03
89, 6.461970282050729e-01, -1.527513554680443e-18, -2.494701337964805e-02, 0.000000000000000e+00, 0.000000000000000e+00, 0.000000000000000e+00, -8.745724986804696e+01, -1.261010957131033e+02, -2.086703741680897e+02, 7.111475525141148e+01, 6.513079131986726e+01, -6.192439722348252e+02, 1.151742847296298e+03
90, 6.660834700685733e-01, -1.451085294992654e-18, -2.369880395383162e-02, 0.000000000000000e+00, 0.000000000000000e+00, 0.000000000000000e+00, -2.398413437822910e+01, -1.447234189621932e+02, -1.801448868694694e+02, -2.458465802024383e+01, 2.799651946035801e+01, -3.890345080366174e+02, 7.538284487247630e+02
91, 6.859690787679172e-01, -1.373848998404034e-18, -2.243739784814645e-02, 0.000000000000000e+00, 0.000000000000000e+00, 0.000000000000000e+00, -8.198693836311719e-01, -3.411577904049929e+01, -1.746776268624976e+02, 4.416267783180281e+01, 3.038685082591657e+01, -2.662465262973683e+02, 5.582099267897563e+02
92, 7.058539623356156e-01, -1.295915713928431e-18, -2.116460869051472e-02, 0.000000000000000e+00, 0.000000000000000e+00, 0.000000000000000e+00, 5.163124388371781e+01, 1.108067975282325e+02, -1.786155139238334e+02, 6.804360094342731e+01, 3.490574161491988e+00, -1.864118245882843e+02, 4.503277296631047e+02
93, 7.257382033534366e-01, -1.217373263444228e-18, -1.988187076842167e-02, 0.000000000000000e+00, 0.000000000000000e+00, 0.000000000000000e+00, 1.365691877264453e+02, 2.363643058050518e+02, -2.265161240386579e+02, 1.361319745814908e+02, 1.093287759162829e+01, -1.186023198502126e+02, 4.544113401890739e+02
94, 7.456218690677415e-01, -1.138280380830412e-18, -1.859014331058279e-02, 0.000000000000000e+00, 0.000000000000000e+00, 0.000000000000000e+00, 3.362432235538152e+01, 6.631889088953680e+01, -1.923501493106569e+02, 9.326849364557479e+00, 1.726492134988724e+01, -5.911601042359988e+01, 3.533097476912271e+02
95, 7.655049997982781e-01, -1.058688528138696e-18, -1.729026678383956e-02, 0.000000000000000e+00, 0.000000000000000e+00, 0.000000000000000e+00, 1.665301918533522e+01, 6.107036674742312e+01, -1.882264639791912e+02, -1.314754164438092e+01, 2.798406416672349e+01, 5.895636857251289e+01, 3.510685474549105e+02
96, 7.853876330916660e-01, -9.786318435286617e-19, -1.598279872506047e-02, 0.000000000000000e+00, 0.000000000000000e+00, 0.000000000000000e+00, 4.904878922722752e+01, 1.017793699779205e+02, -1.879534513298231e+02, 6.424350095529638e+01, -6.521395618506101e+00, 1.297742612440804e+02, 3.985490302135989e+02
97, 8.052697735799476e-01, -8.981166402119456e-19, -1.466784224022102e-02, 0.000000000000000e+00, 0.000000000000000e+00, 0.000000000000000e+00, 5.943396404964224e+01, 1.210724585962882e+02, -2.119831365941956e+02, 6.154921389614431e+01, 2.005018489744198e+00, 1.076504758963873e+02, 4.162473822816073e+02
98, 8.251514115930122e-01, -8.171391261994019e-19, -1.334533539939355e-02, 0.000000000000000e+00, 0.000000000000000e+00, 0.000000000000000e+00, -4.085183073002080e+01, -7.386156421080614e+01, -2.229496977133825e+02, -4.142921023258013e+01, -7.027392814647228e-01, 9.741974812987642e+01, 4.226865545106569e+02
99, 8.450325184946154e-01, -7.356727926213054e-19, -1.201484526558337e-02, 0.000000000000000e+00, 0.000000000000000e+00, 0.000000000000000e+00, -2.189272480297110e+02, -3.594003673518788e+02, -2.022591078355406e+02, -2.110142879994567e+02, -4.456917474791946e+00, 3.786662866461560e+01, 3.847003346940984e+02
100, 8.649130500546278e-01, -6.536826585037083e-19, -1.067580053726426e-02, 0.000000000000000e+00, 0.000000000000000e+00, 0.000000000000000e+00, -2.540210529177812e+02, -3.098573272995412e+02, -2.590123563155544e+02, -2.467923323568865e+02, 5.067140876130167e+01, 9.982953744157106e+01, 4.923782647211552e+02
101, 8.847929484928664e-01, -5.711186698110540e-19, -9.327383743003048e-03, 0.000000000000000e+00, 0.000000000000000e+00, 0.000000000000000e+00, -3.305277134159542e+01, -1.438884504037377e+02, -3.101644244767260e+02, -4.034058160541493e+01, -2.120916210021266e+01, 1.946840306489584e+02, 6.443531036669491e+02
102, 9.046721190577498e-01, -4.879005516461106e-19, -7.968283850940693e-03, 0.000000000000000e+00, 0.000000000000000e+00, 0.000000000000000e+00, -2.008122737588643e+02, -4.004775209675093e+02, -2.941689587028612e+02, -1.949133270806525e+02, -1.620162763399214e+01, 1.348044313910433e+02, 5.966482500908836e+02
103, 9.245504685751483e-01, -4.039501688703844e-19, -6.597224775284405e-03, 0.000000000000000e+00, 0.000000000000000e+00, 0.000000000000000e+00, -1.749924153517828e+02, -4.007209136474250e+02, -1.384951102660232e+02, -2.759025661774288e+02, 2.070091430952650e+02, 2.364208815160191e+02, 6.262135889631720e+02
104, 9.444278681354489e-01, -3.191607152719086e-19, -5.212462180613530e-03, 0.000000000000000e+00, 0.000000000000000e+00, 0.000000000000000e+00, -5.975611013452115e+02, -9.410522986399349e+02, -3.416883543530311e+02, -4.817564876461907e+02, -7.247226019273201e+01, 3.176258989204580e+02, 9.164294253097373e+02
105, 9.643041741033499e-01, -2.334163048281545e-19, -3.812103442050412e-03, 0.000000000000000e+00, 0.000000000000000e+00, 0.000000000000000e+00, 3.567497981590772e+02, 9.531956825179606e+01, 8.299619029458617e+01, 3.781994181620303e+02, 8.015547858220123e+01, -1.902826122121829e+02, 4.722029785778435e+02
106, 9.841822350623581e-01, -1.493786643910810e-19, -2.439619293576645e-03, 0.000000000000000e+00, 0.000000000000000e+00, 0.000000000000000e+00, 4.958188783189859e+02, 6.445500803988946e+02, -1.918184475791751e+02, 4.127421111066549e+02, 1.050827731659367e+02, -9.420506387688559e+01, 4.599051288025813e+02
107, 1.180862278259086e+00, 1.600000000000000e+00, 4.368488976436886e-03, 0.000000000000000e+00, 0.000000000000000e+00, 0.000000000000000e+00, -3.671148223416581e+03, -2.522437121056093e+03, 1.725616141721954e+02, -6.135597365198272e+03, -1.288402735420191e+03, 3.119609076528367e+02, 3.947812437434780e+03
108, 1.161644266838892e+00, 1.600000000000000e+00, 7.986422207396952e-03, 0.000000000000000e+00, 0.000000000000000e+00, 0.000000000000000e+00, -4.978954554763930e+03, -4.914344521603528e+03, -9.018458260204835e+01, -1.326104719816401e+04, 9.306252284927577e+02, 1.216992513046141e+02, 8.473450367968026e+03
109, 1.142383102640273e+00, 1.600000000000000e+00, 1.136715641446967e-02, 0.000000000000000e+00, 0.000000000000000e+00, 0.000000000000000e+00, 1.495587169934960e+02, 1.556171591104687e+03, -2.163529798013918e+02, -4.411729926674370e+02, 5.122339794723716e+02, -3.937136651795059e+02, 2.133321985449320e+03
110, 1.123082894578520e+00, 1.600000000000000e+00, 1.451739143161633e-02, 0.000000000000000e+00, 0.000000000000000e+00, 0.000000000000000e+00, -1.773112983121925e+03, -2.163432524403376e+02, 2.243054754661340e+02, -4.345220604721141e+03, -9.067421926828995e+02, -2.785509437310108e+01, 3.957683624370487e+03
111, 1.103746933119777e+00, 1.600000000000000e+00, 1.744017801171537e-02, 0.000000000000000e+00, 0.000000000000000e+00, 0.000000000000000e+00, -3.346885281187497e+03, -2.509570996791235e+03, -3.726475639009953e+01, -8.694596948654498e+03, 8.852383702897057e+02, -9.271950859463830e+01, 6.013129657836046e+03
112, 1.084377849935887e+00, 1.600000000000000e+00, 2.013472856707033e-02, 0.000000000000000e+00, 0.000000000000000e+00, 0.000000000000000e+00, -1.238590332640611e+03, -1.591087775462286e+02, 1.447753650357127e+02, -3.807584159046716e+03, 1.245625175955517e+02, 1.936960717994943e+02, 3.280270239581330e+03
113, 1.064977781887696e+00, 1.600000000000000e+00, 2.259624889842502e-02, 0.000000000000000e+00, 0.000000000000000e+00, 0.000000000000000e+00, -4.684070224012349e+03, -5.030665179064391e+03, -1.169225775158455e+02, -9.747786917771420e+03, 1.203126851555121e+03, -8.324915343178675e+02, 5.519871189799861e+03
114, 1.045548510215023e+00, 1.600000000000000e+00, 2.481540775785779e-02, 0.000000000000000e+00, 0.000000000000000e+00, 0.000000000000000e+00, -4.719902223885041e+03, -5.030893334270622e+03, -1.000773783189487e+02, -9.690505021002697e+03, 1.219368347066518e+03, -8.309865057079367e+02, 5.460772291053187e+03
115, 1.026091676230883e+00, 1.600000000000000e+00, 2.677810518889170e-02, 0.000000000000000e+00, 0.000000000000000e+00, 0.000000000000000e+00, -1.056825634974182e+03, -8.124520257795646e+02, -4.169860784849916e+02, -2.877569869354334e+03, 6.991804021773304e+02, -1.341291377298293e+03, 3.347409359136827e+03
116, 1.006609023995803e+00, 1.600000000000000e+00, 2.846505870418397e-02, 0.000000000000000e+00, 0.000000000000000e+00, 0.000000000000000e+00, -3.664440246498587e+02, 8.187019795965193e+01, -3.610346616249564e+02, -1.590742886038376e+03, 8.177491552058797e+02, -1.057291350485958e+03, 2.828345463184666e+03
117, 9.871026626539463e-01, 1.600000000000000e+00, 2.985069022945260e-02, 0.000000000000000e+00, 0.000000000000000e+00, 0.000000000000000e+00, 1.348648996474384e+03, 1.277550965517861e+03, -1.101105749477131e+02, 1.111333940497548e+03, 1.204687973444039e+03, -1.004377015335038e+03, 2.731485430243206e+03
118, 9.675755297555454e-01, 1.600000000000000e+00, 3.090293897293333e-02, 0.000000000000000e+00, 0.000000000000000e+00, 0.000000000000000e+00, 2.227729904927701e+03, 2.714908703819270e+03, -8.709786296330785e+02, 2.986281767854888e+03, 1.325498031292075e+03, -1.958744460139364e+03, 4.415866813939467e+03
119, 9.480310930171246e-01, 1.600000000000000e+00, 3.155224089115923e-02, 0.000000000000000e+00, 0.000000000000000e+00, 0.000000000000000e+00, 3.199782348535454e+03, 3.392744816264031e+03, 3.707838617470144e+02, 4.860147309134929e+03, 1.607830118305202e+03, -2.696479663434113e+03, 5.696881691463878e+03
120, 9.284763662460274e-01, 1.600000000000000e+00, 3.165641971939034e-02, 0.000000000000000e+00, 0.000000000000000e+00, 0.000000000000000e+00, 3.750091611897539e+03, 3.708841304758849e+03, 7.892968196573004e+01, 7.125668459867023e+03, 2.106180852202727e+03, -1.023221994655717e+03, 5.291795253769665e+03
121, 9.089283228054210e-01, 1.600000000000000e+00, 3.114225818851039e-02, 0.000000000000000e+00, 0.000000000000000e+00, 0.000000000000000e+00, 5.111646373511127e+03, 4.640313149698904e+03, -2.752965957503017e+02, 8.592216458571875e+03, 2.200262643627517e+03, -1.483843980164660e+03, 5.944177156337212e+03
122, 8.894119860230927e-01, 1.600000000000000e+00, 2.992128622606804e-02, 0.000000000000000e+00, 0.000000000000000e+00, 0.000000000000000e+00, 3.988234781359550e+03, 5.848500848435087e+03, -1.435743597450358e+02, 9.398419135604541e+03, 1.209729510757885e+03, -2.409910296310721e+03, 6.673940543870799e+03
123, 8.699660554742668e-01, 1.600000000000000e+00, 2.786890881807831e-02, 0.000000000000000e+00, 0.000000000000000e+00, 0.000000000000000e+00, 7.087932797777261e+03, 1.012128928963156e+04, -6.781073499074444e+02, 1.121130551117480e+04, 1.388324201975736e+03, -2.528474454728960e+03, 6.327492786228021e+03
124, 8.506566297631396e-01, 1.600000000000000e+00, 2.479346254649329e-02, 0.000000000000000e+00, 0.000000000000000e+00, 0.000000000000000e+00, 8.039630021723025e+03, 1.029837724539367e+04, 6.533599222730134e+02, 1.409081640756599e+04, 2.298912460090546e+03, -3.829427217220512e+03, 9.443509238903665e+03
125, 8.316208813513539e-01, 1.600000000000000e+00, 2.034072861285487e-02, 0.000000000000000e+00, 0.000000000000000e+00, 0.000000000000000e+00, 4.548202025380485e+03, 5.047946674336424e+03, 1.132695962917284e+03, 1.543192300798393e+04, -4.412028447519178e+02, -4.251756667951297e+03, 1.311225878305568e+04
126, 8.132435467049374e-01, 1.600000000000000e+00, 1.371167690452287e-02, 0.000000000000000e+00, 0.000000000000000e+00, 0.000000000000000e+00, 6.854698871260844e+03, 5.343934176941008e+03, 1.554148056064394e+03, 1.241719607650406e+04, -2.561209928442352e+03, -2.165344942332536e+03, 9.089504007419364e+03
127, 8.154042707010583e-01, 1.600000000000000e+00, -1.094928980542968e-02, -1.111225364759343e-09, 1.093205565498646e-09, -4.459021827027392e-10, 3.951136507390368e+03, 7.614947421323400e+03, 2.430980033815585e+03, 8.170414103983017e+03, -3.641138529154073e+03, -1.717563510086592e+03, 9.062003802487505e+03
128, 8.344310456709764e-01, 1.600000000000000e+00, -1.442765978782728e-02, -3.793091892393120e-09, 6.369452140639995e-09, -1.479324065959278e-08, 2.359030803048355e+04, 3.717248367063819e+04, -1.395249233951512e+03, 5.428804503737745e+04, 3.311178476152384e+03, -8.329453289448520e+03, 3.093146849023129e+04
129, 8.537119243117677e-01, 1.600000000000000e+00, -1.609564251156243e-02, -1.410584296549901e-09, 4.345398487084359e-09, 1.373016178827754e-09, 1.603377418289741e+04, 1.507621042320844e+04, 1.014241575333122e+03, 9.307565306036340e+03, 6.326624308838916e+03, 6.883381948794224e+02, 1.281811421836382e+04
130, 8.730539310236712e-01, 1.600000000000000e+00, -1.680891394227729e-02, -2.412161764681546e-09, 8.563802920551886e-09, -2.327726653503182e-10, 9.006186911992627e+03, 2.095786922250377e+04, -2.852076320077625e+03, 7.570606195575877e+03, -2.731259988437701e+03, -1.942001076285326e+03, 1.483771116511190e+04
131, 8.924092828242374e-01, 1.600000000000000e+00, -1.694271659007000e-02, -9.480905472070935e-10, 7.274126628314982e-09, -7.591646447135310e-09, 1.095021242410037e+04, 1.830341215498420e+04, 1.973749957634727e+02, 1.466712343363975e+04, -1.572755130974685e+03, -2.017366595140208e+03, 7.765348376633419e+03
132, 9.117638228921181e-01, 1.600000000000000e+00, -1.669878718726130e-02, -2.668262304410084e-09, 5.063015024065015e-09, -1.894291216265072e-09, 7.268556910326094e+03, 1.273939710386997e+04, -2.800811172411061e+03, 8.575447151309814e+03, 1.835920996719859e+03, -2.162885628812401e+03, 8.495171392350932e+03
133, 9.311138128683629e-01, 1.600000000000000e+00, -1.620883431545238e-02, -1.478986291713438e-09, 4.015915861765699e-09, -3.135207393737158e-09, 6.235401300435791e+03, 5.959459594070546e+03, -5.861948727008686e+02, 5.182452597692281e+03, 1.372421599582399e+03, -1.378363572915977e+03, 3.643548706815825e+03
134, 9.504593404761539e-01, 1.600000000000000e+00, -1.556479856204532e-02, -6.360951585427114e-10, 3.659572486370002e-09, 4.045134444337502e-10, 5.142287629250669e+03, 6.485527852471769e+03, 4.487018773090521e+02, 5.296141046492434e+03, 4.925923448539253e+02, 1.630442162367849e+03, 3.305793367100429e+03
135, 9.698013221316931e-01, 1.600000000000000e+00, -1.482184631448994e-02, -8.035253210333280e-10, 3.427979921007441e-09, -2.290049308537024e-09, 7.125571702681194e+03, 8.650236145636180e+03, -6.488357641635724e+01, 1.163706324386147e+04, 1.249639220408642e+01, -2.000189173125213e+03, 5.273994231320765e+03
136, 9.891373196688479e-01, 1.600000000000000e+00, -1.393701126243074e-02, -7.000512980139665e-10, 2.610959316554973e-09, 8.009301784812678e-10, 3.065880596844208e+03, 4.792545267007910e+03, -7.872102488585915e+01, 2.235532972354811e+03, 1.309359861894963e+03, -5.684010020822282e+02, 3.351966558373336e+03
137, 1.008467450732945e+00, 1.600000000000000e+00, -1.293177342243542e-02, -5.473813273780761e-10, 2.231952556227921e-09, 1.257768916454977e-09, 1.869657445015429e+03, 4.002412329302187e+03, -3.233960725832166e+02, 2.436285455829667e+02, 3.522286062216914e+02, -3.072120203355549e+01, 3.368874569447059e+03
138, 1.027792801189032e+00, 1.600000000000000e+00, -1.183828441732842e-02, -4.499454428328264e-10, 1.810259453249252e-09, 1.294790475665234e-09, 1.295646525542608e+03, 3.421654633390995e+03, 4.093165577778298e+01, -1.114318645465275e+03, 1.249381002032256e+02, -5.838346070450930e+01, 3.938721717351446e+03
139, 1.047114461698919e+00, 1.600000000000000e+00, -1.068132458585603e-02, -8.460907952882111e-10, 1.900042656081923e-09, 1.156652406077109e-09, 1.324034724566032e+03, 5.791099030313204e+03, -7.911375211783856e+02, -1.301686121685591e+03, 6.191106802958915e+02, -1.892051265461677e+02, 6.458585210293342e+03
140, 1.066433387827370e+00, 1.600000000000000e+00, -9.479521594160366e-03, -2.175520879230387e-10, 7.494295908066829e-10, 2.784757990608297e-09, -1.030656544455894e+03, -1.378221414296040e+02, -1.118188143565856e+02, -5.757187745016835e+03, -2.262375841158342e+02, 6.230497081348649e+02, 5.358441341985017e+03
141, 1.085750341973097e+00, 1.600000000000000e+00, -8.246411399238481e-03, -2.885154894784771e-10, 9.945488202455541e-10, 1.007682006083162e-09, 2.235266725823051e+01, 2.316828842582657e+03, 5.406062186157998e+02, -1.996467331381925e+03, 8.627051768571749e+01, 1.594188754520221e+02, 3.866228871422881e+03
142, 1.105065833601771e+00, 1.600000000000000e+00, -6.990576161315847e-03, -1.749960805563915e-10, 9.295071584323266e-10, 3.215114912262181e-09, -2.064885938917592e+03, -1.236160203044997e+02, 2.777189519270857e+02, -6.458736474079480e+03, 3.451227610999063e+02, 4.608183962245044e+02, 5.729736004861758e+03
143, 1.124380117243711e+00, 1.600000000000000e+00, -5.716301334711708e-03, -4.089757948820660e-10, 1.085817366723709e-09, 5.752452138460894e-10, -2.428977332236862e+01, 2.052461241064414e+03, 8.146854183604273e+01, -9.550241054337027e+02, -4.594084727362172e+02, -2.911157872107125e+01, 2.787057031620114e+03
144, 1.143693182577511e+00, 1.600000000000000e+00, -4.423701351355635e-03, -6.086537455329314e-10, 5.617603324472104e-10, 1.673074875351469e-10, -8.840005607589929e+02, 3.733986281676493e+00, -3.118406949404396e+02, -3.900233455445568e+03, 1.093387969035532e+03, -6.191314522558628e+01, 4.056238770800547e+03
145, 1.163004775657615e+00, 1.600000000000000e+00, -3.109284339266404e-03, 3.388189952274011e-10, 2.033266714451724e-10, 2.641770871257423e-09, -6.458505849267457e+03, -5.739949598861177e+03, 1.578071527414757e+02, -1.456280277873654e+04, -3.552997555439019e+02, 9.148156273144626e+02, 8.659297370860548e+03
146, 1.182314362393662e+00, 1.600000000000000e+00, -1.765742206372945e-03, -1.668325144000265e-10, 1.068417476123117e-10, -4.613422652433131e-11, -4.714650197096589e+02, 3.307411609908569e+02, 1.007275323868278e+02, -3.548597846457549e+02, -5.921547540686574e+02, 1.893816892440229e+01, 1.283372870718132e+03
147, 1.002548543209872e+00, 1.975308641971451e-02, 1.247897333333351e-03, 0.000000000000000e+00, 0.000000000000000e+00, 0.000000000000000e+00, -3.636586744531298e+01, 8.063016459942102e+01, 2.432905348061492e+01, 1.660546407344888e+02, -1.379977824103093e+02, -8.733579352766044e+01, 3.358098156070809e+02
148, 1.005017086419744e+00, 3.950617283943018e-02, 1.238584666666702e-03, 0.000000000000000e+00, 0.000000000000000e+00, 0.000000000000000e+00, -1.259326858453387e+02, 2.831899201411048e-01, -7.390350073487983e+01, 1.775763650053418e+01, -5.332225178486732e+01, -1.610540438621910e+02, 3.480970283687158e+02
149, 1.007485629629616e+00, 5.925925925915054e-02, 1.229272000000051e-03, 0.000000000000000e+00, 0.000000000000000e+00, 0.000000000000000e+00, 8.433191862712391e+01, -7.241970689960462e+01, -5.370861768873887e+01, -2.093919291504864e+02, 2.775206914602185e+02, -1.663104072506181e+02, 6.224850073301595e+02
150, 1.009954172839487e+00, 7.901234567885920e-02, 1.219959333333405e-03, 0.000000000000000e+00, 0.000000000000000e+00, 0.000000000000000e+00, 4.451472242976610e+01, -1.589265013676095e+02, 3.091235214777134e+01, -1.932692063432984e+02, 8.754015782725212e+01, 1.679241552213955e+02, 4.000082484369910e+02
151, 1.012422716049358e+00, 9.876543209857061e-02, 1.210646666666758e-03, 0.000000000000000e+00, 0.000000000000000e+00, 0.000000000000000e+00, -1.481851365917963e+03, -1.406864667214014e+03, 3.231242862506770e+02, -1.641072459119139e+03, -5.629367012780326e+02, 8.570623267325851e+02, 1.873633481604956e+03
152, 1.014891259259231e+00, 1.185185185182909e-01, 1.201334000000107e-03, 0.000000000000000e+00, 0.000000000000000e+00, 0.000000000000000e+00, -3.576078761524292e+02, 3.215252610648238e+02, 2.353863739383681e+02, 1.605394560583995e+02, -1.011797645455217e+03, 2.986041700283574e+02, 1.970463007749030e+03
153, 1.017359802469105e+00, 1.382716049380225e-01, 1.192021333333451e-03, 0.000000000000000e+00, 0.000000000000000e+00, 0.000000000000000e+00, 1.791231903118765e+01, -5.512195149729664e+01, -9.668292333369408e+01, 3.744236192632517e+02, -4.110396687286749e+02, -7.183333643961929e+01, 8.419355854715495e+02
154, 1.019828345678978e+00, 1.580246913577467e-01, 1.182708666666798e-03, 0.000000000000000e+00, 0.000000000000000e+00, 0.000000000000000e+00, -2.208334913461572e+02, -2.885549405355258e+02, 3.287190308368034e+00, -7.076713170509991e+02, 2.888923542254279e+02, 1.279364351913602e+02, 7.128393145295179e+02
155, 1.022296888888851e+00, 1.777777777774713e-01, 1.173396000000144e-03, 0.000000000000000e+00, 0.000000000000000e+00, 0.000000000000000e+00, 1.193924363164734e+02, -8.868307534884282e+01, 7.670789864459104e+01, -7.037501155387064e+01, 3.729334276083745e+02, 1.994294054923909e+02, 7.707319487115531e+02
156, 1.024765432098723e+00, 1.975308641971863e-01, 1.164083333333496e-03, 0.000000000000000e+00, 0.000000000000000e+00, 0.000000000000000e+00, -2.668036937443234e+02, -1.606578988742304e+01, 3.084826130855346e+02, 6.617698933121453e+02, -4.780482545001523e+02, 5.595732945325757e+02, 1.613298358238902e+03
157, 1.027233975308593e+00, 2.172839506168877e-01, 1.154770666666854e-03, 0.000000000000000e+00, 0.000000000000000e+00, 0.000000000000000e+00, 7.623376475698718e+01, 7.636465006517105e+02, 9.179430752087896e+00, 1.306290011291917e+03, -1.153073882360841e+03, 2.646832755858486e+02, 2.310666773659579e+03
158, 1.029702518518462e+00, 2.370370370365867e-01, 1.145458000000212e-03, 0.000000000000000e+00, 0.000000000000000e+00, 0.000000000000000e+00, -1.778536411835901e+02, -7.836717244341555e+01, -1.357926456970250e+02, 6.044206331195485e+01, -4.612563378779385e+02, -1.940283885916626e+02, 9.216872595406371e+02
159, 1.032171061728332e+00, 2.567901234562862e-01, 1.136145333333571e-03, 0.000000000000000e+00, 0.000000000000000e+00, 0.000000000000000e+00, -8.630891318211393e+01, -1.090749849959759e+02, -1.655468345040171e+01, -2.149918512875329e+02, 5.967118152462447e+01, -1.158583439037249e+02, 2.567519765796453e+02
160, 1.034639604938201e+00, 2.765432098759801e-01, 1.126832666666932e-03, 0.000000000000000e+00, 0.000000000000000e+00, 0.000000000000000e+00, 1.735905791288415e+01, 4.969836577861024e+00, -1.348033994746702e+01, -5.518904174348176e+00, 1.766378340553279e+01, -7.090299830545564e+01, 1.302165340982509e+02
161, 1.037108148148070e+00, 2.962962962956666e-01, 1.117520000000297e-03, 0.000000000000000e+00, 0.000000000000000e+00, 0.000000000000000e+00, 8.258399630626515e+01, 7.412445466442963e+00, -3.283134019077805e+01, -4.128321992286038e+01, 1.061454950997692e+02, -4.181766684510288e+01, 2.322993745946363e+02
162, 1.039576691357937e+00, 3.160493827153482e-01, 1.108207333333664e-03, 0.000000000000000e+00, 0.000000000000000e+00, 0.000000000000000e+00, 5.814734855041410e+01, -5.957788934212091e+01, 1.878999698708525e+00, -1.297123834582444e+02, 1.918978591353288e+02, 5.180539783994146e+01, 3.815377223603274e+02
163, 1.042045234567808e+00, 3.358024691350552e-01, 1.098894666667019e-03, 0.000000000000000e+00, 0.000000000000000e+00, 0.000000000000000e+00, -6.164222893878802e+01, -5.726740996773390e+01, 6.039284792171924e+01, -3.849707793314190e+01, 1.671715989782731e+01, 1.346375423416513e+02, 2.581001030205768e+02
164, 1.044513777777678e+00, 3.555555555547559e-01, 1.089582000000377e-03, 0.000000000000000e+00, 0.000000000000000e+00, 0.000000000000000e+00, 4.328376206424311e+01, 7.247797977073732e+01, 3.494118220872622e-01, 8.463462553981739e+01, -5.546515060661434e+01, 1.086994348683275e+02, 2.145488443930685e+02
165, 1.046982320987547e+00, 3.753086419744499e-01, 1.080269333333738e-03, 0.000000000000000e+00, 0.000000000000000e+00, 0.000000000000000e+00, -6.223105290229412e+01, -1.189016267791797e+02, -1.170303175024546e+01, -1.727431213502060e+02, 1.570313402394476e+02, 1.102111596601338e+02, 3.463937013377039e+02
166, 1.049450864197416e+00, 3.950617283941438e-01, 1.070956666667099e-03, 0.000000000000000e+00, 0.000000000000000e+00, 0.000000000000000e+00, -2.517037324379524e+02, -5.704772224214787e+02, 2.315325361673453e+01, -1.114338545065220e+03, 3.873547799405621e+02, 3.611771958362178e+02, 1.189056998017398e+03
167, 1.051919407407286e+00, 4.148148148138387e-01, 1.061644000000460e-03, 0.000000000000000e+00, 0.000000000000000e+00, 0.000000000000000e+00, 3.721433814978100e+02, 3.430097181365217e+02, 1.810782769411702e+02, 2.578234515925112e+01, -1.634461662345474e+02, -1.147169117826410e+02, 5.733374717017168e+02
168, 1.054387950617156e+00, 4.345679012335412e-01, 1.052331333333817e-03, 0.000000000000000e+00, 0.000000000000000e+00, 0.000000000000000e+00, 6.949984874057749e+01, 2.084382348832419e+02, -9.445278671207332e+01, 6.815737645245333e+02, -5.286242222338548e+02, -3.127892791920743e+02, 1.211405746540173e+03
169, 1.056856493827025e+00, 4.543209876532364e-01, 1.043018666667178e-03, 0.000000000000000e+00, 0.000000000000000e+00, 0.000000000000000e+00, 1.004568407581140e+03, 1.175238879601598e+03, -2.565864807396075e+01, 2.159443353424318e+03, -2.975731769707286e+02, -3.864391411602282e+02, 1.371638295436004e+03
170, 1.059325037036894e+00, 4.740740740729303e-01, 1.033706000000539e-03, 0.000000000000000e+00, 0.000000000000000e+00, 0.000000000000000e+00, 1.078377971570191e+03, 1.022411362080961e+03, -7.761368545131297e+01, 2.097379301380160e+03, -9.069009878297153e+01, -1.268430750326434e+02, 1.090660007810728e+03
171, 1.061793580246763e+00, 4.938271604926242e-01, 1.024393333333900e-03, 0.000000000000000e+00, 0.000000000000000e+00, 0.000000000000000e+00, 5.177263520523670e+02, 4.630869496387813e+02, -7.423044463875756e+01, 5.864702909237368e+02, 4.451472506978232e+02, -1.812228490960089e+02, 8.491119981580000e+02
172, 1.064262123456633e+00, 5.135802469123186e-01, 1.015080666667261e-03, 0.000000000000000e+00, 0.000000000000000e+00, 0.000000000000000e+00, 5.452726271909221e+01, 3.249459456155430e+02, 1.758925296698631e+02, 8.265815306387306e+02, -1.622170486862200e+02, -3.338012615995043e+02, 9.830786661237357e+02
173, 1.066730666666503e+00, 5.333333333320210e-01, 1.005768000000619e-03, 0.000000000000000e+00, 0.000000000000000e+00, 0.000000000000000e+00, 2.918257332303985e+02, 3.938007856585755e+02, -1.510200454591479e+02, 8.887488621862911e+02, -4.629945311436958e+02, -2.943123481712494e+02, 1.130140305752317e+03
174, 1.069199209876372e+00, 5.530864197517168e-01, 9.964553333339789e-04, 0.000000000000000e+00, 0.000000000000000e+00, 0.000000000000000e+00, -5.343295231887361e+01, 5.652701441688234e+01, -1.038480809215921e+02, 7.359345786964016e+01, 7.108895771859295e+01, -2.136934672194329e+02, 4.458340146171515e+02
175, 1.071667753086241e+00, 5.728395061714107e-01, 9.871426666673401e-04, 0.000000000000000e+00, 0.000000000000000e+00, 0.000000000000000e+00, 6.855236392507854e+01, -1.813934246247940e+02, -1.678806271245456e+00, -1.079054589946748e+02, 1.997711320606550e+02, -2.905245352256986e+01, 4.144532262401205e+02
176, 1.074136296296109e+00, 5.925925925910960e-01, 9.778300000007054e-04, 0.000000000000000e+00, 0.000000000000000e+00, 0.000000000000000e+00, 4.271359451703206e+02, 5.197435860878717e+02, 9.095442909745975e+01, 8.465887212316247e+02, -9.496058988643750e+01, 1.506740717166653e+02, 5.154133947712311e+02
177, 1.076604839505975e+00, 6.123456790107614e-01, 9.685173333340802e-04, 0.000000000000000e+00, 0.000000000000000e+00, 0.000000000000000e+00, 7.004144211953027e+02, 6.967235104666225e+02, 1.529009807086659e+01, 1.793957358657095e+03, -2.413832953569862e+02, 1.394614026210567e+02, 1.197386088046401e+03
178, 1.079073382715845e+00, 6.320987654304605e-01, 9.592046666674390e-04, 0.000000000000000e+00, 0.000000000000000e+00, 0.000000000000000e+00, -7.287915030699149e+01, 3.746191276015590e+01, 2.234984804737222e+01, 1.862318019381875e+01, -4.312558889663415e+01, 1.780007580042364e+02, 3.355326633754178e+02
179, 1.081541925925714e+00, 6.518518518501546e-01, 9.498920000008002e-04, 0.000000000000000e+00, 0.000000000000000e+00, 0.000000000000000e+00, -8.719136201733778e+01, -1.229146570225233e+02, 2.137748165638097e+01, -2.064172224730230e+02, 8.339648266720144e+01, 1.313193298038882e+01, 1.843504058666918e+02
180, 1.084010469135583e+00, 6.716049382698484e-01, 9.405793333341615e-04, 0.000000000000000e+00, 0.000000000000000e+00, 0.000000000000000e+00, 1.371701750176864e+00, 6.224978321899094e+00, 6.789659436357202e+00, -4.861452842151765e+01, 6.287341219367253e+01, 2.054236038972052e+01, 1.266026718502229e+02
181, 1.086479012345452e+00, 6.913580246895424e-01, 9.312666666675227e-04, 0.000000000000000e+00, 0.000000000000000e+00, 0.000000000000000e+00, 9.053652895416189e+01, 2.457996282262366e+01, -2.625506844031087e+01, -5.306752401998865e+01, 1.440523436530826e+02, -4.887109363817729e+01, 2.949358113253599e+02
182, 1.088947555555322e+00, 7.111111111092410e-01, 9.219540000008817e-04, 0.000000000000000e+00, 0.000000000000000e+00, 0.000000000000000e+00, 1.340975492184795e+02, 4.896728099120801e+01, -6.636260181349408e+00, 5.098141177049178e+01, 1.932901361950399e+02, -5.835268032846061e+01, 3.598752725608964e+02
183, 1.091416098765192e+00, 7.308641975289409e-01, 9.126413333342400e-04, 0.000000000000000e+00, 0.000000000000000e+00, 0.000000000000000e+00, 6.700744133134342e+02, 5.349517965345989e+02, 1.551882971118325e+01, 5.381165593944638e+02, 1.302029069441506e+02, -2.037032516820254e+02, 4.403480937218158e+02
184, 1.093884641975061e+00, 7.506172839486349e-01, 9.033286666676012e-04, 0.000000000000000e+00, 0.000000000000000e+00, 0.000000000000000e+00, 9.179870544513542e+02, 8.709342732648895e+02, -8.325658152699026e+01, 1.658151380903651e+03, 1.782930851840615e+02, -2.817790668668139e+02, 9.691452728118636e+02
185, 1.096353185184930e+00, 7.703703703683288e-01, 8.940160000009624e-04, 0.000000000000000e+00, 0.000000000000000e+00, 0.000000000000000e+00, -4.091024169225784e+01, -5.774519903747562e+01, -4.827197002259280e+01, -6.333251973057972e+01, 2.270096856285695e+00, -1.786629639602285e+02, 3.212103198977954e+02
186, 1.098821728394800e+00, 7.901234567880284e-01, 8.847033333343210e-04, 0.000000000000000e+00, 0.000000000000000e+00, 0.000000000000000e+00, 1.213035059009756e+01, -1.144841058076126e+01, -1.686944287682938e+01, 2.551467139510006e+01, 1.992416715104296e+01, -3.380924211945076e+01, 8.077456222379536e+01
187, 1.101290271604676e+00, 8.098765432077815e-01, 8.753906666676544e-04, 0.000000000000000e+00, 0.000000000000000e+00, 0.000000000000000e+00, -3.547982403502326e+01, 1.366121372087273e+01, 1.354185336426811e+01, 2.519631168068508e+01, -5.639420213368216e+01, -1.159317569860908e+00, 1.149340780326494e+02
188, 1.103758814814559e+00, 8.296296296275809e-01, 8.660780000009659e-04, 0.000000000000000e+00, 0.000000000000000e+00, 0.000000000000000e+00, -9.529095247455413e+01, -7.630158028488096e+01, 1.081702287798542e+01, -1.758843148079675e+01, -1.155876330116068e+02, 3.486889704851460e+01, 2.213657664259830e+02
189, 1.106227358024442e+00, 8.493827160473897e-01, 8.567653333342729e-04, 0.000000000000000e+00, 0.000000000000000e+00, 0.000000000000000e+00, -5.157598118149942e+00, 9.525706700193658e+01, 3.796914175204385e+01, 2.324936838640036e+02, -1.622763868814892e+02, 6.458836185676243e+01, 3.722074378078116e+02
190, 1.108695901234324e+00, 8.691358024671848e-01, 8.474526666675864e-04, 0.000000000000000e+00, 0.000000000000000e+00, 0.000000000000000e+00, 1.974809115211401e+02, 2.351209550898402e+02, -3.474179310678807e-01, 5.167604328017721e+02, -1.392120226930992e+02, 4.988235210734790e+01, 3.961610298064401e+02
191, 1.111164444444207e+00, 8.888888888869888e-01, 8.381400000008958e-04, 0.000000000000000e+00, 0.000000000000000e+00, 0.000000000000000e+00, 2.707036544230922e+02, -1.052498582817657e+01, -6.666291600925771e+01, 4.905121414201676e+01, 1.578679190926097e+02, 3.004904917857807e+02, 6.518179329390656e+02
192, 1.113632987654093e+00, 9.086419753068160e-01, 8.288273333341941e-04, 0.000000000000000e+00, 0.000000000000000e+00, 0.000000000000000e+00, -1.405612238422975e+02, -3.878646930231438e+02, 1.162574440383578e+02, -9.833109859024921e+02, 3.307572364798644e+02, 2.939798861306839e+02, 1.091325879925512e+03
193, 1.116101530863975e+00, 9.283950617266128e-01, 8.195146666675069e-04, 0.000000000000000e+00, 0.000000000000000e+00, 0.000000000000000e+00, -5.748794716787700e+01, -4.641109361202663e+01, 5.094723515503235e+01, -1.576444298322936e+02, -1.622678936596188e+01, 1.533490970902845e+02, 3.006460735149771e+02
194, 1.118570074073857e+00, 9.481481481464080e-01, 8.102020000008204e-04, 0.000000000000000e+00, 0.000000000000000e+00, 0.000000000000000e+00, -4.942257946766988e+01, -1.193111264491422e+01, 2.351590624683252e+01, 1.976829520048995e+01, -1.289647097592679e+02, 4.499268074940295e+01, 2.474401471721337e+02
195, 1.121038617283741e+00, 9.679012345662269e-01, 8.008893333341226e-04, 0.000000000000000e+00, 0.000000000000000e+00, 0.000000000000000e+00, -8.635533387840667e+01, -2.505458480100534e+01, -7.697322834056573e+00, -5.767652526291247e+00, -7.837554733089107e+01, 3.036787151530788e+01, 1.633542758719865e+02
196, 1.123507160493625e+00, 9.876543209860357e-01, 7.915766666674298e-04, 0.000000000000000e+00, 0.000000000000000e+00, 0.000000000000000e+00, -1.190676047314100e+02, -1.939721890039478e+02, -2.458584385823160e+01, -4.306106943874429e+02, 1.850012946727630e+02, 1.885959497943185e+01, 4.299891499312810e+02
197, 1.125975703703507e+00, 1.007407407405836e+00, 7.822640000007408e-04, 0.000000000000000e+00, 0.000000000000000e+00, 0.000000000000000e+00, -5.639250557382699e+01, -1.336430803275791e+02, 2.837795945715312e+01, -2.923612395306191e+02, 1.615357714192887e+02, 1.953173784059329e+01, 3.539236963316096e+02
198, 1.128444246913392e+00, 1.027160493825656e+00, 7.729513333340425e-04, 0.000000000000000e+00, 0.000000000000000e+00, 0.000000000000000e+00, 6.748785804357937e+00, 1.101076285949023e+02, 1.346828811201502e+02, 6.131869053518074e+02, -2.960893355608932e+02, 2.235253488804998e+02, 8.849211066746818e+02
199, 1.130912790123274e+00, 1.046913580245453e+00, 7.636386666673552e-04, 0.000000000000000e+00, 0.000000000000000e+00, 0.000000000000000e+00, 4.596665634608301e+02, 1.007885686676489e+03, -1.249124027634717e+01, 1.557253056310073e+03, -6.849230094643355e+02, 4.806096142595379e+00, 1.520334958880329e+03
200, 1.133381333333154e+00, 1.066666666665229e+00, 7.543260000006779e-04, 0.000000000000000e+00, 0.000000000000000e+00, 0.000000000000000e+00, 4.116733657453184e+02, 2.962819188091996e+02, -7.631587771038380e+01, 7.010585969320371e+02, -9.758199460232795e+01, -8.569811812141768e+01, 4.455593759938880e+02
201, 1.135849876543040e+00, 1.086419753085063e+00, 7.450133333339732e-04, 0.000000000000000e+00, 0.000000000000000e+00, 0.000000000000000e+00, -3.718217714717569e+01, -8.283512012670332e+01, 5.292878659336810e+01, -9.977537925610270e+01, -9.698115755610553e+01, 5.981605743968553e+01, 2.247194307632181e+02
202, 1.138318419752924e+00, 1.106172839504876e+00, 7.357006666672781e-04, 0.000000000000000e+00, 0.000000000000000e+00, 0.000000000000000e+00, -1.284890307325618e+02, -2.970800918900409e+00, 7.020360830776440e-01, 1.863897767755093e+01, -1.702949545044558e+02, 2.398340953106257e+01, 3.281195432366813e+02
203, 1.140786962962802e+00, 1.125925925924641e+00, 7.263880000006059e-04, 0.000000000000000e+00, 0.000000000000000e+00, 0.000000000000000e+00, 1.756512903860258e+00, -2.743695371029084e+01, -2.430901737965087e+01, -7.159702685957343e+01, 3.285842534181579e+01, -4.476153726491311e+01, 1.229396402928761e+02
204, 1.143255506172688e+00, 1.145679012344470e+00, 7.170753333339035e-04, 0.000000000000000e+00, 0.000000000000000e+00, 0.000000000000000e+00, 2.208308046880073e+01, -6.938852854902638e+01, 7.808162679249563e+00, -1.028296140061223e+02, 1.388556630113233e+02, 3.990495475553947e+01, 2.744942171581519e+02
205, 1.145724049382574e+00, 1.165432098764296e+00, 7.077626666672021e-04, 0.000000000000000e+00, 0.000000000000000e+00, 0.000000000000000e+00, -4.943812257808513e+02, -3.013554721535338e+02, 2.947593352812011e+02, 3.075477176409818e+02, -5.804325595052439e+02, 5.414819780280468e+02, 1.636007119910138e+03
206, 1.148192592592453e+00, 1.185185185184070e+00, 6.984500000005255e-04, 0.000000000000000e+00, 0.000000000000000e+00, 0.000000000000000e+00, 1.555895317189457e+02, 1.154764464381696e+03, 2.389834882548456e+01, 1.972716315410886e+03, -1.505379889507697e+03, 5.001871774516431e+01, 3.048343420145462e+03
207, 1.150661135802338e+00, 1.204938271603893e+00, 6.891373333338264e-04, 0.000000000000000e+00, 0.000000000000000e+00, 0.000000000000000e+00, 2.087216217492385e+02, 2.999735148423802e+02, -2.044614895810547e+02, 1.105596790884970e+03, -8.217562965168863e+02, -3.919280083774631e+02, 1.828375466354270e+03
208, 1.153129679012219e+00, 1.224691358023680e+00, 6.798246666671436e-04, 0.000000000000000e+00, 0.000000000000000e+00, 0.000000000000000e+00, 2.828583841713345e+01, 6.160255570214155e+00, -5.082687468131491e+00, -3.083501074573204e+01, 7.539323019314170e+01, -4.060552846157241e+01, 1.573311107614001e+02
209, 1.155598222222100e+00, 1.244444444443465e+00, 6.705120000004618e-04, 0.000000000000000e+00, 0.000000000000000e+00, 0.000000000000000e+00, 1.377735162973660e+01, -2.822833949445511e+01, -1.352299433220147e+01, -8.396798538753825e+01, 6.717341407783331e+01, -3.230229347926675e+01, 1.562961927100863e+02
210, 1.158066765431986e+00, 1.264197530863295e+00, 6.611993333337590e-04, 0.000000000000000e+00, 0.000000000000000e+00, 0.000000000000000e+00, 7.255559955094991e+00, -2.664747846980028e+01, -1.520727600859892e+01, -1.307585228110622e+02, 1.052351532294069e+02, -5.122862160257306e+01, 2.393917656799836e+02
211, 1.160535308641870e+00, 1.283950617283105e+00, 6.518866666670653e-04, 0.000000000000000e+00, 0.000000000000000e+00, 0.000000000000000e+00, 7.730439939247397e+01, -2.745636331940833e+01, -4.730509091452491e+01, -1.944475726374690e+02, 2.198950048229629e+02, -8.844681596062333e+01, 4.812465895215336e+02
212, 1.163003851851750e+00, 1.303703703702888e+00, 6.425740000003847e-04, 0.000000000000000e+00, 0.000000000000000e+00, 0.000000000000000e+00, -4.179065932174669e+01, -1.487164525038511e+02, 1.474172209288797e+00, -3.283696335112232e+02, 2.459969876538490e+02, -6.213016120533200e+01, 5.060123454227224e+02
213, 1.165472395061636e+00, 1.323456790122716e+00, 6.332613333336825e-04, 0.000000000000000e+00, 0.000000000000000e+00, 0.000000000000000e+00, -5.140262527023638e+01, -8.459829046630372e+01, 5.937069219503410e-01, -2.094750874192964e+02, 9.978329443785589e+01, -1.936629462290471e+01, 2.276793140802731e+02
214, 1.167940938271520e+00, 1.343209876542528e+00, 6.239486666669881e-04, 0.000000000000000e+00, 0.000000000000000e+00, 0.000000000000000e+00, -5.102188516704084e+01, -9.408858440669589e+01, 1.207619697900520e+01, -1.001476446731019e+02, -9.054764844182497e+00, 6.211755424680236e+01, 1.200484821114783e+02
215, 1.170409481481399e+00, 1.362962962962305e+00, 6.146360000003102e-04, 0.000000000000000e+00, 0.000000000000000e+00, 0.000000000000000e+00, 1.190699769663892e+02, 1.531940927871691e+02, 1.717054066217060e+02, 7.985720833351119e+02, -5.855304924191485e+02, 4.477051216948544e+02, 1.469015282386304e+03
216, 1.172878024691286e+00, 1.382716049382139e+00, 6.053233333336055e-04, 0.000000000000000e+00, 0.000000000000000e+00, 0.000000000000000e+00, 2.275603457703315e+02, 5.792298823316659e+02, 5.981321551406523e+00, 1.212332203274067e+03, -1.876295830370852e+02, 6.154453308049115e+02, 1.410380653253885e+03
217, 1.175346567901171e+00, 1.402469135801959e+00, 5.960106666669070e-04, 0.000000000000000e+00, 0.000000000000000e+00, 0.000000000000000e+00, 5.954246921714981e+02, 3.417397887326475e+02, 1.595220185703295e+02, 5.970502150730490e+02, 1.538457812838840e+02, 4.108701297802942e+02, 8.476799102831393e+02
218, 1.177815111111048e+00, 1.422222222221721e+00, 5.866980000002365e-04, 0.000000000000000e+00, 0.000000000000000e+00, 0.000000000000000e+00, 2.883391451739394e+01, 3.964890627813912e+02, -6.632066487351969e+00, 5.054284577837807e+02, -4.846033609118979e+02, 4.484902015428821e+01, 9.475113393597467e+02
219, 1.180283654320933e+00, 1.441975308641540e+00, 5.773853333335385e-04, 0.000000000000000e+00, 0.000000000000000e+00, 0.000000000000000e+00, 3.388117399571320e+01, 3.849530225244804e+01, -6.689424293817046e+01, 3.371244730807578e+02, -2.619456964711513e+02, -2.045250067302944e+02, 6.598038975276980e+02
220, 1.182752197530820e+00, 1.461728395061374e+00, 5.680726666668338e-04, 0.000000000000000e+00, 0.000000000000000e+00, 0.000000000000000e+00, 2.233811945142403e+02, 2.160727618871742e+02, 5.588987179610125e+01, 6.007341595851046e+02, -3.864789837145577e+01, 1.153159036650927e+02, 4.460401534897023e+02
221, 1.185220740740700e+00, 1.481481481481152e+00, 5.587600000001555e-04, 0.000000000000000e+00, 0.000000000000000e+00, 0.000000000000000e+00, 6.698340211348510e+02, 9.567565236634439e+02, 6.565262350739334e+01, 1.823621490915753e+03, -2.971187878966755e+02, 6.368647782185311e+01, 1.171511794785207e+03
222, 1.187689283950583e+00, 1.501234567900963e+00, 5.494473333334615e-04, 0.000000000000000e+00, 0.000000000000000e+00, 0.000000000000000e+00, 1.203215681314832e+02, 1.486598563812576e+02, -5.310957897908170e+01, 4.318500480114595e+02, -3.327453673123927e+02, 1.002812826406109e+02, 6.780960079384961e+02
223, 1.190157827160469e+00, 1.520987654320791e+00, 5.401346666667592e-04, 0.000000000000000e+00, 0.000000000000000e+00, 0.000000000000000e+00, 2.523105448777626e+02, 2.386694162469497e+02, 1.836637518209996e+01, 3.264814769974881e+02, 1.028607579472519e+01, -6.724321795671753e+01, 1.469473209991291e+02
224, 1.192626370370350e+00, 1.540740740740574e+00, 5.308220000000784e-04, 0.000000000000000e+00, 0.000000000000000e+00, 0.000000000000000e+00, 4.900786852969325e+02, 5.371457814314806e+02, 4.961116202105983e+01, 1.110256661984467e+03, -2.384394772132930e+02, -6.968794129773780e+00, 7.319396868628287e+02
225, 1.195094913580233e+00, 1.560493827160384e+00, 5.215093333333851e-04, 0.000000000000000e+00, 0.000000000000000e+00, 0.000000000000000e+00, 3.734772660112424e+01, 1.437447035273267e+02, -8.412194055028422e+01, 2.377430713839489e+02, -3.765146242662041e+02, -2.274614540308007e+01, 6.915407456770561e+02
226, 1.197563456790119e+00, 1.580246913580214e+00, 5.121966666666823e-04, 0.000000000000000e+00, 0.000000000000000e+00, 0.000000000000000e+00, 5.209937864741919e+02, 4.482972040037791e+02, -1.279601754777034e+02, 4.934890639714135e+02, 3.272651690212066e+02, -3.047546156527867e+02, 8.081440607394250e+02
227, 8.888888888872742e-03, 1.777777777774548e-02, 0.000000000000000e+00, 0.000000000000000e+00, 0.000000000000000e+00, 0.000000000000000e+00, 2.024839651469994e+02, 9.012093091763801e+01, 4.190026262744931e+01, 2.855398247698657e+00, -2.679323280313458e+01, -1.473851093954587e+01, 1.952391963691068e+02
228, 1.777777777774575e-02, 3.555555555549150e-02, 0.000000000000000e+00, 0.000000000000000e+00, 0.000000000000000e+00, 0.000000000000000e+00, 1.018449707310908e+03, 3.369939836117062e+02, 8.818347387336833e+01, 2.259570013001671e+02, -1.675564886175575e+02, -4.925072219982501e+01, 8.168288123468814e+02
229, 2.666666666661772e-02, 5.333333333323544e-02, 0.000000000000000e+00, 0.000000000000000e+00, 0.000000000000000e+00, 0.000000000000000e+00, 1.853981547475466e+03, 5.671707123215161e+02, -2.974854168295311e+01, 6.833993072802318e+02, -3.845305652433058e+02, -5.670921939571879e+01, 1.405603428110966e+03
230, 3.555555555548786e-02, 7.111111111097572e-02, 0.000000000000000e+00, 0.000000000000000e+00, 0.000000000000000e+00, 0.000000000000000e+00, 2.122280916072195e+03, 9.726119875604973e+02, -4.594136754906543e+01, 1.452806808212176e+03, -5.922713852840491e+02, -1.337851705324355e+02, 1.453493746401863e+03
231, 4.444444444435731e-02, 8.888888888871462e-02, 0.000000000000000e+00, 0.000000000000000e+00, 0.000000000000000e+00, 0.000000000000000e+00, 1.939132391827483e+03, 1.172765903910626e+03, 3.524222115825570e+01, 2.441255288250668e+03, -1.091745999778703e+03, 8.203786004301723e+01, 2.196337819085469e+03
232, 5.333333333323104e-02, 1.066666666664621e-01, 0.000000000000000e+00, 0.000000000000000e+00, 0.000000000000000e+00, 0.000000000000000e+00, 1.583371929615777e+03, 1.216915740649944e+03, -5.928696680184812e+01, 2.340377815023427e+03, -1.119288311107747e+03, 5.522929705258681e+02, 2.380925013537013e+03
233, 6.222222222210727e-02, 1.244444444442145e-01, 0.000000000000000e+00, 0.000000000000000e+00, 0.000000000000000e+00, 0.000000000000000e+00, 1.078066383149051e+03, 1.105029579856710e+03, -3.608894586080955e+01, 1.734725477570770e+03, -4.069127736329556e+02, 3.357007669557262e+02, 1.119351963777122e+03
234, 7.111111111098498e-02, 1.422222222219700e-01, 0.000000000000000e+00, 0.000000000000000e+00, 0.000000000000000e+00, 0.000000000000000e+00, 7.621338349216325e+02, 7.664802287257572e+02, 3.777093141881433e+02, 2.127198459378960e+03, -1.072457328313545e+03, 7.567943977422449e+01, 2.398573844121812e+03
235, 7.999999999985991e-02, 1.599999999997198e-01, 0.000000000000000e+00, 0.000000000000000e+00, 0.000000000000000e+00, 0.000000000000000e+00, 5.197268654897466e+02, 2.597829164279266e+02, 9.198325315165276e+01, 2.186549739313783e+03, -1.233907818990700e+03, 6.539691898444783e+02, 3.025747056057899e+03
236, 8.888888888873754e-02, 1.777777777774751e-01, 0.000000000000000e+00, 0.000000000000000e+00, 0.000000000000000e+00, 0.000000000000000e+00, 9.660362411381235e+02, 1.281162307743160e+03, 1.956907537138573e+01, 2.200241278364481e+03, -6.767892553565802e+02, 4.517546360043598e+02, 1.794759878392907e+03
237, 9.777777777761074e-02, 1.955555555552215e-01, 0.000000000000000e+00, 0.000000000000000e+00, 0.000000000000000e+00, 0.000000000000000e+00, 8.901101565353712e+02, 1.048321372936050e+03, 2.705803745138974e+02, 2.124963248705054e+03, -1.031724164844216e+03, 3.702785430047065e+02, 2.275708551388665e+03
238, 1.066666666664787e-01, 2.133333333329575e-01, 0.000000000000000e+00, 0.000000000000000e+00, 0.000000000000000e+00, 0.000000000000000e+00, -7.194341692887323e+02, -2.009413528955707e+02, 3.813931512362732e+02, 1.253148305808480e+03, -6.933353669840358e+02, 4.988964266670486e+02, 2.400492348043818e+03
239, 1.155555555553421e-01, 2.311111111106842e-01, 0.000000000000000e+00, 0.000000000000000e+00, 0.000000000000000e+00, 0.000000000000000e+00, 6.649996318214860e+02, 8.286884544745228e+02, 7.789260014812265e+01, 2.219051176254335e+03, -5.426882861604413e+02, 1.456838136800080e+02, 1.775639092200649e+03
240, 1.244444444442055e-01, 2.488888888884110e-01, 0.000000000000000e+00, 0.000000000000000e+00, 0.000000000000000e+00, 0.000000000000000e+00, -3.930774646488467e+02, 5.785502916145274e+02, 3.295470864563600e+02, 1.949682236819290e+03, -8.726798134771581e+02, 6.027377281871084e+02, 2.802977967703352e+03
241, 1.333333333330689e-01, 2.666666666661378e-01, 0.000000000000000e+00, 0.000000000000000e+00, 0.000000000000000e+00, 0.000000000000000e+00, 3.099895168434905e+02, 1.863314242243050e+02, 5.156828151312328e+02, 1.577368223629148e+03, -9.230952037228801e+02, 3.658778655030603e+02, 2.352437489936765e+03
242, 1.422222222219322e-01, 2.844444444438645e-01, 0.000000000000000e+00, 0.000000000000000e+00, 0.000000000000000e+00, 0.000000000000000e+00, 2.050927561980529e+02, 1.411465797667656e+02, 2.106079684470797e+02, 1.340363261741426e+03, -8.896462888952996e+02, 1.082212099862313e+02, 1.976901272271837e+03
243, 1.511111111107892e-01, 3.022222222215785e-01, 0.000000000000000e+00, 0.000000000000000e+00, 0.000000000000000e+00, 0.000000000000000e+00, 4.347068103046166e+02, 5.971877050688446e+02, 1.836181947272667e+02, 1.460386638572810e+03, -7.322802146969127e+02, 4.108808167385455e+02, 1.768639243753964e+03
244, 1.599999999996481e-01, 3.199999999992962e-01, 0.000000000000000e+00, 0.000000000000000e+00, 0.000000000000000e+00, 0.000000000000000e+00, 6.324632330856748e+02, 7.528056224577439e+02, 2.348195175375886e+02, 1.441371226921076e+03, -7.185314736699722e+02, 1.381994122193239e+02, 1.530702060636346e+03
245, 1.688888888885115e-01, 3.377777777770230e-01, 0.000000000000000e+00, 0.000000000000000e+00, 0.000000000000000e+00, 0.000000000000000e+00, 7.428327274391892e+02, 8.724215805663232e+02, 6.056659588452419e+01, 2.419719066589660e+03, -9.349693274412838e+02, 1.014868411980191e+02, 2.296920088282873e+03
246, 1.777777777773749e-01, 3.555555555547498e-01, 0.000000000000000e+00, 0.000000000000000e+00, 0.000000000000000e+00, 0.000000000000000e+00, 4.049737791625306e+02, 7.865218426318735e+02, 5.053527801178791e+02, 2.939510107160408e+03, -8.927721808333984e+02, 3.685625776066011e+02, 3.027737078001097e+03
247, 1.866666666662383e-01, 3.733333333324766e-01, 0.000000000000000e+00, 0.000000000000000e+00, 0.000000000000000e+00, 0.000000000000000e+00, -2.856208640436230e+02, 5.505736046180382e+02, 7.097451297936536e+02, 3.303989571544992e+03, -1.822070101230095e+03, 4.434209499829998e+02, 4.758551366083644e+03
248, 1.955555555551017e-01, 3.911111111102033e-01, 0.000000000000000e+00, 0.000000000000000e+00, 0.000000000000000e+00, 0.000000000000000e+00, 3.572419934742064e+02, 8.364296454056283e+02, 5.613220792728737e+02, 3.561410269883858e+03, -6.900451596389092e+02, 7.586244234142489e+02, 3.614026109619352e+03
249, 2.044444444439650e-01, 4.088888888879301e-01, 0.000000000000000e+00, 0.000000000000000e+00, 0.000000000000000e+00, 0.000000000000000e+00, 2.485855137167616e+02, 6.598769944882598e+02, 2.764918902956023e+02, 2.108976223058605e+03, -8.981662408989631e+02, 5.196552967349112e+02, 2.514881188296037e+03
250, 2.133333333328284e-01, 4.266666666656568e-01, 0.000000000000000e+00, 0.000000000000000e+00, 0.000000000000000e+00, 0.000000000000000e+00, 5.119066952865041e+02, 5.988331578292402e+02, 2.180214270353962e+02, 1.860007208926752e+03, -9.974882610708457e+02, 3.802441780488955e+02, 2.295441356612452e+03
251, 2.222222222216918e-01, 4.444444444433835e-01, 0.000000000000000e+00, 0.000000000000000e+00, 0.000000000000000e+00, 0.000000000000000e+00, 3.768110404131818e+02, 4.238297113155704e+02, 1.374909890889063e+02, 1.254860884120088e+03, -2.971683932251142e+02, 2.286977191855517e+02, 1.100201783824198e+03
252, 2.311111111105552e-01, 4.622222222211103e-01, 0.000000000000000e+00, 0.000000000000000e+00, 0.000000000000000e+00, 0.000000000000000e+00, 5.013650483016582e+02, 2.682443071146636e+02, -1.030670469447981e+01, 5.491988700775045e+02, -3.179774256925538e+02, 2.616032161197625e+02, 7.594344953656154e+02
253, 2.399999999994185e-01, 4.799999999988370e-01, 0.000000000000000e+00, 0.000000000000000e+00, 0.000000000000000e+00, 0.000000000000000e+00, -1.065699100406849e+03, -6.691284238148962e+02, 2.650629151800655e+02, -3.362270806996591e+02, 5.917765148715460e+01, -1.101589754747806e+02, 8.110465748703565e+02
254, 2.488888888882819e-01, 4.977777777765638e-01, 0.000000000000000e+00, 0.000000000000000e+00, 0.000000000000000e+00, 0.000000000000000e+00, 5.053272096477228e+02, 4.845054727266618e+02, 2.059279704198455e+02, 1.255622747583855e+03, -5.162523227984648e+02, -2.743063070323524e+01, 1.228016727561032e+03
255, 2.577777777771453e-01, 5.155555555542906e-01, 0.000000000000000e+00, 0.000000000000000e+00, 0.000000000000000e+00, 0.000000000000000e+00, 2.769907558324983e+02, 3.410473500953127e+02, 3.430962593409506e+02, 1.640838413292990e+03, -8.381014879473875e+02, 2.817078581541851e+02, 2.115487092339818e+03
256, 2.666666666660087e-01, 5.333333333320174e-01, 0.000000000000000e+00, 0.000000000000000e+00, 0.000000000000000e+00, 0.000000000000000e+00, 1.442056710789053e+03, 1.356206850855617e+03, 3.053102503977184e+02, 3.922099743281816e+03, -1.257803325899208e+03, -7.442128651727160e+00, 3.375931250957959e+03
257, 2.755555555548720e-01, 5.511111111097441e-01, 0.000000000000000e+00, 0.000000000000000e+00, 0.000000000000000e+00, 0.000000000000000e+00, 1.224550565037492e+03, 2.002273620183706e+03, -7.813784104223257e+01, 3.598441733762540e+03, -7.730024348481438e+02, 1.054509483604285e+03, 3.088829576330993e+03
258, 2.844444444437355e-01, 5.688888888874709e-01, 0.000000000000000e+00, 0.000000000000000e+00, 0.000000000000000e+00, 0.000000000000000e+00, 3.539666079717830e+02, 1.618883290762967e+02, 3.783054840702694e+02, 9.791529760151002e+02, -3.921266990386314e+02, 2.230529611726971e+02, 1.260051512505253e+03
259, 2.933333333325988e-01, 5.866666666651975e-01, 0.000000000000000e+00, 0.000000000000000e+00, 0.000000000000000e+00, 0.000000000000000e+00, 1.085434753981635e+03, 6.285315104411939e+02, -1.794367315825285e+01, 1.276714752857222e+03, -6.660637853929720e+02, 8.869902303771185e+01, 1.299321530167609e+03
260, 3.022222222214475e-01, 6.044444444428949e-01, 0.000000000000000e+00, 0.000000000000000e+00, 0.000000000000000e+00, 0.000000000000000e+00, 8.160074064879708e+02, 6.725631442387682e+02, -2.756598082988693e+01, 1.052654078202329e+03, -3.786307946260260e+02, 3.266314706051215e+02, 9.289517476312955e+02
261, 3.111111111103038e-01, 6.222222222206076e-01, 0.000000000000000e+00, 0.000000000000000e+00, 0.000000000000000e+00, 0.000000000000000e+00, 8.589237539097609e+02, 5.201958775940315e+02, -1.515262342198890e+02, 8.858205864270604e+02, -2.843198323513452e+02, 4.992339852609113e-01, 6.602767363993842e+02
262, 3.199999999991672e-01, 6.399999999983343e-01, 0.000000000000000e+00, 0.000000000000000e+00, 0.000000000000000e+00, 0.000000000000000e+00, 5.559854392343447e+02, 7.073339734130745e+02, -1.207943183765050e+02, 9.746622250838000e+02, -5.927947748512396e+02, 4.533948873029743e+02, 1.359971330874538e+03
263, 3.288888888880305e-01, 6.577777777760609e-01, 0.000000000000000e+00, 0.000000000000000e+00, 0.000000000000000e+00, 0.000000000000000e+00, 1.007239098493331e+03, 9.542499765671764e+02, -2.905892217004024e+02, 1.106907552651426e+03, -3.565055726178040e+02, 4.021079748491520e+02, 1.066635091868903e+03
264, 3.377777777768938e-01, 6.755555555537875e-01, 0.000000000000000e+00, 0.000000000000000e+00, 0.000000000000000e+00, 0.000000000000000e+00, 9.178984679681736e+02, 9.003504554450215e+02, -4.009110200923217e+01, 1.354200327088460e+03, -4.533986229937780e+02, 7.882291567114885e+01, 9.156939745278755e+02
265, 3.466666666657571e-01, 6.933333333315143e-01, 0.000000000000000e+00, 0.000000000000000e+00, 0.000000000000000e+00, 0.000000000000000e+00, 4.492792003468427e+02, 5.506616365309110e+02, -2.298875440585370e+00, 1.010550903039077e+03, -3.626665629365776e+02, 3.518229840990009e+02, 1.017023317604902e+03
266, 3.555555555546204e-01, 7.111111111092409e-01, 0.000000000000000e+00, 0.000000000000000e+00, 0.000000000000000e+00, 0.000000000000000e+00, 6.569371749064516e+02, 5.555643525121047e+02, 3.517110593378640e+01, 9.403221948210196e+02, -4.753869205521133e+02, 8.119246208491292e+01, 9.059673826343334e+02
267, 3.644444444434838e-01, 7.288888888869677e-01, 0.000000000000000e+00, 0.000000000000000e+00, 0.000000000000000e+00, 0.000000000000000e+00, -6.687116307858709e+00, 4.675967539695890e+02, 2.612409244448817e+02, 1.857409634305523e+03, -6.084700253808215e+02, 2.533435909406700e+01, 2.032993883470282e+03
268, 3.733333333323472e-01, 7.466666666646944e-01, 0.000000000000000e+00, 0.000000000000000e+00, 0.000000000000000e+00, 0.000000000000000e+00, 7.979902973181743e+02, 9.591367332698703e+02, 1.202272505509904e+02, 2.062406721292741e+03, -5.937972172073379e+02, 6.205658334830495e+02, 1.917658965673641e+03
269, 3.822222222212105e-01, 7.644444444424210e-01, 0.000000000000000e+00, 0.000000000000000e+00, 0.000000000000000e+00, 0.000000000000000e+00, 7.226513934558236e+02, 5.539458481248189e+02, 7.790015956293939e+01, 1.332840659777560e+03, -6.258887575010083e+02, 1.892692667419503e+02, 1.343361044383450e+03
270, 3.911111111100738e-01, 7.822222222201476e-01, 0.000000000000000e+00, 0.000000000000000e+00, 0.000000000000000e+00, 0.000000000000000e+00, 1.148055233579775e+03, 1.235224365942457e+03, -2.482295816303347e+02, 1.807137557100300e+03, -5.640388433010079e+02, 5.335430299937083e+02, 1.542016229787463e+03
271, 3.999999999989480e-01, 7.999999999978961e-01, 0.000000000000000e+00, 0.000000000000000e+00, 0.000000000000000e+00, 0.000000000000000e+00, 1.055079197116456e+03, 1.070223855560928e+03, -1.223606970549306e+02, 1.363800735356976e+03, -5.048438416245879e+02, 3.226131897938796e+02, 1.101189816116620e+03
272, 4.088888888878469e-01, 8.177777777756937e-01, 0.000000000000000e+00, 0.000000000000000e+00, 0.000000000000000e+00, 0.000000000000000e+00, -9.728695612507370e+02, -4.161054827015983e+02, 3.990610042121787e+02, 3.800833344890174e+02, -1.863631332889471e+02, -6.744760625280897e+01, 1.408113081858252e+03
273, 4.177777777767657e-01, 8.355555555535313e-01, 0.000000000000000e+00, 0.000000000000000e+00, 0.000000000000000e+00, 0.000000000000000e+00, 7.622179601229171e+02, 6.406983506579709e+02, 1.995449776900557e+02, 1.346546928765815e+03, -4.539219034600050e+02, 2.258958500517656e+02, 1.147994542690161e+03
274, 4.266666666656769e-01, 8.533333333313537e-01, 0.000000000000000e+00, 0.000000000000000e+00, 0.000000000000000e+00, 0.000000000000000e+00, 2.309350106244809e+03, 1.667292878296010e+03, 3.133709342616373e+02, 3.378245441694079e+03, -1.310922429980507e+03, -2.802560101042179e+02, 2.815466901128319e+03
275, 4.355555555545865e-01, 8.711111111091731e-01, 0.000000000000000e+00, 0.000000000000000e+00, 0.000000000000000e+00, 0.000000000000000e+00, 1.432024108142216e+02, 7.734979548606492e+02, 1.499981724996643e+02, 3.316281001776786e+03, -1.725919721738182e+03, 1.059278907998727e+03, 4.564628500566501e+03
276, 4.444444444434973e-01, 8.888888888869947e-01, 0.000000000000000e+00, 0.000000000000000e+00, 0.000000000000000e+00, 0.000000000000000e+00, -3.204538025570971e+02, 4.925305183962300e+02, 7.217751425671684e+02, 2.468563266266307e+03, -1.474961677465913e+03, 5.223614864102506e+02, 3.883314441967909e+03
277, 4.533333333324165e-01, 9.066666666648331e-01, 0.000000000000000e+00, 0.000000000000000e+00, 0.000000000000000e+00, 0.000000000000000e+00, 5.915602089177057e+02, 7.237937463869674e+02, 1.622599900176907e+01, 2.249167238198170e+03, -6.690265149920600e+02, 5.825258872494968e+02, 2.215297731931645e+03
278, 4.622222222213262e-01, 9.244444444426524e-01, 0.000000000000000e+00, 0.000000000000000e+00, 0.000000000000000e+00, 0.000000000000000e+00, 2.577706106962656e+02, 6.769780639767517e+02, -5.833862939794884e+00, 1.312366114558568e+03, -5.071588879121739e+02, 3.191930166907757e+02, 1.386793903428026e+03
279, 4.711111111102358e-01, 9.422222222204717e-01, 0.000000000000000e+00, 0.000000000000000e+00, 0.000000000000000e+00, 0.000000000000000e+00, 8.636021100994060e+02, 6.340072622892078e+02, 1.188415347714987e+02, 1.272686997866318e+03, -3.919450869048816e+02, 9.649691618810007e+01, 9.193235399994675e+02
280, 4.799999999991541e-01, 9.599999999983082e-01, 0.000000000000000e+00, 0.000000000000000e+00, 0.000000000000000e+00, 0.000000000000000e+00, 1.514406171795790e+03, 1.264454038432093e+03, 3.589070581162819e+01, 1.776962979056136e+03, -5.192050340488522e+02, 2.377909950307463e+02, 1.085936684390398e+03
281, 4.888888888880659e-01, 9.777777777761317e-01, 0.000000000000000e+00, 0.000000000000000e+00, 0.000000000000000e+00, 0.000000000000000e+00, 1.267200239435259e+03, 7.119595998799182e+02, -4.612489899326879e+01, 2.033748922585771e+03, -6.656359164804023e+02, 4.078409121018946e+01, 1.631592503559470e+03
282, 4.977777777769756e-01, 9.955555555539513e-01, 0.000000000000000e+00, 0.000000000000000e+00, 0.000000000000000e+00, 0.000000000000000e+00, 5.593995824756869e+02, 1.268117136946867e+03, -2.320818765964635e+02, 2.176455359454128e+03, -9.523189040750235e+02, 7.465413603721140e+02, 2.554487429587317e+03
283, 5.066666666658859e-01, 1.013333333331772e+00, 0.000000000000000e+00, 0.000000000000000e+00, 0.000000000000000e+00, 0.000000000000000e+00, 1.167333063613064e+03, 1.229839060726703e+03, 4.807514937385098e+01, 1.901760998295709e+03, -4.764499437748736e+02, 6.944209773367193e+02, 1.622342142884473e+03
284, 5.155555555548109e-01, 1.031111111109622e+00, 0.000000000000000e+00, 0.000000000000000e+00, 0.000000000000000e+00, 0.000000000000000e+00, 3.046251096732845e+02, 5.131829925208872e+02, 8.255365927207464e+00, 7.639400357377676e+02, -3.527519621107382e+02, 1.194798403648817e+02, 7.582911271686754e+02
285, 5.244444444437163e-01, 1.048888888887433e+00, 0.000000000000000e+00, 0.000000000000000e+00, 0.000000000000000e+00, 0.000000000000000e+00, 5.461056713290834e+02, 3.879545219920518e+02, -1.489871040704173e+01, 5.698623450604995e+02, -1.170421992950920e+02, 1.757526344949949e+02, 4.046761920315080e+02
286, 5.333333333326177e-01, 1.066666666665235e+00, 0.000000000000000e+00, 0.000000000000000e+00, 0.000000000000000e+00, 0.000000000000000e+00, 6.019871150965976e+02, 3.678405030918699e+02, -5.640341093283230e+01, 2.326766587579735e+02, -1.356996230465314e+02, 1.928993574665920e+01, 4.130926762695548e+02
287, 5.422222222215428e-01, 1.084444444443086e+00, 0.000000000000000e+00, 0.000000000000000e+00, 0.000000000000000e+00, 0.000000000000000e+00, 6.247220844094386e+02, 2.506361071315216e+02, 1.189382657690100e+00, 7.187853589440692e+02, -1.628611424573309e+02, -2.530429466921315e+02, 6.750138277584770e+02
288, 5.511111111104640e-01, 1.102222222220928e+00, 0.000000000000000e+00, 0.000000000000000e+00, 0.000000000000000e+00, 0.000000000000000e+00, -4.864192099359069e+02, 3.589046295137146e+01, 4.318331924271897e+01, 9.158114800501146e+02, -3.962102457931438e+02, 2.659852845399669e+02, 1.481703829347638e+03
289, 5.599999999993582e-01, 1.119999999998716e+00, 0.000000000000000e+00, 0.000000000000000e+00, 0.000000000000000e+00, 0.000000000000000e+00, -4.267328498872748e+02, 4.474075957710184e+02, 1.339128069659808e+02, 9.736541506610524e+02, -2.764929129004823e+02, 2.991335858727020e+02, 1.432709311807288e+03
290, 5.688888888882747e-01, 1.137777777776549e+00, 0.000000000000000e+00, 0.000000000000000e+00, 0.000000000000000e+00, 0.000000000000000e+00, -7.444168077193074e+02, -4.484133623051381e+02, 3.461225143537190e+02, 1.589779323233604e+02, -1.972839720535566e+02, 1.758450810583073e+02, 1.097844205579583e+03
291, 5.777777777771996e-01, 1.155555555554399e+00, 0.000000000000000e+00, 0.000000000000000e+00, 0.000000000000000e+00, 0.000000000000000e+00, 8.388419525859618e+02, 7.245559399702980e+02, -2.330780950494658e+02, 7.526390694100451e+02, -2.890345080326960e+02, 2.781982103312470e+02, 8.101988733172717e+02
292, 5.866666666661059e-01, 1.173333333332212e+00, 0.000000000000000e+00, 0.000000000000000e+00, 0.000000000000000e+00, 0.000000000000000e+00, 1.118693004058884e+03, 8.148426100525455e+02, -8.776657822250800e+01, 1.263613927162130e+03, -5.066525280220978e+02, 2.303488489819389e+01, 9.757830201712968e+02
293, 5.955555555550064e-01, 1.191111111110013e+00, 0.000000000000000e+00, 0.000000000000000e+00, 0.000000000000000e+00, 0.000000000000000e+00, 5.462436931892220e+02, 8.904059043371002e+02, 1.587154473939371e+02, 1.828781990373936e+03, -5.364122264237081e+02, 2.071044933607766e+02, 1.545772854688650e+03
294, 6.044444444439314e-01, 1.208888888887863e+00, 0.000000000000000e+00, 0.000000000000000e+00, 0.000000000000000e+00, 0.000000000000000e+00, 1.327586015682076e+03, 1.171437697697796e+03, 3.183178759153260e+02, 2.916403778640346e+03, -1.211959748462459e+03, 2.460229141115738e+02, 2.772889347095492e+03
295, 6.133333333328319e-01, 1.226666666665664e+00, 0.000000000000000e+00, 0.000000000000000e+00, 0.000000000000000e+00, 0.000000000000000e+00, 2.569506381784756e+02, 5.112401712949437e+02, 1.632475577235701e+02, 2.041293385684543e+03, -4.248793733207437e+02, 4.398173752859872e+02, 1.999159131931673e+03
296, 6.222222222217382e-01, 1.244444444443476e+00, 0.000000000000000e+00, 0.000000000000000e+00, 0.000000000000000e+00, 0.000000000000000e+00, 1.420015618583513e+03, 1.234910961672363e+03, 5.368738603557499e+02, 2.851529212903560e+03, -1.387094429237883e+03, 1.378788111555923e+02, 3.007041723993658e+03
297, 6.311111111106631e-01, 1.262222222221326e+00, 0.000000000000000e+00, 0.000000000000000e+00, 0.000000000000000e+00, 0.000000000000000e+00, 1.229309795527051e+03, 6.313332916480740e+02, 1.378289896947483e+02, 3.184296924683294e+03, -1.319297485468873e+03, 8.512985138250831e+02, 3.577896376167961e+03
298, 6.399999999995795e-01, 1.279999999999159e+00, 0.000000000000000e+00, 0.000000000000000e+00, 0.000000000000000e+00, 0.000000000000000e+00, 7.893531340409028e+02, 1.439392638036688e+03, -1.247820343897639e+02, 1.993384091293736e+03, -5.828003936695045e+02, 6.722248913579280e+02, 1.873743230839521e+03
299, 6.488888888884737e-01, 1.297777777776947e+00, 0.000000000000000e+00, 0.000000000000000e+00, 0.000000000000000e+00, 0.000000000000000e+00, -6.721762742577139e+02, 5.431690907430280e+00, 6.842590247972686e+01, 4.494236004099062e+02, -1.841501539502655e+02, 2.009699042981629e+02, 1.092739988193767e+03
300, 6.577777777773948e-01, 1.315555555554790e+00, 0.000000000000000e+00, 0.000000000000000e+00, 0.000000000000000e+00, 0.000000000000000e+00, -2.141856560615118e+02, 7.383288841132040e+01, 2.047708955051754e+02, 4.509308982053897e+02, 1.770977606614453e+01, 1.300224090951953e+02, 7.149968943282585e+02
301, 6.666666666663198e-01, 1.333333333332640e+00, 0.000000000000000e+00, 0.000000000000000e+00, 0.000000000000000e+00, 0.000000000000000e+00, -2.883121540117461e+02, -1.751738123746852e+02, 1.992950423294080e+02, 1.535379335582125e+02, -9.997157109368200e+01, -1.653224729232999e+01, 5.549775044520024e+02
302, 6.755555555552212e-01, 1.351111111110442e+00, 0.000000000000000e+00, 0.000000000000000e+00, 0.000000000000000e+00, 0.000000000000000e+00, 1.099653492329405e+03, 7.715115954392102e+02, 2.950368969251678e+02, 1.822577686787149e+03, -8.567045929809367e+02, 2.848598738241762e+01, 1.825628975690652e+03
303, 6.844444444441264e-01, 1.368888888888253e+00, 0.000000000000000e+00, 0.000000000000000e+00, 0.000000000000000e+00, 0.000000000000000e+00, -3.563831870586273e+01, 2.926378583918769e+02, -1.005708427581794e+00, 1.661322931240397e+03, -5.245842808436375e+02, 3.342214565110764e+02, 1.895007061702913e+03
304, 6.933333333330515e-01, 1.386666666666103e+00, 0.000000000000000e+00, 0.000000000000000e+00, 0.000000000000000e+00, 0.000000000000000e+00, -1.947512374572610e+02, 3.426196252048586e+02, 2.711795745058691e+02, 1.163277764423852e+03, -2.799135075027702e+02, 2.390653334182855e+02, 1.424911049360508e+03
305, 7.022222222219687e-01, 1.404444444443937e+00, 0.000000000000000e+00, 0.000000000000000e+00, 0.000000000000000e+00, 0.000000000000000e+00, 3.859798051086716e+01, 2.956993192139703e+02, 3.701403644847404e+02, 1.199603219668202e+03, -3.825239553688518e+02, 5.526277079731945e+01, 1.405235062738407e+03
306, 7.111111111108630e-01, 1.422222222221726e+00, 0.000000000000000e+00, 0.000000000000000e+00, 0.000000000000000e+00, 0.000000000000000e+00, 2.175982769294996e+03, 1.808030988414067e+03, 3.970953986981437e+02, 4.197672516211967e+03, -1.156975034547503e+03, -1.985255150193962e+02, 3.094118192256223e+03
307, 7.199999999997834e-01, 1.439999999999567e+00, 0.000000000000000e+00, 0.000000000000000e+00, 0.000000000000000e+00, 0.000000000000000e+00, 1.545149809420771e+03, 1.280968369580595e+03, 6.832759521047898e+01, 3.789010286720566e+03, -1.309271893578742e+03, 1.007131865972850e+03, 3.727870224076880e+03
308, 7.288888888887083e-01, 1.457777777777417e+00, 0.000000000000000e+00, 0.000000000000000e+00, 0.000000000000000e+00, 0.000000000000000e+00, -1.048219053555688e+03, -1.829753027803839e+02, 4.094510882667050e+02, 3.956516949439592e+02, -1.052442195310389e+02, 2.162563336973174e+02, 1.503525646085608e+03
309, 7.377777777776107e-01, 1.475555555555221e+00, 0.000000000000000e+00, 0.000000000000000e+00, 0.000000000000000e+00, 0.000000000000000e+00, -2.198749027858379e+03, -9.185032151896149e+02, 5.103828225994461e+02, 6.951673988776956e+02, 1.130730156257159e+02, -5.265506166000533e+02, 2.821427349972720e+03
310, 7.466666666665150e-01, 1.493333333333030e+00, 0.000000000000000e+00, 0.000000000000000e+00, 0.000000000000000e+00, 0.000000000000000e+00, -7.108292256521185e+02, -9.634526193053006e+01, 7.644942411606208e+02, 2.444667726479248e+03, -2.529877833001023e+02, 3.845765593147541e+02, 3.284023364966813e+03
311, 7.555555555554401e-01, 1.511111111110880e+00, 0.000000000000000e+00, 0.000000000000000e+00, 0.000000000000000e+00, 0.000000000000000e+00, -8.496995153448781e+02, 1.878745230339618e+02, 5.092213328155619e+02, 1.877822296372285e+03, -4.254841698281099e+02, 3.260576469868355e+02, 2.706639890850462e+03
312, 7.644444444443583e-01, 1.528888888888717e+00, 0.000000000000000e+00, 0.000000000000000e+00, 0.000000000000000e+00, 0.000000000000000e+00, -4.203879095176613e+02, 1.474967904583011e+02, 1.200419311910064e+03, 2.610004253017835e+03, -9.126604989977905e+02, -5.832087957416250e+01, 3.823209051920633e+03
313, 7.733333333332525e-01, 1.546666666666505e+00, 0.000000000000000e+00, 0.000000000000000e+00, 0.000000000000000e+00, 0.000000000000000e+00, -7.337065016285122e+02, -1.059181587196387e+03, 1.282574918427268e+03, 1.727419111473375e+03, -8.213097874983891e+02, -8.722853617075508e+00, 3.731351124471261e+03
314, 7.822222222221717e-01, 1.564444444444343e+00, 0.000000000000000e+00, 0.000000000000000e+00, 0.000000000000000e+00, 0.000000000000000e+00, 2.272484906656037e+03, 6.244706795026616e+02, 1.063540175991903e+03, 3.256353995897087e+03, -1.359809192562711e+03, -5.224879653237481e+02, 3.881360173250469e+03
315, 7.911111111110967e-01, 1.582222222222193e+00, 0.000000000000000e+00, 0.000000000000000e+00, 0.000000000000000e+00, 0.000000000000000e+00, 2.736260360024452e+03, 9.697870961296069e+02, 3.331326535453513e+02, 5.158246987002970e+03, -1.748509457785487e+03, 1.430845180169440e+02, 4.778182629383823e+03
316, 8.833333333334279e-01, 1.616666666666686e+00, 0.000000000000000e+00, -1.724505392433789e-09, 3.829487360040614e-09, 1.152960478489411e-09, 1.296528377682496e+04, 2.167922079929788e+04, -4.749919210790920e+03, 1.094300827703399e+04, -2.557941454113335e+03, 1.519178552047690e+03, 1.385216154143782e+04
317, 8.666666666666569e-01, 1.613333333333332e+00, 0.000000000000000e+00, -8.565510155334694e-10, 1.354187920428718e-08, 2.326121656534675e-09, 1.734498158148282e+04, 3.578741616000907e+04, 1.004952606002295e+03, 1.120012626586040e+04, -1.417380824555232e+02, -4.864526403110021e+03, 2.377582052924105e+04
318, 8.499999999999249e-01, 1.609999999999985e+00, 0.000000000000000e+00, -3.649019885156843e-09, 2.261455272212973e-09, -1.938462742624274e-09, 1.718910791694103e+04, 1.316128198385283e+04, 2.208379690691259e+03, 1.208650059923842e+04, 8.941437502544206e+03, -1.656187123492504e+03, 1.686461303676647e+04
319, 8.333333333331929e-01, 1.606666666666639e+00, 0.000000000000000e+00, -3.532235613119638e-09, 7.707583025516098e-09, -5.333114248380240e-09, 1.665474846005440e+04, 3.723104820970644e+04, -2.178173877452322e+03, 4.559083995990184e+04, 2.059797016858407e+03, -3.641006300768116e+03, 2.705579802206501e+04
320, 8.166666666665818e-01, 1.603333333333316e+00, 0.000000000000000e+00, 4.164109059239951e-10, 1.323137017922888e-09, -1.473071075413400e-09, 3.134468250301656e+03, 7.112762897998487e+03, 2.884101152339281e+03, 9.782423027419278e+03, -2.739059358242493e+03, -1.423810610896736e+03, 9.333690318216301e+03
321, 1.116685333333281e+00, 1.616666666666677e+00, 2.933489999998672e-04, 1.409977475349422e-10, 1.563925175140115e-09, 2.810624370685988e-09, -1.384385263886403e+03, 1.667727410450708e+03, 3.473367371665667e+02, -5.844215013858662e+03, -5.272689680553060e+02, -1.364544607546014e+02, 6.638463802825264e+03
322, 1.133354666666586e+00, 1.613333333333349e+00, 3.352559999997974e-04, 9.566538628326605e-11, 1.313389897594366e-09, 1.169505440128726e-09, 6.551534045929134e+02, 3.584355672564381e+03, 2.342069231532639e+02, -5.929448987457135e+01, -1.671670842643038e+02, 6.578846683210468e+02, 3.567948146287798e+03
323, 1.150023999999867e+00, 1.610000000000027e+00, 3.771629999996648e-04, -4.039116849964367e-10, 7.009878228230281e-10, 3.486052863660513e-10, -2.350599658018748e+03, -1.061877384577236e+03, -2.655094816296375e+02, -9.450084777379176e+03, 1.436778836462390e+03, -2.197729391296215e+02, 8.231776553388469e+03
324, 1.166693333333314e+00, 1.606666666666671e+00, 4.190699999999514e-04, 3.625206985518729e-10, 5.155760758856697e-10, 1.995506238544810e-09, -5.082063220477159e+03, -2.685102113684029e+03, 1.902517441368410e+02, -1.168630451221169e+04, -1.332130717511681e+03, 6.618942675177533e+01, 8.404581021549637e+03
325, 1.183362666666703e+00, 1.603333333333326e+00, 4.609770000000912e-04, 1.346773488619332e-12, 5.457874998630278e-11, 3.388091415444850e-11, -5.594825919228099e+02, -1.935594706167329e+02, 5.030076242377141e+02, -5.856538836256607e+02, -6.476699548258453e+02, 5.770470163059758e+02, 1.777804895460503e+03
326, 1.080014400000091e+00, 1.620000000000000e+00, 2.262978000001145e-04, -2.258788227369609e-10, 1.121061418810581e-09, 1.455491110513411e-09, -2.545470365313482e+02, 8.810483784902256e+02, 5.895411350899172e+02, -3.414465833090744e+03, -7.657157974713089e+02, -8.469834738334098e+02, 4.451610310539565e+03
327, 1.060012800000069e+00, 1.620000000000000e+00, 2.011536000000872e-04, -4.087541426373716e-10, 1.221209784540333e-09, 1.374254060263531e-09, -1.307309213239324e+01, 2.026974237375836e+03, -1.350068282614471e+03, -3.433956776573486e+03, 2.737502934230807e+02, -8.448442016698327e+02, 5.538696494845071e+03
328, 1.040011200000057e+00, 1.620000000000000e+00, 1.760094000000709e-04, -1.308153963726214e-10, 4.621365590516972e-09, 2.650109478661222e-09, 4.314214656459279e+03, 1.298112257501158e+04, 3.417915002147350e+02, 1.693529849380610e+03, 7.110112567898778e+01, -2.228240589765918e+02, 1.025724610780444e+04
329, 1.020009600000243e+00, 1.620000000000000e+00, 1.508652000003053e-04, -2.331651829085457e-10, 1.515768246432283e-09, 1.834193707177320e-09, 2.427439657863506e+03, 4.393169505230426e+03, -3.247238647818489e+02, -5.685954362735579e+02, 2.986249664363293e+02, -4.893601629312131e+01, 4.395539478189206e+03
330, 1.000008000000325e+00, 1.620000000000000e+00, 1.257210000004089e-04, -2.684759380290112e-10, 5.485898087905395e-09, 1.411752198005387e-09, 1.179464368607647e+04, 2.518461851567830e+04, 2.107098815206075e+02, 1.075033521473210e+04, 1.691768444072904e+02, -4.421368884522722e+02, 1.397035374381358e+04
331, 9.800064000002082e-01, 1.620000000000000e+00, 1.005768000002617e-04, -3.611575848000283e-10, 1.649133817177220e-09, 1.048248273351628e-09, 2.131361339752693e+03, 3.416907772791452e+03, 9.957018737775145e+02, 1.176301566416931e+03, 3.755364271228946e+02, -1.294611312925209e+02, 2.690756869221167e+03
332, 9.600048000001908e-01, 1.620000000000000e+00, 7.543260000023990e-05, -8.494589016901343e-11, 4.300905870111489e-09, 1.510250402262158e-10, 2.394569961222064e+03, -2.433536411569512e+02, -3.278085966002782e+03, 8.153595996224518e+02, -5.457155684295451e+02, 5.050081438508250e+02, 6.259614120267001e+03
333, 9.400032000001431e-01, 1.620000000000000e+00, 5.028840000017993e-05, -2.056094750071312e-09, 3.256851886361685e-09, -1.168760592755631e-10, 2.706959375884292e+03, -9.378220688037659e+02, 1.382229514019605e+03, 2.705184956587336e+03, 2.200894086077159e+03, 3.167584986182358e+03, 7.977608107340827e+03
334, 9.200016000000564e-01, 1.620000000000000e+00, 2.514420000007087e-05, -1.891414969954481e-09, 2.242615205093442e-09, 9.288339743182884e-10, 4.559342514624438e+03, 7.681913475032933e+03, -2.533965827054296e+03, 1.863826630498011e+03, -1.362980515814962e+02, 2.607187685148198e+02, 6.704908474457843e+03
335, 8.912555387243127e-01, 1.610546697985694e+00, 1.184094879552848e-02, -1.766232585082017e-09, 3.355353540603643e-09, -1.712742069616637e-09, 9.029786947235640e+03, 2.032772360819508e+04, -1.515807902596525e+03, 1.440069753703535e+04, 9.406452703551756e+02, -1.381390087869688e+03, 1.053954566357969e+04
336, 9.174128237170244e-01, 1.610838754650909e+00, 1.361352446803480e-02, -1.214031064297628e-09, 7.122636936027281e-10, -6.196120195112543e-10, 4.990510194700777e+03, 2.984584905739703e+03, -5.794258429531983e+02, 4.170095419781394e+03, 2.202201865574965e+02, -4.762302835903444e+02, 2.210023865600877e+03
337, 8.783002034697552e-01, 1.609358736514324e+00, 1.208083110245766e-02, -9.593800552977379e-10, 1.702648611926521e-09, -4.495914395987175e-10, 7.646553104172595e+03, 9.979784378381481e+03, -5.327538470092155e+02, 9.686456451259195e+03, -1.236309606396323e+03, -6.505373637247482e+02, 3.398833396407417e+03
338, 9.413890809838407e-01, 1.608906502554407e+00, 1.756478963242619e-02, -8.052148833648033e-10, 1.358578777127654e-09, -7.425435202973506e-10, 5.182079154675580e+03, 8.445161976658763e+03, 1.520180223572643e+03, 5.285176724301271e+03, 1.771976717892283e+03, -4.465253305147425e+03, 9.299996351806902e+03
339, 9.736741278918171e-01, 1.610533603900202e+00, 1.474861841031821e-02, -7.405992462055649e-10, 8.443906381291518e-10, 5.856298629369123e-11, 2.009835020052572e+03, 2.767121473308093e+03, -9.932256952521616e+02, 2.094554181691155e+03, 6.465012176778665e+02, -6.806100243652448e+02, 2.473777833496108e+03
340, 9.899907393628027e-01, 1.611212596030498e+00, 1.320718594571733e-02, -4.565498108352434e-10, 1.024138174114064e-09, 3.332881604006427e-10, 2.754455621568081e+03, 4.493669825075864e+03, 8.092044571899035e+02, 1.635169310804102e+03, 7.694248475305060e+02, -1.218816886318838e+03, 3.797547853068776e+03
341, 9.578078051146184e-01, 1.609144876913417e+00, 1.719411800473629e-02, -7.284855719945693e-10, 2.463786422993818e-09, -1.195807270232376e-10, 4.147034436749070e+03, 6.613822889921730e+03, -2.027059475398837e+03, 3.798922554300297e+03, 1.037717113623316e+03, -3.685775056021996e+03, 7.960982325841416e+03
342, 1.009993888108118e+00, 1.611437344706458e+00, 1.200034090203379e-02, -7.631887249384481e-10, 1.750792586179813e-09, 8.769973807269609e-10, 3.904225386327513e+03, 9.569661573340640e+03, -7.910333733278515e+02, 2.466035455401632e+03, 3.723978137629352e+02, -6.431739992533732e+02, 6.771099682709458e+03
343, 1.090002564258888e+00, 1.607523210901369e+00, 1.029029489421224e-02, -2.461818642202795e-10, 7.041704483535565e-10, 5.660655782087485e-10, -8.241408825296771e+02, 1.090368576387073e+03, 2.344863829192792e+02, -4.260214012275484e+03, 4.928107022912486e+02, -4.001966624936906e+02, 4.839870906531107e+03
344, 1.048097706146603e+00, 1.608549594487853e+00, 1.325891204209850e-02, -4.253896566954621e-10, 7.270779493733922e-10, 6.120362561430931e-10, -1.623102478187539e+01, 3.287032771748366e+03, -9.381254950366788e+02, -1.139437502886332e+03, 3.755893540727523e+02, -9.618986539593836e+02, 4.660748789683082e+03
345, 1.065453936016490e+00, 1.606266323365294e+00, 1.448135730537346e-02, -4.658659250955519e-10, 2.670438510923382e-10, 7.356675470284945e-10, -1.437661470833234e+03, -9.635592559820329e+02, -4.112711699350124e+02, -5.015977186861220e+03, 6.646979497044179e+02, -1.764010760141016e+02, 4.080668783134100e+03
346, 1.035860160770833e+00, 1.608737461242811e+00, 1.401453797266706e-02, -2.032218900742271e-10, 1.017960019209922e-09, 5.111205061355369e-10, 8.902257292007969e+02, 3.954048392135059e+03, 2.099852665015785e+02, -1.074891783270589e+03, 3.201366366878430e+02, -5.029105371341154e+02, 4.524153907389133e+03
347, 8.650542418146817e-01, 1.608002980393625e+00, 1.209467611002558e-02, -1.648595823502659e-09, 4.779756362519042e-09, 1.390398597827795e-10, 1.134553814270437e+04, 2.171583337791502e+04, -3.106909582470652e+03, 1.081966869297259e+04, 9.813852052878510e+02, -4.328218134054457e+03, 1.418877768748180e+04
348, 1.018803485143758e+00, 1.605537772211520e+00, 1.968368253634536e-02, -4.986165198837352e-10, 6.389196612429603e-10, 4.016576712132386e-10, 1.189537799011254e+03, 1.871716498165331e+03, -6.208613625143684e+02, -1.283227468028952e+03, 4.041518271596285e+02, -4.730299749686450e+02, 3.253382593682819e+03
349, 8.408754679510396e-01, 1.604735342110335e+00, 1.242739336867450e-02, -1.225002914236742e-09, 1.623774820344435e-09, -2.140043351886105e-09, 9.988593111882306e+03, 1.402414223674586e+04, -2.073056151631180e+03, 2.116255420607323e+04, 4.660890733152542e+03, -4.233493533828314e+03, 1.509575402436942e+04
350, 9.036692717392827e-01, 1.606608785902650e+00, 1.975486552106192e-02, -1.353822746955825e-09, 8.058626588645095e-10, -8.715288275660052e-10, 4.656806000285653e+03, 5.159098094305284e+03, -1.538127140084167e+03, 7.237642964467813e+03, 2.093618985029381e+03, -1.738087756613026e+03, 5.909886343240660e+03
351, 1.000597504330234e+00, 1.605161330233124e+00, 2.148679905725568e-02, -2.921554478486605e-10, 4.677084781483150e-10, 2.265233543866323e-10, -2.749046567202162e+02, 1.207224663962474e+03, -1.484554485501986e+02, -1.220307407236386e+03, 9.176374118396527e+02, -1.113947158258831e+03, 3.287343905635639e+03
352, 9.317117226108524e-01, 1.612948441523983e+00, 1.082614884707332e-02, -9.640508665826325e-10, 1.708316247232550e-09, -9.421476913494986e-10, 5.281271399583046e+03, 7.176535108160539e+03, 2.043142359153089e+03, 5.988738864557091e+03, 1.793643390942279e+03, -5.172226929396861e+02, 5.072377865544732e+03
353, 9.491333247334498e-01, 1.615121975164825e+00, 7.728987660254906e-03, -1.477533181710793e-09, 7.926388203155466e-09, 6.347957327355572e-10, 6.189864963735843e+03, 9.380221681283138e+03, 5.166646257058471e+02, 4.030682542070360e+03, 7.209935868793107e+02, -9.993815707889200e+02, 5.204384660459586e+03
354, 8.250793270733185e-01, 1.603500441965890e+00, 9.159095653019693e-03, 4.506388433922500e-11, 1.469770315516453e-09, -1.517644074366038e-09, 4.404119278517042e+03, 9.762889341096852e+03, 2.097435107682821e+03, 1.665890978707362e+04, -9.556876127495188e+02, -6.436368070794817e+03, 1.591992219994560e+04
355, 9.246012688912602e-01, 1.606288905314201e+00, 2.141409176059919e-02, -8.173711015611665e-10, 4.164195607744556e-10, -6.452052313714259e-10, 3.935700331374419e+03, 3.381036883778422e+03, 1.409069192039960e+02, 6.074190047015846e+03, 1.558285350207609e+03, -1.671766346864357e+03, 4.668582655957556e+03
356, 8.252399666822864e-01, 1.603800166587983e+00, -5.720417550247996e-03, -6.264055507063752e-10, 3.336745044479316e-09, -5.580552074659117e-09, 1.384534173382302e+04, 2.923172023013112e+04, 5.047894162456969e+03, 4.106266544068247e+04, -9.086179551480134e+03, -5.096382571464514e+03, 3.099655364199118e+04
357, 9.733969455994590e-01, 1.611876070782411e+00, -6.064245666116784e-03, -4.746505460753697e-10, 2.444068500022403e-09, 7.372872829631335e-11, 2.101050581953431e+03, 2.633860317434471e+03, -3.583944893827542e+02, 2.676884355011929e+03, 2.793066078265391e+02, -5.626056345237082e+02, 1.370260041632159e+03
358, 9.926174638019020e-01, 1.612440186615559e+00, -5.161502965855682e-03, -3.945087206721961e-11, 3.355982659708860e-09, 1.005845709057149e-09, 4.088105646746297e+03, 9.423675092318304e+03, 1.037772533325792e+03, 2.663823582828485e+03, 6.430538899059119e+02, -8.530592745128356e+02, 6.689606666649276e+03
359, 8.416484371289754e-01, 1.606028274043616e+00, -7.405073085083849e-03, -5.819439670526101e-09, 5.375175032587864e-09, -6.526431511152544e-09, 2.132803796701040e+04, 2.370009881501825e+04, -7.353294427444202e+03, 3.166776206714152e+04, 1.182921017288685e+04, -3.239445350505825e+03, 2.648576198084806e+04
360, 1.008030187904419e+00, 1.611436468257945e+00, -5.359323301767040e-03, -5.747212190079598e-10, 2.636386408197461e-09, 1.395995883917927e-09, 3.117204326608846e+03, 8.743782125588832e+03, -1.101497653228844e+03, 1.922327960682768e+03, 4.718500556886784e+02, 2.792917552356840e+01, 6.642238393250515e+03
361, 6.039079125140125e-01, 1.507205786719190e-02, 6.317131616680438e-02, 0.000000000000000e+00, 0.000000000000000e+00, 0.000000000000000e+00, 6.688685436754931e+02, 7.388444042371578e+02, -7.709236557573089e+01, 1.003949347827561e+03, 1.475900713324815e+02, -2.106992351392289e+02, 5.568562541330050e+02
362, 1.028261708351167e+00, 3.699842707180338e-01, 4.794131110791547e-03, 0.000000000000000e+00, 0.000000000000000e+00, 0.000000000000000e+00, 1.868498581445894e+02, 1.752940473487801e+01, -7.776637767198208e+01, -5.407681284781462e+01, 1.662651360003315e+02, 6.111735425627901e+01, 3.977466170535947e+02
363, 2.789608291899712e-01, 5.382108947104652e-01, 1.497241986880120e-02, 0.000000000000000e+00, 0.000000000000000e+00, 0.000000000000000e+00, 2.094168299822967e+03, 2.132010803470318e+03, 3.770147313814442e+01, 4.974940933319967e+03, -1.295164773237958e+03, 5.706055422498248e+02, 3.768906870615914e+03
364, 1.040766890126921e+00, 4.468608049078196e-01, 4.167846617116441e-03, 0.000000000000000e+00, 0.000000000000000e+00, 0.000000000000000e+00, -1.890227117773612e+02, -7.074491871148963e+01, -3.047868321425801e+01, -4.837160724798325e+01, -2.650482062710130e+02, -1.832048214009552e+02, 5.756448491816741e+02
365, 3.232703918627343e-01, 6.268505487680718e-01, 1.490158024253920e-02, 0.000000000000000e+00, 0.000000000000000e+00, 0.000000000000000e+00, 2.819423813420662e+03, 2.419317256104871e+03, -4.547554400135330e+02, 3.697718438488980e+03, -9.875880708669060e+02, 3.126342066901563e+02, 2.263297751020830e+03
366, 3.678872581700314e-01, 7.156755661363777e-01, 1.510055319468335e-02, 0.000000000000000e+00, 0.000000000000000e+00, 0.000000000000000e+00, 1.733875837149628e+03, 1.673138977462229e+03, -1.168670961139077e+02, 2.669875041537083e+03, -6.656035575610337e+02, 3.549942731165210e+02, 1.638521886608665e+03
367, 1.053978726276716e+00, 5.643139848209935e-01, 4.407937645161831e-03, 0.000000000000000e+00, 0.000000000000000e+00, 0.000000000000000e+00, -1.109317458350083e+02, -4.026361092892554e+02, -8.271294922906770e+01, -9.891645032523543e+02, -1.034062293875618e+02, 2.231190794478306e+02, 8.956277664141166e+02
368, 4.032421121886599e-01, 7.865544511479273e-01, 1.491617837680627e-02, 0.000000000000000e+00, 0.000000000000000e+00, 0.000000000000000e+00, 3.063677264055577e+03, 2.934490709032498e+03, -4.483977514691039e+02, 4.004143369929217e+03, -9.622725352671322e+02, 6.695343708753702e+02, 2.397619024560830e+03
369, 1.066024344430223e+00, 6.638235204898252e-01, 4.437302202626109e-03, 0.000000000000000e+00, 0.000000000000000e+00, 0.000000000000000e+00, -3.833262136041508e+01, -6.258800665078663e+01, 1.335428685862354e+01, -8.987631566889617e+01, 2.259261251952681e+01, 7.549545966980102e+01, 1.454642451599447e+02
370, 4.391237262443847e-01, 8.578401164707484e-01, 1.512313549219005e-02, 0.000000000000000e+00, 0.000000000000000e+00, 0.000000000000000e+00, 2.839588498750335e+03, 2.732494472932401e+03, 1.717726626871167e+02, 6.172370533223671e+03, -1.561511530717820e+03, -1.700982593550881e+01, 4.345131366493839e+03
371, 1.079134510830276e+00, 7.619994745891253e-01, 4.218351837360365e-03, 0.000000000000000e+00, 0.000000000000000e+00, 0.000000000000000e+00, 2.419991425988402e+02, 1.843467768888921e+02, -1.756588965812598e+02, 3.384370135595584e+02, -6.430042965134820e+01, -2.620155616112571e+02, 5.736829898264147e+02
372, 7.159046074975973e-01, 1.523975263203371e-02, 4.986221433467565e-02, 0.000000000000000e+00, 0.000000000000000e+00, 0.000000000000000e+00, 2.629515118152527e+02, 3.131990139251511e+02, -6.414528111823611e+01, 3.951080789870655e+02, 1.437689592478886e+02, -1.015169543192584e+02, 3.444112375762011e+02
373, 4.837037790347135e-01, 9.465183937465721e-01, 1.525288776890478e-02, 0.000000000000000e+00, 0.000000000000000e+00, 0.000000000000000e+00, 3.872755646774237e+03, 3.354793259069623e+03, -1.878336693693462e+02, 5.534053449101782e+03, -1.304467655304298e+03, 5.478249803991283e+02, 3.162241907282941e+03
374, 2.343939068841876e-01, 4.493989264527193e-01, 1.478785735396703e-02, 0.000000000000000e+00, 0.000000000000000e+00, 0.000000000000000e+00, 1.973575665471161e+03, 1.909920417564595e+03, -8.034392510959896e+01, 2.661168797800690e+03, -6.899523717893235e+02, 3.447861174434842e+02, 1.524698620309769e+03
375, 1.090454496483240e+00, 8.618579267146957e-01, 4.401759278730876e-03, 0.000000000000000e+00, 0.000000000000000e+00, 0.000000000000000e+00, -2.463972449985483e+01, 8.361618509338602e+01, 1.063879997756944e+01, 3.102318851347172e+02, -1.688128195541625e+02, 5.932088388499754e+01, 4.289478573559085e+02
376, 5.036258903624470e-01, 1.881299192310238e-02, 7.207915555211954e-02, 0.000000000000000e+00, 0.000000000000000e+00, 0.000000000000000e+00, 1.015997613677631e+03, 1.207825031818396e+03, -1.002692103705636e+02, 1.605391833441140e+03, 1.819577995442119e+02, -3.767807354417091e+02, 9.091205459600900e+02
377, 5.280659239898193e-01, 1.035967038003250e+00, 1.466193657128995e-02, 0.000000000000000e+00, 0.000000000000000e+00, 0.000000000000000e+00, 2.118210176020911e+03, 1.947363922683779e+03, -9.881516963033552e+01, 3.104229989144990e+03, -9.176891148662238e+02, 5.618149350241875e+02, 2.161606489735997e+03
378, 1.102110040801241e+00, 9.602126592564869e-01, 4.479155184745958e-03, 0.000000000000000e+00, 0.000000000000000e+00, 0.000000000000000e+00, -1.572680358580702e+02, -1.045975871006374e+01, -3.025234949480946e+00, 1.506581634633561e+02, -1.578390677922542e+02, 3.962533260229834e+01, 3.881270033277804e+02
379, 1.016924847494072e+00, 2.672836413029659e-01, 4.540488199155516e-03, 0.000000000000000e+00, 0.000000000000000e+00, 0.000000000000000e+00, 2.881202330334133e+02, 1.617196401969733e+02, -2.477249967946643e+01, 3.334294736206709e+02, 1.359025798738482e+02, -9.123755504490140e+01, 3.255450663811702e+02
380, 5.728568188396738e-01, 1.124193142397188e+00, 1.510808911401898e-02, 0.000000000000000e+00, 0.000000000000000e+00, 0.000000000000000e+00, 1.954597463837433e+03, 1.647778996964723e+03, -8.508286496625050e+01, 3.297385511055114e+03, -7.927166217661355e+02, 6.384121169659815e+02, 2.332131167756140e+03
381, 1.115392478213137e+00, 1.058885583822690e+00, 4.237723290078288e-03, 0.000000000000000e+00, 0.000000000000000e+00, 0.000000000000000e+00, 1.370938673744844e+02, 2.026065203211727e+02, -1.948285064781491e+02, 9.086572523493707e+02, -3.259098430771105e+02, -2.202342368254728e+02, 1.061645080018384e+03
382, 6.172162564452127e-01, 1.213614093998464e+00, 1.447808630978275e-02, 0.000000000000000e+00, 0.000000000000000e+00, 0.000000000000000e+00, 1.752322943827360e+03, 1.765888440028215e+03, -4.439200532564386e+01, 3.773314579320490e+03, -6.720790874807768e+02, 5.034817533903870e+02, 2.485687015083714e+03
383, 1.124125004998847e+00, 1.138141521701755e+00, 4.430717023476229e-03, 0.000000000000000e+00, 0.000000000000000e+00, 0.000000000000000e+00, 7.934019606853071e+02, 5.908318889910486e+02, -1.966157895269340e+02, 5.495403482087270e+02, 3.160955728493602e+02, -1.625310351280013e+02, 7.389692871839596e+02
384, 1.988892878697470e-01, 3.783331338418002e-01, 1.485500771385636e-02, 0.000000000000000e+00, 0.000000000000000e+00, 0.000000000000000e+00, 2.613083132512981e+03, 2.380451951630153e+03, 2.195564913712137e+02, 6.478637325438834e+03, -1.329343415602773e+03, 9.852354132606265e+02, 4.924836879389008e+03
385, 1.147682880730513e+00, 1.315635656035882e+00, 4.062719243507205e-03, 0.000000000000000e+00, 0.000000000000000e+00, 0.000000000000000e+00, -1.726774998733875e+02, -3.082538058902124e+02, -4.088002748802843e+01, -6.368632106150593e+02, 9.073984133694979e+01, -9.585661498723245e+01, 4.776995741174890e+02
386, 6.529328065942485e-01, 1.284644707812944e+00, 1.436074271420667e-02, 0.000000000000000e+00, 0.000000000000000e+00, 0.000000000000000e+00, 1.539390007029219e+03, 1.639350974957842e+03, -7.693436515115241e+01, 2.584187448991425e+03, -5.713409734299354e+02, 5.013260242453504e+02, 1.657765510376026e+03
387, 1.134960040820267e+00, 1.217360440692567e+00, 4.202603302020864e-03, 0.000000000000000e+00, 0.000000000000000e+00, 0.000000000000000e+00, 6.613515598689077e+01, -1.374634401059735e+02, 6.381848304258902e+00, -1.460355601438688e+02, 1.314690295044607e+02, -1.628269459895065e+02, 4.180711486324586e+02
388, 4.042162848893954e-01, 1.659177611836819e-02, 7.760046284193334e-02, 0.000000000000000e+00, 0.000000000000000e+00, 0.000000000000000e+00, 1.197212540225865e+03, 1.459944146125168e+03, -6.530334596875463e+01, 1.918842631106597e+03, 1.542318477605311e+02, -4.787642663428351e+02, 1.082582324775355e+03
389, 6.886916859007459e-01, 1.355654157048811e+00, 1.420790419251453e-02, 0.000000000000000e+00, 0.000000000000000e+00, 0.000000000000000e+00, 1.511961690049043e+03, 1.391359420503796e+03, -7.351107515119600e+01, 3.426003879735291e+03, -6.912429764144919e+02, 3.903422044224746e+02, 2.411576982992011e+03
390, 7.244998894043441e-01, 1.426638944186136e+00, 1.401052858724863e-02, 0.000000000000000e+00, 0.000000000000000e+00, 0.000000000000000e+00, 3.341163718342773e+03, 3.132751962346339e+03, 1.047800430926986e+02, 6.550573689185157e+03, -1.290453455618992e+03, -1.499464370102576e+02, 4.013580113350235e+03
391, 9.384327801215974e-01, 1.583477528253079e+00, 3.210388547796718e-02, 0.000000000000000e+00, 0.000000000000000e+00, 0.000000000000000e+00, 3.303699777892222e+03, 3.096538096689860e+03, 9.205918970737548e+01, 5.601139366396863e+03, 1.346395947238499e+03, -1.826680378563801e+03, 4.612064669141351e+03
392, 1.632834572821462e-01, 3.071276724893814e-01, 1.487214382804079e-02, 0.000000000000000e+00, 0.000000000000000e+00, 0.000000000000000e+00, 2.426206145754261e+03, 2.677444557587568e+03, -1.013958505224225e+02, 4.063712720122887e+03, -1.003129365102132e+03, 7.707030189065338e+02, 2.676703630311932e+03
393, 8.156475517765357e-01, 1.709577090578929e-02, 3.533981808345929e-02, 0.000000000000000e+00, 0.000000000000000e+00, 0.000000000000000e+00, -1.369874277193539e+02, -2.163991567335894e+02, -5.478848494037697e+01, -3.019605907056830e+02, 1.062948424479332e+02, 8.053632583514030e+01, 2.877168352276294e+02
394, 3.052870362502269e-01, 1.597099314159969e-02, 7.829128154066253e-02, 0.000000000000000e+00, 0.000000000000000e+00, 0.000000000000000e+00, 1.517593644585111e+03, 1.853233834544191e+03, -6.759238158018209e+01, 2.506752698693436e+03, 1.722241157333722e+02, -6.049565015499164e+02, 1.399891129047396e+03
395, 1.007223168655262e+00, 1.895645088366159e-01, 4.576011907522052e-03, 0.000000000000000e+00, 0.000000000000000e+00, 0.000000000000000e+00, 2.375167845378448e+02, 1.504387301459870e+02, 2.368945892491581e+02, 5.855810713995625e+02, -1.404293886097417e+02, 4.574871330050957e+02, 1.007195068319241e+03
396, 1.155034987982056e+00, 1.393791099097470e+00, 4.498279595922824e-03, 0.000000000000000e+00, 0.000000000000000e+00, 0.000000000000000e+00, -2.877923693221796e+03, -3.085132050446748e+03, -1.928071859786943e+02, -6.213368285422338e+03, -5.850541791557281e+02, -3.097116883696571e+02, 3.450093757661543e+03
397, 1.277625982679516e-01, 2.361187008654586e-01, 1.486519025957037e-02, 0.000000000000000e+00, 0.000000000000000e+00, 0.000000000000000e+00, 2.102723873030039e+03, 1.760459600904552e+03, -9.496163305334304e+01, 4.064773508712641e+03, -1.141851766237949e+03, 2.495154472405711e+02, 2.960342289999661e+03
398, 7.601428381637201e-01, 1.497121220975980e+00, 1.377259368969653e-02, 0.000000000000000e+00, 0.000000000000000e+00, 0.000000000000000e+00, 9.567550581497333e+02, 1.489568087804804e+03, 2.496674962786130e+02, 3.310296225887948e+03, -2.594196958077059e+02, 2.077973091917733e+02, 2.255545350850487e+03
399, 1.016286602348666e+00, 1.581956769446254e+00, 2.765616901225429e-02, 0.000000000000000e+00, 0.000000000000000e+00, 0.000000000000000e+00, 4.870392179163451e+02, 7.177681438602907e+02, -6.203856234037536e+01, 2.047880059900694e+02, 6.969161209606527e+02, -6.058328041534013e+02, 1.663654967610970e+03
400, 2.259402293189051e-01, 1.733816438309979e-02, 7.390849145379073e-02, 0.000000000000000e+00, 0.000000000000000e+00, 0.000000000000000e+00, 1.826803328848742e+03, 2.164158433594315e+03, -2.473406395287578e+01, 3.138976853758504e+03, 9.624144993894423e+01, -6.924296859616891e+02, 1.691430924115035e+03
401, 1.010918164944859e-01, 1.827874250859071e-01, 1.486787543578420e-02, 0.000000000000000e+00, 0.000000000000000e+00, 0.000000000000000e+00, 2.090407689200621e+03, 2.137609827037074e+03, 1.892663852076228e+02, 3.899274308303592e+03, -1.307171264259402e+03, 4.485488423209256e+02, 3.004328168477317e+03
402, 1.164758888066317e+00, 1.453947858575083e+00, 4.029615951581670e-03, 0.000000000000000e+00, 0.000000000000000e+00, 0.000000000000000e+00, 1.596796925727527e+02, 1.239149283047639e+02, 2.911947636162763e+01, 3.859430672780525e+02, -2.563535959643338e+01, 5.706711236329307e+01, 2.735905736517361e+02
403, 9.960163523523826e-01, 1.101776788797521e-01, 4.876648506951659e-03, 0.000000000000000e+00, 0.000000000000000e+00, 0.000000000000000e+00, -1.744243794280274e+03, -1.696561306711591e+03, 2.778077661072202e+02, -2.314418157092945e+03, -9.019469542090789e+02, 1.271658884911400e+03, 2.806771295219517e+03
404, 8.795563499720439e-01, 1.583113524637186e+00, 3.015213080369839e-02, 0.000000000000000e+00, 0.000000000000000e+00, 0.000000000000000e+00, 6.377671303485280e+03, 6.397592046607050e+03, 3.066585839431228e+02, 1.228260616601036e+04, 1.279576038196934e+03, -1.678726879258152e+03, 6.956971802117369e+03
405, 1.044351380493103e+00, 5.064471095765712e-01, 4.920971452487126e-03, 0.000000000000000e+00, 0.000000000000000e+00, 0.000000000000000e+00, -2.748930608772018e+03, -3.358470304529614e+03, 1.392405916370674e+02, -6.851837269239488e+03, -7.399164057053215e+02, 5.694548799320539e+02, 4.168684024710758e+03
406, 8.721367750312790e-01, 1.821222651822509e-02, 2.601494051092575e-02, 0.000000000000000e+00, 0.000000000000000e+00, 0.000000000000000e+00, -2.965643669523948e+02, -4.853137860687613e+02, -1.109856695116252e+02, -6.528536551812866e+02, 1.709486605831054e+02, 2.233314760866454e+02, 6.079256852134586e+02
407, 6.568058482629143e-01, 1.409713514009656e-02, 5.728902057504742e-02, 0.000000000000000e+00, 0.000000000000000e+00, 0.000000000000000e+00, 5.666777651147969e+02, 6.408838772168806e+02, -8.708841830908447e+01, 8.577413625578944e+02, 1.539901018871421e+02, -1.866982907805477e+02, 5.168042709562601e+02
408, 1.659470613315099e-01, 1.874162122366137e-02, 6.678908787613966e-02, 0.000000000000000e+00, 0.000000000000000e+00, 0.000000000000000e+00, 1.783827444292521e+03, 1.960820499759883e+03, 9.992387063230292e+01, 3.258330604321756e+03, -1.623514481276260e+02, -6.261268102410436e+02, 1.797120462415284e+03
409, 1.074621938904698e+00, 1.582512802133791e+00, 2.120984185115645e-02, 0.000000000000000e+00, 0.000000000000000e+00, 0.000000000000000e+00, 3.046581999362429e+01, -1.129629690657064e+02, -3.099281177134020e+02, -1.060644688153031e+03, 2.429155880778920e+02, 3.433495441793315e+01, 1.234230217638565e+03
410, 7.442180280566760e-02, 1.294557652635629e-01, 1.487005802303709e-02, 0.000000000000000e+00, 0.000000000000000e+00, 0.000000000000000e+00, 1.870474433767444e+03, 1.859013174238570e+03, -2.954094688517372e+01, 3.051598970299366e+03, -9.776630696214578e+02, 1.358957074431209e+02, 2.081878928217205e+03
411, 1.172163599781415e+00, 1.513207230414652e+00, 3.997156547529414e-03, 0.000000000000000e+00, 0.000000000000000e+00, 0.000000000000000e+00, -1.412587052833278e+03, -1.404741702392701e+03, -1.109424788997430e+02, -3.192823433836049e+03, -3.461446392205411e+02, 3.989629572375651e+02, 2.014238580318940e+03
412, 9.374744248404706e-01, 1.861570481282175e-02, 1.418182900227925e-02, 0.000000000000000e+00, 0.000000000000000e+00, 0.000000000000000e+00, -2.410374384613941e+03, -2.782557028404642e+03, -1.813114840639807e+02, -5.132123275812035e+03, -9.461207227135327e+02, 1.169643771994360e+03, 3.663564348788832e+03
413, 1.091387770873947e-01, 1.697890499941031e-02, 5.623826327866736e-02, 0.000000000000000e+00, 0.000000000000000e+00, 0.000000000000000e+00, 1.835164279933922e+03, 2.038729837334186e+03, 2.008724493861633e+02, 3.029260857912715e+03, -3.664176551937579e+02, -6.211392778621339e+02, 1.704554358946609e+03
414, 7.872908885505675e-01, 1.550799000169004e+00, 1.353411247818092e-02, 0.000000000000000e+00, 0.000000000000000e+00, 0.000000000000000e+00, 1.535676975997744e+03, 1.152353006368770e+03, 9.762805812470688e+02, 3.402892108765600e+03, -7.713198648000174e+02, -4.255454591313530e+02, 3.088141685447884e+03
415, 5.664217514539320e-02, 9.390113464928908e-02, 1.487126378542862e-02, 0.000000000000000e+00, 0.000000000000000e+00, 0.000000000000000e+00, 2.738851912880583e+03, 2.069193966846035e+03, 1.077254223201952e+01, 3.850081431011566e+03, -1.301006369207343e+03, 2.764442968642384e+02, 2.781165527669345e+03
416, 8.406381742065102e-01, 1.583218576006692e+00, 2.470711579967142e-02, 0.000000000000000e+00, 0.000000000000000e+00, 0.000000000000000e+00, 5.313363064241306e+03, 5.737577805514222e+03, 3.722394286923818e+02, 1.242670457950310e+04, 8.354515313750422e+02, -3.857923946649538e+03, 9.742810540291941e+03
417, 7.128325700820014e-02, 1.705777372658459e-02, 4.569973442079624e-02, 0.000000000000000e+00, 0.000000000000000e+00, 0.000000000000000e+00, 1.391212237010532e+03, 1.273624917000671e+03, 1.667961129145339e+02, 1.962042624663065e+03, -5.258137652965972e+02, -2.941840505824883e+02, 1.256714951286331e+03
418, 1.132692752390142e+00, 1.582875930266131e+00, 1.265765622905394e-02, 0.000000000000000e+00, 0.000000000000000e+00, 0.000000000000000e+00, -8.558021898611112e+02, -2.964323553083740e+02, -9.744786064162300e+01, -1.852696433340948e+03, 3.856395652377568e+02, -7.355794590086667e+02, 1.990527219994823e+03
419, 7.424355999761536e-01, 1.462005717123145e+00, 1.393026824535046e-02, 0.000000000000000e+00, 0.000000000000000e+00, 0.000000000000000e+00, 7.494363181818160e+02, 1.505758855099472e+03, 3.397854413088273e+02, 2.687217719536465e+03, -5.786575401674629e+02, 5.231133591197774e+02, 2.243495406289961e+03
420, 1.152467219962520e+00, 1.354896914228576e+00, 4.066045010725106e-03, 0.000000000000000e+00, 0.000000000000000e+00, 0.000000000000000e+00, 1.633966686157031e+02, 6.947333419869791e+01, 1.127418609498200e+02, 4.205958171868821e+02, 5.388506371799199e+01, 2.014794588194779e+02, 5.174503795556620e+02
421, 9.915525731275365e-01, 7.260882127324869e-02, 4.847819921341326e-03, 0.000000000000000e+00, 0.000000000000000e+00, 0.000000000000000e+00, 1.953837472266385e+02, -2.279445405935046e+02, -1.565671657363307e+01, -3.376464506928220e+02, 3.874149824781600e+02, -1.203897594812771e+02, 8.556686607281206e+02
422, 1.001965099073623e+00, 1.504782276023660e-01, 4.671135916883279e-03, 0.000000000000000e+00, 0.000000000000000e+00, 0.000000000000000e+00, -1.012298965792171e+03, -1.315645742641700e+03, 1.527878170602784e+01, -1.953485200530834e+03, 9.740670779152364e+01, 5.035916735558369e+02, 1.217506973067234e+03
423, 9.774820865096389e-01, 1.583525259260397e+00, 3.057201652218143e-02, 0.000000000000000e+00, 0.000000000000000e+00, 0.000000000000000e+00, 2.469861975298670e+03, 2.365106406962806e+03, -2.334275551621174e+02, 3.538064739416603e+03, 1.293584689371072e+03, -1.138658176975920e+03, 3.215137277046613e+03
424, 1.143276574558078e+00, 1.276607304507352e+00, 3.989497998670037e-03, 0.000000000000000e+00, 0.000000000000000e+00, 0.000000000000000e+00, 1.137096987804085e+01, -4.197234241660686e+01, -4.049448586722093e+01, -1.666224630345779e+02, 1.673714637302581e+02, -8.179854930509784e+01, 3.661481266156684e+02
425, 1.012452131951232e+00, 2.319069989959202e-01, 4.568224135632397e-03, 0.000000000000000e+00, 0.000000000000000e+00, 0.000000000000000e+00, -3.521752382049362e+02, -1.763391509437659e+02, -1.640496621553023e+02, 3.851382704017866e+02, -5.843580497075208e+02, -2.061037576537064e+02, 1.295183137478918e+03
426, 1.022796908116622e+00, 3.080509126959937e-01, 4.362224616583222e-03, 0.000000000000000e+00, 0.000000000000000e+00, 0.000000000000000e+00, 1.216540855619775e+02, 2.574276035416270e+01, -1.079458931628089e+01, -5.268821107080525e+01, 2.308011165294105e+02, -2.299521823231398e+01, 4.296698660859668e+02
427, 1.454612041395162e-01, 2.714796847999951e-01, 1.488386398693899e-02, 0.000000000000000e+00, 0.000000000000000e+00, 0.000000000000000e+00, 2.691870701809306e+03, 2.233502096769727e+03, 2.285252251750300e+02, 4.165568462084568e+03, -1.233937361343267e+03, 5.670279580856035e+02, 2.957434925722967e+03
428, 1.811069011894726e-01, 3.427798827376216e-01, 1.485802307743228e-02, 0.000000000000000e+00, 0.000000000000000e+00, 0.000000000000000e+00, 1.920336471450561e+03, 2.066992754656956e+03, 1.234491587491590e+02, 4.297169808995612e+03, -1.098003104704603e+03, 4.866613215772347e+02, 3.113733530787826e+03
429, 2.166722262253128e-01, 4.138861091083355e-01, 1.485162856959812e-02, 0.000000000000000e+00, 0.000000000000000e+00, 0.000000000000000e+00, 2.774430080867066e+03, 2.782014228940585e+03, -7.467458092171890e+01, 4.993200220269297e+03, -1.473134270874632e+03, 7.314508725467809e+02, 3.610863432138982e+03
430, 2.520580584677389e-01, 4.846758398195748e-01, 1.480929803622878e-02, 0.000000000000000e+00, 0.000000000000000e+00, 0.000000000000000e+00, 1.861168003493922e+03, 1.360075398927821e+03, 6.799148316495497e+01, 2.124349802215227e+03, -7.395999502523681e+02, 1.190754269384259e+02, 1.466174125748781e+03
431, 1.130582407237793e+00, 1.177372137179064e+00, 4.099813664858581e-03, 0.000000000000000e+00, 0.000000000000000e+00, 0.000000000000000e+00, 1.396577791498737e+02, 9.968604212257688e+02, 2.067792475822880e+02, 1.717943261798808e+03, -1.437234043984432e+03, 5.154689390009067e+02, 2.999198841878505e+03
432, 1.117525146514206e+00, 1.097940915552588e+00, 4.765773091417940e-03, 0.000000000000000e+00, 0.000000000000000e+00, 0.000000000000000e+00, 4.207183185842517e+01, 4.121518832222424e+01, 1.640312955317811e+01, 1.211322041055613e+02, -1.164834344774813e+02, -4.308041983378974e-01, 2.187050962644788e+02
433, 1.111701928232218e+00, 1.021842628562113e+00, 4.068312185059682e-03, 0.000000000000000e+00, 0.000000000000000e+00, 0.000000000000000e+00, 8.130059309355555e+01, -2.026059093950367e+01, 9.888905210960010e+01, 1.978608206185852e+02, -1.558730549446203e+02, 1.348621373661732e+02, 4.387809309907594e+02
434, 1.098338236160742e+00, 9.201550292542605e-01, 4.251831912571495e-03, 0.000000000000000e+00, 0.000000000000000e+00, 0.000000000000000e+00, 1.437999789219998e+02, -6.315079138634241e+01, 1.096521319505201e+02, -3.683275483992808e+02, 2.852981424318421e+02, 2.262109880844893e+02, 7.955426657544674e+02
435, 1.086416709067952e+00, 8.237878225635944e-01, 4.276057487804156e-03, 0.000000000000000e+00, 0.000000000000000e+00, 0.000000000000000e+00, -4.566722449389415e+01, -9.362999110432716e+01, -4.832825257879557e+00, -5.256776917573366e+01, -9.444261298818715e+01, 2.084936476098176e+01, 1.736359794530255e+02
436, 1.072512562848770e+00, 7.233282648445288e-01, 4.598648523185103e-03, 0.000000000000000e+00, 0.000000000000000e+00, 0.000000000000000e+00, -5.195063081718722e+02, -7.384867443354389e+02, -4.898830544838276e+01, -1.473479314819097e+03, 2.722100773014263e+02, 1.591548140768160e+02, 1.026937587707738e+03
437, 1.061400874217645e+00, 6.246419338729052e-01, 4.401653015034959e-03, 0.000000000000000e+00, 0.000000000000000e+00, 0.000000000000000e+00, 5.773279546404610e+02, 3.350577718406504e+02, 1.855938478025942e+01, 8.931254813599070e+02, -5.415341693298889e+01, 3.613898497340527e+02, 7.978535231113818e+02
438, 1.032561982596133e+00, 4.057731965385021e-01, 4.811244286450009e-03, 0.000000000000000e+00, 0.000000000000000e+00, 0.000000000000000e+00, -1.718234024547741e+03, -2.582356771503820e+03, -5.762229412325463e+01, -5.213514257204019e+03, -2.217566050680254e+02, 7.231882573099791e+02, 3.416113815306439e+03
439, 2.967038514222489e-01, 5.738702965092936e-01, 1.483085456178151e-02, 0.000000000000000e+00, 0.000000000000000e+00, 0.000000000000000e+00, 3.176963314762745e+03, 2.530955528724255e+03, 4.134849120321169e+01, 3.862242545742513e+03, -1.062826682946528e+03, 4.231200800042416e+02, 2.293611121417505e+03
440, 7.551065323136752e-01, 1.599827903165493e-02, 4.444972215161993e-02, 0.000000000000000e+00, 0.000000000000000e+00, 0.000000000000000e+00, 9.201020180782731e+01, 8.518785573567739e+01, -7.312385840881922e+01, 6.299548922676890e+01, 1.548960856637284e+02, -2.343923863729736e+01, 3.005966256180873e+02
441, 3.410806598283173e-01, 6.622380641599070e-01, 1.503219324249529e-02, 0.000000000000000e+00, 0.000000000000000e+00, 0.000000000000000e+00, 3.097550111827824e+03, 2.539602863705160e+03, -3.706070429482673e+02, 3.525306452950271e+03, -9.370751434544201e+02, 5.064078658654813e+02, 2.132761375910264e+03
442, 3.854119553340398e-01, 7.509501087177931e-01, 1.491798246225320e-02, 0.000000000000000e+00, 0.000000000000000e+00, 0.000000000000000e+00, 2.781794637527311e+03, 2.516323972832700e+03, 2.524098815915879e+01, 4.113711279976899e+03, -1.050346858632804e+03, 4.715218979960730e+02, 2.485288113333160e+03
443, 7.065892467755812e-01, 1.391149821055984e+00, 1.411537508950667e-02, 0.000000000000000e+00, 0.000000000000000e+00, 0.000000000000000e+00, 1.459416749066901e+03, 1.290453497811114e+03, 1.255599070953193e+02, 2.531074604182978e+03, -6.072444830160102e+02, 2.498542298977769e+01, 1.585394652916606e+03
444, 4.211748176584520e-01, 8.222023982742015e-01, 1.501140362959076e-02, 0.000000000000000e+00, 0.000000000000000e+00, 0.000000000000000e+00, 1.889186768289349e+03, 1.586585306156607e+03, 9.172643247991060e+01, 2.934666389552119e+03, -7.337692949249976e+02, 1.847856302767405e+02, 1.801080087787796e+03
445, 4.568613573865214e-01, 8.929603334349455e-01, 1.527963966353338e-02, 0.000000000000000e+00, 0.000000000000000e+00, 0.000000000000000e+00, 3.062215368715559e+03, 2.798310144039873e+03, 3.259340709795853e+02, 6.479704683778817e+03, -1.428673648854445e+03, 1.006032948136602e+03, 4.704158117089566e+03
446, 5.013931238338831e-01, 9.816457284429632e-01, 1.531679592484165e-02, 0.000000000000000e+00, 0.000000000000000e+00, 0.000000000000000e+00, 2.380637146047713e+03, 2.449869597970012e+03, -2.308425668446741e+02, 4.244067296477810e+03, -9.926976222303382e+02, 3.496087882902618e+02, 2.613626735730996e+03
447, 5.461246536328379e-01, 1.071429697803099e+00, 1.492593482722261e-02, 0.000000000000000e+00, 0.000000000000000e+00, 0.000000000000000e+00, 1.530846755578722e+03, 1.155936292668761e+03, -7.290410078136594e+01, 1.410301879794758e+03, -3.453270287942074e+02, 1.285677566682365e+02, 7.301929097432924e+02
448, 5.904765374810856e-01, 1.158900268754445e+00, 1.521846256486368e-02, 0.000000000000000e+00, 0.000000000000000e+00, 0.000000000000000e+00, 1.887793601271160e+03, 1.556482070302124e+03, -2.089159693079760e+02, 2.191920227510191e+03, -5.668927350639149e+02, 2.915381645483008e+02, 1.285707689777607e+03
449, 6.350696996476548e-01, 1.249131816841674e+00, 1.442333498843224e-02, 0.000000000000000e+00, 0.000000000000000e+00, 0.000000000000000e+00, 2.359779480611769e+03, 1.972936972157398e+03, 2.909275169884406e+02, 5.091239406689216e+03, -9.109562439391207e+02, -2.305175707980294e+02, 3.401473299989100e+03
450, 6.708064945484602e-01, 1.320152308280413e+00, 1.428930131518626e-02, 0.000000000000000e+00, 0.000000000000000e+00, 0.000000000000000e+00, 1.145626475292421e+03, 1.516123942981028e+03, -3.709321703806383e+01, 2.010398477893389e+03, -4.239537174795340e+02, 4.781384993212597e+02, 1.339361941559824e+03
451, 5.615950358794678e-01, 1.851273512750872e-02, 6.731080029472923e-02, 0.000000000000000e+00, 0.000000000000000e+00, 0.000000000000000e+00, 8.318578641084298e+02, 9.187430545897064e+02, -9.304305740484246e+01, 1.234993373196106e+03, 1.902418080308895e+02, -2.733770011225596e+02, 7.027037725144916e+02
452, 4.625866846550977e-01, 1.709808170657844e-02, 7.480069685361507e-02, 0.000000000000000e+00, 0.000000000000000e+00, 0.000000000000000e+00, 1.345293857224446e+03, 1.533517388173001e+03, -1.125616503838792e+02, 2.142742007974420e+03, 1.940851281265463e+02, -4.738892546989432e+02, 1.160165379376242e+03
453, 3.647657121316787e-01, 1.666552446860906e-02, 7.857598005553475e-02, 0.000000000000000e+00, 0.000000000000000e+00, 0.000000000000000e+00, 1.296693982174209e+03, 1.553120401562678e+03, -7.996440696000883e+01, 2.077510443029420e+03, 1.853541651048751e+02, -4.983182195898062e+02, 1.158629124214563e+03
454, 2.654683049070820e-01, 1.655628121528298e-02, 7.671854974470231e-02, 0.000000000000000e+00, 0.000000000000000e+00, 0.000000000000000e+00, 1.617721693355541e+03, 1.998522504233982e+03, -4.868981674812704e+01, 2.755558278932163e+03, 1.514771212301828e+02, -6.403824312646969e+02, 1.520726564165468e+03
455, 3.886282450669129e-02, 5.834636552428654e-02, 1.487228868011788e-02, 0.000000000000000e+00, 0.000000000000000e+00, 0.000000000000000e+00, 2.464057028341299e+03, 1.072764240617524e+03, -5.467647133164826e+01, 1.538250763356759e+03, -6.218008906777794e+02, -3.105795238374558e+01, 1.636006315350902e+03
456, 1.176230636041430e+00, 1.550330439031661e+00, 4.089013828548140e-03, 0.000000000000000e+00, 0.000000000000000e+00, 0.000000000000000e+00, 2.627054230521378e+02, 2.460447806824909e+02, -2.338350097087530e+01, 7.568855123878479e+02, -2.735199827891388e+02, -6.888973974311321e+01, 7.021696315479194e+02
457, 9.872737673751151e-01, 3.141312744108760e-02, 4.690267558997488e-03, 0.000000000000000e+00, 0.000000000000000e+00, 0.000000000000000e+00, 1.504732789533410e+02, 1.029535471327053e+02, -2.817069653091877e+01, 5.426570198692133e+02, -1.979167190659772e+02, -1.823421569261300e+02, 6.279669671311251e+02
458, 3.626542338456457e-02, 1.549981086522806e-02, 3.227139774349148e-02, 0.000000000000000e+00, 0.000000000000000e+00, 0.000000000000000e+00, 7.033210946634920e+02, 5.345567982366351e+02, 1.251441964838657e+02, 6.243572097195427e+02, -2.368841004384894e+02, -1.162936389739455e+02, 5.265818745912526e+02
459, 1.170611397430112e+00, 1.583836981789643e+00, 5.960253497690707e-03, 0.000000000000000e+00, 0.000000000000000e+00, 0.000000000000000e+00, -1.827932921352624e+03, -1.949497148126844e+03, 4.961525288137931e+01, -4.141325579221660e+03, 1.130852080972378e+01, 4.060817336215102e+02, 2.363855632660734e+03
460, 2.971690564147577e-02, 4.037044725365988e-02, 1.463517336797707e-02, 0.000000000000000e+00, 0.000000000000000e+00, 0.000000000000000e+00, 1.708531515784500e+03, 7.169455032042540e+02, 8.581761055864821e+01, 9.298355165903785e+02, -4.213561550665678e+02, -1.136128670881055e+02, 1.187816014557812e+03
461, 4.395922075371149e-02, 4.468693397014101e-02, 2.833767345049116e-02, 0.000000000000000e+00, 0.000000000000000e+00, 0.000000000000000e+00, 1.829531248999471e+03, 9.795762162388232e+02, 1.231894995485253e+02, 1.550236878977299e+03, -7.251558706558807e+02, -1.306700204193484e+02, 1.495775811666129e+03
462, 5.273732720949074e-02, 6.237306601371642e-02, 2.820210847124228e-02, 0.000000000000000e+00, 0.000000000000000e+00, 0.000000000000000e+00, 2.633083096458551e+03, 1.669285831656096e+03, -1.061855107839693e+01, 2.800472660955897e+03, -1.104616100506188e+03, -2.162692495481692e+02, 2.217980985634505e+03
463, 6.164891563569215e-02, 4.720193396646280e-02, 3.603984544711628e-02, 0.000000000000000e+00, 0.000000000000000e+00, 0.000000000000000e+00, 2.591160191235748e+03, 1.768537721489887e+03, 1.420135661247504e+02, 3.116543398283173e+03, -1.079725148915167e+03, -2.713811734946785e+02, 2.272398127044348e+03
464, 7.084423621153635e-02, 6.443547618505165e-02, 3.617785500303364e-02, 0.000000000000000e+00, 0.000000000000000e+00, 0.000000000000000e+00, 3.583680535729599e+03, 2.630907715229729e+03, -7.504853020240716e+01, 4.987712504458927e+03, -1.242156459140083e+03, -1.667575808299546e+02, 2.990983858283950e+03
465, 8.032005246456954e-02, 4.917152666641979e-02, 4.298686482858891e-02, 0.000000000000000e+00, 0.000000000000000e+00, 0.000000000000000e+00, 3.318827206701105e+03, 2.765816694981136e+03, 1.435673618456973e+02, 5.299320603281385e+03, -1.266399370388253e+03, -3.412392355707819e+02, 3.247441745816520e+03
466, 8.946482968309533e-02, 6.615881148159239e-02, 4.306801954327191e-02, 0.000000000000000e+00, 0.000000000000000e+00, 0.000000000000000e+00, 3.830317468437263e+03, 3.025035081321520e+03, 5.052178530617009e+01, 6.186722827165125e+03, -1.344931996259384e+03, -3.510355713933239e+01, 3.679208885774052e+03
467, 9.933994577774717e-02, 5.035493609650704e-02, 4.890559017921568e-02, 0.000000000000000e+00, 0.000000000000000e+00, 0.000000000000000e+00, 4.893335111829017e+03, 4.351589327489936e+03, 7.725507596633500e+01, 8.253015951211426e+03, -1.152879604566625e+03, -2.905001172300472e+02, 4.202321609696176e+03
468, 1.083506726166140e-01, 6.771839606283467e-02, 4.882134147789120e-02, 0.000000000000000e+00, 0.000000000000000e+00, 0.000000000000000e+00, 4.107491520567321e+03, 3.583429289005511e+03, 1.632823704530553e+02, 7.643560149701159e+03, -1.299345445836772e+03, -1.533824705405849e+02, 4.454997227428271e+03
469, 9.837634955765054e-02, 8.380716484724511e-02, 4.294225089628284e-02, 0.000000000000000e+00, 0.000000000000000e+00, 0.000000000000000e+00, 4.575717468195595e+03, 4.070406954405939e+03, -8.271388111935612e+01, 7.385875281982806e+03, -1.235155565257782e+03, -1.590830172054640e+01, 3.764364452891444e+03
470, 1.173114002701651e-01, 8.537068070514192e-02, 4.867633180751625e-02, 0.000000000000000e+00, 0.000000000000000e+00, 0.000000000000000e+00, 4.745416551313468e+03, 4.299192039003355e+03, 1.784195133975763e+02, 8.729792640799535e+03, -1.334939938160523e+03, 6.168348912043661e+01, 4.827567136509552e+03
471, 1.274853932978599e-01, 6.914220274074195e-02, 5.374117395028585e-02, 0.000000000000000e+00, 0.000000000000000e+00, 0.000000000000000e+00, 4.767945280379825e+03, 4.330076041426664e+03, 2.244516757229761e+02, 9.307469145960320e+03, -9.764562481656702e+02, -6.259980680289091e+02, 5.193638520180762e+03
472, 1.364679923029888e-01, 8.679665586599641e-02, 5.356949176283456e-02, 0.000000000000000e+00, 0.000000000000000e+00, 0.000000000000000e+00, 5.753747717056835e+03, 5.341248429729621e+03, 1.929424414745992e+02, 1.086058513029783e+04, -9.453223860499702e+02, -9.373349778445773e+01, 5.583498215677177e+03
473, 1.263033668027550e-01, 1.030371406998004e-01, 4.853745221961966e-02, 0.000000000000000e+00, 0.000000000000000e+00, 0.000000000000000e+00, 5.214096359813158e+03, 4.819190198003153e+03, 7.093953897648350e+01, 9.115165844934323e+03, -1.252832696786732e+03, 1.271943966462721e+02, 4.656957394941606e+03
474, 1.454575386658225e-01, 1.044508153510689e-01, 5.339849680190943e-02, 0.000000000000000e+00, 0.000000000000000e+00, 0.000000000000000e+00, 5.498104943729224e+03, 5.469321896397857e+03, 9.402129160212505e+01, 1.079592229364852e+04, -1.023302907928818e+03, -2.142765653483071e+02, 5.614792457230987e+03
475, 1.557802943285062e-01, 8.812021734235750e-02, 5.777976038262592e-02, 0.000000000000000e+00, 0.000000000000000e+00, 0.000000000000000e+00, 5.641449574405838e+03, 5.576538884470157e+03, 1.736130177500543e+02, 1.112492800664534e+04, -7.260909511378994e+02, -2.363968836870079e+02, 5.680526788107639e+03
476, 1.647673350074823e-01, 1.057480200293414e-01, 5.758031326786719e-02, 0.000000000000000e+00, 0.000000000000000e+00, 0.000000000000000e+00, 6.039056450792948e+03, 6.012199259680056e+03, 8.753273644628108e+01, 1.175622487122248e+04, -5.271563861666173e+02, -2.871651434628222e+02, 5.826177315041262e+03
477, 1.544474178167473e-01, 1.221023931043811e-01, 5.322688821150433e-02, 0.000000000000000e+00, 0.000000000000000e+00, 0.000000000000000e+00, 5.620113806399032e+03, 5.437323167422286e+03, 1.734568785586166e+02, 1.112413354107313e+04, -8.334363349572675e+02, 7.971655372116655e+01, 5.790242081974777e+03
478, 1.737757249895149e-01, 1.234159375562130e-01, 5.737929907866488e-02, 0.000000000000000e+00, 0.000000000000000e+00, 0.000000000000000e+00, 5.463512898221427e+03, 5.566708843576732e+03, 1.683508035142769e+02, 1.145705944232624e+04, -5.028799168172388e+02, -7.437792166906472e+01, 6.014567874326471e+03
479, 1.842146360590867e-01, 1.070136090467136e-01, 6.118406563409717e-02, 0.000000000000000e+00, 0.000000000000000e+00, 0.000000000000000e+00, 5.472787081111598e+03, 5.421749342982972e+03, 1.950474855448799e+02, 1.124768200934805e+04, -7.752523039005365e+01, -4.338921142600969e+02, 5.860349990170947e+03
480, 1.932063846173456e-01, 1.246353147622669e-01, 6.095444825407723e-02, 0.000000000000000e+00, 0.000000000000000e+00, 0.000000000000000e+00, 5.950876583296483e+03, 5.989281411689170e+03, 1.399571937608891e+02, 1.159389399227589e+04, -6.063209947032851e+01, -2.585421665935494e+02, 5.647895736654064e+03
481, 1.827777813013975e-01, 1.410616968745781e-01, 5.717827875792782e-02, 0.000000000000000e+00, 0.000000000000000e+00, 0.000000000000000e+00, 5.754391333385646e+03, 5.789831061463926e+03, 2.251275936614969e+02, 1.149828838534978e+04, -2.736646423342846e+02, 4.749735979674685e+01, 5.759647513129216e+03
482, 2.022313510797954e-01, 1.422990158054568e-01, 6.072483525081614e-02, 0.000000000000000e+00, 0.000000000000000e+00, 0.000000000000000e+00, 5.633869624826444e+03, 5.668342636987151e+03, 1.662715298869739e+02, 1.115953081292423e+04, -1.206085651444668e+02, -1.286996137417488e+02, 5.524482100932873e+03
483, 2.127552865847273e-01, 1.258420683554275e-01, 6.402618927220820e-02, 0.000000000000000e+00, 0.000000000000000e+00, 0.000000000000000e+00, 5.439399745883959e+03, 5.398224020557414e+03, 2.078207557820477e+02, 1.099963962609348e+04, 1.174473130807165e+02, -3.455070360303068e+02, 5.628142253477273e+03
484, 2.217623686824940e-01, 1.434562626547345e-01, 6.376796807051374e-02, 0.000000000000000e+00, 0.000000000000000e+00, 0.000000000000000e+00, 5.577196092195441e+03, 5.650609389723092e+03, 1.524384453120059e+02, 1.105215723090248e+04, 1.039680314607227e+02, -2.792217493415401e+02, 5.469432226567846e+03
485, 2.112434999783699e-01, 1.599381868106540e-01, 6.049396046643950e-02, 0.000000000000000e+00, 0.000000000000000e+00, 0.000000000000000e+00, 5.389528755201728e+03, 5.585126138644845e+03, 1.953934216427718e+02, 1.107852492878486e+04, -1.368812504767917e+02, -1.367413562180733e+02, 5.614002389280194e+03
486, 2.307838332311126e-01, 1.611046963578884e-01, 6.350702804500355e-02, 0.000000000000000e+00, 0.000000000000000e+00, 0.000000000000000e+00, 5.477804122907363e+03, 5.647668404217624e+03, 1.453960646561810e+02, 1.102670677292096e+04, 1.836865995874181e+02, -3.172334087495668e+02, 5.508463269100090e+03
487, 2.413753120161814e-01, 1.446180414512827e-01, 6.635954901177041e-02, 0.000000000000000e+00, 0.000000000000000e+00, 0.000000000000000e+00, 5.202433457782860e+03, 5.334973517740184e+03, 1.772494755797175e+02, 1.066039114222895e+04, 3.291957017304858e+02, -4.342800938719007e+02, 5.483487035969914e+03
488, 2.503964769225730e-01, 1.622494025700271e-01, 6.606963545863878e-02, 0.000000000000000e+00, 0.000000000000000e+00, 0.000000000000000e+00, 5.482748678321139e+03, 5.581806157090246e+03, 1.102076940623006e+02, 1.088708135685763e+04, 3.805812620374920e+02, -3.888032764119375e+02, 5.441116794979856e+03
489, 2.610294695937090e-01, 1.457237456078071e-01, 6.854394278134185e-02, 0.000000000000000e+00, 0.000000000000000e+00, 0.000000000000000e+00, 5.170050405962929e+03, 5.239388436920272e+03, 1.305463875312161e+02, 1.043548934468988e+04, 5.303566645111936e+02, -4.988755691594449e+02, 5.385735972459173e+03
490, 2.700531212163323e-01, 1.633507396472090e-01, 6.822433868648120e-02, 0.000000000000000e+00, 0.000000000000000e+00, 0.000000000000000e+00, 5.269689224258311e+03, 5.333742817832403e+03, 1.259642660033556e+02, 1.054250334822272e+04, 5.554311420671253e+02, -4.519724492778750e+02, 5.390257738756297e+03
491, 2.594151541110482e-01, 1.798692063443410e-01, 6.577823560819544e-02, 0.000000000000000e+00, 0.000000000000000e+00, 0.000000000000000e+00, 5.390737431215603e+03, 5.520865063690184e+03, 1.188881725731347e+02, 1.082242194861668e+04, 4.552540636175423e+02, -3.423463615920227e+02, 5.461601662941912e+03
492, 2.790811845277349e-01, 1.809790783672107e-01, 6.790280210654669e-02, 0.000000000000000e+00, 0.000000000000000e+00, 0.000000000000000e+00, 5.194980570359219e+03, 5.361639302076082e+03, 9.314854548112085e+01, 1.046982858302308e+04, 6.615239779356734e+02, -3.729075054474612e+02, 5.359920625098471e+03
493, 2.899962716689415e-01, 1.642790950592371e-01, 7.003556607263267e-02, 0.000000000000000e+00, 0.000000000000000e+00, 0.000000000000000e+00, 4.995890439355819e+03, 5.097863921830753e+03, 1.037570397172936e+02, 1.001752291919502e+04, 7.671966976604067e+02, -4.689597248396989e+02, 5.212768608059115e+03
494, 2.989702894930467e-01, 1.819458232765241e-01, 6.967608076907422e-02, 0.000000000000000e+00, 0.000000000000000e+00, 0.000000000000000e+00, 5.043866370474287e+03, 5.119791200020083e+03, 9.484988194139895e+01, 9.913689283014908e+03, 7.575632016704307e+02, -4.390620648290392e+02, 5.067368282343261e+03
495, 2.880494033233149e-01, 1.985793030543282e-01, 6.757458450138155e-02, 0.000000000000000e+00, 0.000000000000000e+00, 0.000000000000000e+00, 5.090924252825980e+03, 5.232571499194813e+03, 1.431835823030546e+02, 1.015555810654106e+04, 7.243279001654624e+02, -3.865774277172353e+02, 5.199708860485827e+03
496, 3.078299820064001e-01, 1.996415737289326e-01, 6.930285320036018e-02, 0.000000000000000e+00, 0.000000000000000e+00, 0.000000000000000e+00, 4.843813142983769e+03, 5.000635791506967e+03, 1.163020258943854e+02, 9.587203234874296e+03, 8.007813331871839e+02, -4.279817350978804e+02, 4.928925615273862e+03
497, 3.186325006580536e-01, 1.830589145899930e-01, 7.106858449146625e-02, 0.000000000000000e+00, 0.000000000000000e+00, 0.000000000000000e+00, 4.764341354565143e+03, 4.817467669298097e+03, 8.742807954760953e+01, 9.249806142883996e+03, 8.502770605889002e+02, -4.703423650121417e+02, 4.768587906922182e+03
498, 3.275586784438161e-01, 2.006954449081908e-01, 7.067561951070576e-02, 0.000000000000000e+00, 0.000000000000000e+00, 0.000000000000000e+00, 4.749159308002042e+03, 4.809259527854374e+03, 9.381721942407538e+01, 9.115539565037489e+03, 8.426648378024677e+02, -4.724685978530657e+02, 4.651107932364891e+03
499, 3.167770260021478e-01, 2.172638724157457e-01, 6.893888240726827e-02, 0.000000000000000e+00, 0.000000000000000e+00, 0.000000000000000e+00, 4.816287457128107e+03, 4.924619145990755e+03, 1.001777056272381e+02, 9.414317967296593e+03, 7.902880195131585e+02, -5.083000803039366e+02, 4.830567980168256e+03
500, 3.365834535934374e-01, 2.183282705033369e-01, 7.028627308521367e-02, 0.000000000000000e+00, 0.000000000000000e+00, 0.000000000000000e+00, 4.673499418830318e+03, 4.748519836847212e+03, 8.410657679911029e+01, 9.038042540996492e+03, 8.275316738580210e+02, -5.368093419426625e+02, 4.654844299241160e+03
501, 3.474295224816423e-01, 2.016699592196383e-01, 7.173388234997227e-02, 0.000000000000000e+00, 0.000000000000000e+00, 0.000000000000000e+00, 4.430111187534082e+03, 4.502249678853892e+03, 7.707033570416979e+01, 8.568284882461940e+03, 8.416816944796333e+02, -5.228810832587606e+02, 4.449098953748264e+03
502, 3.563624784115212e-01, 2.193379355704668e-01, 7.130729173049792e-02, 0.000000000000000e+00, 0.000000000000000e+00, 0.000000000000000e+00, 4.574466081822562e+03, 4.609396477148974e+03, 4.468707165027519e+01, 8.737252125709272e+03, 8.639235603620481e+02, -5.564726494564716e+02, 4.512058067430720e+03
503, 3.456206048541184e-01, 2.359484354042135e-01, 6.989527612145061e-02, 0.000000000000000e+00, 0.000000000000000e+00, 0.000000000000000e+00, 4.720275879367964e+03, 4.764434792445933e+03, 7.843311654859070e+01, 9.188961870759937e+03, 8.495890972075704e+02, -5.682239237405265e+02, 4.788138221598266e+03
504, 3.653974430673052e-01, 2.369804899721945e-01, 7.088346798087194e-02, 0.000000000000000e+00, 0.000000000000000e+00, 0.000000000000000e+00, 4.610764564808406e+03, 4.640257929299739e+03, 6.779755684661271e+01, 8.913626234869304e+03, 8.785626597865308e+02, -5.250635814646100e+02, 4.641666123714132e+03
505, 3.763468866683112e-01, 2.202163347728104e-01, 7.203416071642042e-02, 0.000000000000000e+00, 0.000000000000000e+00, 0.000000000000000e+00, 4.361698149350429e+03, 4.401403932510363e+03, 1.254438513961805e+01, 8.311099250790397e+03, 9.201566239102195e+02, -5.198611397263833e+02, 4.335185703253344e+03
506, 3.853490317291791e-01, 2.378783818567389e-01, 7.157654425459234e-02, 0.000000000000000e+00, 0.000000000000000e+00, 0.000000000000000e+00, 4.400608932786265e+03, 4.460966487404959e+03, 9.409757088163202e-01, 8.417740603081582e+03, 9.828206899216336e+02, -5.090750920817736e+02, 4.424229896461418e+03
507, 3.744481030695140e-01, 2.546283349789430e-01, 7.045673396859968e-02, 0.000000000000000e+00, 0.000000000000000e+00, 0.000000000000000e+00, 4.594800487794875e+03, 4.638844029083806e+03, 4.024941055103680e+01, 8.895715416486397e+03, 9.738831374057812e+02, -5.142200916674567e+02, 4.685493952858271e+03
508, 3.942753595785300e-01, 2.555639307003461e-01, 7.111246666242899e-02, 0.000000000000000e+00, 0.000000000000000e+00, 0.000000000000000e+00, 4.481129127094570e+03, 4.460957635660374e+03, 3.076660300565067e+01, 8.496036183279501e+03, 1.046170779167927e+03, -4.698875035824323e+02, 4.488821077896506e+03
509, 4.053785128369666e-01, 2.390367442243298e-01, 7.196764219456057e-02, 0.000000000000000e+00, 0.000000000000000e+00, 0.000000000000000e+00, 4.097594411087162e+03, 4.083694948730291e+03, 8.980773927476248e+00, 7.738301029101641e+03, 1.057806707648383e+03, -4.621287426256739e+02, 4.159728082161000e+03
510, 4.141007280100684e-01, 2.566587310847289e-01, 7.147251824459411e-02, 0.000000000000000e+00, 0.000000000000000e+00, 0.000000000000000e+00, 4.015145344503004e+03, 4.020423841429773e+03, 2.413416011056471e+01, 7.605610251657050e+03, 1.063687101907066e+03, -4.419680007022566e+02, 4.105430442759172e+03
511, 4.033014300878185e-01, 2.732549255407775e-01, 7.064757381928770e-02, 0.000000000000000e+00, 0.000000000000000e+00, 0.000000000000000e+00, 4.356169690766211e+03, 4.361103328734051e+03, 3.793320792680937e+01, 8.277462989404743e+03, 1.068570024596419e+03, -4.397269373359609e+02, 4.400811407987769e+03
512, 4.231022874087482e-01, 2.742585546926360e-01, 7.097847256136454e-02, 0.000000000000000e+00, 0.000000000000000e+00, 0.000000000000000e+00, 4.080949680944409e+03, 4.015239575683864e+03, 1.233961400673335e+01, 7.506132318709244e+03, 1.082664388902851e+03, -4.277754529990301e+02, 4.003396293327126e+03
513, 4.338596321299365e-01, 2.576984272074585e-01, 7.156164644739424e-02, 0.000000000000000e+00, 0.000000000000000e+00, 0.000000000000000e+00, 3.746136614586362e+03, 3.669284691022649e+03, 4.967691209840634e+01, 6.942495217310652e+03, 1.011415164512450e+03, -3.673783638886986e+02, 3.734895811257465e+03
514, 4.429134280587079e-01, 2.752361990765928e-01, 7.103699247685381e-02, 0.000000000000000e+00, 0.000000000000000e+00, 0.000000000000000e+00, 3.600779383306902e+03, 3.596505810034807e+03, 1.382051257993856e+01, 6.745491427503059e+03, 9.769733315125399e+02, -3.863781450201926e+02, 3.635180761075463e+03
515, 4.321629969835308e-01, 2.918993665743780e-01, 7.047985680639503e-02, 0.000000000000000e+00, 0.000000000000000e+00, 0.000000000000000e+00, 4.043839207133506e+03, 3.992807340017188e+03, 1.714740937664449e+01, 7.479866696905219e+03, 1.094711972723548e+03, -4.192989886288179e+02, 4.013444405545891e+03
516, 4.519787887008715e-01, 2.928758152572396e-01, 7.050513728522209e-02, 0.000000000000000e+00, 0.000000000000000e+00, 0.000000000000000e+00, 3.771630078137897e+03, 3.686267265675997e+03, -1.676650371520751e+00, 6.835938530530721e+03, 1.022474098626763e+03, -3.930949181363173e+02, 3.641262173128373e+03
517, 4.627318882536319e-01, 2.761898168885378e-01, 7.083612291177582e-02, 0.000000000000000e+00, 0.000000000000000e+00, 0.000000000000000e+00, 3.622761902169298e+03, 3.501182212329839e+03, -6.231150767295664e+00, 6.443342964406541e+03, 9.606279553781586e+02, -3.612967004347433e+02, 3.387259235025200e+03
518, 4.717945495896169e-01, 2.938432554346779e-01, 7.027037444734933e-02, 0.000000000000000e+00, 0.000000000000000e+00, 0.000000000000000e+00, 3.538273298641839e+03, 3.463095128451187e+03, -1.301577816475563e+01, 6.400908817293479e+03, 9.681941474547359e+02, -3.616978496189424e+02, 3.408918527382485e+03
519, 4.825426146298941e-01, 2.771657642734683e-01, 7.038648834396655e-02, 0.000000000000000e+00, 0.000000000000000e+00, 0.000000000000000e+00, 3.393618124821579e+03, 3.309541047334747e+03, -2.073867507223148e+01, 6.096947395104335e+03, 9.016826084114238e+02, -3.359752177884903e+02, 3.212688752560138e+03
520, 4.916070998248164e-01, 2.948058663454950e-01, 6.978726607899770e-02, 0.000000000000000e+00, 0.000000000000000e+00, 0.000000000000000e+00, 3.389919358870028e+03, 3.297600728026444e+03, -1.202618894193966e+01, 6.031784182061433e+03, 9.134129189611360e+02, -3.461388306708560e+02, 3.177216620959156e+03
521, 4.808589364854221e-01, 3.114875206764491e-01, 6.970032184566288e-02, 0.000000000000000e+00, 0.000000000000000e+00, 0.000000000000000e+00, 3.527008375747218e+03, 3.478216382248987e+03, 1.244180409431221e+01, 6.385451771107239e+03, 9.413180119398013e+02, -3.725644944854747e+02, 3.374561387291130e+03
522, 5.006752590254341e-01, 3.124490557240631e-01, 6.918282563801824e-02, 0.000000000000000e+00, 0.000000000000000e+00, 0.000000000000000e+00, 3.329144502073763e+03, 3.246144675100764e+03, 1.050872554842444e+01, 6.000703006698181e+03, 8.975833097104812e+02, -3.354962171224452e+02, 3.181324337002045e+03
523, 5.114238577985760e-01, 2.956474946183838e-01, 6.907066449166470e-02, 0.000000000000000e+00, 0.000000000000000e+00, 0.000000000000000e+00, 3.310876971166212e+03, 3.203938345494958e+03, -1.640677210888614e+01, 5.829934653938813e+03, 8.652796375719183e+02, -3.243197092768383e+02, 3.031329075992501e+03
524, 5.205269470630460e-01, 3.132739569792139e-01, 6.843419841695449e-02, 0.000000000000000e+00, 0.000000000000000e+00, 0.000000000000000e+00, 3.231190852864424e+03, 3.127832128183963e+03, -2.780030457937240e+01, 5.790237111797652e+03, 8.773249117166421e+02, -3.228431978067723e+02, 3.073759799190502e+03
525, 5.097503837592494e-01, 3.300483136811057e-01, 6.857325254942861e-02, 0.000000000000000e+00, 0.000000000000000e+00, 0.000000000000000e+00, 3.250176960587843e+03, 3.204049700746183e+03, -1.919583783669171e+01, 5.935243594139686e+03, 8.817260894769664e+02, -3.333221862687212e+02, 3.162642010685467e+03
526, 5.295570090747226e-01, 3.309682132531084e-01, 6.779520665744779e-02, 0.000000000000000e+00, 0.000000000000000e+00, 0.000000000000000e+00, 3.271737487028169e+03, 3.168398544810970e+03, -1.468501886814044e+01, 5.834157673880416e+03, 9.091708888547550e+02, -2.748342797342872e+02, 3.090064344201150e+03
527, 5.404056737088290e-01, 3.140922540162548e-01, 6.750088773316272e-02, 0.000000000000000e+00, 0.000000000000000e+00, 0.000000000000000e+00, 3.045086196521465e+03, 2.946256579703112e+03, -3.392046578773212e+01, 5.472114283260848e+03, 9.089059146565711e+02, -2.858214508850238e+02, 2.977743821629230e+03
528, 5.493844248286062e-01, 3.318732347305106e-01, 6.683748349974124e-02, 0.000000000000000e+00, 0.000000000000000e+00, 0.000000000000000e+00, 2.967579568238543e+03, 2.919492783685148e+03, -1.342707701730718e+01, 5.333510535397011e+03, 9.720861397385429e+02, -2.654737922914672e+02, 2.959820255434764e+03
529, 5.386219489949842e-01, 3.486146287368255e-01, 6.715101152675484e-02, 0.000000000000000e+00, 0.000000000000000e+00, 0.000000000000000e+00, 3.169599758302021e+03, 3.098651234500270e+03, -8.568326356973239e+00, 5.686054284594524e+03, 9.334082567197121e+02, -2.776607173609275e+02, 3.059636481915096e+03
530, 5.584340767472440e-01, 3.496254539787328e-01, 6.616670416819094e-02, 0.000000000000000e+00, 0.000000000000000e+00, 0.000000000000000e+00, 2.935113630882119e+03, 2.835230298435706e+03, -5.158848654945547e-02, 5.109275326807893e+03, 9.448128404773931e+02, -2.625839603853299e+02, 2.799818423207080e+03
531, 5.476899187534707e-01, 3.662989508761236e-01, 6.650191902283364e-02, 0.000000000000000e+00, 0.000000000000000e+00, 0.000000000000000e+00, 3.112900440003124e+03, 3.006506880783491e+03, 4.100435829524654e+00, 5.522331392678489e+03, 9.365331487579556e+02, -2.811971338868058e+02, 2.990246474976693e+03
532, 5.675057969134660e-01, 3.672767443522318e-01, 6.549165084406428e-02, 0.000000000000000e+00, 0.000000000000000e+00, 0.000000000000000e+00, 2.928998615946187e+03, 2.795046000613130e+03, -1.538540385978738e+01, 5.015104943648223e+03, 9.055255567284743e+02, -2.958561645469456e+02, 2.715226446544354e+03
533, 5.782364391276906e-01, 3.505956235306998e-01, 6.502144524869272e-02, 0.000000000000000e+00, 0.000000000000000e+00, 0.000000000000000e+00, 2.533440427444825e+03, 2.439771325949637e+03, 1.821673005642566e+01, 4.434469653163670e+03, 9.163695043461963e+02, -2.592239420512029e+02, 2.553926315841533e+03
534, 5.873088446122554e-01, 3.682336944268075e-01, 6.432001910984772e-02, 0.000000000000000e+00, 0.000000000000000e+00, 0.000000000000000e+00, 2.534390204321794e+03, 2.448422895367014e+03, 9.681530483411500e+00, 4.424777092652516e+03, 8.635940181859897e+02, -3.029761989028914e+02, 2.501302311116579e+03
535, 5.765815084531941e-01, 3.849378639755164e-01, 6.481203938966043e-02, 0.000000000000000e+00, 0.000000000000000e+00, 0.000000000000000e+00, 2.863542357106410e+03, 2.729338599275673e+03, -3.584315488990526e+01, 4.937001068877059e+03, 8.715681389777994e+02, -2.997228715299486e+02, 2.673528807758676e+03
536, 5.963832941852718e-01, 3.859018111378634e-01, 6.361380501915805e-02, 0.000000000000000e+00, 0.000000000000000e+00, 0.000000000000000e+00, 2.523354516889499e+03, 2.383207214935921e+03, -2.744680266221446e+01, 4.364511899573597e+03, 8.643397044428269e+02, -2.950882270824378e+02, 2.484406479213528e+03
537, 5.856540592031736e-01, 4.026099427802645e-01, 6.412811275142834e-02, 0.000000000000000e+00, 0.000000000000000e+00, 0.000000000000000e+00, 2.744633608970778e+03, 2.631506132720828e+03, -2.468768150467576e+01, 4.807810692854549e+03, 8.984571551280493e+02, -2.792739676429798e+02, 2.675889682436119e+03
538, 6.054578147441312e-01, 4.035578601449874e-01, 6.290294985461133e-02, 0.000000000000000e+00, 0.000000000000000e+00, 0.000000000000000e+00, 2.577780935522510e+03, 2.439749397866603e+03, -7.378120731743715e+01, 4.369358776457113e+03, 8.736814382489003e+02, -2.547779793084059e+02, 2.444815398395773e+03
539, 5.947287076609642e-01, 4.202680816332138e-01, 6.343957054481324e-02, 0.000000000000000e+00, 0.000000000000000e+00, 0.000000000000000e+00, 2.690202866610001e+03, 2.602591873389581e+03, -2.086486166948995e+01, 4.698320308555842e+03, 9.431756110407355e+02, -3.015093127033039e+02, 2.675614851666138e+03
540, 6.145329981956629e-01, 4.212158709828155e-01, 6.218725677502798e-02, 0.000000000000000e+00, 0.000000000000000e+00, 0.000000000000000e+00, 2.488323094315522e+03, 2.331483698595741e+03, -2.657195386408964e+01, 4.206873841618379e+03, 9.109856232996332e+02, -2.473331071131734e+02, 2.433695821013960e+03
541, 6.038041232188089e-01, 4.379280669861757e-01, 6.274633649708711e-02, 0.000000000000000e+00, 0.000000000000000e+00, 0.000000000000000e+00, 2.640450910791641e+03, 2.506331246731703e+03, -3.108682845761432e+01, 4.523471156498303e+03, 9.396456267170747e+02, -2.681024348164742e+02, 2.585273874002668e+03
542, 6.236097972971353e-01, 4.387816860485364e-01, 6.146721544486909e-02, 0.000000000000000e+00, 0.000000000000000e+00, 0.000000000000000e+00, 2.383547258052388e+03, 2.236137187579249e+03, -1.114432649102098e+01, 4.025200266379652e+03, 8.655590480449955e+02, -2.242537529815888e+02, 2.314642464064869e+03
543, 6.128831976183448e-01, 4.555536536367427e-01, 6.204853306118000e-02, 0.000000000000000e+00, 0.000000000000000e+00, 0.000000000000000e+00, 2.575097540837666e+03, 2.446306992583957e+03, -4.807677318073442e+01, 4.300576174538961e+03, 9.182376654454156e+02, -2.572796442344996e+02, 2.439484098126544e+03
544, 6.326847127659497e-01, 4.565170763766588e-01, 6.074154171661311e-02, 0.000000000000000e+00, 0.000000000000000e+00, 0.000000000000000e+00, 2.288398472800121e+03, 2.173591522644051e+03, -4.129149398367490e+01, 3.850014400343566e+03, 8.577476483956336e+02, -2.196681542568800e+02, 2.233423301640941e+03
545, 6.219569977152647e-01, 4.732530752226098e-01, 6.134586115714386e-02, 0.000000000000000e+00, 0.000000000000000e+00, 0.000000000000000e+00, 2.451760144238197e+03, 2.304811701026425e+03, -3.828535596945412e+01, 4.093789975603979e+03, 9.554291853663508e+02, -3.024708675832499e+02, 2.444697835497924e+03
546, 6.417617357782236e-01, 4.742005050939698e-01, 6.001125341270813e-02, 0.000000000000000e+00, 0.000000000000000e+00, 0.000000000000000e+00, 2.209313635868571e+03, 2.075875503752279e+03, -3.825152605208901e+01, 3.641348078477082e+03, 8.802279468340894e+02, -2.483988847307531e+02, 2.184837671721468e+03
547, 6.310342792107990e-01, 4.909177998406260e-01, 6.063857067706110e-02, 0.000000000000000e+00, 0.000000000000000e+00, 0.000000000000000e+00, 2.412937167700508e+03, 2.275773931315202e+03, -3.624894619213757e+01, 4.011714261011790e+03, 9.382182072282890e+02, -3.154285698585328e+02, 2.395283512940158e+03
548, 6.508387726437952e-01, 4.918651258121945e-01, 5.927597172515534e-02, 0.000000000000000e+00, 0.000000000000000e+00, 0.000000000000000e+00, 2.197052885186016e+03, 2.073319525931991e+03, -2.654933062222699e+01, 3.644910954030897e+03, 8.818412227294183e+02, -2.964207390890357e+02, 2.211197292229533e+03
549, 6.401131252913449e-01, 5.085646520372468e-01, 5.992631254889100e-02, 0.000000000000000e+00, 0.000000000000000e+00, 0.000000000000000e+00, 2.399828245479881e+03, 2.249787039980086e+03, -5.338575101272239e+00, 4.052356564928431e+03, 9.045899713811159e+02, -2.920569654268571e+02, 2.390007513457881e+03
550, 6.599161364490829e-01, 5.095311388214788e-01, 5.853550543215383e-02, 0.000000000000000e+00, 0.000000000000000e+00, 0.000000000000000e+00, 2.191501434840565e+03, 2.022560125738709e+03, -3.190891636155426e+01, 3.495387802548231e+03, 8.289916081523331e+02, -2.952579700766714e+02, 2.067657780767409e+03
551, 6.491898685597669e-01, 5.262351149903771e-01, 5.920902808137687e-02, 0.000000000000000e+00, 0.000000000000000e+00, 0.000000000000000e+00, 2.375420711035559e+03, 2.187836523166461e+03, -2.520548450410178e+01, 3.906968731294702e+03, 8.613713830687465e+02, -3.095356824354342e+02, 2.276696356921561e+03
552, 5.980320732956083e-01, 3.515408883267803e-01, 6.372197593564657e-02, 0.000000000000000e+00, 0.000000000000000e+00, 0.000000000000000e+00, 2.441596894047383e+03, 2.278208531326201e+03, 6.686115937831258e+00, 4.022529917981747e+03, 8.459668653112451e+02, -2.745359090777539e+02, 2.271029471795444e+03
553, 6.689937548915519e-01, 5.271984621364169e-01, 5.778987083117355e-02, 0.000000000000000e+00, 0.000000000000000e+00, 0.000000000000000e+00, 2.120000665953857e+03, 1.994970396045240e+03, -3.870783516782733e+01, 3.518152692226928e+03, 7.814601511683950e+02, -3.268015823037767e+02, 2.074175884025847e+03
554, 6.582686507215523e-01, 5.439199201548031e-01, 5.848653518772207e-02, 0.000000000000000e+00, 0.000000000000000e+00, 0.000000000000000e+00, 2.402066805186814e+03, 2.241572473640649e+03, -2.775305565355120e+01, 3.987871540325682e+03, 8.400585121039519e+02, -3.264790001311632e+02, 2.287841554724745e+03
555, 6.780715297503810e-01, 5.448669753352459e-01, 5.703909144649494e-02, 0.000000000000000e+00, 0.000000000000000e+00, 0.000000000000000e+00, 2.201252872533664e+03, 2.039897754756987e+03, -5.092246774305748e+01, 3.700076403827864e+03, 7.973955857091621e+02, -3.044414261731406e+02, 2.169724060522877e+03
556, 6.673474311275507e-01, 5.615896185530171e-01, 5.775915434350216e-02, 0.000000000000000e+00, 0.000000000000000e+00, 0.000000000000000e+00, 2.269118649939897e+03, 2.138789848009216e+03, -2.279152113275057e+01, 3.957673613376693e+03, 8.070777740602126e+02, -2.905031887050345e+02, 2.301549277103257e+03
557, 6.871494686477290e-01, 5.625366037933821e-01, 5.628305825452368e-02, 0.000000000000000e+00, 0.000000000000000e+00, 0.000000000000000e+00, 2.195671038853913e+03, 2.073581878279636e+03, -1.318121551647684e+01, 3.732636540414883e+03, 8.183791941095009e+02, -2.430765537080678e+02, 2.179869015859599e+03
558, 6.764264436329128e-01, 5.792603666956011e-01, 5.702662657415990e-02, 0.000000000000000e+00, 0.000000000000000e+00, 0.000000000000000e+00, 2.210930585162952e+03, 2.100519281940707e+03, 2.464193661749404e+00, 3.864777271479303e+03, 7.710885915272545e+02, -2.253017642471986e+02, 2.205909473506370e+03
559, 6.962274916499633e-01, 5.802072887810497e-01, 5.552149292344113e-02, 0.000000000000000e+00, 0.000000000000000e+00, 0.000000000000000e+00, 2.066334837656046e+03, 1.954930732732933e+03, -9.609127406076940e+00, 3.527411640161929e+03, 7.965175214544767e+02, -2.577198932480027e+02, 2.100662365276576e+03
560, 6.855056286716057e-01, 5.969320652288312e-01, 5.628868870258184e-02, 0.000000000000000e+00, 0.000000000000000e+00, 0.000000000000000e+00, 2.222136744224801e+03, 2.130919644899677e+03, -4.171043500249646e+01, 3.799156372590832e+03, 7.873175467945664e+02, -2.559520051573070e+02, 2.168068944938705e+03
561, 6.434004505527051e-01, 4.397781917781290e-01, 6.003364505917952e-02, 0.000000000000000e+00, 0.000000000000000e+00, 0.000000000000000e+00, 2.197585353272806e+03, 2.043715746388492e+03, -1.907060392234075e+01, 3.625323269761163e+03, 8.207349279367385e+02, -2.070726152403985e+02, 2.105312950513651e+03
562, 7.053055000573811e-01, 5.978789282817784e-01, 5.475439186329092e-02, 0.000000000000000e+00, 0.000000000000000e+00, 0.000000000000000e+00, 2.130517171671813e+03, 2.010662233657631e+03, -4.098940161103824e+01, 3.586240429513634e+03, 8.021655627751030e+02, -2.318948383930630e+02, 2.098748637184226e+03
563, 6.945849175929150e-01, 6.146046388038315e-01, 5.554535028943983e-02, 0.000000000000000e+00, 0.000000000000000e+00, 0.000000000000000e+00, 2.222462352594427e+03, 2.046422946801949e+03, -5.975145119342483e+00, 3.634077548264442e+03, 8.232494779649671e+02, -2.307646179363108e+02, 2.113109172748035e+03
564, 7.143835123528834e-01, 6.155514599487821e-01, 5.398175784343467e-02, 0.000000000000000e+00, 0.000000000000000e+00, 0.000000000000000e+00, 1.899567545881950e+03, 1.841253107806128e+03, -1.270520696215238e+01, 3.223855586018041e+03, 7.747897583503957e+02, -2.551941125680315e+02, 1.957324291194655e+03
565, 7.036642770871460e-01, 6.322780590111572e-01, 5.479662846979820e-02, 0.000000000000000e+00, 0.000000000000000e+00, 0.000000000000000e+00, 1.973113347472392e+03, 1.909492224622828e+03, -3.172970841900411e+01, 3.345453543456544e+03, 7.645754056911790e+02, -2.964432472257582e+02, 1.998764082531096e+03
566, 7.234614917668239e-01, 6.332248490965228e-01, 5.320356098024129e-02, 0.000000000000000e+00, 0.000000000000000e+00, 0.000000000000000e+00, 1.898824238725845e+03, 1.771915311364842e+03, -3.780819081004964e+01, 3.135324420108904e+03, 7.847058321774460e+02, -2.963477068212724e+02, 1.953715814328386e+03
567, 7.127436789329131e-01, 6.499522665274746e-01, 5.404251080455562e-02, 0.000000000000000e+00, 0.000000000000000e+00, 0.000000000000000e+00, 2.114030690112513e+03, 1.972873226203863e+03, -1.556006793647411e+01, 3.505764240292704e+03, 7.616748792072879e+02, -3.336844404852313e+02, 2.056333973883862e+03
568, 7.325393450769544e-01, 6.508990325577395e-01, 5.241949684866654e-02, 0.000000000000000e+00, 0.000000000000000e+00, 0.000000000000000e+00, 1.891931276253325e+03, 1.789879691797863e+03, -3.443299559735883e+01, 3.249516851866059e+03, 7.749605253000465e+02, -3.135852472395680e+02, 2.022931620881706e+03
569, 7.218230513862420e-01, 6.676272086038231e-01, 5.328268460653340e-02, 0.000000000000000e+00, 0.000000000000000e+00, 0.000000000000000e+00, 2.109245213501603e+03, 1.997971863353081e+03, -4.297319427557009e+01, 3.683991926790804e+03, 7.411778627675880e+02, -2.926267769070561e+02, 2.139603132038613e+03
570, 7.416170655373486e-01, 6.685739658066673e-01, 5.162949746671035e-02, 0.000000000000000e+00, 0.000000000000000e+00, 0.000000000000000e+00, 1.856064186644032e+03, 1.716218209923921e+03, -3.308445640886339e+01, 3.068805940950129e+03, 8.274170337668891e+02, -2.506838812642030e+02, 1.976250066927232e+03
571, 7.309023587921766e-01, 6.853028519813953e-01, 5.251706976541776e-02, 0.000000000000000e+00, 0.000000000000000e+00, 0.000000000000000e+00, 2.013668544112702e+03, 1.895551752262109e+03, -3.263568730738878e+01, 3.378925574601473e+03, 8.276662113285116e+02, -2.236844230559206e+02, 2.060954054811808e+03
572, 6.887878432555973e-01, 5.281439938324038e-01, 5.621737772110027e-02, 0.000000000000000e+00, 0.000000000000000e+00, 0.000000000000000e+00, 1.812549880818533e+03, 1.731091228295431e+03, -2.016115403758893e+01, 3.089233744857470e+03, 7.599862325494793e+02, -3.055515230588705e+02, 1.937677987992920e+03
573, 7.250945592149952e-01, 5.988246712926650e-01, 5.306688218564956e-02, 0.000000000000000e+00, 0.000000000000000e+00, 0.000000000000000e+00, 1.877426513609968e+03, 1.737856599887579e+03, -2.639642665727080e+01, 3.037338054217995e+03, 7.720456272818707e+02, -2.419795513730840e+02, 1.868871122411755e+03
574, 7.506946106977854e-01, 6.862496111074046e-01, 5.083356793166785e-02, 0.000000000000000e+00, 0.000000000000000e+00, 0.000000000000000e+00, 1.657623762811852e+03, 1.542211430001187e+03, -2.924697614735107e+01, 2.698232285670608e+03, 8.160132290986819e+02, -2.431775936107118e+02, 1.842251371206771e+03
575, 7.399815706825160e-01, 7.029791374470680e-01, 5.174567175538544e-02, 0.000000000000000e+00, 0.000000000000000e+00, 0.000000000000000e+00, 1.850802757048938e+03, 1.741081091307431e+03, -2.331033075868060e+01, 3.079726252621361e+03, 8.062628147175831e+02, -2.809825837084990e+02, 1.961069673850937e+03
576, 7.597719188262063e-01, 7.039259079059560e-01, 5.003168332423433e-02, 0.000000000000000e+00, 0.000000000000000e+00, 0.000000000000000e+00, 1.645439661103918e+03, 1.473728990319596e+03, -3.183356504476989e+01, 2.541086541650398e+03, 7.912918106730414e+02, -2.727692262714984e+02, 1.757878688830848e+03
577, 7.490606413017529e-01, 7.206560228953764e-01, 5.096848808334187e-02, 0.000000000000000e+00, 0.000000000000000e+00, 0.000000000000000e+00, 1.853651291978555e+03, 1.740242910719618e+03, -1.695810628301765e+01, 3.119283498655047e+03, 7.960242677219035e+02, -2.890693860626895e+02, 1.977556474473894e+03
578, 7.688489692520557e-01, 7.216028215211675e-01, 4.922352905562861e-02, 0.000000000000000e+00, 0.000000000000000e+00, 0.000000000000000e+00, 1.756055835476212e+03, 1.603680966512319e+03, -2.811966524161121e+01, 2.759128384425955e+03, 7.474492288674230e+02, -2.674711347762617e+02, 1.753639446150409e+03
579, 7.581395210174904e-01, 7.383334897884710e-01, 5.018522283896856e-02, 0.000000000000000e+00, 0.000000000000000e+00, 0.000000000000000e+00, 1.909422049801296e+03, 1.751450536395590e+03, -1.873566472237040e+01, 3.123085282961802e+03, 7.841387451134810e+02, -2.872319241728174e+02, 1.944951923630708e+03
580, 7.779257221090433e-01, 7.392803290941374e-01, 4.840902697224399e-02, 0.000000000000000e+00, 0.000000000000000e+00, 0.000000000000000e+00, 1.602226279171921e+03, 1.477896199309645e+03, -2.613563115377663e+01, 2.621314712590880e+03, 6.876714627414308e+02, -2.668379143406647e+02, 1.677806694301770e+03
581, 7.672181751811719e-01, 7.560115024027612e-01, 4.939575420812158e-02, 0.000000000000000e+00, 0.000000000000000e+00, 0.000000000000000e+00, 1.928408140677921e+03, 1.743114006397609e+03, -3.104471271685022e+01, 3.106970986453317e+03, 6.773189041120564e+02, -2.603300040416470e+02, 1.795609709547830e+03
582, 7.870021375634768e-01, 7.569583945546617e-01, 4.758817550521579e-02, 0.000000000000000e+00, 0.000000000000000e+00, 0.000000000000000e+00, 1.487458045903902e+03, 1.372569024823018e+03, -2.685558617533329e+01, 2.571587431581523e+03, 7.111561799398303e+02, -2.252411623246208e+02, 1.727623895366847e+03
583, 7.762965721242254e-01, 7.736900308042616e-01, 4.860008588471649e-02, 0.000000000000000e+00, 0.000000000000000e+00, 0.000000000000000e+00, 1.850226966026260e+03, 1.744716279518312e+03, -5.250702053987704e+01, 3.004217998683303e+03, 7.011104166969819e+02, -2.579154380246551e+02, 1.774002740932276e+03
584, 7.960781984279361e-01, 7.746369933803953e-01, 4.676088025550063e-02, 0.000000000000000e+00, 0.000000000000000e+00, 0.000000000000000e+00, 1.546891654442740e+03, 1.430174117162947e+03, -3.882780695233652e+01, 2.512556781449997e+03, 6.804088852678356e+02, -1.842691506089646e+02, 1.598154900289316e+03
585, 7.853782588946623e-01, 7.913339152593885e-01, 4.779783075905771e-02, 0.000000000000000e+00, 0.000000000000000e+00, 0.000000000000000e+00, 1.640451766004883e+03, 1.528256119232526e+03, -4.459753629897379e+01, 2.717759679499329e+03, 7.285764681015908e+02, -1.922027753336513e+02, 1.733006928042634e+03
586, 7.565056387599332e-01, 7.727191566474541e-01, 5.027883633892234e-02, 0.000000000000000e+00, 0.000000000000000e+00, 0.000000000000000e+00, 2.147981402899185e+03, 2.051069252135286e+03, -5.412999643581123e+01, 3.546667684493185e+03, 7.616376107579355e+02, -3.154667162450713e+02, 2.036882039333429e+03
587, 7.201867520218228e-01, 7.020124930127752e-01, 5.329893372359222e-02, 0.000000000000000e+00, 0.000000000000000e+00, 0.000000000000000e+00, 2.097170268796207e+03, 1.981357600906542e+03, -1.480428089488953e+01, 3.595265198753860e+03, 8.132022143079486e+02, -2.970488897114497e+02, 2.163438124074695e+03
588, 6.838553086842980e-01, 6.313304676116289e-01, 5.622925825368598e-02, 0.000000000000000e+00, 0.000000000000000e+00, 0.000000000000000e+00, 2.255917581922473e+03, 2.127138539420189e+03, -3.157145182097954e+01, 3.771366291469111e+03, 8.607614852168086e+02, -2.898649742145607e+02, 2.232960646690517e+03
589, 6.384538425879307e-01, 5.429603209006613e-01, 5.977307983889144e-02, 0.000000000000000e+00, 0.000000000000000e+00, 0.000000000000000e+00, 2.554613425844404e+03, 2.414396315089228e+03, -1.633927739860583e+01, 4.341450083207319e+03, 9.562730699309899e+02, -3.148397235609415e+02, 2.550399728495615e+03
590, 5.930661059530422e-01, 4.546405661384785e-01, 6.319382628931171e-02, 0.000000000000000e+00, 0.000000000000000e+00, 0.000000000000000e+00, 2.768299975247515e+03, 2.660962435626176e+03, -2.113201813673078e+01, 4.807889356426848e+03, 9.681406707811446e+02, -3.242170408989413e+02, 2.742070299592289e+03
591, 7.613990323725438e-01, 6.695200401108017e-01, 4.982316640229290e-02, 0.000000000000000e+00, 0.000000000000000e+00, 0.000000000000000e+00, 1.515024165628485e+03, 1.373161680328993e+03, -4.758560302210311e+01, 2.391702421801405e+03, 7.871946657249299e+02, -2.194939414840981e+02, 1.709798160876720e+03
592, 8.051534067839867e-01, 7.922954747475304e-01, 4.592680180218257e-02, 0.000000000000000e+00, 0.000000000000000e+00, 0.000000000000000e+00, 1.420973709009325e+03, 1.310291705181138e+03, -3.138785581249692e+01, 2.229394770769719e+03, 6.934938185714159e+02, -1.716376838629876e+02, 1.513078942869518e+03
593, 7.944521769282598e-01, 8.090251012601766e-01, 4.698973052289447e-02, 0.000000000000000e+00, 0.000000000000000e+00, 0.000000000000000e+00, 1.431581377380217e+03, 1.316431447124881e+03, -3.055969829320006e+00, 2.328742145490613e+03, 7.100686120573973e+02, -2.106444721511704e+02, 1.602247967524273e+03
594, 8.142290309648287e-01, 8.099956946961253e-01, 4.508598892287950e-02, 0.000000000000000e+00, 0.000000000000000e+00, 0.000000000000000e+00, 1.362660688345449e+03, 1.151612486133686e+03, 2.069432387984926e+00, 1.972523521687635e+03, 6.696494425670190e+02, -2.018966478835335e+02, 1.418723094350558e+03
595, 8.035293879977544e-01, 8.267066641229889e-01, 4.617465246328496e-02, 0.000000000000000e+00, 0.000000000000000e+00, 0.000000000000000e+00, 1.541843916636319e+03, 1.428250948351799e+03, -6.031172329386415e+01, 2.475010920373629e+03, 7.210335470974204e+02, -2.206112955933374e+02, 1.645081730619258e+03
596, 8.233032921318999e-01, 8.276548963185189e-01, 4.423831926485602e-02, 0.000000000000000e+00, 0.000000000000000e+00, 0.000000000000000e+00, 1.189694114534148e+03, 1.015755481087222e+03, -3.382476930361788e+01, 1.778820039249299e+03, 6.283109278100878e+02, -1.856923058572398e+02, 1.330788063549475e+03
597, 8.126068738028100e-01, 8.444088612329712e-01, 4.535292103044770e-02, 0.000000000000000e+00, 0.000000000000000e+00, 0.000000000000000e+00, 1.344452082138459e+03, 1.178968559688396e+03, -1.653343339643281e+01, 2.029726615718227e+03, 6.511073226492824e+02, -1.732436606041518e+02, 1.404660109826682e+03
598, 7.928206862045097e-01, 8.434408206050006e-01, 4.716184914743740e-02, 0.000000000000000e+00, 0.000000000000000e+00, 0.000000000000000e+00, 1.618378387296682e+03, 1.485056473572242e+03, -3.396143004185183e+01, 2.567395912955338e+03, 7.508679304663972e+02, -1.818259850701493e+02, 1.684928478928881e+03
599, 8.019001131149084e-01, 8.611416680320905e-01, 4.636646204046847e-02, 0.000000000000000e+00, 0.000000000000000e+00, 0.000000000000000e+00, 1.785579322229966e+03, 1.603268665917239e+03, -4.791405021956305e+01, 2.628050355666545e+03, 7.093314434487615e+02, -2.762079832246291e+02, 1.625361243916825e+03
600, 8.216829456499377e-01, 8.620890647193933e-01, 4.452444615484487e-02, 0.000000000000000e+00, 0.000000000000000e+00, 0.000000000000000e+00, 1.310445755967876e+03, 1.279813800494496e+03, -1.138833783844381e+01, 2.186188541795184e+03, 6.171497414018270e+02, -2.385034904932106e+02, 1.452016423885013e+03
601, 8.109785977439026e-01, 8.788220550202879e-01, 4.556460038500229e-02, 0.000000000000000e+00, 0.000000000000000e+00, 0.000000000000000e+00, 1.598276511470513e+03, 1.484533034297210e+03, -1.269331359049808e+01, 2.648389311384567e+03, 6.181335032567846e+02, -2.414510827424742e+02, 1.598988515492529e+03
602, 7.911837157766453e-01, 8.778745478002374e-01, 4.727206283377881e-02, 0.000000000000000e+00, 0.000000000000000e+00, 0.000000000000000e+00, 1.828205204919407e+03, 1.645023173564230e+03, 6.055616760912677e+00, 2.948602962532141e+03, 7.050441841592049e+02, -2.507747827708157e+02, 1.781605854389463e+03
603, 8.002643651949385e-01, 8.955545761432528e-01, 4.649726565102039e-02, 0.000000000000000e+00, 0.000000000000000e+00, 0.000000000000000e+00, 1.888406213280818e+03, 1.734064173011953e+03, -4.132459011852516e+01, 3.008113294836644e+03, 6.754208574135582e+02, -2.652777582643886e+02, 1.742183493657879e+03
604, 8.200561081354065e-01, 8.965022201220528e-01, 4.475592295381065e-02, 0.000000000000000e+00, 0.000000000000000e+00, 0.000000000000000e+00, 1.598188381198739e+03, 1.491898638501199e+03, -2.385286491646957e+01, 2.661535144483540e+03, 6.335233647345922e+02, -2.498742011811898e+02, 1.627298525162078e+03
605, 8.093447052837621e-01, 9.132146333070276e-01, 4.571594232883004e-02, 0.000000000000000e+00, 0.000000000000000e+00, 0.000000000000000e+00, 1.797723094885064e+03, 1.751344354343527e+03, -4.103220901902016e+01, 3.038657248391881e+03, 6.729542009627345e+02, -2.913883498480524e+02, 1.793877373635432e+03
606, 8.291332590404998e-01, 9.141826216219876e-01, 4.394028131604849e-02, 0.000000000000000e+00, 0.000000000000000e+00, 0.000000000000000e+00, 1.710854972081827e+03, 1.579099801098798e+03, -2.982652918220924e+01, 2.823910601192618e+03, 6.603149094997545e+02, -2.414400354834175e+02, 1.699558522133904e+03
607, 8.184236679757014e-01, 9.309156198696382e-01, 4.492785621115383e-02, 0.000000000000000e+00, 0.000000000000000e+00, 0.000000000000000e+00, 2.011200713187604e+03, 1.824651795845436e+03, -8.437780590751383e+01, 3.239858302370360e+03, 7.396009607556825e+02, -2.832962937093606e+02, 1.917488635949132e+03
608, 8.382099304055439e-01, 9.318633594480885e-01, 4.311768156804037e-02, 0.000000000000000e+00, 0.000000000000000e+00, 0.000000000000000e+00, 1.494866654157005e+03, 1.390482944533088e+03, -6.441802132576480e+01, 2.506983713736939e+03, 6.958651996174868e+02, -1.776642961829082e+02, 1.643396912898806e+03
609, 8.275032501052997e-01, 9.485755579474506e-01, 4.413285753414048e-02, 0.000000000000000e+00, 0.000000000000000e+00, 0.000000000000000e+00, 1.742693189843343e+03, 1.589644887102040e+03, -4.520186361356372e+01, 2.836806130531194e+03, 7.608669854758333e+02, -2.130433080873158e+02, 1.807486300384654e+03
610, 8.472860653308907e-01, 9.495444295406565e-01, 4.228789704907333e-02, 0.000000000000000e+00, 0.000000000000000e+00, 0.000000000000000e+00, 1.355392505727811e+03, 1.209952146788279e+03, -2.271551717285693e+01, 2.026015997738089e+03, 6.902292253707456e+02, -1.506315727763927e+02, 1.437807787715742e+03
611, 8.365812363865138e-01, 9.662779346909025e-01, 4.333112841729775e-02, 0.000000000000000e+00, 0.000000000000000e+00, 0.000000000000000e+00, 1.646977694903018e+03, 1.455516450208981e+03, -2.599860294951032e+01, 2.502707485362498e+03, 7.750960669697322e+02, -2.114282726281395e+02, 1.694469013544991e+03
612, 8.563616317626426e-01, 9.672258264022441e-01, 4.145067653057181e-02, 0.000000000000000e+00, 0.000000000000000e+00, 0.000000000000000e+00, 1.163840091188126e+03, 1.025093348104636e+03, -1.850308256833360e+01, 1.748796134850182e+03, 6.229481539741564e+02, -2.059652940312405e+02, 1.317220704547002e+03
613, 8.456593043487399e-01, 9.839595514544415e-01, 4.252212707638120e-02, 0.000000000000000e+00, 0.000000000000000e+00, 0.000000000000000e+00, 1.639113908453299e+03, 1.532708707715835e+03, -2.269589479198586e+01, 2.653729240169124e+03, 7.221219224909063e+02, -2.679572801539995e+02, 1.711740494890807e+03
614, 8.167852057027805e-01, 9.653300093376367e-01, 4.503467249324435e-02, 0.000000000000000e+00, 0.000000000000000e+00, 0.000000000000000e+00, 2.154103434677477e+03, 2.015234463824035e+03, -2.639509973747264e+01, 3.649076752416656e+03, 9.117121775723842e+02, -1.753766217168398e+02, 2.247187905875252e+03
615, 7.804591415572230e-01, 8.945874886787304e-01, 4.806184020008757e-02, 0.000000000000000e+00, 0.000000000000000e+00, 0.000000000000000e+00, 2.279857367450701e+03, 2.186979795231856e+03, -4.082039157789060e+01, 3.778120069583325e+03, 8.323906271105102e+02, -3.274743619189963e+02, 2.190413688072623e+03
616, 7.977018516293034e-01, 7.401955739045226e-01, 4.647919215809477e-02, 0.000000000000000e+00, 0.000000000000000e+00, 0.000000000000000e+00, 1.359393237659991e+03, 1.249038853363393e+03, -3.240209126383849e+01, 2.201458712995191e+03, 7.133523851166874e+02, -2.460997563095235e+02, 1.589225536143202e+03
617, 8.654366093276197e-01, 9.849075486217773e-01, 4.060601723591965e-02, 0.000000000000000e+00, 0.000000000000000e+00, 0.000000000000000e+00, 1.094314917950690e+03, 9.303452486066827e+02, -1.719188551590893e+01, 1.668516716225058e+03, 6.207615325310622e+02, -1.566436176826084e+02, 1.296641210621460e+03
618, 8.547368524445720e-01, 1.001641467560977e+00, 4.170581669479426e-02, 0.000000000000000e+00, 0.000000000000000e+00, 0.000000000000000e+00, 1.532718667674985e+03, 1.444986226859827e+03, -2.686225234305174e+01, 2.524753247253193e+03, 6.636808755242381e+02, -2.407067773220683e+02, 1.605074489439273e+03
619, 8.745109568875957e-01, 1.002589587078808e+00, 3.975378384619710e-02, 0.000000000000000e+00, 0.000000000000000e+00, 0.000000000000000e+00, 1.228823806837250e+03, 1.135797858503285e+03, -2.372626621289213e+01, 1.928220161289530e+03, 5.922899022499971e+02, -2.286494116034859e+02, 1.331849672127385e+03
620, 8.638138598257816e-01, 1.019323673929906e+00, 4.088218929980349e-02, 0.000000000000000e+00, 0.000000000000000e+00, 0.000000000000000e+00, 1.515180495935361e+03, 1.422206468004037e+03, -1.908607712518850e+01, 2.543890959756751e+03, 6.000563737967396e+02, -2.140994327449611e+02, 1.543160469675619e+03
621, 8.835846335604518e-01, 1.020271939039048e+00, 3.889364108869347e-02, 0.000000000000000e+00, 0.000000000000000e+00, 0.000000000000000e+00, 1.401827151834202e+03, 1.247073021708325e+03, -2.399124847364168e+01, 2.218822583509354e+03, 5.912646561280678e+02, -1.613298670407592e+02, 1.395153823878089e+03
622, 8.728902786233889e-01, 1.037006176635479e+00, 4.005093479438424e-02, 0.000000000000000e+00, 0.000000000000000e+00, 0.000000000000000e+00, 1.390566235281229e+03, 1.394010419900972e+03, -2.749540394671983e+01, 2.280825022596237e+03, 5.844433287551249e+02, -2.329709117640657e+02, 1.406884038453296e+03
623, 8.531059821796854e-01, 1.036058086400106e+00, 4.189930227542787e-02, 0.000000000000000e+00, 0.000000000000000e+00, 0.000000000000000e+00, 1.889418251045864e+03, 1.687761995587710e+03, -5.865356914221336e+01, 2.793691900213738e+03, 6.709023814440762e+02, -2.494893459892547e+02, 1.608761653270384e+03
624, 8.621849447260898e-01, 1.053740020311532e+00, 4.109756435382450e-02, 0.000000000000000e+00, 0.000000000000000e+00, 0.000000000000000e+00, 1.882295273676446e+03, 1.838063272109838e+03, -2.957852929179696e+01, 2.912477044621979e+03, 6.033735000192615e+02, -3.942483710543721e+02, 1.633981853282396e+03
625, 8.423879526188285e-01, 1.052792039485286e+00, 4.279672501722155e-02, 0.000000000000000e+00, 0.000000000000000e+00, 0.000000000000000e+00, 1.877970622296024e+03, 1.790101050793617e+03, 1.813534549841231e+01, 3.134062968596396e+03, 6.985386901934695e+02, -3.632674433559259e+02, 1.885896769135303e+03
626, 8.514691550218270e-01, 1.070473336997701e+00, 4.202497208195831e-02, 0.000000000000000e+00, 0.000000000000000e+00, 0.000000000000000e+00, 2.056164740044400e+03, 1.899060021711499e+03, 8.989129156497377e+00, 3.533159284830387e+03, 5.623091844267335e+02, -4.112098410462393e+02, 1.973407068982127e+03
627, 8.712624916448566e-01, 1.071421491382422e+00, 4.028830821784563e-02, 0.000000000000000e+00, 0.000000000000000e+00, 0.000000000000000e+00, 1.917510677357031e+03, 1.829614344219126e+03, -8.299505529842754e+00, 3.399012769696845e+03, 5.872392453397699e+02, -4.145032370521101e+02, 1.970529892236340e+03
628, 8.605516691210207e-01, 1.088122753053669e+00, 4.124595525793135e-02, 0.000000000000000e+00, 0.000000000000000e+00, 0.000000000000000e+00, 2.221397259390692e+03, 2.075244528084859e+03, -2.032907247234603e+01, 3.960005580396996e+03, 5.151946110309101e+02, -2.956543079813306e+02, 2.087575760129203e+03
629, 8.803387542736638e-01, 1.089077198092205e+00, 3.947136269866652e-02, 0.000000000000000e+00, 0.000000000000000e+00, 0.000000000000000e+00, 1.934096203201352e+03, 1.828895807122032e+03, -5.548620724592239e+01, 3.637257413202991e+03, 6.272091237130786e+02, -2.173159691938451e+02, 2.102875927880429e+03
630, 8.696281825787334e-01, 1.105807548710195e+00, 4.045982703747836e-02, 0.000000000000000e+00, 0.000000000000000e+00, 0.000000000000000e+00, 2.036256117454217e+03, 1.944392734885168e+03, -1.086122652626633e+02, 3.759035368828790e+03, 6.323643817980529e+02, -1.148659298148276e+02, 2.099831924599786e+03
631, 8.894160272160641e-01, 1.106784946250813e+00, 3.864664852798205e-02, 0.000000000000000e+00, 0.000000000000000e+00, 0.000000000000000e+00, 1.683606084315260e+03, 1.558017097160807e+03, -1.786762195127240e+01, 2.823332029868046e+03, 7.530389816521074e+02, -6.707761252536687e+01, 1.781444343645941e+03
632, 8.787082150266410e-01, 1.123518727593991e+00, 3.966576928204561e-02, 0.000000000000000e+00, 0.000000000000000e+00, 0.000000000000000e+00, 1.911585421260031e+03, 1.889060109227191e+03, -2.622562629702976e+01, 3.292840023597100e+03, 6.192914543331581e+02, -1.363691356337044e+02, 1.774233227957545e+03
633, 8.589072403884630e-01, 1.122544472520681e+00, 4.132088368109578e-02, 0.000000000000000e+00, 0.000000000000000e+00, 0.000000000000000e+00, 2.058532412563092e+03, 1.965544979645470e+03, -6.895736284493729e+01, 3.581757153618351e+03, 6.724317379695037e+02, -1.158563537141991e+02, 1.970159332976982e+03
634, 8.679891135825611e-01, 1.140251456765344e+00, 4.055838598126870e-02, 0.000000000000000e+00, 0.000000000000000e+00, 0.000000000000000e+00, 2.140696892666769e+03, 2.030116222213875e+03, -2.610514912216655e+01, 3.557130449299011e+03, 6.533211982240996e+02, -1.818629460972757e+02, 1.885973189481912e+03
635, 8.877856293240114e-01, 1.141200076246957e+00, 3.886427099001760e-02, 0.000000000000000e+00, 0.000000000000000e+00, 0.000000000000000e+00, 1.864647423113044e+03, 1.777212481194809e+03, -3.558729475355811e+01, 3.011778788534147e+03, 6.776408703297020e+02, -1.540542768967903e+02, 1.696008130188975e+03
636, 8.770733998738905e-01, 1.157882575844434e+00, 3.978828364677287e-02, 0.000000000000000e+00, 0.000000000000000e+00, 0.000000000000000e+00, 1.922167671240902e+03, 1.825021019468783e+03, -1.204601391667492e+01, 3.310215553690097e+03, 6.223011832870305e+02, -1.377497659883072e+02, 1.813861957759246e+03
637, 8.968564856283785e-01, 1.158850097544440e+00, 3.805525226411088e-02, 0.000000000000000e+00, 0.000000000000000e+00, 0.000000000000000e+00, 1.607050535617520e+03, 1.478905826013595e+03, 6.472089021290466e+00, 2.632358419192868e+03, 6.539953533165290e+02, -1.612966951295471e+02, 1.600115747558121e+03
638, 8.861481369004047e-01, 1.175568856698746e+00, 3.901129573039093e-02, 0.000000000000000e+00, 0.000000000000000e+00, 0.000000000000000e+00, 1.847924228602217e+03, 1.758660605286633e+03, -1.415344846697809e+01, 2.988797473689659e+03, 6.224492832901108e+02, -2.267065372771472e+02, 1.651822051146041e+03
639, 9.059241885562099e-01, 1.176547900944891e+00, 3.723842916947195e-02, 0.000000000000000e+00, 0.000000000000000e+00, 0.000000000000000e+00, 1.636940492629560e+03, 1.593596991069214e+03, 4.913491766640815e+00, 2.746797084372712e+03, 5.355840722110026e+02, -2.743368828546620e+02, 1.538886247448082e+03
640, 8.952245731252985e-01, 1.193262981806319e+00, 3.822621228211075e-02, 0.000000000000000e+00, 0.000000000000000e+00, 0.000000000000000e+00, 2.030496709668439e+03, 1.863591641086912e+03, 4.107048312382558e+01, 3.466354704573659e+03, 5.483226428812245e+02, -2.934152549965406e+02, 1.869360455342766e+03
641, 8.339911827736399e-01, 8.109429143875899e-01, 4.302895473142132e-02, 0.000000000000000e+00, 0.000000000000000e+00, 0.000000000000000e+00, 1.083540891974748e+03, 9.314332676320107e+02, -1.436370077780829e+01, 1.621032775739389e+03, 5.816409883812877e+02, -1.903007025903256e+02, 1.232059903597912e+03
642, 8.579808563413024e-01, 9.328111103167877e-01, 4.113926114033215e-02, 0.000000000000000e+00, 0.000000000000000e+00, 0.000000000000000e+00, 1.133200470511678e+03, 9.904482541163920e+02, -2.926366825496334e+01, 1.690529445824943e+03, 6.325487454684990e+02, -1.829169103682330e+02, 1.309141837164060e+03
643, 8.663584870016611e-01, 1.174656550225083e+00, 4.057501800149865e-02, 0.000000000000000e+00, 0.000000000000000e+00, 0.000000000000000e+00, 1.908013231946418e+03, 1.827051033898748e+03, -2.260880073556824e+01, 3.279388438205644e+03, 6.408584684227136e+02, -1.931669301343255e+02, 1.828613402787491e+03
644, 9.149844988497797e-01, 1.194207515913541e+00, 3.641400797742939e-02, 0.000000000000000e+00, 0.000000000000000e+00, 0.000000000000000e+00, 1.844943763195100e+03, 1.730130017668041e+03, 1.960148882088657e+01, 3.324726532862353e+03, 5.371693996586908e+02, -3.222608515893116e+02, 1.884462883741722e+03
645, 9.042947106245538e-01, 1.210885126551741e+00, 3.743357899662121e-02, 0.000000000000000e+00, 0.000000000000000e+00, 0.000000000000000e+00, 2.279971305296176e+03, 2.185776619519953e+03, -4.858434718675954e+01, 3.870976809072366e+03, 4.621582962881807e+02, -1.683731303516130e+02, 1.850117871191705e+03
646, 9.240398309288391e-01, 1.211857880131729e+00, 3.558139940215366e-02, 0.000000000000000e+00, 0.000000000000000e+00, 0.000000000000000e+00, 1.495370309378880e+03, 1.476077146791110e+03, -4.979500470807461e+01, 2.601136669654603e+03, 6.863428619770762e+02, -1.497552342599674e+02, 1.652980124024485e+03
647, 9.133577956384288e-01, 1.228555563300718e+00, 3.663345640554662e-02, 0.000000000000000e+00, 0.000000000000000e+00, 0.000000000000000e+00, 1.982530864464601e+03, 1.854233279518045e+03, -7.470285205040843e+00, 3.301064933955996e+03, 4.963776895704596e+02, -2.963207801616702e+02, 1.710822890119862e+03
648, 9.330896903228423e-01, 1.229499140558125e+00, 3.474057297279842e-02, 0.000000000000000e+00, 0.000000000000000e+00, 0.000000000000000e+00, 1.410984019196884e+03, 1.471504566569500e+03, -5.445733638365934e+01, 2.475078723689103e+03, 6.505191480746012e+02, -3.207352485754157e+02, 1.630520245915339e+03
649, 9.224135939163989e-01, 1.246159912779117e+00, 3.582538392606954e-02, 0.000000000000000e+00, 0.000000000000000e+00, 0.000000000000000e+00, 2.148380986175859e+03, 2.045589129738587e+03, -3.812991399108390e+01, 3.815148400280998e+03, 4.631096372624209e+02, -2.900869541621767e+02, 1.964747947585576e+03
650, 9.026833245991195e-01, 1.245205579667376e+00, 3.755089711806707e-02, 0.000000000000000e+00, 0.000000000000000e+00, 0.000000000000000e+00, 2.290249255485272e+03, 2.049748574923224e+03, 6.010742787701444e+01, 3.490620100726246e+03, 5.236156606881983e+02, -2.265440549919365e+02, 1.665756934318747e+03
651, 9.117359935417264e-01, 1.262869174314146e+00, 3.677727518896736e-02, 0.000000000000000e+00, 0.000000000000000e+00, 0.000000000000000e+00, 1.821637688043767e+03, 1.761198128966421e+03, -5.807701920936021e+01, 3.338256769083407e+03, 4.125747317733804e+02, -1.905317421372824e+02, 1.739290012758447e+03
652, 9.314577363960252e-01, 1.263810764864140e+00, 3.500982804427813e-02, 0.000000000000000e+00, 0.000000000000000e+00, 0.000000000000000e+00, 1.781181569992127e+03, 1.749529530912544e+03, -1.031761387413323e+02, 3.476697908567432e+03, 7.403639463439819e+02, -5.317467018085867e+01, 2.148087278944621e+03
653, 9.207874313706178e-01, 1.280484967990321e+00, 3.599546538093366e-02, 0.000000000000000e+00, 0.000000000000000e+00, 0.000000000000000e+00, 1.683329736977878e+03, 1.599264272397752e+03, -9.456355815017608e+01, 3.142530100865369e+03, 5.658061062280996e+02, -3.124103015445118e+01, 1.802544178607159e+03
654, 9.404984764782958e-01, 1.281425257631225e+00, 3.418578667970538e-02, 0.000000000000000e+00, 0.000000000000000e+00, 0.000000000000000e+00, 1.582962318973595e+03, 1.413629771844381e+03, 2.513714915300753e+01, 2.409114874350140e+03, 6.670771128758461e+02, -5.918212538792989e+01, 1.482725496192375e+03
655, 9.298359908708930e-01, 1.298092002029498e+00, 3.520531725176672e-02, 0.000000000000000e+00, 0.000000000000000e+00, 0.000000000000000e+00, 1.917923121984115e+03, 1.919680355060246e+03, -1.601221683219962e+01, 2.915419522267020e+03, 5.030955473214672e+02, -2.455389187719984e+02, 1.390755897755033e+03
656, 9.010601615451509e-01, 1.279541170025774e+00, 3.758416829397041e-02, 0.000000000000000e+00, 0.000000000000000e+00, 0.000000000000000e+00, 2.069831044673197e+03, 1.986574346164695e+03, -5.081052071282962e+01, 3.315025013493979e+03, 6.346607187039634e+02, -2.683974351560664e+02, 1.758792141476300e+03
657, 9.495339678348710e-01, 1.299031815535272e+00, 3.335305206466341e-02, 0.000000000000000e+00, 0.000000000000000e+00, 0.000000000000000e+00, 1.665700686566794e+03, 1.577619450516338e+03, 1.156212880671182e+02, 2.768899131337731e+03, 3.982597772801392e+02, -3.094589442586285e+02, 1.457809352151071e+03
658, 9.388797396442260e-01, 1.315691143840033e+00, 3.440697047464454e-02, 0.000000000000000e+00, 0.000000000000000e+00, 0.000000000000000e+00, 1.915102149927605e+03, 1.813920441986314e+03, -8.122486663401135e+01, 3.118909684290421e+03, 3.968544790597927e+02, -2.620438641752327e+02, 1.509790531813696e+03
659, 8.942683856756315e-01, 1.003538086859954e+00, 3.763287461763574e-02, 0.000000000000000e+00, 0.000000000000000e+00, 0.000000000000000e+00, 1.074479491274659e+03, 9.227174642042959e+02, -3.028581279714295e+01, 1.538084167217211e+03, 6.033196038439019e+02, -1.934758598626615e+02, 1.230996605747909e+03
660, 9.585645162666063e-01, 1.316630283974496e+00, 3.251155547090262e-02, 0.000000000000000e+00, 0.000000000000000e+00, 0.000000000000000e+00, 1.280850599589685e+03, 1.312028971376261e+03, -9.593874489248856e+01, 2.521659516829779e+03, 5.741377207242849e+02, -1.607706211535025e+02, 1.611194939012751e+03
661, 9.479188596332077e-01, 1.333281540375593e+00, 3.359996977342544e-02, 0.000000000000000e+00, 0.000000000000000e+00, 0.000000000000000e+00, 1.724848070013129e+03, 1.695828796980250e+03, -9.619884909247318e+01, 2.925121016086626e+03, 4.696596235476925e+02, -2.827076406308464e+02, 1.551000413767063e+03
662, 9.256692284393986e-01, 1.177499034287831e+00, 3.527024813020092e-02, 0.000000000000000e+00, 0.000000000000000e+00, 0.000000000000000e+00, 1.324415449186930e+03, 1.389784132114794e+03, -9.711824769631828e+01, 2.248853730563219e+03, 6.294321336287859e+02, -2.772453485488991e+02, 1.498624413385913e+03
663, 9.675898194160627e-01, 1.334220277406051e+00, 3.166103643028940e-02, 0.000000000000000e+00, 0.000000000000000e+00, 0.000000000000000e+00, 1.342541025438689e+03, 1.391052833157944e+03, -1.994311353282754e+01, 2.214203117414564e+03, 6.731737278255588e+02, -2.449257755700901e+02, 1.503499247663766e+03
664, 9.569495906085699e-01, 1.350831831202023e+00, 3.278447381531579e-02, 0.000000000000000e+00, 0.000000000000000e+00, 0.000000000000000e+00, 2.317027951856420e+03, 2.206943208506610e+03, -8.328268202481421e+01, 4.111942652108149e+03, 7.713192561657909e+02, -4.431487155353593e+02, 2.413748269481360e+03
665, 9.372784947688669e-01, 1.349923559905460e+00, 3.454707180060042e-02, 0.000000000000000e+00, 0.000000000000000e+00, 0.000000000000000e+00, 1.744296463805684e+03, 1.619713326724400e+03, -7.332931993753522e+01, 3.357533718863153e+03, 3.799526391266759e+02, -4.173414365114010e+02, 1.946993264640510e+03
666, 9.463053841675406e-01, 1.367463587799488e+00, 3.376857658075065e-02, 0.000000000000000e+00, 0.000000000000000e+00, 0.000000000000000e+00, 2.188242913748900e+03, 2.149337974228284e+03, 4.764182915397843e+01, 3.912787750583903e+03, 5.691740260754046e+02, 1.681427596936914e+01, 2.005541425229660e+03
667, 9.659679525618950e-01, 1.368434872398743e+00, 3.196093630911956e-02, 0.000000000000000e+00, 0.000000000000000e+00, 0.000000000000000e+00, 2.154007304473379e+03, 2.178737141466650e+03, -1.759574164389262e+01, 3.850166526532188e+03, 7.526636827893384e+02, -3.307082571780415e+01, 2.130572612566797e+03
668, 9.266227731770883e-01, 1.366556809792602e+00, 3.534144756575613e-02, 0.000000000000000e+00, 0.000000000000000e+00, 0.000000000000000e+00, 2.437077008373843e+03, 2.239300429872428e+03, -1.767052631932223e+02, 4.015543342104912e+03, 7.003574579419071e+02, -4.123122970476261e+02, 2.217664415592745e+03
669, 9.553340016861092e-01, 1.385063757071713e+00, 3.298078313356106e-02, 0.000000000000000e+00, 0.000000000000000e+00, 0.000000000000000e+00, 1.723588283236811e+03, 1.560690719215010e+03, -3.274288684056016e+01, 2.759349591192382e+03, 6.250847557038584e+02, -2.766179645237205e+02, 1.634937839076406e+03
670, 9.749853249684588e-01, 1.385998319875999e+00, 3.112762956325541e-02, 0.000000000000000e+00, 0.000000000000000e+00, 0.000000000000000e+00, 1.798038731883850e+03, 1.877676253646413e+03, -1.467340826899571e+01, 2.916191331622748e+03, 6.509279002649347e+02, -3.883264487813522e+02, 1.700505831336608e+03
671, 8.316641517715788e-01, 1.069494189427568e+00, 4.356451214472735e-02, 0.000000000000000e+00, 0.000000000000000e+00, 0.000000000000000e+00, 2.062638247955106e+03, 2.002863933498987e+03, 6.982213500021290e+00, 3.571564717259144e+03, 6.258440042085326e+02, -3.405707886936135e+02, 1.973266554919520e+03
672, 9.601823750954004e-01, 1.282369755731751e+00, 3.216934618935910e-02, 0.000000000000000e+00, 0.000000000000000e+00, 0.000000000000000e+00, 1.267383817436950e+03, 1.227219840309783e+03, 3.418668376298981e+01, 2.022540193086855e+03, 4.440152399875008e+02, -3.551547333722513e+02, 1.255214651809068e+03
673, 9.643592049053267e-01, 1.402620119224948e+00, 3.218412111062890e-02, 0.000000000000000e+00, 0.000000000000000e+00, 0.000000000000000e+00, 2.195449523769237e+03, 2.244578031070691e+03, 5.273351084566036e+01, 3.813704546564871e+03, 5.025973543741965e+02, -5.004971314659495e+02, 2.014772290487693e+03
674, 9.839972943854227e-01, 1.403554174550261e+00, 3.028501328684079e-02, 0.000000000000000e+00, 0.000000000000000e+00, 0.000000000000000e+00, 1.872720475310840e+03, 1.539906349608363e+03, -1.401337039187929e+02, 2.928284526134167e+03, 7.731616459594194e+02, -2.598932527609860e+02, 1.905562908989750e+03
675, 9.946100527092665e-01, 1.386936073025618e+00, 2.905514417445326e-02, 0.000000000000000e+00, 0.000000000000000e+00, 0.000000000000000e+00, 1.438643262687547e+03, 1.280458288606463e+03, -5.890680366190119e+01, 1.990266943545305e+03, 5.358086428978371e+02, -3.879087754268460e+02, 1.318966316132299e+03
676, 1.003612598508616e+00, 1.404432593845841e+00, 2.816556268170597e-02, 0.000000000000000e+00, 0.000000000000000e+00, 0.000000000000000e+00, 7.857011702731534e+02, 7.250069636886999e+02, -7.955814530785446e+01, 1.143987217905050e+03, 3.722345467108650e+02, -1.565582219342083e+02, 8.136302387123458e+02
677, 9.930075593036571e-01, 1.421079516690680e+00, 2.943214171621809e-02, 0.000000000000000e+00, 0.000000000000000e+00, 0.000000000000000e+00, 1.436861498809438e+03, 1.243596150875376e+03, -3.001306918776402e+01, 2.022550906152834e+03, 6.218790447369307e+02, -3.499116909646857e+02, 1.422601353125360e+03
678, 1.012622898077838e+00, 1.422065069653936e+00, 2.726505839141508e-02, 0.000000000000000e+00, 0.000000000000000e+00, 0.000000000000000e+00, 1.040596477693166e+03, 1.085481604982097e+03, -8.049218044895021e+01, 1.465290153765108e+03, 4.489360847660174e+02, -3.709355941552188e+02, 1.095520153364239e+03
679, 9.033385537294041e-01, 1.021221463275255e+00, 3.673609491664279e-02, 0.000000000000000e+00, 0.000000000000000e+00, 0.000000000000000e+00, 8.885664087052917e+02, 8.058686701254705e+02, -2.858341079796137e+01, 1.367111639531619e+03, 5.859494019676323e+02, -1.750075087156144e+02, 1.183115837840102e+03
680, 9.140087087991100e-01, 1.004487652929352e+00, 3.534981725564411e-02, 0.000000000000000e+00, 0.000000000000000e+00, 0.000000000000000e+00, 5.681144356526675e+02, 4.860188152788039e+02, -3.061898494907811e+01, 7.550210086991008e+02, 5.485619320520415e+02, -1.313869478156257e+02, 1.007163693634550e+03
681, 9.230750057086845e-01, 1.022172252010601e+00, 3.441584757307891e-02, 0.000000000000000e+00, 0.000000000000000e+00, 0.000000000000000e+00, 5.442462409719369e+02, 4.209618470785477e+02, -2.071962655304924e+01, 5.700641766520455e+02, 5.868264757647742e+02, -1.328793355016077e+02, 1.051857003727882e+03
682, 9.337312052014954e-01, 1.005438679478549e+00, 3.290968406412140e-02, 0.000000000000000e+00, 0.000000000000000e+00, 0.000000000000000e+00, 2.901238058760183e+02, 1.608753364668078e+02, -1.572471300492702e+01, 1.627456170737141e+02, 5.271664927448190e+02, -6.871297211288071e+01, 9.301003626028765e+02
683, 9.427932706602282e-01, 1.023124579510972e+00, 3.193812239938942e-02, 0.000000000000000e+00, 0.000000000000000e+00, 0.000000000000000e+00, 1.421238684500156e+02, 3.869985987819625e+01, -1.882630727342283e+01, -5.499383055890531e+01, 4.668561094826625e+02, -1.014364624639578e+02, 8.455533385847451e+02
684, 9.534351305249853e-01, 1.006391439220292e+00, 3.031660462262222e-02, 0.000000000000000e+00, 0.000000000000000e+00, 0.000000000000000e+00, 8.161198998460821e+01, -8.655899482156792e+01, -2.233595200156637e+01, -3.081686859396894e+02, 4.598529433683190e+02, -1.146542246453646e+02, 8.888128609792573e+02
685, 9.443763624179586e-01, 9.887043999457725e-01, 3.131674882105560e-02, 0.000000000000000e+00, 0.000000000000000e+00, 0.000000000000000e+00, 3.044264275299727e+02, 1.593153256158825e+02, -1.616126163619720e+01, 1.821969061600410e+02, 5.291629885119813e+02, -6.928733898036788e+01, 9.346050490209100e+02
686, 9.624925380675828e-01, 1.024078722329016e+00, 2.930651074523194e-02, 0.000000000000000e+00, 0.000000000000000e+00, 0.000000000000000e+00, 8.193243950414532e+01, -7.396069565455176e+01, -3.363334878425740e+01, -2.555148676142857e+02, 4.510129902643802e+02, -1.153747370144404e+02, 8.597286690869246e+02
687, 9.640660243418686e-01, 9.896586326398917e-01, 2.861230824305302e-02, 0.000000000000000e+00, 0.000000000000000e+00, 0.000000000000000e+00, -9.149778619469600e+01, -1.706999474624741e+02, 3.548227134833740e+01, -4.948714689142997e+02, 5.566255858817517e+02, -1.478857411873697e+02, 1.065794972518008e+03
688, 9.550108528197689e-01, 9.719705799096916e-01, 2.964094560901129e-02, 0.000000000000000e+00, 0.000000000000000e+00, 0.000000000000000e+00, 6.816586597433023e-01, -1.010263204013239e+02, -1.142837674190272e+01, -3.140776553188946e+02, 6.199506190516078e+02, -1.245919377708957e+02, 1.130213250440099e+03
689, 1.002017488548630e+00, 1.438678011907394e+00, 2.856918781417928e-02, 0.000000000000000e+00, 0.000000000000000e+00, 0.000000000000000e+00, 1.653078230912350e+03, 1.591331880788695e+03, 4.247981678087777e+01, 2.632148572601081e+03, 4.956703007191095e+02, -4.439376419764989e+02, 1.535111722735114e+03
690, 1.021617712637811e+00, 1.439621495584717e+00, 2.635445816914018e-02, 0.000000000000000e+00, 0.000000000000000e+00, 0.000000000000000e+00, 1.310516997715624e+03, 1.161935999182210e+03, -9.060864953053120e+01, 1.959716877354823e+03, 5.028547054276888e+02, -4.091212837809161e+02, 1.351056839723066e+03
691, 1.014199279282225e+00, 1.387828319556722e+00, 2.677531162870376e-02, 0.000000000000000e+00, 0.000000000000000e+00, 0.000000000000000e+00, 7.597310579633124e+02, 7.204060272065583e+02, -3.359670930037906e-01, 1.336954786901196e+03, 3.857385488946462e+02, -2.059292926367081e+02, 9.649024177688931e+02
692, 9.746860104846099e-01, 9.729263520465697e-01, 2.682844577485308e-02, 0.000000000000000e+00, 0.000000000000000e+00, 0.000000000000000e+00, -2.072306982414884e+02, -3.657723175233369e+02, -8.006995120107355e+00, -1.083615404950511e+03, 5.794707966206910e+02, -1.396174179066871e+02, 1.311591692239807e+03
693, 9.656346087820489e-01, 9.552372555700013e-01, 2.788559829621410e-02, 0.000000000000000e+00, 0.000000000000000e+00, 0.000000000000000e+00, -6.325036742725028e+01, -2.297136313137390e+02, -6.138534754554286e+01, -5.791366438569212e+02, 5.197410043683824e+02, -5.866483329560022e+01, 1.019800892628414e+03
694, 1.011022050916634e+00, 1.456225622794610e+00, 2.769564466348173e-02, 0.000000000000000e+00, 0.000000000000000e+00, 0.000000000000000e+00, 2.017817622907481e+03, 1.908557532536820e+03, -6.133743531675628e+01, 3.432875422080832e+03, 5.607632095675074e+02, -4.806954095373759e+02, 1.953661406217696e+03
695, 9.914243366271072e-01, 1.455148709115011e+00, 2.973598808371048e-02, 0.000000000000000e+00, 0.000000000000000e+00, 0.000000000000000e+00, 1.969382243428372e+03, 1.951067733049039e+03, 1.438017308916505e+00, 3.381984697848702e+03, 3.457274613959389e+02, -4.865541868928147e+02, 1.757966383227534e+03
696, 1.030606476687513e+00, 1.457168941851849e+00, 2.543274265153534e-02, 0.000000000000000e+00, 0.000000000000000e+00, 0.000000000000000e+00, 1.149109901059564e+03, 9.733262295090583e+02, -1.614729864295482e+02, 1.946055423758633e+03, 5.774459069298409e+02, -3.206069131442317e+02, 1.480888367142094e+03
697, 1.041188170363204e+00, 1.440569281366340e+00, 2.392994907652141e-02, 0.000000000000000e+00, 0.000000000000000e+00, 0.000000000000000e+00, 7.913832610765851e+02, 7.751144525604711e+02, -1.219858420336172e+02, 1.277208371373032e+03, 5.134610763310243e+01, -4.155486421387759e+01, 5.494777821836705e+02
698, 1.050176404997242e+00, 1.458127596588443e+00, 2.295732920282623e-02, 0.000000000000000e+00, 0.000000000000000e+00, 0.000000000000000e+00, 7.049893082626131e+02, 4.670307236517801e+02, -4.911705677757296e+01, 8.105591755880604e+02, 5.079067353084120e+02, -1.804767684225523e+02, 9.857744894338587e+02
699, 9.852950707899746e-01, 9.561946527760921e-01, 2.496779949518827e-02, 0.000000000000000e+00, 0.000000000000000e+00, 0.000000000000000e+00, -5.570198753008516e+02, -7.690834471953046e+02, -5.168525710888799e+01, -1.491715414736699e+03, 5.535170001247532e+02, -4.857799127764088e+01, 1.286331452090631e+03
700, 9.762476033191518e-01, 9.385044719665634e-01, 2.605356409549207e-02, 0.000000000000000e+00, 0.000000000000000e+00, 0.000000000000000e+00, -1.798459787684462e+02, -2.743984894814583e+02, 2.717372033005191e+01, -7.517069020163500e+02, 4.915627442963970e+02, -1.836429833917269e+02, 1.053653392138854e+03
701, 9.943409271932440e-01, 9.738850959256804e-01, 2.387077430697884e-02, 0.000000000000000e+00, 0.000000000000000e+00, 0.000000000000000e+00, -7.488236530112016e+02, -9.366906659916481e+02, -8.422663731044290e+01, -2.101391617866066e+03, 4.979874866732820e+02, -9.287798313381616e+01, 1.549763581940132e+03
702, 8.225762092216582e-01, 1.051844416981705e+00, 4.429865966159075e-02, 0.000000000000000e+00, 0.000000000000000e+00, 0.000000000000000e+00, 2.215386210457563e+03, 2.087433902182708e+03, 9.934908570688489e+00, 3.643612931394618e+03, 7.825782521343295e+02, -3.009045198390322e+02, 2.085224478280376e+03
703, 8.118356320896790e-01, 1.068552861441543e+00, 4.489446771918533e-02, 0.000000000000000e+00, 0.000000000000000e+00, 0.000000000000000e+00, 2.440016858828466e+03, 2.279623165547203e+03, -2.854224204114381e+00, 3.940448590082334e+03, 7.557608397130485e+02, -3.747078970784830e+02, 2.156953200374956e+03
704, 8.027491143974859e-01, 1.050851737502573e+00, 4.559095825456638e-02, 0.000000000000000e+00, 0.000000000000000e+00, 0.000000000000000e+00, 2.324231874126553e+03, 2.269823092338848e+03, -5.445190289862158e+01, 4.070057958508152e+03, 8.774310909337776e+02, -2.812093404280334e+02, 2.387811627733369e+03
705, 7.920001954449536e-01, 1.067624809335866e+00, 4.599906435690219e-02, 0.000000000000000e+00, 0.000000000000000e+00, 0.000000000000000e+00, 2.896341965502482e+03, 2.826902274751395e+03, 3.634170288497663e+00, 5.060720572032863e+03, 9.450059133730227e+02, -3.642094800865032e+02, 2.813670945727197e+03
706, 7.829100168931679e-01, 1.049921616884833e+00, 4.665745097980857e-02, 0.000000000000000e+00, 0.000000000000000e+00, 0.000000000000000e+00, 2.823659597692450e+03, 2.779127206738871e+03, -7.904187670465463e+01, 4.921702514922355e+03, 8.535926380958884e+02, -3.801971361329478e+02, 2.671226628542522e+03
707, 7.721596159241528e-01, 1.066637343375479e+00, 4.685993537346039e-02, 0.000000000000000e+00, 0.000000000000000e+00, 0.000000000000000e+00, 3.287857060005815e+03, 3.245695374480989e+03, -4.865931548397032e+01, 5.865458520380880e+03, 9.203003148153928e+02, -4.408837422900406e+02, 3.144134147325728e+03
708, 7.630644450093812e-01, 1.048991496226296e+00, 4.747727956246407e-02, 0.000000000000000e+00, 0.000000000000000e+00, 0.000000000000000e+00, 3.103280906318061e+03, 3.029795217175605e+03, -2.261217073390119e+01, 5.472684291041858e+03, 8.497192606981198e+02, -3.845887422316409e+02, 2.899123606434563e+03
709, 7.522930063938833e-01, 1.065691444215856e+00, 4.740804068351066e-02, 0.000000000000000e+00, 0.000000000000000e+00, 0.000000000000000e+00, 3.520728544263585e+03, 3.450563041751719e+03, -1.179481791587648e+01, 6.247061837677429e+03, 9.445742799925696e+02, -4.828611507938523e+02, 3.317477160036535e+03
710, 7.432065215188840e-01, 1.048031947598229e+00, 4.797384438897431e-02, 0.000000000000000e+00, 0.000000000000000e+00, 0.000000000000000e+00, 3.275595896367988e+03, 3.219319035917170e+03, 1.555707039912532e+01, 5.864247994786792e+03, 9.323260834489416e+02, -3.769068697535183e+02, 3.143972995260429e+03
711, 7.613852701683164e-01, 1.083390934565291e+00, 4.683436864273512e-02, 0.000000000000000e+00, 0.000000000000000e+00, 0.000000000000000e+00, 3.452454803965786e+03, 3.350483843990644e+03, 2.088737794669908e+01, 6.301852677650963e+03, 9.185638099186465e+02, -4.196119568936693e+02, 3.388337646283840e+03
712, 7.324334832196129e-01, 1.064743517803947e+00, 4.758501771874829e-02, 0.000000000000000e+00, 0.000000000000000e+00, 0.000000000000000e+00, 3.684119914191629e+03, 3.630447686720221e+03, 5.825203332469589e+01, 6.514009442932245e+03, 1.068360490939588e+03, -4.566257693459215e+02, 3.496130077819864e+03
713, 7.233441610209955e-01, 1.047063439120494e+00, 4.810144206229995e-02, 0.000000000000000e+00, 0.000000000000000e+00, 0.000000000000000e+00, 3.801448272441532e+03, 3.576895997069033e+03, 1.844677302546590e+01, 6.603579022732904e+03, 1.178634114462518e+03, -3.699379603864072e+02, 3.620870553224304e+03
714, 7.125729548428754e-01, 1.063763402718767e+00, 4.736538035232628e-02, 0.000000000000000e+00, 0.000000000000000e+00, 0.000000000000000e+00, 3.852840708451966e+03, 3.873593209274013e+03, 8.045810727711573e+01, 7.147456825040788e+03, 1.138949677502934e+03, -3.575483904260371e+02, 3.883441344674856e+03
715, 7.034847467185136e-01, 1.046082412943847e+00, 4.783246707638246e-02, 0.000000000000000e+00, 0.000000000000000e+00, 0.000000000000000e+00, 4.028526989700302e+03, 4.014150471912125e+03, 2.483563865040606e+01, 7.665894677335838e+03, 1.279398977195117e+03, -3.848225472556206e+02, 4.317365388126931e+03
716, 7.142548127027026e-01, 1.029384399149522e+00, 4.861147763904605e-02, 0.000000000000000e+00, 0.000000000000000e+00, 0.000000000000000e+00, 3.813066840047608e+03, 3.670283109900130e+03, 6.338450512885733e+01, 6.879199905384046e+03, 1.230737133666791e+03, -3.932810457785794e+02, 3.857402946294038e+03
717, 6.943964790633876e-01, 1.028401622417781e+00, 4.829405253373517e-02, 0.000000000000000e+00, 0.000000000000000e+00, 0.000000000000000e+00, 4.309932012746640e+03, 4.424615309080142e+03, 5.937332521622903e+01, 8.346181434035383e+03, 1.324404469418151e+03, -4.170334514369273e+02, 4.651455592692706e+03
718, 7.051656586999104e-01, 1.011705342168333e+00, 4.911555453148400e-02, 0.000000000000000e+00, 0.000000000000000e+00, 0.000000000000000e+00, 4.057887590115346e+03, 4.089189092056498e+03, -6.065208628040087e+01, 7.361634886923306e+03, 1.253633473455188e+03, -3.515551377631258e+02, 3.988597931785174e+03
719, 6.853112662746398e-01, 1.010704004720558e+00, 4.875095518259778e-02, 0.000000000000000e+00, 0.000000000000000e+00, 0.000000000000000e+00, 4.267655639205803e+03, 4.305871143917590e+03, 6.396100362299056e+01, 8.177146796546722e+03, 1.142824324408769e+03, -3.625385019018177e+02, 4.411450576828586e+03
720, 6.960766570803847e-01, 9.940262664415001e-01, 4.961393142027264e-02, 0.000000000000000e+00, 0.000000000000000e+00, 0.000000000000000e+00, 4.045040205042385e+03, 3.795682748589062e+03, -5.463137696870472e+01, 7.392261923079484e+03, 1.272944254294964e+03, -4.569987797859093e+02, 4.194923801982196e+03
721, 6.762206603423796e-01, 9.930399341742476e-01, 4.920084412054819e-02, 0.000000000000000e+00, 0.000000000000000e+00, 0.000000000000000e+00, 4.642335018612383e+03, 4.658089873322941e+03, 2.283452891048995e+01, 9.167307395803988e+03, 1.143659541954961e+03, -5.740067799313375e+02, 5.031721374290221e+03
722, 6.869878103518469e-01, 9.763471721496919e-01, 5.010661829510994e-02, 0.000000000000000e+00, 0.000000000000000e+00, 0.000000000000000e+00, 3.990254768326248e+03, 4.039144164959347e+03, -3.503133701556188e+01, 7.425662180187021e+03, 1.144247395462882e+03, -6.502046583589864e+02, 4.103211601424130e+03
723, 6.671331516311865e-01, 9.753590158811249e-01, 4.964613519820288e-02, 0.000000000000000e+00, 0.000000000000000e+00, 0.000000000000000e+00, 4.370398363600501e+03, 4.439942170123934e+03, 1.409626826018892e+01, 8.278626943224263e+03, 1.144542396534473e+03, -7.090297503389509e+02, 4.521724388632216e+03
724, 6.778991361369178e-01, 9.586680637603948e-01, 5.059363146883242e-02, 0.000000000000000e+00, 0.000000000000000e+00, 0.000000000000000e+00, 3.990314057212592e+03, 3.947020414703775e+03, 7.794768264872378e+00, 7.349250908557076e+03, 1.082263240351320e+03, -4.535740907619676e+02, 3.944743784958568e+03
725, 6.580459115384104e-01, 9.576780670476313e-01, 5.008649866081521e-02, 0.000000000000000e+00, 0.000000000000000e+00, 0.000000000000000e+00, 4.269619190471933e+03, 4.284383454132859e+03, 7.684690352342933e+01, 8.201935003336486e+03, 1.145733285628287e+03, -5.831864600571233e+02, 4.514578369553680e+03
726, 6.688107445477944e-01, 9.409713116743295e-01, 5.107564976833337e-02, 0.000000000000000e+00, 0.000000000000000e+00, 0.000000000000000e+00, 4.066249461562019e+03, 4.077350952561839e+03, -2.460373124997454e+01, 7.534407623220499e+03, 1.001511882317079e+03, -5.446931416792415e+02, 3.986315164231436e+03
727, 6.489572209471635e-01, 9.399802947251606e-01, 5.052276719234407e-02, 0.000000000000000e+00, 0.000000000000000e+00, 0.000000000000000e+00, 3.956313638286058e+03, 4.001175970620146e+03, 6.228167998592065e+01, 7.679459979033756e+03, 9.895245515953777e+02, -5.562172403660106e+02, 4.192141298677229e+03
728, 6.597209821849594e-01, 9.232798969462656e-01, 5.155191151432681e-02, 0.000000000000000e+00, 0.000000000000000e+00, 0.000000000000000e+00, 3.809549382805790e+03, 3.873051080546521e+03, 2.114975285057364e+01, 7.165880696365725e+03, 9.364715750785012e+02, -4.589122990882031e+02, 3.784169668381387e+03
729, 6.398701637778516e-01, 9.222978581213044e-01, 5.095362226331683e-02, 0.000000000000000e+00, 0.000000000000000e+00, 0.000000000000000e+00, 4.264224217065487e+03, 4.321253235775078e+03, 3.471111892100758e+01, 7.953607291166410e+03, 1.040137646425116e+03, -4.672112508694044e+02, 4.160352208017615e+03
730, 6.506297049583245e-01, 9.055885200843594e-01, 5.202304834071769e-02, 0.000000000000000e+00, 0.000000000000000e+00, 0.000000000000000e+00, 3.786324176934688e+03, 3.799805393871276e+03, 5.571911982260834e+01, 7.175841673593754e+03, 9.310822547205215e+02, -3.684212496793680e+02, 3.802706245614944e+03
731, 6.307859670412859e-01, 9.046351345730822e-01, 5.137888706066553e-02, 0.000000000000000e+00, 0.000000000000000e+00, 0.000000000000000e+00, 4.544319353752601e+03, 4.590302175569732e+03, 1.016052060511474e+01, 8.493330970712239e+03, 1.074352133008286e+03, -5.159118653427511e+02, 4.435845224676756e+03
732, 6.415446142428927e-01, 8.879322175718912e-01, 5.248793702201093e-02, 0.000000000000000e+00, 0.000000000000000e+00, 0.000000000000000e+00, 4.084072346272888e+03, 4.058087631550731e+03, 4.379656885662700e+01, 7.619057474515348e+03, 9.418421052184857e+02, -2.815297550635874e+02, 3.936163325266813e+03
733, 6.216994771257586e-01, 8.869196945741522e-01, 5.180177498652474e-02, 0.000000000000000e+00, 0.000000000000000e+00, 0.000000000000000e+00, 4.394489171508983e+03, 4.406082738029209e+03, 6.411123311910636e+01, 8.226258977285805e+03, 1.029664836006923e+03, -4.162771024696852e+02, 4.283805554574046e+03
734, 6.324562576573687e-01, 8.702299119255126e-01, 5.294956214050780e-02, 0.000000000000000e+00, 0.000000000000000e+00, 0.000000000000000e+00, 4.449161996826776e+03, 4.365158906707588e+03, 5.015070854463988e+01, 8.122295386117673e+03, 9.951469988109278e+02, -3.602143014220428e+02, 4.144307050288418e+03
735, 6.126110112457823e-01, 8.692446886008988e-01, 5.221788143601336e-02, 0.000000000000000e+00, 0.000000000000000e+00, 0.000000000000000e+00, 4.241002085017859e+03, 4.317664631764018e+03, 7.202538659721506e+01, 8.168527061273430e+03, 1.163801727972903e+03, -3.632630148518679e+02, 4.427751339790370e+03
736, 6.233634157442405e-01, 8.525321255500928e-01, 5.340590004663774e-02, 0.000000000000000e+00, 0.000000000000000e+00, 0.000000000000000e+00, 4.232814986412527e+03, 4.199019307560206e+03, 5.546823248785299e+01, 7.894879354389328e+03, 1.031230235488219e+03, -3.439117036488882e+02, 4.134003251613667e+03
737, 6.035289340799743e-01, 8.515921013731766e-01, 5.262859287597173e-02, 0.000000000000000e+00, 0.000000000000000e+00, 0.000000000000000e+00, 4.631489517065784e+03, 4.634370499291216e+03, 8.531270284539488e+01, 8.844741917469837e+03, 1.242576078830130e+03, -3.236900316185654e+02, 4.765239994044677e+03
738, 6.142803147136958e-01, 8.348682101831149e-01, 5.385615346222841e-02, 0.000000000000000e+00, 0.000000000000000e+00, 0.000000000000000e+00, 4.382330335414078e+03, 4.330884630805709e+03, 9.765317532946571e+01, 8.426994767856626e+03, 1.221249632943534e+03, -4.062848003883990e+02, 4.644157629339225e+03
739, 5.944455754112060e-01, 8.338952500414947e-01, 5.303727021602558e-02, 0.000000000000000e+00, 0.000000000000000e+00, 0.000000000000000e+00, 4.868452770904301e+03, 4.841337541777716e+03, 7.703022465216888e+01, 9.586847510804304e+03, 1.200184831207188e+03, -4.658542640893753e+02, 5.232792462105563e+03
740, 6.051886785594236e-01, 8.171753211746513e-01, 5.430240393574488e-02, 0.000000000000000e+00, 0.000000000000000e+00, 0.000000000000000e+00, 4.521809888802448e+03, 4.513120019695808e+03, 5.102733558469274e+01, 8.729152368799629e+03, 1.228545854287662e+03, -5.182660331331060e+02, 4.804159934030434e+03
741, 5.853593055559841e-01, 8.162302159489194e-01, 5.344001384975236e-02, 0.000000000000000e+00, 0.000000000000000e+00, 0.000000000000000e+00, 4.970497817945120e+03, 4.994770192442241e+03, 1.030135385577761e+02, 9.829414312136530e+03, 1.165401460402448e+03, -6.143970841560952e+02, 5.360082983970809e+03
742, 5.961110878912381e-01, 7.995566207117242e-01, 5.474133894625188e-02, 0.000000000000000e+00, 0.000000000000000e+00, 0.000000000000000e+00, 4.431239959700920e+03, 4.541455210117400e+03, 2.847035746384780e+00, 8.515720600154895e+03, 1.185481432865281e+03, -7.292534179348737e+02, 4.696436105134450e+03
743, 5.762750560965655e-01, 7.985493548374332e-01, 5.383951088026617e-02, 0.000000000000000e+00, 0.000000000000000e+00, 0.000000000000000e+00, 4.768451731236961e+03, 4.818345597047099e+03, 4.464540457319413e+01, 9.232116729888423e+03, 1.134762667819879e+03, -7.291629090436940e+02, 5.016787750406059e+03
744, 5.870248565254287e-01, 7.818778632170615e-01, 5.517819107401823e-02, 0.000000000000000e+00, 0.000000000000000e+00, 0.000000000000000e+00, 4.195516158167633e+03, 4.244296879116518e+03, 6.976872335868912e+00, 7.988757154744519e+03, 1.162189182961085e+03, -5.974572395233484e+02, 4.396485228759063e+03
745, 5.671912188685050e-01, 7.808685955996103e-01, 5.423487135714790e-02, 0.000000000000000e+00, 0.000000000000000e+00, 0.000000000000000e+00, 4.535669740508243e+03, 4.591301883122951e+03, 1.084446969641629e+02, 8.903659592283446e+03, 1.010678835935727e+03, -6.643950600016560e+02, 4.823213443184684e+03
746, 5.779389639316181e-01, 7.641992087903600e-01, 5.561067113570006e-02, 0.000000000000000e+00, 0.000000000000000e+00, 0.000000000000000e+00, 4.299411547762635e+03, 4.410446146332994e+03, 2.392513254605593e+01, 8.211782731167425e+03, 1.088141163090145e+03, -6.263773558789870e+02, 4.428937229089807e+03
747, 5.581077632632365e-01, 7.631879176345742e-01, 5.462610406530325e-02, 0.000000000000000e+00, 0.000000000000000e+00, 0.000000000000000e+00, 4.484629285241556e+03, 4.675052561425498e+03, 1.074997738236733e+02, 8.937385028164721e+03, 9.430371067148284e+02, -6.249091316395610e+02, 4.784302061961884e+03
748, 5.688533999100700e-01, 7.465206572361427e-01, 5.603878325680927e-02, 0.000000000000000e+00, 0.000000000000000e+00, 0.000000000000000e+00, 4.300774746844250e+03, 4.362585105510087e+03, 7.877941717987973e-01, 8.088203478566126e+03, 9.547651284231524e+02, -4.884773604933814e+02, 4.191049534226850e+03
749, 5.490247448040280e-01, 7.455073330156086e-01, 5.501322486267914e-02, 0.000000000000000e+00, 0.000000000000000e+00, 0.000000000000000e+00, 4.300583618590463e+03, 4.477594832973970e+03, 8.295601572901982e+01, 8.506010779325765e+03, 8.983642813431476e+02, -5.109348283224301e+02, 4.494165801296126e+03
750, 5.597642596009126e-01, 7.287914875569496e-01, 5.646476722580919e-02, 0.000000000000000e+00, 0.000000000000000e+00, 0.000000000000000e+00, 4.248928535224596e+03, 4.307337628978444e+03, 4.482074947392199e+01, 7.969909372055017e+03, 8.869668346057083e+02, -4.172954608904459e+02, 4.064521446935494e+03
751, 5.399421529428274e-01, 7.278268608360250e-01, 5.539625868984406e-02, 0.000000000000000e+00, 0.000000000000000e+00, 0.000000000000000e+00, 4.289182533348905e+03, 4.450611557038519e+03, 9.579230293645770e+01, 8.369105387268814e+03, 8.724558905530242e+02, -4.112000312044564e+02, 4.339531610250740e+03
752, 5.506688336830987e-01, 7.110829328102015e-01, 5.688516215999073e-02, 0.000000000000000e+00, 0.000000000000000e+00, 0.000000000000000e+00, 4.199380211022941e+03, 4.217452715561158e+03, 7.316796554989187e+01, 7.997634821112648e+03, 9.124767031324021e+02, -3.232236069237243e+02, 4.145569089986857e+03
753, 5.308573880916935e-01, 7.101217284545160e-01, 5.577680795473119e-02, 0.000000000000000e+00, 0.000000000000000e+00, 0.000000000000000e+00, 4.552831387591110e+03, 4.652137057827881e+03, 1.413534452848145e+02, 8.774029440572247e+03, 9.472737128059122e+02, -2.587633868906438e+02, 4.512425737712009e+03
754, 5.415933227847461e-01, 6.934456209234199e-01, 5.729871456285406e-02, 0.000000000000000e+00, 0.000000000000000e+00, 0.000000000000000e+00, 4.437794478855017e+03, 4.490906942661309e+03, 6.907141618508582e+01, 8.394570881089474e+03, 9.667896809652890e+02, -2.890356380284827e+02, 4.303223272275527e+03
755, 5.217744006440380e-01, 6.924418699040408e-01, 5.615249261192150e-02, 0.000000000000000e+00, 0.000000000000000e+00, 0.000000000000000e+00, 4.756032644185569e+03, 4.829581897695689e+03, 1.010382129120962e+02, 9.236267130623512e+03, 9.946574375976054e+02, -2.442035427982859e+02, 4.788105593132608e+03
756, 5.325125758741314e-01, 6.757906568002627e-01, 5.770877203774302e-02, 0.000000000000000e+00, 0.000000000000000e+00, 0.000000000000000e+00, 4.627481544542445e+03, 4.626356480604213e+03, 7.503847441488699e+01, 8.754829986918365e+03, 1.008514164817560e+03, -2.676714468774813e+02, 4.508080384343852e+03
757, 5.126972120180950e-01, 6.747866840575031e-01, 5.652358299839522e-02, 0.000000000000000e+00, 0.000000000000000e+00, 0.000000000000000e+00, 4.853417465094944e+03, 4.977616877004974e+03, 9.705682557936549e+01, 9.546814562446039e+03, 9.945743877129948e+02, -2.615937227223015e+02, 4.966042005012951e+03
758, 5.234291194992011e-01, 6.581158424990536e-01, 5.811587137802243e-02, 0.000000000000000e+00, 0.000000000000000e+00, 0.000000000000000e+00, 4.772061489826832e+03, 4.787530086725489e+03, 7.943971464105435e+01, 9.174791517874064e+03, 1.046146858808543e+03, -2.838960930774929e+02, 4.781229930851162e+03
759, 5.036149303747441e-01, 6.570771500430043e-01, 5.689391638970220e-02, 0.000000000000000e+00, 0.000000000000000e+00, 0.000000000000000e+00, 4.996615524544046e+03, 5.050320442840305e+03, 1.371194003948256e+02, 9.870942111933942e+03, 1.069440410216891e+03, -2.984666739636115e+02, 5.220625366464195e+03
760, 5.143479333714500e-01, 6.404533674908975e-01, 5.851865784191249e-02, 0.000000000000000e+00, 0.000000000000000e+00, 0.000000000000000e+00, 4.669841414303211e+03, 4.689606025969342e+03, 8.640638548388132e+01, 9.146852964654730e+03, 1.069938060460952e+03, -3.734161340190493e+02, 4.881655051783251e+03
761, 4.945363043534070e-01, 6.394277048316779e-01, 5.725739052758483e-02, 0.000000000000000e+00, 0.000000000000000e+00, 0.000000000000000e+00, 5.139014421084905e+03, 5.115068150039803e+03, 7.920558323821434e+01, 9.886965933574016e+03, 1.115198757839420e+03, -3.994725021261983e+02, 5.185158912149621e+03
762, 5.052674660428302e-01, 6.227629044038031e-01, 5.891913783488585e-02, 0.000000000000000e+00, 0.000000000000000e+00, 0.000000000000000e+00, 4.795387191003222e+03, 4.816058778793677e+03, 7.819795759772774e+01, 9.266918454465516e+03, 1.085952892606865e+03, -4.899370327843359e+02, 4.917207155334584e+03
763, 4.854567008210336e-01, 6.217486685895067e-01, 5.761897961543958e-02, 0.000000000000000e+00, 0.000000000000000e+00, 0.000000000000000e+00, 5.036968380076116e+03, 5.105635811554546e+03, 1.054391025768809e+02, 9.894049403935700e+03, 1.085709650686311e+03, -4.186995702184136e+02, 5.230487983948699e+03
764, 4.961832864465182e-01, 6.050854486027049e-01, 5.931493727804452e-02, 0.000000000000000e+00, 0.000000000000000e+00, 0.000000000000000e+00, 4.827854510587929e+03, 4.920323841812503e+03, 1.125374759419250e+02, 9.449512338803785e+03, 1.119617384678847e+03, -4.318511900270649e+02, 5.029813089517830e+03
765, 4.764107810776131e-01, 6.039181861760197e-01, 5.798909526906445e-02, 0.000000000000000e+00, 0.000000000000000e+00, 0.000000000000000e+00, 4.980767188927102e+03, 5.101313514713726e+03, 1.276678914497500e+02, 9.838554187053227e+03, 1.036600136086415e+03, -4.327100140423061e+02, 5.182785759456782e+03
766, 4.870991842350112e-01, 5.873495741174501e-01, 5.971010221207279e-02, 0.000000000000000e+00, 0.000000000000000e+00, 0.000000000000000e+00, 4.847912532077215e+03, 4.888343560981015e+03, 7.480255681522354e+01, 9.294620925276813e+03, 1.109607762205433e+03, -4.960415344037887e+02, 4.903438716206890e+03
767, 4.673078876931138e-01, 5.862078548294153e-01, 5.834379385421225e-02, 0.000000000000000e+00, 0.000000000000000e+00, 0.000000000000000e+00, 5.311467180624288e+03, 5.372518165139542e+03, 1.111462400001975e+02, 1.046309510108649e+04, 1.118271947759921e+03, -4.509687345933944e+02, 5.534190166896751e+03
768, 4.780165576380994e-01, 5.696803857813180e-01, 6.009801403978838e-02, 0.000000000000000e+00, 0.000000000000000e+00, 0.000000000000000e+00, 4.952471950950918e+03, 4.927049628452332e+03, 7.052837106066916e+01, 9.559510714109036e+03, 1.129165524061427e+03, -5.039253406345551e+02, 5.093560977085120e+03
769, 4.582105409818791e-01, 5.686097286576047e-01, 5.868829921116642e-02, 0.000000000000000e+00, 0.000000000000000e+00, 0.000000000000000e+00, 5.204417127205203e+03, 5.314365467548349e+03, 1.415429774737393e+02, 1.037874893542475e+04, 1.085213806844546e+03, -5.450072012120679e+02, 5.540862560615610e+03
770, 4.689389765694595e-01, 5.520727577822575e-01, 6.047904988747082e-02, 0.000000000000000e+00, 0.000000000000000e+00, 0.000000000000000e+00, 4.924917112977554e+03, 4.981113551766492e+03, 6.091771318961413e+01, 9.589610391229913e+03, 1.126317487339268e+03, -5.858922126539607e+02, 5.132942379802248e+03
771, 4.491355177031390e-01, 5.509833100839737e-01, 5.903325909901325e-02, 0.000000000000000e+00, 0.000000000000000e+00, 0.000000000000000e+00, 5.094953137327900e+03, 5.210126129548844e+03, 1.239793375057424e+02, 1.022138836081927e+04, 1.023453432236652e+03, -5.414757454424637e+02, 5.456303455237556e+03
772, 4.598587875175534e-01, 5.343980683876886e-01, 6.085997180604608e-02, 0.000000000000000e+00, 0.000000000000000e+00, 0.000000000000000e+00, 4.856580795138165e+03, 4.893171921508836e+03, 6.382057416287890e+01, 9.492465854765123e+03, 1.090454588355819e+03, -5.906344458140147e+02, 5.094033461918866e+03
773, 4.400677245378323e-01, 5.333598462402047e-01, 5.937557892094081e-02, 0.000000000000000e+00, 0.000000000000000e+00, 0.000000000000000e+00, 5.192694403520028e+03, 5.197826913980244e+03, 1.315017949382699e+02, 1.042578366654543e+04, 9.552966046568238e+02, -5.471359898286144e+02, 5.571904256265841e+03
774, 4.507810055995977e-01, 5.167052270329997e-01, 6.123882877470043e-02, 0.000000000000000e+00, 0.000000000000000e+00, 0.000000000000000e+00, 4.828988104098929e+03, 4.966660327078843e+03, 8.705561061345293e+01, 9.548781467870047e+03, 1.041061384568100e+03, -6.714324027001429e+02, 5.125645858309307e+03
775, 4.310245786418547e-01, 5.155296613694749e-01, 5.973063263707119e-02, 0.000000000000000e+00, 0.000000000000000e+00, 0.000000000000000e+00, 5.061373750621813e+03, 5.221681595555139e+03, 1.008034692124410e+02, 1.017429024594507e+04, 9.165876747219373e+02, -6.216341663478408e+02, 5.390560554663281e+03
776, 4.417003288985831e-01, 4.990512716791214e-01, 6.161200478125606e-02, 0.000000000000000e+00, 0.000000000000000e+00, 0.000000000000000e+00, 4.637843091425572e+03, 4.743787036922842e+03, 9.867879284131914e+01, 9.207585257025155e+03, 9.730718625822575e+02, -5.856637390397194e+02, 4.930360653351148e+03
777, 4.219298625594764e-01, 4.978360604547873e-01, 6.006917216451341e-02, 0.000000000000000e+00, 0.000000000000000e+00, 0.000000000000000e+00, 4.904666404799198e+03, 5.238516273607685e+03, 1.592362084110240e+02, 9.859467797043635e+03, 7.988379267969441e+02, -5.907383331580355e+02, 5.103406971972745e+03
778, 4.326485361138931e-01, 4.812883269192399e-01, 6.199039330968341e-02, 0.000000000000000e+00, 0.000000000000000e+00, 0.000000000000000e+00, 4.762222728000446e+03, 4.872856735824047e+03, 1.091580865592314e+02, 9.205628445920558e+03, 9.733013293402216e+02, -4.617334495902037e+02, 4.773027205752552e+03
779, 4.128425088203859e-01, 4.802603176869987e-01, 6.039739952403965e-02, 0.000000000000000e+00, 0.000000000000000e+00, 0.000000000000000e+00, 4.765907156955173e+03, 4.945018191989933e+03, 1.376951356876907e+02, 9.642336672392143e+03, 8.883741882970013e+02, -3.725876193052464e+02, 5.077321517568487e+03
780, 4.235449169187958e-01, 4.637086941759986e-01, 6.235097007594104e-02, 0.000000000000000e+00, 0.000000000000000e+00, 0.000000000000000e+00, 4.822350013576466e+03, 4.950309178293382e+03, 8.144579579258831e+01, 9.442479461528357e+03, 8.987779468759327e+02, -3.995889872326861e+02, 4.867556006981809e+03
781, 4.037694484421394e-01, 4.626283709965758e-01, 6.072758294374821e-02, 0.000000000000000e+00, 0.000000000000000e+00, 0.000000000000000e+00, 4.930432721977321e+03, 5.095860499400446e+03, 1.401496511478360e+02, 9.833347216850852e+03, 8.798785741198642e+02, -3.748643363245347e+02, 5.104695206129537e+03
782, 4.144835597332825e-01, 4.459627416680012e-01, 6.272130814112797e-02, 0.000000000000000e+00, 0.000000000000000e+00, 0.000000000000000e+00, 4.690451372926173e+03, 4.798550793868889e+03, 1.232816108959466e+02, 9.249261522194358e+03, 9.025334155236418e+02, -3.827447019195171e+02, 4.819793150153136e+03
783, 3.946990104505421e-01, 4.449905516949890e-01, 6.105532921158886e-02, 0.000000000000000e+00, 0.000000000000000e+00, 0.000000000000000e+00, 4.967613854112463e+03, 5.072514020283096e+03, 1.517523748427654e+02, 9.814293343991980e+03, 9.510038855200505e+02, -3.407015772370090e+02, 5.111108769479139e+03
784, 4.434295165359405e-01, 4.646324335121787e-01, 6.360479436374802e-02, 0.000000000000000e+00, 0.000000000000000e+00, 0.000000000000000e+00, 4.517934148297916e+03, 4.585970355682404e+03, 8.019424036530189e+01, 8.736198531879119e+03, 1.012165979994593e+03, -4.431596385281064e+02, 4.603617412676761e+03
785, 4.887603834388668e-01, 5.530739638956692e-01, 6.154471542767471e-02, 0.000000000000000e+00, 0.000000000000000e+00, 0.000000000000000e+00, 4.533804391101073e+03, 4.566995492915414e+03, 2.296457635937897e+01, 8.619215396875585e+03, 1.060790675146114e+03, -4.790406489021517e+02, 4.541138398830385e+03
786, 5.341827318554899e-01, 6.413854202403463e-01, 5.939836113981024e-02, 0.000000000000000e+00, 0.000000000000000e+00, 0.000000000000000e+00, 4.613412390282852e+03, 4.493484106079939e+03, 8.555402848146632e+01, 8.659357706979697e+03, 1.092055679863792e+03, -4.026975525439079e+02, 4.577716770888556e+03
787, 5.796102636836828e-01, 7.298025374779196e-01, 5.714254986809153e-02, 0.000000000000000e+00, 0.000000000000000e+00, 0.000000000000000e+00, 4.210034024763011e+03, 4.230135043407505e+03, 2.115218239537452e+01, 7.901242086036800e+03, 8.443266220916920e+02, -4.214062223660660e+02, 4.027899967976844e+03
788, 6.159620461108801e-01, 8.005466221198290e-01, 5.525508330858236e-02, 0.000000000000000e+00, 0.000000000000000e+00, 0.000000000000000e+00, 4.077131995175801e+03, 3.991691609962277e+03, -3.345517186315512e+00, 7.448057255612321e+03, 1.242093573925790e+03, -5.939641073692783e+02, 4.164763297331561e+03
789, 6.523112931450694e-01, 8.712262659296627e-01, 5.328916007979690e-02, 0.000000000000000e+00, 0.000000000000000e+00, 0.000000000000000e+00, 4.078177660710940e+03, 3.927256672933333e+03, 3.351560352596875e+01, 7.412487111257409e+03, 1.005595753703193e+03, -4.183631711895877e+02, 3.899453231934982e+03
790, 6.836391607247891e-01, 1.045028629751194e+00, 4.713796690805049e-02, 0.000000000000000e+00, 0.000000000000000e+00, 0.000000000000000e+00, 5.297321027642199e+03, 5.483313108313279e+03, 2.853294961907112e+01, 1.007619460089254e+04, 1.272114548308102e+03, -4.918917219310680e+02, 5.250384186136870e+03
791, 6.382105896797846e-01, 9.566518565662412e-01, 4.915530620273117e-02, 0.000000000000000e+00, 0.000000000000000e+00, 0.000000000000000e+00, 4.654574771597082e+03, 4.741497804701488e+03, 7.215087630232814e+01, 9.077987636483591e+03, 1.052306575713746e+03, -6.136603201016466e+02, 4.863850545007019e+03
792, 4.053959721146875e-01, 4.283184734851205e-01, 6.308029771825072e-02, 0.000000000000000e+00, 0.000000000000000e+00, 0.000000000000000e+00, 4.859186701437605e+03, 4.944544326873633e+03, 1.164267839976611e+02, 9.516541112335612e+03, 1.016383961400930e+03, -3.569797216961673e+02, 4.982245833335104e+03
793, 3.856264152590111e-01, 4.273007904427127e-01, 6.138340146516714e-02, 0.000000000000000e+00, 0.000000000000000e+00, 0.000000000000000e+00, 5.119930653495026e+03, 5.294476073289772e+03, 1.502408014575457e+02, 1.039626219350644e+04, 9.758439323277124e+02, -3.030573665291720e+02, 5.490832674407048e+03
794, 5.927918624282591e-01, 8.681998507955703e-01, 5.106495355247993e-02, 0.000000000000000e+00, 0.000000000000000e+00, 0.000000000000000e+00, 4.568047790257086e+03, 4.718548102947067e+03, 1.411579487163127e+02, 9.106476111974529e+03, 1.077071022747997e+03, -2.259689278766780e+02, 4.861085848514927e+03
795, 5.655498643793042e-01, 8.151693390627068e-01, 5.216078937212835e-02, 0.000000000000000e+00, 0.000000000000000e+00, 0.000000000000000e+00, 5.184465651687240e+03, 5.267128495192115e+03, 1.203194809508588e+02, 1.045571668118170e+04, 1.047536731215166e+03, -6.068932375354143e+02, 5.638933596899250e+03
796, 4.750647932152628e-01, 6.381648815738535e-01, 5.562332907855772e-02, 0.000000000000000e+00, 0.000000000000000e+00, 0.000000000000000e+00, 5.041082650994022e+03, 5.272126415050710e+03, 1.195607938979634e+02, 1.040505633328825e+04, 1.029298403390440e+03, -3.527773243172419e+02, 5.583984929871543e+03
797, 5.292245721406270e-01, 7.444277108311608e-01, 5.356961181805218e-02, 0.000000000000000e+00, 0.000000000000000e+00, 0.000000000000000e+00, 4.586644823530049e+03, 4.750786679212003e+03, 1.239857822673114e+02, 9.024011021782491e+03, 7.412733709252666e+02, -4.535100825068619e+02, 4.615234993237797e+03
798, 4.296101205961171e-01, 5.497935111599507e-01, 5.720405289398312e-02, 0.000000000000000e+00, 0.000000000000000e+00, 0.000000000000000e+00, 5.565356732002648e+03, 5.770789674738717e+03, 9.275791029839880e+01, 1.138256809614466e+04, 8.928882591121835e+02, -5.531844307540433e+02, 6.001891648709321e+03
799, 3.841141766147871e-01, 4.614266538289911e-01, 5.870673668745970e-02, 0.000000000000000e+00, 0.000000000000000e+00, 0.000000000000000e+00, 5.086420222900298e+03, 5.262285059231327e+03, 2.215808869366837e+02, 1.039214648637665e+04, 7.579103758555702e+02, -2.765503537291408e+02, 5.417433702312896e+03
800, 5.019878855291743e-01, 6.913763205154668e-01, 5.459035120459266e-02, 0.000000000000000e+00, 0.000000000000000e+00, 0.000000000000000e+00, 4.855523944392064e+03, 5.071683698630900e+03, 1.259169785958977e+02, 9.836825229293516e+03, 9.025135992975129e+02, -2.430698699354736e+02, 5.143125236763919e+03
801, 3.963165692980896e-01, 4.106891211777201e-01, 6.343569327487070e-02, 0.000000000000000e+00, 0.000000000000000e+00, 0.000000000000000e+00, 4.919753577616156e+03, 5.056969475045879e+03, 1.053448082753865e+02, 9.791171594327932e+03, 1.019515280610800e+03, -3.776037957401250e+02, 5.163369673855790e+03
802, 3.765559452980535e-01, 4.096384796840754e-01, 6.170675904771610e-02, 0.000000000000000e+00, 0.000000000000000e+00, 0.000000000000000e+00, 5.319775842326185e+03, 5.471922678305273e+03, 1.488303178413577e+02, 1.069645028636272e+04, 9.377242249467083e+02, -3.224410978427242e+02, 5.579432683841642e+03
803, 4.161087475395110e-01, 4.117340417488347e-01, 6.478290244065961e-02, 0.000000000000000e+00, 0.000000000000000e+00, 0.000000000000000e+00, 4.734620757452304e+03, 4.795413200360575e+03, 9.053903295602781e+01, 9.174163821781380e+03, 1.046344928603337e+03, -3.809603921857976e+02, 4.815375916002903e+03
804, 3.872453763725462e-01, 3.930395277704845e-01, 6.378970955562885e-02, 0.000000000000000e+00, 0.000000000000000e+00, 0.000000000000000e+00, 5.046349731172559e+03, 5.180840592685860e+03, 1.186634540539224e+02, 1.005565997742022e+04, 1.010120114626065e+03, -4.152560834385794e+02, 5.296994837904411e+03
805, 3.674907984479547e-01, 3.919845417180666e-01, 6.202704871384418e-02, 0.000000000000000e+00, 0.000000000000000e+00, 0.000000000000000e+00, 5.370443537480344e+03, 5.518552234631211e+03, 1.260201626667510e+02, 1.076684586935895e+04, 8.576889850984213e+02, -3.778914770493767e+02, 5.570168806234961e+03
806, 3.568432769972840e-01, 4.085687669269504e-01, 5.956340008379377e-02, 0.000000000000000e+00, 0.000000000000000e+00, 0.000000000000000e+00, 5.457617633825021e+03, 5.693094785694175e+03, 1.345868171693108e+02, 1.122729325227358e+04, 7.045101108849296e+02, -2.800791219432642e+02, 5.810736331658929e+03
807, 3.477743504411591e-01, 3.908839643829716e-01, 5.985139837209170e-02, 0.000000000000000e+00, 0.000000000000000e+00, 0.000000000000000e+00, 5.385580513616606e+03, 5.673723551288749e+03, 1.885746395360621e+02, 1.123176852813348e+04, 5.937897448141741e+02, -3.049479344687489e+02, 5.832651372515971e+03
808, 3.371791961299311e-01, 4.074377043733804e-01, 5.696516341239082e-02, 0.000000000000000e+00, 0.000000000000000e+00, 0.000000000000000e+00, 5.776163383253897e+03, 6.014749405005367e+03, 1.184476520159465e+02, 1.169041223034464e+04, 3.236235079876669e+02, -2.031888757199880e+02, 5.839892878489622e+03
809, 3.281181339239195e-01, 3.897629952056409e-01, 5.721926144975741e-02, 0.000000000000000e+00, 0.000000000000000e+00, 0.000000000000000e+00, 5.712383624028569e+03, 5.851942137472936e+03, 1.977790194986631e+02, 1.141471576513951e+04, 3.687361869332644e+02, -2.036150647795192e+02, 5.691211247316473e+03
810, 3.387141093595939e-01, 3.732268544620110e-01, 6.013595938549376e-02, 0.000000000000000e+00, 0.000000000000000e+00, 0.000000000000000e+00, 5.552473668458816e+03, 5.767139832086713e+03, 1.480801363556769e+02, 1.122325324979206e+04, 6.423899275107568e+02, -2.722615081233017e+02, 5.701986912299647e+03
811, 3.190642056132469e-01, 3.721013807592481e-01, 5.747114989311515e-02, 0.000000000000000e+00, 0.000000000000000e+00, 0.000000000000000e+00, 5.728731287739701e+03, 5.960016720218430e+03, 1.970822627601895e+02, 1.168290327471184e+04, 4.793662948561230e+02, -1.831064675295424e+02, 5.919039456096804e+03
812, 3.296499090664959e-01, 3.555578166557777e-01, 6.041867818384875e-02, 0.000000000000000e+00, 0.000000000000000e+00, 0.000000000000000e+00, 5.456892682280151e+03, 5.652013953525366e+03, 1.817306482644196e+02, 1.103875952939554e+04, 6.882812034421615e+02, -3.151685605788596e+02, 5.650171116843348e+03
813, 3.100073132412963e-01, 3.544296646861832e-01, 5.772142267995242e-02, 0.000000000000000e+00, 0.000000000000000e+00, 0.000000000000000e+00, 5.402724334359078e+03, 5.791553227825797e+03, 1.816818698805976e+02, 1.141970859249551e+04, 4.217099348347815e+02, -1.463124202275297e+02, 5.891729357823716e+03
814, 7.068487142538826e-01, 9.773212067033747e-01, 5.017285728068002e-02, 0.000000000000000e+00, 0.000000000000000e+00, 0.000000000000000e+00, 3.448876266443579e+03, 3.335868794017731e+03, -6.275503098746186e+01, 6.120572126759729e+03, 1.021475786002012e+03, -4.408481654762558e+02, 3.343313520452247e+03
815, 1.000408663177068e+00, 1.472730905797260e+00, 2.890338442083222e-02, 0.000000000000000e+00, 0.000000000000000e+00, 0.000000000000000e+00, 1.772748329396333e+03, 1.613970475432896e+03, 5.607481841906591e+00, 3.407855122222612e+03, 5.866399057873879e+02, -2.955159700421707e+02, 2.062262328806957e+03
816, 9.808192336306166e-01, 1.471863390715322e+00, 3.075730736217351e-02, 0.000000000000000e+00, 0.000000000000000e+00, 0.000000000000000e+00, 1.964350782444428e+03, 1.721058463325660e+03, 1.720172975630799e+01, 3.300996972920902e+03, 2.721762714363072e+02, -4.524588392139918e+02, 1.734443545592391e+03
817, 9.565810241019492e-01, 9.375478861896925e-01, 2.893236938367618e-02, 0.000000000000000e+00, 0.000000000000000e+00, 0.000000000000000e+00, -3.742157593431396e+01, -1.738243804951246e+02, -2.732234575550383e+01, -4.488346433857964e+02, 4.448462464920544e+02, -1.109418211555952e+02, 8.744008718885540e+02
818, 9.671981235716749e-01, 9.208148381614285e-01, 2.712848734909900e-02, 0.000000000000000e+00, 0.000000000000000e+00, 0.000000000000000e+00, -4.965403108047639e+02, -5.568623261353748e+02, -9.392724072348127e+00, -1.155283583672710e+03, 5.811752513807882e+02, -9.999468955573052e+01, 1.200583285467755e+03
819, 9.868494810263091e-01, 9.217728458845026e-01, 2.414736584122725e-02, 0.000000000000000e+00, 0.000000000000000e+00, 0.000000000000000e+00, -1.040819778146106e+03, -1.289697780840644e+03, 4.887154936856675e+01, -2.886609515204934e+03, 6.781725515619287e+02, -2.810199977788860e+02, 2.152519356950753e+03
820, 9.778041141914144e-01, 9.040822422038381e-01, 2.525060335924602e-02, 0.000000000000000e+00, 0.000000000000000e+00, 0.000000000000000e+00, -4.545793176198230e+02, -6.526109804010804e+02, -1.019279565748529e+02, -1.268207671158344e+03, 4.457298744983015e+02, -4.790953345007171e+01, 1.083587891982051e+03
821, 9.581477634892559e-01, 9.031001918293342e-01, 2.819235284776236e-02, 0.000000000000000e+00, 0.000000000000000e+00, 0.000000000000000e+00, -3.279373108777312e+02, -4.222621741069463e+02, -8.750325247015130e+01, -7.980304170865916e+02, 5.047019147086564e+02, -1.079505333821292e+02, 1.003815580205315e+03
822, 9.687567183577428e-01, 8.863922056665032e-01, 2.634286307729904e-02, 0.000000000000000e+00, 0.000000000000000e+00, 0.000000000000000e+00, -3.398844411475165e+02, -3.957774405302144e+02, -2.300897821258418e+01, -9.651045775545999e+02, 2.915141079229462e+02, -8.606111201863305e+01, 7.986413633451381e+02
823, 9.490938153184907e-01, 8.854356551026266e-01, 2.924699408551953e-02, 0.000000000000000e+00, 0.000000000000000e+00, 0.000000000000000e+00, -8.512859289140752e+01, -2.151537133409233e+02, -8.317005394671041e+00, -7.622112045699214e+02, 4.023117098422066e+02, -1.579439101348044e+02, 9.736119023811463e+02
824, 9.597055041650333e-01, 8.686704222550088e-01, 2.742422635031502e-02, 0.000000000000000e+00, 0.000000000000000e+00, 0.000000000000000e+00, -2.878506266448845e+02, -5.101830332148405e+02, -7.268060040425557e+00, -1.070039186704349e+03, 3.150908875492153e+02, -4.122124039214975e+01, 8.890712152959908e+02
825, 9.400397906776188e-01, 8.677467405915128e-01, 3.029105843033365e-02, 0.000000000000000e+00, 0.000000000000000e+00, 0.000000000000000e+00, -2.720073436967198e+02, -3.966591889211454e+02, -6.005839352668673e+01, -8.429418340534021e+02, 5.078443187272811e+02, -5.872512930269031e+01, 1.032095319045713e+03
826, 9.506575472651064e-01, 8.510137012917462e-01, 2.849550250196802e-02, 0.000000000000000e+00, 0.000000000000000e+00, 0.000000000000000e+00, -2.583874413143645e+02, -3.660852853451852e+02, -3.336583752398630e+01, -7.530467411760254e+02, 4.021188860918265e+02, -7.027469164847454e+01, 8.403970122975861e+02
827, 9.703109345534406e-01, 8.519709681382335e-01, 2.553033257467228e-02, 0.000000000000000e+00, 0.000000000000000e+00, 0.000000000000000e+00, -3.786289049782351e+02, -5.012134372412048e+02, -1.462220926591580e+01, -9.884105370133232e+02, 3.851824970626103e+02, -9.345519521429212e+01, 8.854662759536195e+02
828, 9.612638326450313e-01, 8.342580528491033e-01, 2.662833304852086e-02, 0.000000000000000e+00, 0.000000000000000e+00, 0.000000000000000e+00, -5.583207715497930e+02, -6.331575331144033e+02, -2.188617581254348e+01, -1.417858688944409e+03, 3.954607248065859e+02, -1.685476139744347e+02, 1.111715072012122e+03
829, 9.416053160621211e-01, 8.333245627253668e-01, 2.955657114475565e-02, 0.000000000000000e+00, 0.000000000000000e+00, 0.000000000000000e+00, -4.532877815644887e+02, -5.006857138625306e+02, 3.632900661937111e+00, -1.080802559526636e+03, 3.815114457216374e+02, -1.493376104425703e+02, 9.326715213914985e+02
830, 9.522162919391260e-01, 8.165916820779284e-01, 2.771639319031444e-02, 0.000000000000000e+00, 0.000000000000000e+00, 0.000000000000000e+00, -8.336536078240468e+02, -9.662141247856931e+02, -4.225758956958862e+01, -1.869695716143842e+03, 3.096240016158254e+02, -2.523409969231177e+01, 1.117356577604611e+03
831, 9.718610267532231e-01, 8.175495195101112e-01, 2.469237898482592e-02, 0.000000000000000e+00, 0.000000000000000e+00, 0.000000000000000e+00, -5.255093873820798e+02, -6.502736058339212e+02, -4.646812421842763e+01, -1.321896876289968e+03, 2.632058530498402e+02, 1.408619109580498e+01, 8.748391654124067e+02
832, 9.628166925372603e-01, 7.998591948197802e-01, 2.580707539207615e-02, 0.000000000000000e+00, 0.000000000000000e+00, 0.000000000000000e+00, -4.811204339404682e+02, -5.818551839633278e+02, -2.144766791805547e+01, -1.156811478116241e+03, 2.598020404225432e+02, -5.439958376260587e+01, 7.819140366785451e+02
833, 9.431659806753515e-01, 7.989021710216125e-01, 2.879402146723637e-02, 0.000000000000000e+00, 0.000000000000000e+00, 0.000000000000000e+00, -3.185037550438041e+02, -4.625188698536799e+02, -4.252811448946654e+00, -1.022445534658734e+03, 3.768193733652416e+02, -4.903710015807195e+01, 9.209466962815729e+02
834, 9.537703698161398e-01, 7.821694596376578e-01, 2.691118983031415e-02, 0.000000000000000e+00, 0.000000000000000e+00, 0.000000000000000e+00, -2.800662446785949e+02, -4.282008586856591e+02, -5.069792889208710e+00, -9.260337844123998e+02, 3.789241893156019e+02, -7.322506993758680e+01, 8.890676233248946e+02
835, 9.341144719767113e-01, 7.812130590279309e-01, 2.986167292220492e-02, 0.000000000000000e+00, 0.000000000000000e+00, 0.000000000000000e+00, -1.717447570018383e+02, -2.899419173651931e+02, -5.236273391910815e+01, -6.329369424144209e+02, 4.034049082996033e+02, -1.119788755214869e+02, 8.403613076685000e+02
836, 9.447250384184520e-01, 7.644574930827663e-01, 2.800419927127735e-02, 0.000000000000000e+00, 0.000000000000000e+00, 0.000000000000000e+00, -4.747446184028908e+02, -6.161446954702885e+02, 1.270479595906101e+01, -1.282101994314663e+03, 4.264761178760148e+02, -1.676573914685603e+02, 1.090007520468530e+03
837, 9.250603872507954e-01, 7.635024466396105e-01, 3.091948670243397e-02, 0.000000000000000e+00, 0.000000000000000e+00, 0.000000000000000e+00, -3.778208893283646e+02, -4.334287507619693e+02, -1.748045914971886e+01, -8.972597349435471e+02, 4.410818798296890e+02, -1.299492804154301e+02, 9.376891196857557e+02
838, 9.356734810067101e-01, 7.467916517941089e-01, 2.908861388169840e-02, 0.000000000000000e+00, 0.000000000000000e+00, 0.000000000000000e+00, -5.648472403235634e+02, -6.647741648900346e+02, -3.600244998100042e+01, -1.350174487291684e+03, 4.958440538112387e+02, -5.776010789450069e+01, 1.140057075335181e+03
839, 9.160078804944805e-01, 7.458364051651413e-01, 3.196809445209509e-02, 0.000000000000000e+00, 0.000000000000000e+00, 0.000000000000000e+00, -1.011877128721716e+02, -2.131973256467388e+02, -2.729224719135091e+01, -5.418970513696943e+02, 4.150901759924920e+02, -1.084363433431020e+02, 8.436922878639783e+02
840, 9.266230978003185e-01, 7.291035488296009e-01, 3.016247167210936e-02, 0.000000000000000e+00, 0.000000000000000e+00, 0.000000000000000e+00, -2.951469593179626e+02, -4.597163209056593e+02, -4.559105539320310e+01, -1.006117154832302e+03, 3.555632412930158e+02, -1.494814604300978e+02, 9.317205547847134e+02
841, 9.462749479895864e-01, 7.300600052491510e-01, 2.719082861028631e-02, 0.000000000000000e+00, 0.000000000000000e+00, 0.000000000000000e+00, -5.499984604668053e+02, -7.088487635420806e+02, -5.771490515381490e+01, -1.476085488804579e+03, 4.233069458729702e+02, -3.840438817798545e+01, 1.134788716420234e+03
842, 9.372291374534359e-01, 7.123516366348396e-01, 2.828970636653704e-02, 0.000000000000000e+00, 0.000000000000000e+00, 0.000000000000000e+00, -4.730830832292274e+02, -5.832516229924094e+02, -2.163776902119504e+01, -1.209074341865030e+03, 3.315417703507561e+02, -9.421497232705136e+01, 9.113347114742407e+02
843, 9.175708342574849e-01, 7.114152921203925e-01, 3.122687562915630e-02, 0.000000000000000e+00, 0.000000000000000e+00, 0.000000000000000e+00, -4.770142095176815e+02, -6.281603273550190e+02, -5.876874552921147e+01, -1.410905000757683e+03, 3.538745644482803e+02, -1.211550660685374e+02, 1.088081688048299e+03
844, 9.281796638888327e-01, 6.946826013610299e-01, 2.937966684264490e-02, 0.000000000000000e+00, 0.000000000000000e+00, 0.000000000000000e+00, -6.436080848617427e+02, -7.447372555956185e+02, 1.593058479246938e+01, -1.412944281241919e+03, 3.692004164954539e+02, -1.182111239806504e+02, 9.878829704947866e+02
845, 9.085175826607248e-01, 6.937274902707061e-01, 3.228193855975970e-02, 0.000000000000000e+00, 0.000000000000000e+00, 0.000000000000000e+00, -4.105610462787664e+02, -5.131332668082828e+02, -6.706999736365827e+01, -1.265091512840026e+03, 3.907778554904911e+02, -1.162413517710731e+02, 1.079465422090709e+03
846, 9.191298264260153e-01, 6.769948234158498e-01, 3.045950925559675e-02, 0.000000000000000e+00, 0.000000000000000e+00, 0.000000000000000e+00, -4.587327059901496e+02, -5.481989049458717e+02, 1.208045116950185e+01, -1.177428263729782e+03, 4.022087334372546e+02, -4.354342104051914e+01, 9.755357717283629e+02
847, 8.994632445347002e-01, 6.760402551161279e-01, 3.332791433772789e-02, 0.000000000000000e+00, 0.000000000000000e+00, 0.000000000000000e+00, -3.402415016747407e+02, -5.344696006674544e+02, 3.013277089361979e+01, -1.118505551758737e+03, 4.297694569971864e+02, -1.294657826702637e+01, 1.024495432368494e+03
848, 9.100788077880073e-01, 6.593076233901038e-01, 3.152994945960629e-02, 0.000000000000000e+00, 0.000000000000000e+00, 0.000000000000000e+00, -3.963108779904181e+02, -6.009499663205195e+02, -3.080370429055392e+01, -1.179774639178925e+03, 4.513170718318754e+02, -1.611719184642338e+02, 1.089588168170896e+03
849, 8.904078662725337e-01, 6.583535814353954e-01, 3.436505570392879e-02, 0.000000000000000e+00, 0.000000000000000e+00, 0.000000000000000e+00, -2.052467160098753e+02, -3.152751577573895e+02, -2.513953102192033e+01, -7.076451376739896e+02, 4.712914294557270e+02, -6.811536632626422e+01, 9.441367742527686e+02
850, 9.010266536808017e-01, 6.416210309233629e-01, 3.259122767857740e-02, 0.000000000000000e+00, 0.000000000000000e+00, 0.000000000000000e+00, -4.974170504909225e+02, -6.192858941628635e+02, -3.557602126690553e+00, -1.289936288035728e+03, 5.401304012643715e+02, -1.122741736087917e+02, 1.208069677111590e+03
851, 8.813515121854287e-01, 6.406674828253370e-01, 3.539354342705055e-02, 0.000000000000000e+00, 0.000000000000000e+00, 0.000000000000000e+00, -6.126142259541923e+01, -2.098780265316752e+02, -2.417917030089011e+01, -5.210152513047937e+02, 4.645430705512169e+02, -7.143057011164794e+01, 9.108211099712163e+02
852, 8.919734354512538e-01, 6.239350587985298e-01, 3.364354858907837e-02, 0.000000000000000e+00, 0.000000000000000e+00, 0.000000000000000e+00, -6.499751134845337e+01, -2.187911916370193e+02, -2.058879299953473e+01, -5.742757498399908e+02, 4.656055005801718e+02, -7.303252095390623e+01, 9.339868493522656e+02
853, 8.722966908254710e-01, 6.229632127662531e-01, 3.641298171021003e-02, 0.000000000000000e+00, 0.000000000000000e+00, 0.000000000000000e+00, -1.383193227180229e+01, -1.526481728146495e+02, -5.612996337331257e+00, -4.220706917487186e+02, 4.888624978063895e+02, -1.114676990064223e+02, 9.399935902849309e+02
854, 8.829192244217385e-01, 6.062497743575266e-01, 3.468713753561150e-02, 0.000000000000000e+00, 0.000000000000000e+00, 0.000000000000000e+00, -1.030604148154370e+02, -3.015927047806164e+02, -5.529758590712684e+01, -7.074810175881064e+02, 4.584224015241698e+02, -1.205172204802612e+02, 9.838405835399332e+02
855, 9.025856009544663e-01, 6.072038187874047e-01, 3.182923060521260e-02, 0.000000000000000e+00, 0.000000000000000e+00, 0.000000000000000e+00, -3.616252725178446e+02, -5.371314425180739e+02, -3.442711303742767e+01, -1.000367602640864e+03, 4.304834790482533e+02, -8.947426957535215e+01, 9.540501298711131e+02
856, 8.935160506550458e-01, 5.894567103364780e-01, 3.289820195701490e-02, 0.000000000000000e+00, 0.000000000000000e+00, 0.000000000000000e+00, -4.697202058284244e+02, -5.709427199982229e+02, -9.070757376216406e+00, -1.146984602354979e+03, 4.212502832211129e+02, -1.293291558324551e+02, 9.915437388779017e+02
857, 8.738625498944363e-01, 5.885436444880588e-01, 3.572212812847932e-02, 0.000000000000000e+00, 0.000000000000000e+00, 0.000000000000000e+00, -4.204141952966133e+01, -3.280687553746434e+02, -4.171102579964228e+01, -7.211824113723229e+02, 5.201556688768856e+02, -1.728991055498454e+02, 1.120436845969287e+03
858, 8.844821650396429e-01, 5.718325700587732e-01, 3.395482490423981e-02, 0.000000000000000e+00, 0.000000000000000e+00, 0.000000000000000e+00, -4.037623059387718e+02, -5.771949290929675e+02, -5.483243690662938e+01, -1.154072436419131e+03, 3.778924881692201e+02, -1.643992153899622e+02, 9.906690693088483e+02
859, 8.648072205759236e-01, 5.708797753298667e-01, 3.674903907609059e-02, 0.000000000000000e+00, 0.000000000000000e+00, 0.000000000000000e+00, -1.676403152361141e+02, -3.530740653973894e+02, -4.052689093866785e+01, -8.403576950045576e+02, 5.545222039917310e+02, -2.384716227968302e+02, 1.208390622968141e+03
860, 8.754286920690860e-01, 5.541482906597495e-01, 3.500462955993890e-02, 0.000000000000000e+00, 0.000000000000000e+00, 0.000000000000000e+00, -4.263740562378866e+02, -4.896385371997271e+02, -4.926576589014964e+01, -1.404721753931212e+03, 3.759401217640101e+02, -1.636971156810237e+02, 1.187828465060223e+03
861, 8.557502374476931e-01, 5.531959937796187e-01, 3.776762532974430e-02, 0.000000000000000e+00, 0.000000000000000e+00, 0.000000000000000e+00, -1.463780214997613e+02, -2.486650410406268e+02, -4.838888597291243e+01, -8.226670940244323e+02, 5.515323865984795e+02, -1.505162403194346e+02, 1.177373237110503e+03
862, 8.663744154871238e-01, 5.364649768087940e-01, 3.604602100981989e-02, 0.000000000000000e+00, 0.000000000000000e+00, 0.000000000000000e+00, -5.179235076121486e+02, -7.123117056945824e+02, -3.856610727502218e+01, -1.424980444548470e+03, 5.082030924895560e+02, -1.670806423425740e+01, 1.210094441206583e+03
863, 8.466926128945890e-01, 5.355131634531591e-01, 3.877826043016167e-02, 0.000000000000000e+00, 0.000000000000000e+00, 0.000000000000000e+00, -1.644483685479889e+02, -3.165337987058230e+02, -2.794071612203255e+01, -7.343187811295046e+02, 4.938173360978902e+02, -1.122680569104145e+02, 1.016333785388661e+03
864, 8.573193958335270e-01, 5.187826671644443e-01, 3.707918424953206e-02, 0.000000000000000e+00, 0.000000000000000e+00, 0.000000000000000e+00, -2.529461400244722e+02, -3.994778100867990e+02, -2.685101302637373e+01, -8.551097383378947e+02, 4.622829365210978e+02, -1.022349812227952e+02, 9.851253406585524e+02
865, 8.769548345808440e-01, 5.196596352985794e-01, 3.426604692898383e-02, 0.000000000000000e+00, 0.000000000000000e+00, 0.000000000000000e+00, -5.248707185060140e+02, -7.290155798304183e+02, -6.852046187420349e+01, -1.355983820761064e+03, 4.266291141678900e+02, -4.084303734547866e+01, 1.062018582461075e+03
866, 8.679282202421486e-01, 5.020062096702097e-01, 3.531842729928291e-02, 0.000000000000000e+00, 0.000000000000000e+00, 0.000000000000000e+00, -3.686950716224668e+02, -5.167820482949810e+02, -4.771565713282595e+01, -1.138080375619857e+03, 3.769648600723179e+02, -1.310204693748535e+02, 9.922623213054226e+02
867, 8.482633396676678e-01, 5.011005306294417e-01, 3.810430863676480e-02, 0.000000000000000e+00, 0.000000000000000e+00, 0.000000000000000e+00, -1.343549404197548e+02, -2.917161114596072e+02, -3.006105032413857e+01, -7.738978392967309e+02, 4.921584346579438e+02, -1.346434002833828e+02, 1.056832885811070e+03
868, 8.588836103410766e-01, 4.843708045912842e-01, 3.636526526675839e-02, 0.000000000000000e+00, 0.000000000000000e+00, 0.000000000000000e+00, -5.100932876421062e+02, -5.863496825795277e+02, 1.854420812423644e+01, -1.396161407570730e+03, 4.335744456924156e+02, -9.532132487652787e+01, 1.147002143936066e+03
869, 8.392069411517082e-01, 4.834194608921107e-01, 3.912151848118155e-02, 0.000000000000000e+00, 0.000000000000000e+00, 0.000000000000000e+00, -1.278259522411450e+02, -2.320175351213391e+02, 1.966463092205108e+01, -8.228248257099523e+02, 5.260783712650451e+02, -9.219168699639476e+01, 1.130663371680359e+03
870, 8.498296376759435e-01, 4.666904869924622e-01, 3.740456193169332e-02, 0.000000000000000e+00, 0.000000000000000e+00, 0.000000000000000e+00, -4.307530276323669e+02, -5.693628682451516e+02, -4.052947385656935e+01, -1.148311473393381e+03, 5.590065393580470e+02, -1.080821379967138e+01, 1.173620658281644e+03
871, 8.301500721559650e-01, 4.657396109922580e-01, 4.013102698408679e-02, 0.000000000000000e+00, 0.000000000000000e+00, 0.000000000000000e+00, 1.576470272249739e+01, -1.327623447540953e+02, -2.477095544743056e+01, -4.062070332720450e+02, 5.387940645415327e+02, -7.651317673871637e+01, 1.013778548325699e+03
872, 8.407751169531583e-01, 4.490113991484925e-01, 3.843589141730232e-02, 0.000000000000000e+00, 0.000000000000000e+00, 0.000000000000000e+00, -1.758546235912896e+02, -3.367668613707926e+02, -2.282396278089004e+01, -7.564624981349953e+02, 4.787173482625585e+02, -7.870751251668034e+01, 9.885492683106421e+02
873, 8.210927507832548e-01, 4.480609779108263e-01, 4.113295714768563e-02, 0.000000000000000e+00, 0.000000000000000e+00, 0.000000000000000e+00, 1.262943200643338e+02, -4.576823438195960e+01, -3.854635048347158e+01, -2.773041447003860e+02, 5.583337294203695e+02, -9.916266751250950e+01, 1.045093243735578e+03
874, 8.317200768366610e-01, 4.313335404989952e-01, 3.945940133049630e-02, 0.000000000000000e+00, 0.000000000000000e+00, 0.000000000000000e+00, -1.086546800953435e+02, -2.617056200677644e+02, -2.090194866421015e+01, -6.364769666963339e+02, 5.166135022484942e+02, -8.199320054466037e+01, 1.021462246318181e+03
875, 8.120349995630012e-01, 4.303835517278533e-01, 4.212746195588478e-02, 0.000000000000000e+00, 0.000000000000000e+00, 0.000000000000000e+00, 1.856083252406896e+02, 1.615124154786407e+01, -3.532672271107002e+01, -1.582685447988578e+02, 5.514707125817494e+02, -1.108281062847394e+02, 1.020611098000762e+03
876, 8.226645584273158e-01, 4.136569203074337e-01, 4.047529892947493e-02, 0.000000000000000e+00, 0.000000000000000e+00, 0.000000000000000e+00, -1.619626082099713e+01, -1.698398598352159e+02, -3.232387710617346e+01, -5.038543783295473e+02, 5.097628684429456e+02, -8.149434277228450e+01, 9.945472717584806e+02
877, 8.029771170021494e-01, 4.127074822820445e-01, 4.311472604176774e-02, 0.000000000000000e+00, 0.000000000000000e+00, 0.000000000000000e+00, 2.555788124921195e+02, 9.974139950285513e+01, -3.985682170649710e+01, -7.310372465204857e+00, 5.546297273252317e+02, -1.093602226732002e+02, 1.007926152694589e+03
878, 8.136085910760620e-01, 3.959821288165351e-01, 4.148374998180512e-02, 0.000000000000000e+00, 0.000000000000000e+00, 0.000000000000000e+00, -3.860335988234881e+01, -1.422242435465028e+02, 6.831696961960092e+00, -3.744741341094492e+02, 5.374978402552273e+02, -1.106032770346966e+02, 9.961396959506028e+02
879, 7.939209452684519e-01, 3.950152433239030e-01, 4.409440325723776e-02, 0.000000000000000e+00, 0.000000000000000e+00, 0.000000000000000e+00, 3.193761414684180e+02, 1.267575314834611e+02, 2.051867010316853e+01, 7.751005034239741e+01, 5.694072750454545e+02, -1.197082123860354e+02, 1.032443884724195e+03
880, 8.045525092346588e-01, 3.783087867050655e-01, 4.248482177270511e-02, 0.000000000000000e+00, 0.000000000000000e+00, 0.000000000000000e+00, 1.070360121344133e+02, -1.563183170917952e+01, -4.991504366094506e+01, -2.013692172032641e+02, 5.519510559607129e+02, -1.022812336250055e+02, 1.012491270292312e+03
881, 8.242299032262715e-01, 3.792585645502696e-01, 3.979265419629616e-02, 0.000000000000000e+00, 0.000000000000000e+00, 0.000000000000000e+00, -9.979425494713104e+01, -2.454383214702598e+02, -3.863906254331373e+01, -6.745124535923801e+02, 5.358957686439649e+02, -7.638020132736081e+01, 1.073006275792697e+03
882, 8.151769678548519e-01, 3.615852698380600e-01, 4.081449229753015e-02, 0.000000000000000e+00, 0.000000000000000e+00, 0.000000000000000e+00, -8.311989626094780e+01, -2.180241336596385e+02, -2.091758080148425e+01, -5.278419880454281e+02, 4.863883143919361e+02, -7.933422289400475e+01, 9.412211042046304e+02
883, 7.954980011566665e-01, 3.606205907624542e-01, 4.347824728080282e-02, 0.000000000000000e+00, 0.000000000000000e+00, 0.000000000000000e+00, 1.731506044783561e+02, 1.437977019180717e+01, -1.497767944223711e+01, -1.277335872222349e+02, 5.251576340970303e+02, -1.009837086277217e+02, 9.626035442048030e+02
884, 8.061230300320192e-01, 3.439143478115863e-01, 4.182906740568215e-02, 0.000000000000000e+00, 0.000000000000000e+00, 0.000000000000000e+00, 9.221436474483099e+00, -1.552324881262931e+02, -1.375981088099829e+01, -4.449351836683723e+02, 5.097074654895717e+02, -9.916117833467089e+01, 9.839143288672421e+02
885, 7.864414850829123e-01, 3.429660874668000e-01, 4.446530530332518e-02, 0.000000000000000e+00, 0.000000000000000e+00, 0.000000000000000e+00, 1.638824535647191e+02, 2.366992580968212e+01, -2.015548235422331e+01, -1.054735236568629e+02, 5.513577098450545e+02, -1.137259734776649e+02, 1.003220118979955e+03
886, 7.970690369895091e-01, 3.262462408870357e-01, 4.283639059241147e-02, 0.000000000000000e+00, 0.000000000000000e+00, 0.000000000000000e+00, 8.601273960030368e+01, -4.752350782796243e+01, -1.427896431411107e+01, -2.767313504894586e+02, 5.304850250693788e+02, -7.947528994810958e+01, 9.822318650787820e+02
887, 7.773884229846922e-01, 3.252994690510918e-01, 4.544480162923107e-02, 0.000000000000000e+00, 0.000000000000000e+00, 0.000000000000000e+00, 2.406175422600514e+02, 1.294493599680432e+02, -1.344979011234759e+01, 4.383474895863607e+01, 5.622565539082334e+02, -8.536035076827541e+01, 1.000002501650015e+03
888, 7.880152853734079e-01, 3.085851022976895e-01, 4.383658451529316e-02, 0.000000000000000e+00, 0.000000000000000e+00, 0.000000000000000e+00, 2.115538039003180e+02, 6.833429371954111e+01, -1.144606061663538e+01, -4.166156446749362e+01, 5.650385238847708e+02, -5.229778870822736e+01, 1.007357078344148e+03
889, 7.683381880709887e-01, 3.076390554180609e-01, 4.641713192685672e-02, 0.000000000000000e+00, 0.000000000000000e+00, 0.000000000000000e+00, 2.579289871081042e+02, 1.896445431150605e+02, -3.082656924631938e+01, 2.181862680323122e+02, 5.524150657337287e+02, -6.949695522227928e+01, 9.676548798796555e+02
890, 7.789638060202503e-01, 2.909305685117506e-01, 4.482952786189878e-02, 0.000000000000000e+00, 0.000000000000000e+00, 0.000000000000000e+00, 3.161020246270186e+02, 1.619421587831151e+02, -2.415027984599457e+01, 1.808892287888540e+02, 5.612520002092665e+02, -5.827130849163500e+01, 9.890152402138209e+02
891, 7.592904427603646e-01, 2.899851856242677e-01, 4.738253524854791e-02, 0.000000000000000e+00, 0.000000000000000e+00, 0.000000000000000e+00, 4.432972716354720e+02, 3.232691067378834e+02, -5.575819013542111e+00, 4.752951563931134e+02, 5.553028304114463e+02, -6.295564081156648e+01, 9.779256005328835e+02
892, 7.699147553355807e-01, 2.732824527683222e-01, 4.581539294564742e-02, 0.000000000000000e+00, 0.000000000000000e+00, 0.000000000000000e+00, 3.885568613359065e+02, 2.465993759863586e+02, -1.978544377245263e+01, 3.214114156915663e+02, 5.599967121671314e+02, -8.512603613097139e+01, 9.893590401129020e+02
893, 7.502449727713973e-01, 2.723377214593283e-01, 4.834119752273071e-02, 0.000000000000000e+00, 0.000000000000000e+00, 0.000000000000000e+00, 5.178417621403000e+02, 3.821591207861868e+02, -1.515952480786646e+01, 6.133428546353945e+02, 5.577104358369121e+02, -1.027524474753931e+02, 1.002982800950480e+03
894, 7.608685447407852e-01, 2.556168352666042e-01, 4.679393429671053e-02, 0.000000000000000e+00, 0.000000000000000e+00, 0.000000000000000e+00, 4.779513868171963e+02, 3.144594181003938e+02, -2.468810019062047e+01, 4.369057323699810e+02, 5.551387271029142e+02, -1.020071582931017e+02, 9.895886224192107e+02
895, 7.412019231891543e-01, 2.546966156058442e-01, 4.929318099665662e-02, 0.000000000000000e+00, 0.000000000000000e+00, 0.000000000000000e+00, 5.306737174768404e+02, 4.067912553583823e+02, -1.919505563640488e+01, 5.948552240689994e+02, 5.631851381500391e+02, -9.603967223199639e+01, 1.003855467274675e+03
896, 7.805211848995852e-01, 2.565857029238831e-01, 4.419103208523572e-02, 0.000000000000000e+00, 0.000000000000000e+00, 0.000000000000000e+00, 1.941257998432051e+02, 4.910402765887201e+01, -1.630032423148217e+01, -7.690178551242450e+01, 5.448661639934300e+02, -8.255716564330402e+01, 9.833940889562748e+02
897, 7.714814729181738e-01, 2.389286053955346e-01, 4.518867859537416e-02, 0.000000000000000e+00, 0.000000000000000e+00, 0.000000000000000e+00, 2.266668092737784e+02, 1.219841179964317e+02, -3.186232432806000e+01, 9.825108034743775e+01, 5.327298802594505e+02, -8.701817449807064e+01, 9.440188813576956e+02
898, 7.911199479370440e-01, 2.398781365120481e-01, 4.250973712222353e-02, 0.000000000000000e+00, 0.000000000000000e+00, 0.000000000000000e+00, 8.483846531244399e+01, -6.212449825681124e+01, -1.294250428859468e+01, -2.676785958594583e+02, 5.329260721491812e+02, -7.091168477993672e+01, 9.806518039322708e+02
899, 8.167359648894610e-01, 3.271958021731717e-01, 4.012170330605264e-02, 0.000000000000000e+00, 0.000000000000000e+00, 0.000000000000000e+00, -2.999312737204792e+01, -1.988810465251975e+02, -2.071727869918098e+01, -5.630277573390179e+02, 5.128119686886369e+02, -7.852412164148612e+01, 1.015549118520596e+03
900, 7.820826703004062e-01, 2.222559125114426e-01, 4.352740442369050e-02, 0.000000000000000e+00, 0.000000000000000e+00, 0.000000000000000e+00, 2.514918654607341e+02, 8.923187507600721e+01, -2.176891604425461e+01, -1.329408482065973e+01, 5.060508000164094e+02, -5.973549111524556e+01, 9.131618797369449e+02
901, 8.017105342195138e-01, 2.232028794080906e-01, 4.077375606434860e-02, 0.000000000000000e+00, 0.000000000000000e+00, 0.000000000000000e+00, -1.044279220715217e+02, -2.215295089577452e+02, -2.379832139061115e+01, -5.784527820881739e+02, 5.362399878037628e+02, -5.140798965152103e+01, 1.027224748677724e+03
902, 8.513663877152485e-01, 4.322438408414949e-01, 3.668339131385847e-02, 0.000000000000000e+00, 0.000000000000000e+00, 0.000000000000000e+00, -2.498669004246232e+02, -4.115903162040055e+02, -2.604251765899702e+01, -9.375177170215907e+02, 4.406633018867202e+02, -6.192142277494268e+01, 9.919166964603838e+02
903, 7.926769188504539e-01, 2.055673210078471e-01, 4.181067881754651e-02, 0.000000000000000e+00, 0.000000000000000e+00, 0.000000000000000e+00, -4.463534047001780e+01, -1.604062121782917e+02, 1.169149367512384e+00, -4.183010430911594e+02, 5.408852431306648e+02, -4.934771285924159e+01, 9.973713338897960e+02
904, 8.122919262654824e-01, 2.064995060225527e-01, 3.898382856458228e-02, 0.000000000000000e+00, 0.000000000000000e+00, 0.000000000000000e+00, -1.458532343741858e+02, -3.114890466543267e+02, 3.995427254689281e+00, -7.249023795949755e+02, 5.199927690027595e+02, -3.871723042207799e+01, 1.040453872561800e+03
905, 7.730505696804570e-01, 2.046229602557450e-01, 4.453726327028116e-02, 0.000000000000000e+00, 0.000000000000000e+00, 0.000000000000000e+00, 2.757475377641256e+02, 1.314730037748332e+02, -2.011542786217784e+01, 8.314076971939620e+01, 5.206879573142874e+02, -6.888450893556946e+01, 9.267800285160017e+02
906, 7.836428513399691e-01, 1.879407173726171e-01, 4.284061017369373e-02, 0.000000000000000e+00, 0.000000000000000e+00, 0.000000000000000e+00, 1.571789036548904e+02, 1.140092575784762e+01, -2.196858199869360e+01, -1.456393804375022e+02, 4.813445443352732e+02, -6.568838326511511e+01, 8.821997239016908e+02
907, 7.640207510850334e-01, 1.869973955543077e-01, 4.554007543024562e-02, 0.000000000000000e+00, 0.000000000000000e+00, 0.000000000000000e+00, 3.216766525112215e+02, 1.741799289597991e+02, -2.209219113489154e+01, 1.484739082532506e+02, 5.276353149641592e+02, -6.372529798120134e+01, 9.354419539001412e+02
908, 8.785447100616137e-01, 4.853235160806100e-01, 3.349612007248420e-02, 0.000000000000000e+00, 0.000000000000000e+00, 0.000000000000000e+00, -3.091763822471062e+02, -4.652092264470812e+02, 1.103822904318305e+00, -1.161304075669807e+03, 3.328151986609106e+02, -9.124135917230898e+01, 9.873117178812706e+02
909, 7.577027860995070e-01, 3.243492567960402e-01, 4.794437842023845e-02, 0.000000000000000e+00, 0.000000000000000e+00, 0.000000000000000e+00, 5.999512804371697e+02, 4.416138967180961e+02, -3.192195707026555e+01, 5.830786228967007e+02, 6.031403629914047e+02, -1.143668568635561e+02, 1.075320929531495e+03
910, 8.213242745791797e-01, 2.241514824190159e-01, 3.791981377726346e-02, 0.000000000000000e+00, 0.000000000000000e+00, 0.000000000000000e+00, -2.644151636975150e+02, -4.654709060423957e+02, -2.646272731157259e+01, -1.024722562205815e+03, 4.737807192555994e+02, -4.934375627603139e+01, 1.071651221160394e+03
911, 8.318972746744309e-01, 2.074609432559690e-01, 3.605740653756735e-02, 0.000000000000000e+00, 0.000000000000000e+00, 0.000000000000000e+00, -3.392723201899444e+02, -5.395925514359152e+02, -1.036301277556447e+01, -1.265090424723836e+03, 5.027843735550210e+02, -4.400985423327235e+01, 1.215037619878840e+03
912, 8.409283929075808e-01, 2.251018185514134e-01, 3.496515809724905e-02, 0.000000000000000e+00, 0.000000000000000e+00, 0.000000000000000e+00, -6.319988966204887e+02, -8.579738295132820e+02, -7.342214536586448e+01, -1.533588600523230e+03, 4.343035837022433e+02, -5.860616453696826e+01, 1.119163652889288e+03
913, 8.514929617666357e-01, 2.084076289103299e-01, 3.303065776059200e-02, 0.000000000000000e+00, 0.000000000000000e+00, 0.000000000000000e+00, -6.585502408987570e+02, -7.160411285606730e+02, 3.116152952394002e+01, -1.789136774486838e+03, 3.161609253597221e+02, -1.027957956661647e+02, 1.245399506367319e+03
914, 8.424627655296062e-01, 1.907635620985692e-01, 3.414337068201153e-02, 0.000000000000000e+00, 0.000000000000000e+00, 0.000000000000000e+00, -9.889499348871784e+02, -1.199668800075726e+03, -8.516230078065018e+01, -2.244390883835113e+03, 4.358513229150445e+02, 2.215405114621587e+01, 1.396108416204777e+03
915, 8.605222096771378e-01, 2.260534551471434e-01, 3.190971144564487e-02, 0.000000000000000e+00, 0.000000000000000e+00, 0.000000000000000e+00, -6.801430972961959e+02, -9.067402573563339e+02, -4.360564317430897e+01, -1.620580638756389e+03, 3.590217491434752e+02, -6.562597209955668e+01, 1.062065476461921e+03
916, 9.040574125293190e-01, 5.728119718699789e-01, 3.105623283031464e-02, 0.000000000000000e+00, 0.000000000000000e+00, 0.000000000000000e+00, -5.585877395399655e+02, -7.117884275896922e+02, -1.114820396157598e+02, -1.485690157397215e+03, 4.326358695557510e+02, -7.707064028460053e+01, 1.165153375671400e+03
917, 7.746111577385811e-01, 1.703215752646081e-01, 4.386324792541273e-02, 0.000000000000000e+00, 0.000000000000000e+00, 0.000000000000000e+00, 1.037811017448825e+02, -4.417286907847105e+01, -8.164038734547596e+00, -2.097337302855256e+02, 4.962271775570784e+02, -5.480270834336854e+01, 9.064934436740358e+02
918, 7.549932118904827e-01, 1.693790161080279e-01, 4.653594133448530e-02, 0.000000000000000e+00, 0.000000000000000e+00, 0.000000000000000e+00, 3.429108672954137e+02, 2.117995880236632e+02, -3.113152341618144e+01, 2.444046880199193e+02, 5.456026691714188e+02, -5.500713775198606e+01, 9.586501199130541e+02
919, 7.305703997018976e-01, 2.713896368406576e-01, 5.075974382922320e-02, 0.000000000000000e+00, 0.000000000000000e+00, 0.000000000000000e+00, 7.721354563916791e+02, 6.028996451160144e+02, -1.943893284800751e+01, 9.661976681454958e+02, 5.992954105059231e+02, -1.365017726449086e+02, 1.110693460406527e+03
920, 7.215251746912150e-01, 2.537510369746476e-01, 5.168604024423663e-02, 0.000000000000000e+00, 0.000000000000000e+00, 0.000000000000000e+00, 8.117263719280074e+02, 6.585999198221166e+02, -1.873327586646837e+01, 1.018554853987324e+03, 6.313024411532760e+02, -1.046810353666671e+02, 1.152151085564009e+03
921, 8.620470318871181e-01, 1.917129800122832e-01, 3.104601074619215e-02, 0.000000000000000e+00, 0.000000000000000e+00, 0.000000000000000e+00, -7.559642295540660e+02, -8.114730750495700e+02, 3.791473802533513e+01, -1.915267942424079e+03, 2.458871048063558e+02, -2.439677192880742e+01, 1.212515696546960e+03
922, 8.530213812172092e-01, 1.740707914795530e-01, 3.217881556304009e-02, 0.000000000000000e+00, 0.000000000000000e+00, 0.000000000000000e+00, -9.637553219410031e+02, -1.190258334210906e+03, 1.306803192554048e+01, -2.284130891761592e+03, 3.644171286492149e+02, 1.168883346461610e+02, 1.391232085497430e+03
923, 7.923394440780577e-01, 4.294126588197067e-01, 4.468277623570797e-02, 0.000000000000000e+00, 0.000000000000000e+00, 0.000000000000000e+00, 3.779892510963010e+02, 2.423100829596835e+02, -3.906069293425389e+01, 2.632561084032097e+02, 5.825443716513386e+02, -1.289343274894621e+02, 1.043325866535058e+03
924, 7.108845582765893e-01, 2.704431702047153e-01, 5.306996694856533e-02, 0.000000000000000e+00, 0.000000000000000e+00, 0.000000000000000e+00, 1.034697393282748e+03, 8.673844334220111e+02, -2.732554165183165e+01, 1.418335096103383e+03, 6.758309464136497e+02, -1.349135396503196e+02, 1.290909184547732e+03
925, 7.018370644034069e-01, 2.528061057387201e-01, 5.397079265221426e-02, 0.000000000000000e+00, 0.000000000000000e+00, 0.000000000000000e+00, 1.064491473430217e+03, 9.330311448166507e+02, -2.160546998402021e+01, 1.553435161251242e+03, 6.734305589705666e+02, -1.272102233557024e+02, 1.315712092662462e+03
926, 9.297321185940135e-01, 6.602633227053948e-01, 2.857248830135335e-02, 0.000000000000000e+00, 0.000000000000000e+00, 0.000000000000000e+00, -6.719389376390927e+02, -8.232629728191991e+02, -4.733015572876239e+01, -1.465069108084372e+03, 5.734718483372020e+02, -2.911155479547325e+01, 1.236045118260859e+03
927, 8.195166939174996e-01, 4.824685429643572e-01, 4.176385583737804e-02, 0.000000000000000e+00, 0.000000000000000e+00, 0.000000000000000e+00, 1.675212179904184e+02, 2.450787631956107e+01, -4.782641749856460e+01, -1.634065224624071e+02, 5.783944527276183e+02, -1.184299906326296e+02, 1.065456906119413e+03
928, 8.725912472415968e-01, 1.750218153850901e-01, 2.901207491245780e-02, 0.000000000000000e+00, 0.000000000000000e+00, 0.000000000000000e+00, -7.887342988704455e+02, -8.937176954746926e+02, 4.425629924309057e+01, -1.738571280021956e+03, 3.411990617566886e+02, 5.969066769430816e+00, 1.081077166717196e+03
929, 8.635707656995844e-01, 1.573827516034341e-01, 3.016511784754786e-02, 0.000000000000000e+00, 0.000000000000000e+00, 0.000000000000000e+00, -6.679800573085182e+02, -7.799328705527388e+02, -7.282657747291799e+00, -1.531722050504267e+03, 3.553481228007327e+02, 5.398593382677324e+01, 1.024502189722735e+03
930, 7.655820182667878e-01, 1.527093802930629e-01, 4.487872119333347e-02, 0.000000000000000e+00, 0.000000000000000e+00, 0.000000000000000e+00, 1.834199455127242e+02, 6.296234242691035e+01, -6.845446455356385e+00, 3.976149842204715e+01, 5.219877846233279e+02, -6.582939789979355e+01, 9.210851657393512e+02
931, 7.459681559869120e-01, 1.517675558824525e-01, 4.752499520489251e-02, 0.000000000000000e+00, 0.000000000000000e+00, 0.000000000000000e+00, 5.258253219843447e+02, 3.516836816390117e+02, -1.764578363460328e+01, 5.159171855007653e+02, 5.398017602670092e+02, -7.555406488766936e+01, 9.596432958637275e+02
932, 6.911874994260178e-01, 2.694976139668747e-01, 5.526959563849541e-02, 0.000000000000000e+00, 0.000000000000000e+00, 0.000000000000000e+00, 1.238230316633943e+03, 1.082055637364254e+03, -3.362755985489537e+01, 1.821222282596555e+03, 7.045099588427914e+02, -1.439322022566913e+02, 1.417696535699280e+03
933, 6.821378640743564e-01, 2.518619877537214e-01, 5.614519816685985e-02, 0.000000000000000e+00, 0.000000000000000e+00, 0.000000000000000e+00, 1.327571753072720e+03, 1.170340857851794e+03, -2.965142581571503e+01, 1.965241879399473e+03, 7.104096901910480e+02, -1.408776087286539e+02, 1.451836456379848e+03
934, 8.451245028806982e-01, 5.698888746145674e-01, 3.942350001760960e-02, 0.000000000000000e+00, 0.000000000000000e+00, 0.000000000000000e+00, 1.651210131608789e+02, 2.932561008367295e+01, -3.089363295387565e+01, -1.601966445163223e+02, 5.747009969188770e+02, -1.854575984964917e+02, 1.084889785743810e+03
935, 8.831252194954869e-01, 1.583349780937605e-01, 2.692967037583380e-02, 0.000000000000000e+00, 0.000000000000000e+00, 0.000000000000000e+00, -5.531848353539026e+02, -7.126902091530511e+02, -2.390295959616305e+01, -1.424253703065431e+03, 5.187817780995232e+02, -4.861704608250827e+01, 1.208913262820772e+03
936, 8.921447080592975e-01, 1.759746881908494e-01, 2.574634096315085e-02, 0.000000000000000e+00, 0.000000000000000e+00, 0.000000000000000e+00, -1.679170667372519e+03, -1.863405250215959e+03, -1.072278512721946e+02, -3.741023259580034e+03, 6.897436602431827e+02, 4.970135406570469e+02, 2.471459833153279e+03
937, 8.741101328250579e-01, 1.406980218256818e-01, 2.810301247043246e-02, 0.000000000000000e+00, 0.000000000000000e+00, 0.000000000000000e+00, -1.026345070995277e+03, -1.158577388199952e+03, 7.150739813140211e+01, -2.032766448048885e+03, 6.085181788771590e+02, -2.008816921168651e+02, 1.464435506210286e+03
938, 9.568667618255036e-01, 7.133289703774884e-01, 2.522788543263773e-02, 0.000000000000000e+00, 0.000000000000000e+00, 0.000000000000000e+00, -8.216176367961596e+02, -9.744996430146319e+02, 4.990836535028577e+01, -1.852068084212696e+03, 4.018619846654553e+02, -2.827223359845868e+02, 1.288181337174195e+03
939, 7.565553995272679e-01, 1.351040517772137e-01, 4.588720008655946e-02, 0.000000000000000e+00, 0.000000000000000e+00, 0.000000000000000e+00, 3.072412236650974e+02, 1.959741973216075e+02, -2.364574052151395e+01, 2.133237687716174e+02, 5.193022389549183e+02, -7.035297380642028e+01, 9.144951370087603e+02
940, 7.369456368641718e-01, 1.341629273893203e-01, 4.850738793510424e-02, 0.000000000000000e+00, 0.000000000000000e+00, 0.000000000000000e+00, 5.823002320478849e+02, 4.252172449954483e+02, -2.709578967752395e+01, 6.370698610299888e+02, 5.321782240435898e+02, -7.775292626718387e+01, 9.519759653074544e+02
941, 7.263502820512591e-01, 1.508221816089754e-01, 5.007116631110206e-02, 0.000000000000000e+00, 0.000000000000000e+00, 0.000000000000000e+00, 7.262622984955975e+02, 5.540620164415291e+02, -2.130616259552719e+01, 8.973380160090281e+02, 5.746334257227343e+02, -8.330518515812341e+01, 1.049366935947819e+03
942, 7.173257081781810e-01, 1.332202652430969e-01, 5.102871151489878e-02, 0.000000000000000e+00, 0.000000000000000e+00, 0.000000000000000e+00, 7.542098036925847e+02, 6.208758621625104e+02, -3.575130716498615e+01, 1.010902367591603e+03, 5.818051528590652e+02, -1.068668085975646e+02, 1.082350480917662e+03
943, 7.067220259707750e-01, 1.498782436136832e-01, 5.251687688932537e-02, 0.000000000000000e+00, 0.000000000000000e+00, 0.000000000000000e+00, 9.408848368887275e+02, 7.766185134251724e+02, -1.092008316081242e+01, 1.320390488434061e+03, 6.322249772771349e+02, -9.493229010635690e+01, 1.208249722588226e+03
944, 6.976965559639245e-01, 1.322628052556610e-01, 5.344970111443261e-02, 0.000000000000000e+00, 0.000000000000000e+00, 0.000000000000000e+00, 9.618335413318339e+02, 8.146838831355723e+02, -3.829197891805451e+01, 1.385014721756855e+03, 6.030817823033914e+02, -1.259208000728768e+02, 1.185789263945281e+03
945, 6.870833242552401e-01, 1.489220968151875e-01, 5.486056396251800e-02, 0.000000000000000e+00, 0.000000000000000e+00, 0.000000000000000e+00, 1.146720762203576e+03, 1.047497665300856e+03, -2.036378529015127e+01, 1.858517115246149e+03, 6.619823270586177e+02, -1.178607451162723e+02, 1.394526884166299e+03
946, 6.780561920806660e-01, 1.312868526955695e-01, 5.576896538692096e-02, 0.000000000000000e+00, 0.000000000000000e+00, 0.000000000000000e+00, 1.133157248885092e+03, 1.007938180762118e+03, -3.221259827610445e+01, 1.768486742224684e+03, 6.342190677578435e+02, -1.515728066941693e+02, 1.333272712767038e+03
947, 6.674341491315341e-01, 1.479724693277649e-01, 5.710029476588981e-02, 0.000000000000000e+00, 0.000000000000000e+00, 0.000000000000000e+00, 1.445611897313815e+03, 1.310981890616503e+03, -2.520607904980078e+01, 2.322275014754696e+03, 6.176924450435846e+02, -1.250045451211290e+02, 1.448483669122512e+03
948, 6.584035786804473e-01, 1.303977657755622e-01, 5.798534985278818e-02, 0.000000000000000e+00, 0.000000000000000e+00, 0.000000000000000e+00, 1.513183313338491e+03, 1.386147439307905e+03, -4.290313032718329e+01, 2.426505278900829e+03, 6.240988569786749e+02, -1.390263952890440e+02, 1.482674941320244e+03
949, 6.477740936815188e-01, 1.470400366630507e-01, 5.923395319586979e-02, 0.000000000000000e+00, 0.000000000000000e+00, 0.000000000000000e+00, 1.545926628432712e+03, 1.433895103812459e+03, -1.823813769376219e+01, 2.530519218371404e+03, 6.113371174713667e+02, -1.340390535608916e+02, 1.506112726818369e+03
950, 6.387421973184201e-01, 1.294584421830704e-01, 6.009499231207838e-02, 0.000000000000000e+00, 0.000000000000000e+00, 0.000000000000000e+00, 1.603994745588724e+03, 1.485894084465363e+03, -1.934374706535547e+01, 2.709391586720278e+03, 6.287655737464005e+02, -1.511094534377163e+02, 1.619277994315660e+03
951, 6.281051777227761e-01, 1.461130685209335e-01, 6.125835918486033e-02, 0.000000000000000e+00, 0.000000000000000e+00, 0.000000000000000e+00, 1.722172145892096e+03, 1.607947341583302e+03, -2.773956944963131e+01, 2.863400086797516e+03, 6.503123526893389e+02, -1.322501066466106e+02, 1.664122065441462e+03
952, 6.190706699528569e-01, 1.285196081451565e-01, 6.209573815739088e-02, 0.000000000000000e+00, 0.000000000000000e+00, 0.000000000000000e+00, 1.826345932975971e+03, 1.669137458640261e+03, -3.791184393881803e+01, 3.072479182431128e+03, 6.351799099868905e+02, -1.794115232387304e+02, 1.756332328650927e+03
953, 6.084254270525931e-01, 1.451736056741378e-01, 6.317078884248882e-02, 0.000000000000000e+00, 0.000000000000000e+00, 0.000000000000000e+00, 1.941505873129945e+03, 1.796954472368629e+03, -2.610995606635951e+01, 3.221983415665641e+03, 6.653594390622246e+02, -1.553853570590743e+02, 1.802276680548062e+03
954, 5.993891121749695e-01, 1.275811425307296e-01, 6.398450757902310e-02, 0.000000000000000e+00, 0.000000000000000e+00, 0.000000000000000e+00, 2.015843864816858e+03, 1.885741020911327e+03, -5.635399593785998e+01, 3.446633029265414e+03, 6.551948615555217e+02, -1.966484445499943e+02, 1.914056998381251e+03
955, 5.887317868797158e-01, 1.442185234180851e-01, 6.496784177635856e-02, 0.000000000000000e+00, 0.000000000000000e+00, 0.000000000000000e+00, 1.995328971370458e+03, 1.866818924110354e+03, -3.469565525778261e+01, 3.432654047217251e+03, 6.836678430030073e+02, -1.756495275249209e+02, 1.940490585661169e+03
956, 5.977732437577302e-01, 1.618288344645493e-01, 6.417280211519705e-02, 0.000000000000000e+00, 0.000000000000000e+00, 0.000000000000000e+00, 1.924259434965271e+03, 1.814786758905161e+03, -1.543159226430992e+01, 3.260013721387852e+03, 6.778365850086280e+02, -1.686024951585244e+02, 1.845761222629422e+03
957, 5.780702232589631e-01, 1.608769511753896e-01, 6.587409032224416e-02, 0.000000000000000e+00, 0.000000000000000e+00, 0.000000000000000e+00, 2.160850836272814e+03, 2.027842500459080e+03, -3.545848365141883e+01, 3.643866339549630e+03, 7.192619131493470e+02, -1.946206425179847e+02, 2.020815731140480e+03
958, 5.690309745580538e-01, 1.432923423420800e-01, 6.664498721778132e-02, 0.000000000000000e+00, 0.000000000000000e+00, 0.000000000000000e+00, 2.198265084313854e+03, 2.057734900482807e+03, -2.882629422926742e+01, 3.746903411153130e+03, 6.987036510650416e+02, -2.134636184354237e+02, 2.058983540395634e+03
959, 5.583578022616624e-01, 1.599477855176122e-01, 6.745122278074728e-02, 0.000000000000000e+00, 0.000000000000000e+00, 0.000000000000000e+00, 2.304690985855558e+03, 2.194893510373138e+03, -3.598902273362643e+01, 3.974711511521969e+03, 7.389048843355225e+02, -2.297005764370739e+02, 2.187350465173479e+03
960, 5.493166474439497e-01, 1.423508127201246e-01, 6.819836465513102e-02, 0.000000000000000e+00, 0.000000000000000e+00, 0.000000000000000e+00, 2.342289080133972e+03, 2.229772150215804e+03, -4.107157051937746e+01, 4.077745214011721e+03, 7.225378868956041e+02, -2.516278004009163e+02, 2.231799613280945e+03
961, 5.386359380870100e-01, 1.590052024949842e-01, 6.889946368186879e-02, 0.000000000000000e+00, 0.000000000000000e+00, 0.000000000000000e+00, 2.562202894283942e+03, 2.440174130137469e+03, -6.000991926430164e+01, 4.379924393062138e+03, 7.984010353698886e+02, -2.754005317615480e+02, 2.385684250736260e+03
962, 5.295906509641943e-01, 1.413977518820735e-01, 6.962296916052130e-02, 0.000000000000000e+00, 0.000000000000000e+00, 0.000000000000000e+00, 2.602472411605404e+03, 2.469503032172613e+03, -5.037856181851056e+01, 4.528504504137974e+03, 7.649829474838513e+02, -3.010792072973941e+02, 2.453271400587440e+03
963, 5.871128562873955e-01, 1.784755786265064e-01, 6.509836022076895e-02, 0.000000000000000e+00, 0.000000000000000e+00, 0.000000000000000e+00, 2.061369137033251e+03, 1.984558738635732e+03, -4.476859895170913e+01, 3.475934821714395e+03, 7.306984581581191e+02, -2.020603173970324e+02, 1.961073118371485e+03
964, 5.189053758645557e-01, 1.580620090898901e-01, 7.021319084554224e-02, 0.000000000000000e+00, 0.000000000000000e+00, 0.000000000000000e+00, 2.790955382325584e+03, 2.703724506428167e+03, -4.423497050320601e+01, 4.916386784777987e+03, 8.349121940010571e+02, -3.304407368569791e+02, 2.671170093756930e+03
965, 5.098615400472400e-01, 1.404660485661064e-01, 7.091248201368600e-02, 0.000000000000000e+00, 0.000000000000000e+00, 0.000000000000000e+00, 2.776876199948267e+03, 2.672016522103149e+03, -3.290799846386923e+01, 4.948374710430517e+03, 7.678535068948941e+02, -3.386780639561885e+02, 2.658995730265682e+03
966, 4.991666397146353e-01, 1.571177837189811e-01, 7.138646357597116e-02, 0.000000000000000e+00, 0.000000000000000e+00, 0.000000000000000e+00, 2.952178679354530e+03, 2.865562213214797e+03, -3.923046371187964e+01, 5.261953007126487e+03, 8.036398766253740e+02, -3.541824847112433e+02, 2.803763236523012e+03
967, 4.901216296800999e-01, 1.395221134964343e-01, 7.206168379182148e-02, 0.000000000000000e+00, 0.000000000000000e+00, 0.000000000000000e+00, 2.950985293781044e+03, 2.850802683943888e+03, -3.882917531040038e+01, 5.316783023870173e+03, 7.619357289140910e+02, -3.778979292778721e+02, 2.831718393549527e+03
968, 5.279488286530392e-01, 1.756606594240700e-01, 6.950988624786283e-02, 0.000000000000000e+00, 0.000000000000000e+00, 0.000000000000000e+00, 2.771428980461560e+03, 2.659676449596456e+03, -2.511326627255935e+01, 4.822397927317046e+03, 8.598828190152541e+02, -3.309387656096569e+02, 2.645148773726786e+03
969, 4.794202504875618e-01, 1.561721726344789e-01, 7.241267724672068e-02, 0.000000000000000e+00, 0.000000000000000e+00, 0.000000000000000e+00, 3.128471476157122e+03, 3.045504272611206e+03, -5.134286994535525e+01, 5.613239291489416e+03, 8.122302263360372e+02, -3.698335569108204e+02, 2.963865982484826e+03
970, 4.703742231057335e-01, 1.385766094445881e-01, 7.306399228540290e-02, 0.000000000000000e+00, 0.000000000000000e+00, 0.000000000000000e+00, 3.229633003775999e+03, 3.094439497346766e+03, -4.216117016120442e+01, 5.739942645065008e+03, 7.673006056999247e+02, -4.134127514908447e+02, 2.990589072837382e+03
971, 6.714794834137408e-01, 2.685528216250146e-01, 5.735568241053453e-02, 0.000000000000000e+00, 0.000000000000000e+00, 0.000000000000000e+00, 1.409759948624227e+03, 1.260996410842466e+03, -1.490482694613889e+01, 2.199485841408979e+03, 7.297481199027609e+02, -1.465514069296002e+02, 1.557554286475884e+03
972, 6.805052882772931e-01, 2.861935544332983e-01, 5.650240967945583e-02, 0.000000000000000e+00, 0.000000000000000e+00, 0.000000000000000e+00, 1.264409773568938e+03, 1.126520861647032e+03, -1.860619306888037e+01, 1.949351984220542e+03, 7.219551122903493e+02, -1.571776596509719e+02, 1.490441442642944e+03
973, 8.707206444765607e-01, 6.574006873888582e-01, 3.707707694226800e-02, 0.000000000000000e+00, 0.000000000000000e+00, 0.000000000000000e+00, 1.025286560890048e+02, -2.369562822528656e+01, -3.956751880130316e+01, -2.247904125919024e+02, 4.900311554416410e+02, -1.227135364738030e+02, 9.230487143864777e+02
974, 9.734066011736333e-01, 7.831278523037359e-01, 2.383045954292590e-02, 0.000000000000000e+00, 0.000000000000000e+00, 0.000000000000000e+00, -3.353087186383272e+02, -4.062048636385881e+02, 3.319847263601523e+00, -8.987367654368251e+02, 3.537716043917625e+02, -1.034096361075750e+02, 8.307281852032332e+02
975, 8.936506697365737e-01, 1.416516616468565e-01, 2.479925713218402e-02, 0.000000000000000e+00, 0.000000000000000e+00, 0.000000000000000e+00, -1.560165231936784e+03, -1.860354959036819e+03, -1.365012704200630e+00, -3.797153201499458e+03, 4.429577234332195e+02, -3.674864516111245e+02, 2.327334814867668e+03
976, 5.402749912808306e-01, 1.247575439095762e-01, 6.894121503679350e-02, 0.000000000000000e+00, 0.000000000000000e+00, 0.000000000000000e+00, 2.477568819254028e+03, 2.365650854724308e+03, -2.724551357199892e+01, 4.337132722857407e+03, 7.062142597413660e+02, -2.863421481118853e+02, 2.328742219041187e+03
977, 8.545575580411914e-01, 1.397494895649537e-01, 3.130828680212270e-02, 0.000000000000000e+00, 0.000000000000000e+00, 0.000000000000000e+00, -6.675104453549116e+02, -8.879260187451276e+02, 1.430706317582560e+01, -1.480948879765410e+03, 4.050483558297590e+02, -7.265047938384572e+01, 1.019613395825272e+03
978, 9.518540179661479e-01, 1.040812040309886e+00, 3.095697283789706e-02, 0.000000000000000e+00, 0.000000000000000e+00, 0.000000000000000e+00, 1.528571239713309e+02, 8.087909186450453e+01, -3.577335530270285e+01, -2.768051344568567e+01, 4.823812729597635e+02, -1.275547956893481e+02, 8.806275522792463e+02
979, 9.715479675290193e-01, 1.041766379123928e+00, 2.828632113760279e-02, 0.000000000000000e+00, 0.000000000000000e+00, 0.000000000000000e+00, -3.477507152489187e+02, -4.000924203338124e+02, -2.209047724274420e+01, -8.983543171254760e+02, 6.030995222188238e+02, -9.519732164473599e+01, 1.181915017225723e+03
980, 9.609137379355862e-01, 1.058498791893813e+00, 2.996598828997409e-02, 0.000000000000000e+00, 0.000000000000000e+00, 0.000000000000000e+00, 1.902474609716486e+02, 9.262003358744080e+01, -3.041953452836138e+01, -4.012327990396432e+01, 4.942275555369259e+02, -1.470980199883321e+02, 9.168333800125315e+02
981, 9.806009190397530e-01, 1.059453194185086e+00, 2.725573220401226e-02, 0.000000000000000e+00, 0.000000000000000e+00, 0.000000000000000e+00, -1.637650885561809e+02, -2.520244489489700e+02, 1.857859559553913e+01, -7.880459366760072e+02, 4.806725827057734e+02, -2.123956346069250e+02, 1.082555896203004e+03
982, 9.699740615646513e-01, 1.076156231123859e+00, 2.896427711552368e-02, 0.000000000000000e+00, 0.000000000000000e+00, 0.000000000000000e+00, 3.221486969891237e+01, -1.584820576458218e+02, -1.150530619799870e+01, -3.652643178894197e+02, 4.497700223669612e+02, -1.504665728054691e+02, 8.909286541444029e+02
983, 9.896512496166068e-01, 1.077138259023759e+00, 2.621445534944795e-02, 0.000000000000000e+00, 0.000000000000000e+00, 0.000000000000000e+00, -2.174611669097359e+02, -3.764812278083081e+02, -1.333470051867267e+01, -6.786188521093596e+02, 3.689792974158648e+02, -1.621066809024998e+02, 8.077294124027740e+02
984, 1.000264573520461e+00, 1.060410662963996e+00, 2.439226813622704e-02, 0.000000000000000e+00, 0.000000000000000e+00, 0.000000000000000e+00, -1.807547742809858e+02, -3.643797233004329e+02, -1.045885483115024e+02, -7.405077975166762e+02, 3.755279450044513e+02, -1.294933045955025e+02, 8.662808448335139e+02
985, 1.009309131307956e+00, 1.078097263712238e+00, 2.330909107660264e-02, 0.000000000000000e+00, 0.000000000000000e+00, 0.000000000000000e+00, -1.641454214655882e+02, -2.143793804169223e+02, -3.288470482419118e+01, -5.585618694243194e+02, 3.692245014338051e+02, -7.753416928859532e+01, 7.540117614658826e+02
986, 9.987020965294870e-01, 1.094785394049555e+00, 2.516113428813829e-02, 0.000000000000000e+00, 0.000000000000000e+00, 0.000000000000000e+00, 4.085632649407154e+01, -1.348347804753516e+02, -5.123545826249965e+01, -3.865692404232253e+02, 3.507227418272554e+02, -9.983430066529696e+01, 7.384174385444560e+02
987, 1.018350029628703e+00, 1.095752745027105e+00, 2.221360763372968e-02, 0.000000000000000e+00, 0.000000000000000e+00, 0.000000000000000e+00, -3.590252848523863e+02, -5.227580245484847e+02, 2.303608091220416e+01, -9.664757371637837e+02, 4.210716958641264e+02, -5.998199294252836e+01, 9.168612522908031e+02
988, 1.007746284403696e+00, 1.112473741650531e+00, 2.409762995433128e-02, 0.000000000000000e+00, 0.000000000000000e+00, 0.000000000000000e+00, -3.575607062110414e+01, -2.337562984094297e+02, -4.854160947366483e+01, -5.413820702420769e+02, 3.988957380572074e+02, -3.478930241713843e+01, 8.263176497908003e+02
989, 1.060745737701730e+00, 1.441465297977500e+00, 2.129966243220401e-02, 0.000000000000000e+00, 0.000000000000000e+00, 0.000000000000000e+00, 3.015896143418212e+02, 2.936963073951392e+02, -1.763439306684835e+01, 3.961267049857837e+02, 8.051201887284406e+02, 2.253169080152279e+02, 1.451770427285173e+03
990, 1.069736095792784e+00, 1.459092167456589e+00, 2.027480060127708e-02, 0.000000000000000e+00, 0.000000000000000e+00, 0.000000000000000e+00, -3.901674543033448e+02, -4.526603880373305e+02, -1.387886559466676e-01, -1.011759656888461e+03, 5.533055589244339e+02, -3.574538927346466e+02, 1.285767533983478e+03
991, 1.059161896773883e+00, 1.475708202462695e+00, 2.197215824573124e-02, 0.000000000000000e+00, 0.000000000000000e+00, 0.000000000000000e+00, 5.699206402456047e+02, 3.715429905560509e+02, 1.385808344214265e+01, 4.690140114318925e+02, 4.113223222943592e+02, -1.386419754623111e+02, 7.715680849646113e+02
992, 8.846403487187698e-01, 1.240165477111951e-01, 2.599315552358523e-02, 0.000000000000000e+00, 0.000000000000000e+00, 0.000000000000000e+00, -9.171281061817194e+02, -1.174796814052855e+03, -7.672599031821630e+01, -2.650503530694148e+03, 6.807316366747988e+02, -8.476790920244569e+01, 2.013392915206162e+03
993, 4.810762562232097e-01, 1.219296259084777e-01, 7.273303174289271e-02, 0.000000000000000e+00, 0.000000000000000e+00, 0.000000000000000e+00, 3.057781860828418e+03, 2.927182246040403e+03, -6.170465055807423e+01, 5.410060888909092e+03, 6.767377850480132e+02, -4.154853724125669e+02, 2.785804800264222e+03
994, 4.613282309076828e-01, 1.209744898155041e-01, 7.371173843489660e-02, 0.000000000000000e+00, 0.000000000000000e+00, 0.000000000000000e+00, 3.212669680385467e+03, 3.079700895467887e+03, -8.038278127869607e+01, 5.718255533200444e+03, 7.429193348823707e+02, -4.798421745730229e+02, 2.999120370449624e+03
995, 4.506259092400315e-01, 1.376257783561623e-01, 7.390933111129139e-02, 0.000000000000000e+00, 0.000000000000000e+00, 0.000000000000000e+00, 3.302066132120845e+03, 3.182288388041396e+03, -3.052202905837588e+01, 6.026954592696244e+03, 7.920090804151209e+02, -4.838121318800672e+02, 3.217545227847795e+03
996, 4.415839382300639e-01, 1.200344382211757e-01, 7.453148347135989e-02, 0.000000000000000e+00, 0.000000000000000e+00, 0.000000000000000e+00, 3.296763935058656e+03, 3.179407741940381e+03, -2.099414120175744e+01, 5.943867638050491e+03, 7.687710711072036e+02, -5.681449064156578e+02, 3.174003709685171e+03
997, 4.308712945249760e-01, 1.366725743286166e-01, 7.456992603575426e-02, 0.000000000000000e+00, 0.000000000000000e+00, 0.000000000000000e+00, 3.520124022087913e+03, 3.378543950297450e+03, -2.017532894936157e+01, 6.364132001470427e+03, 8.248594735228204e+02, -5.286242295170061e+02, 3.375175916953996e+03
998, 4.218285706508894e-01, 1.190811162199537e-01, 7.516047710164092e-02, 0.000000000000000e+00, 0.000000000000000e+00, 0.000000000000000e+00, 3.459320254152895e+03, 3.382365041126330e+03, -3.977160088296018e+01, 6.261445895878232e+03, 7.883857003275406e+02, -5.769251279847956e+02, 3.307778345138441e+03
999, 3.205871984570482e-01, 3.378909353339842e-01, 6.069909140567291e-02, 0.000000000000000e+00, 0.000000000000000e+00, 0.000000000000000e+00, 5.489133440767713e+03, 5.709911776947993e+03, 1.709350536109839e+02, 1.120472986676926e+04, 6.953761768227721e+02, -2.780297023117295e+02, 5.764122458369289e+03
1000, 3.009520713165242e-01, 3.367602670144356e-01, 5.796962344557638e-02, 0.000000000000000e+00, 0.000000000000000e+00, 0.000000000000000e+00, 5.770815123916214e+03, 5.988866813136765e+03, 1.711655453356715e+02, 1.188996259267338e+04, 5.087324274816566e+02, -1.792884308896827e+02, 6.092452202997900e+03
1001, 6.795838333804078e-01, 9.242422820149014e-01, 5.175825590735953e-02, 0.000000000000000e+00, 0.000000000000000e+00, 0.000000000000000e+00, 3.659338936076780e+03, 3.639824774175431e+03, 4.022546236890296e+01, 6.859958391888506e+03, 9.768372464902175e+02, -4.278344571520004e+02, 3.704513106971059e+03
1002, 6.624278442613122e-01, 2.509185647711983e-01, 5.820616273919584e-02, 0.000000000000000e+00, 0.000000000000000e+00, 0.000000000000000e+00, 1.468834843940302e+03, 1.357903882771223e+03, -3.622904652595840e+01, 2.393824563532994e+03, 7.312648645409639e+02, -1.458525701405753e+02, 1.625583929727012e+03
1003, 6.517610356087962e-01, 2.676085258389699e-01, 5.932518457407131e-02, 0.000000000000000e+00, 0.000000000000000e+00, 0.000000000000000e+00, 1.603052815639426e+03, 1.479027404194977e+03, -1.355690158504060e+01, 2.602066184289256e+03, 7.483648704858940e+02, -1.492709800636129e+02, 1.698487515659644e+03
1004, 1.027388783541377e+00, 1.113468878360879e+00, 2.110673051933267e-02, 0.000000000000000e+00, 0.000000000000000e+00, 0.000000000000000e+00, -8.115234074638638e+02, -9.007836668286582e+02, -2.664389783875212e+01, -1.698314895043399e+03, 3.111901833665490e+02, 6.605549070053257e+01, 1.010420191931982e+03
1005, 1.016790442867423e+00, 1.130156787922013e+00, 2.302190882465439e-02, 0.000000000000000e+00, 0.000000000000000e+00, 0.000000000000000e+00, -6.978262773947914e+02, -8.359289538694663e+02, -4.752683631692202e+01, -1.845543956168734e+03, 5.328218264952449e+02, 5.924671722483262e+01, 1.430674509988056e+03
1006, 6.886753453144886e-01, 1.146650155512483e-01, 5.437636231648238e-02, 0.000000000000000e+00, 0.000000000000000e+00, 0.000000000000000e+00, 9.613097616926379e+02, 8.346540094001566e+02, -2.713792373449615e+01, 1.406608203872717e+03, 5.818616223304335e+02, -1.293026144967000e+02, 1.157059952236566e+03
1007, 9.974405646739806e-01, 9.050419641410912e-01, 2.216906565634383e-02, 0.000000000000000e+00, 0.000000000000000e+00, 0.000000000000000e+00, -1.001421017158845e+03, -1.140991760902901e+03, -7.345827531090644e+01, -2.526787784988617e+03, 3.476703600509360e+02, 3.535400678683781e+02, 1.699150177534105e+03
1008, 3.085455184725441e-01, 3.886044284145508e-01, 5.407872434051915e-02, 0.000000000000000e+00, 0.000000000000000e+00, 0.000000000000000e+00, 5.620538985746235e+03, 5.899115740587516e+03, 2.586957730883511e+02, 1.170650584775146e+04, 1.610924916799662e+02, -1.282229690855916e+01, 5.974973210888652e+03
1009, 1.078710522500193e+00, 1.476668718068432e+00, 1.923698598411811e-02, 0.000000000000000e+00, 0.000000000000000e+00, 0.000000000000000e+00, 1.128343329073455e+02, 1.826818182321717e+00, -2.705146719649955e+01, -1.468829287138690e+01, 2.289630398632571e+02, -1.905993935890946e+02, 5.318652758587785e+02
1010, 6.296625742396337e-01, 1.118155134127976e-01, 6.095549352871003e-02, 0.000000000000000e+00, 0.000000000000000e+00, 0.000000000000000e+00, 1.684258653124386e+03, 1.575263131538808e+03, -3.878019251726769e+01, 2.866325471230211e+03, 6.106804078702341e+02, -1.908874485968622e+02, 1.664517774414304e+03
1011, 7.475313122605847e-01, 1.175055280111130e-01, 4.688878328698300e-02, 0.000000000000000e+00, 0.000000000000000e+00, 0.000000000000000e+00, 4.317362493458828e+02, 3.010350259919373e+02, -2.446406901288993e+01, 4.107171155445805e+02, 5.139242491129779e+02, -6.169743612053157e+01, 9.057300821099311e+02
1012, 7.671242993652309e-01, 1.184469869291690e-01, 4.419747743004608e-02, 0.000000000000000e+00, 0.000000000000000e+00, 0.000000000000000e+00, 1.636361686226795e+02, 5.318555947415619e+01, -2.399407040866160e+01, -5.023934322183663e+01, 5.055525790546134e+02, -6.118589390437204e+01, 9.022349520563514e+02
1013, 1.019906569185970e+00, 1.061370495483709e+00, 2.137592595837332e-02, 0.000000000000000e+00, 0.000000000000000e+00, 0.000000000000000e+00, -3.429015946323125e+02, -5.225296282156042e+02, -6.924419260429730e+01, -1.033545895588281e+03, 3.969422547230518e+02, -2.289922482110695e+01, 9.347960002482238e+02
1014, 9.041666769212741e-01, 1.249714900445763e-01, 2.262163023920977e-02, 0.000000000000000e+00, 0.000000000000000e+00, 0.000000000000000e+00, -1.950411829640829e+03, -2.466696313760275e+03, -2.981571449377022e+01, -5.046073738250205e+03, -2.932517714212850e+02, -3.125275020205150e+02, 2.967340082100121e+03
1015, 1.036423625360990e+00, 1.131151344267219e+00, 1.998667891638915e-02, 0.000000000000000e+00, 0.000000000000000e+00, 0.000000000000000e+00, -1.436113225260721e+03, -1.464972047901279e+03, -2.365924338250519e+01, -2.791294540023693e+03, 3.718202572364832e+02, -7.561258466281676e+01, 1.493928468723667e+03
1016, 1.025833215157887e+00, 1.147870744890525e+00, 2.193432929764987e-02, 0.000000000000000e+00, 0.000000000000000e+00, 0.000000000000000e+00, -1.524596351185099e+03, -1.634655851191049e+03, -5.241167989195569e+01, -3.151245481268184e+03, 7.375896617333464e+02, 9.064414274734675e+01, 2.035700827159480e+03
1017, 1.045454655123513e+00, 1.148831018011982e+00, 1.885352136017391e-02, 0.000000000000000e+00, 0.000000000000000e+00, 0.000000000000000e+00, -2.148515999814720e+03, -2.380721912387295e+03, -3.737753839361110e+01, -4.631024899992974e+03, -2.306626551455413e+02, 6.982331196501702e+02, 2.695684008068670e+03
1018, 1.034871422697462e+00, 1.165547026197578e+00, 2.083380639011172e-02, 0.000000000000000e+00, 0.000000000000000e+00, 0.000000000000000e+00, -2.083037695601488e+03, -2.068647084494421e+03, 3.476158810397883e+01, -4.149060902032901e+03, 1.053064160222567e+03, -9.015504295016295e+02, 3.172889428764440e+03
1019, 9.898099022234619e-01, 1.489373741530560e+00, 2.996369056606046e-02, 0.000000000000000e+00, 0.000000000000000e+00, 0.000000000000000e+00, 2.284579705243463e+03, 2.532360517238349e+03, -1.733691474298141e+02, 3.897614469076594e+03, 4.383477262375622e+02, -2.961680645515427e+02, 1.786997693082916e+03
1020, 9.702415393539574e-01, 1.488343846259038e+00, 3.161427463170111e-02, 0.000000000000000e+00, 0.000000000000000e+00, 0.000000000000000e+00, 2.570288550244987e+03, 2.562778117032843e+03, -1.424850711150580e+02, 3.903714194977947e+03, 5.410400125864397e+02, -5.767433326848002e+02, 1.930044675235881e+03
1021, 9.612161618755011e-01, 1.470884867553642e+00, 3.236034492403621e-02, 0.000000000000000e+00, 0.000000000000000e+00, 0.000000000000000e+00, 2.516988771980945e+03, 2.509267878429117e+03, -1.007216465692823e+02, 3.934812474046268e+03, 7.529128808214438e+02, -3.552030801651290e+02, 2.032438481547269e+03
1022, 9.505937798290878e-01, 1.487455825274250e+00, 3.299886285038996e-02, 0.000000000000000e+00, 0.000000000000000e+00, 0.000000000000000e+00, 3.591402935445765e+03, 3.384428758786838e+03, -1.062754230194968e+02, 5.804562332903761e+03, 1.086406983491907e+03, -7.261861714718065e+02, 3.248960224029932e+03
1023, 9.415967138851910e-01, 1.469943203853207e+00, 3.369262232400898e-02, 0.000000000000000e+00, 0.000000000000000e+00, 0.000000000000000e+00, 2.439317560750333e+03, 2.588314183782581e+03, -1.286646648134323e+02, 4.284534548021482e+03, 5.208426339136578e+02, -7.482920285580581e+02, 2.386506325102764e+03
1024, 9.309594880902804e-01, 1.486558318597605e+00, 3.408500623640934e-02, 0.000000000000000e+00, 0.000000000000000e+00, 0.000000000000000e+00, 2.858542408675997e+03, 2.800257770358447e+03, -1.300669775637679e+02, 4.941145094653797e+03, 6.688172483065564e+02, -8.144762394479206e+02, 2.800862584231435e+03
1025, 9.219556147183272e-01, 1.469023982553272e+00, 3.472899403261284e-02, 0.000000000000000e+00, 0.000000000000000e+00, 0.000000000000000e+00, 3.394707714373303e+03, 3.198022535911125e+03, -1.416010487831191e+01, 5.110815507355496e+03, 1.178836665534069e+03, -4.504719412727702e+02, 2.845977524760002e+03
1026, 9.113031292009037e-01, 1.485618711876613e+00, 3.483024312639532e-02, 0.000000000000000e+00, 0.000000000000000e+00, 0.000000000000000e+00, 3.824918145607470e+03, 3.711669907771146e+03, -1.472799038824004e+01, 6.517440396565073e+03, 1.189171040730397e+03, -5.414334067399714e+02, 3.562289863384379e+03
1027, 9.022964656921545e-01, 1.468111662909519e+00, 3.541309465505374e-02, 0.000000000000000e+00, 0.000000000000000e+00, 0.000000000000000e+00, 3.993321788932786e+03, 3.950556367647950e+03, -9.301936981874915e+01, 7.060298011627847e+03, 9.786237300302357e+02, -5.740402428673260e+02, 3.664283038710506e+03
1028, 8.916237005180766e-01, 1.484672377884889e+00, 3.511286360376437e-02, 0.000000000000000e+00, 0.000000000000000e+00, 0.000000000000000e+00, 4.090048053942628e+03, 3.859680709415113e+03, -1.916062029609240e+01, 7.398622552031478e+03, 1.146978964672871e+03, -7.544123734408183e+02, 4.173382268142124e+03
1029, 8.826080706109258e-01, 1.467149324860155e+00, 3.562940602741498e-02, 0.000000000000000e+00, 0.000000000000000e+00, 0.000000000000000e+00, 3.615216909250626e+03, 3.628944751552865e+03, -1.993739132640565e+01, 6.882150264274988e+03, 9.962680776011346e+02, -8.644787178785241e+02, 3.981081154783195e+03
1030, 8.719116816534715e-01, 1.483746666041606e+00, 3.486895304739270e-02, 0.000000000000000e+00, 0.000000000000000e+00, 0.000000000000000e+00, 4.656900078165723e+03, 4.776103708239928e+03, -1.854345720626072e+01, 8.762436674561121e+03, 1.187050286076606e+03, -7.512322693193939e+02, 4.722456127473434e+03
1031, 8.628987604194014e-01, 1.466166432227869e+00, 3.532194868608422e-02, 0.000000000000000e+00, 0.000000000000000e+00, 0.000000000000000e+00, 4.523093646488413e+03, 4.386685958405554e+03, 1.185536610385554e+02, 8.224037051368001e+03, 1.212882847047943e+03, -8.022177309758856e+02, 4.539438892019316e+03
1032, 8.735942802374627e-01, 1.449589161002569e+00, 3.613870616023741e-02, 0.000000000000000e+00, 0.000000000000000e+00, 0.000000000000000e+00, 4.206150637152832e+03, 3.986292733009496e+03, 1.404638803323322e+02, 7.211429931823701e+03, 1.156254500774049e+03, -5.326880200679993e+02, 3.829100265202012e+03
1033, 8.538668548333315e-01, 1.448551244189132e+00, 3.576849394593658e-02, 0.000000000000000e+00, 0.000000000000000e+00, 0.000000000000000e+00, 4.573928343908849e+03, 4.721651831988942e+03, 9.390936600946071e+01, 9.097237171759887e+03, 1.171822584753236e+03, -5.850231182690457e+02, 4.998666180847240e+03
1034, 8.645706182791416e-01, 1.431984246896733e+00, 3.664143514536453e-02, 0.000000000000000e+00, 0.000000000000000e+00, 0.000000000000000e+00, 5.010068175100027e+03, 5.031261388048885e+03, -6.396190722581403e+01, 9.127101626048305e+03, 1.234257369524375e+03, -3.344590749032806e+02, 4.667032909635169e+03
1035, 8.448266012519003e-01, 1.430991969065770e+00, 3.620540490933687e-02, 0.000000000000000e+00, 0.000000000000000e+00, 0.000000000000000e+00, 5.519993664358715e+03, 5.860271965807752e+03, -8.804709742578277e+01, 1.105764952648246e+04, 9.101194812587030e+02, -3.076388948969573e+02, 5.629317187060364e+03
1036, 8.555403053658173e-01, 1.414391730116578e+00, 3.713623118007327e-02, 0.000000000000000e+00, 0.000000000000000e+00, 0.000000000000000e+00, 5.351078441204956e+03, 5.254275929381104e+03, 1.223479695341300e+02, 1.032407174006152e+04, 9.836917750280676e+02, -4.303878334639545e+02, 5.359569757236353e+03
1037, 8.357835383249154e-01, 1.413401548579701e+00, 3.663697073856023e-02, 0.000000000000000e+00, 0.000000000000000e+00, 0.000000000000000e+00, 5.525773295829516e+03, 5.632489427726843e+03, 4.618211196334075e+01, 1.133068054342301e+04, 7.644394933427502e+02, -6.840541504813004e+02, 6.020975922572627e+03
1038, 8.465059943723180e-01, 1.396819240297891e+00, 3.762277963777316e-02, 0.000000000000000e+00, 0.000000000000000e+00, 0.000000000000000e+00, 4.542495916899972e+03, 4.675308748664519e+03, 1.236482773611428e+02, 9.329349590328578e+03, 1.099989317029068e+03, -7.803523921482504e+02, 5.272428045739413e+03
1039, 8.267408169063529e-01, 1.395823893547114e+00, 3.706135921766032e-02, 0.000000000000000e+00, 0.000000000000000e+00, 0.000000000000000e+00, 6.107383972212845e+03, 6.041301735454568e+03, 4.311746667370642e+01, 1.153789233874058e+04, 1.063318164275610e+03, -6.604024298600137e+02, 5.878737630806877e+03
1040, 8.374636437841730e-01, 1.379207195294700e+00, 3.810313569751817e-02, 0.000000000000000e+00, 0.000000000000000e+00, 0.000000000000000e+00, 4.290940819419115e+03, 4.312685032033443e+03, 7.286506358103965e+00, 8.291481378541735e+03, 1.037854016891579e+03, -8.353188235409473e+02, 4.608976431163618e+03
1041, 8.176897943752349e-01, 1.378208761875134e+00, 3.748055436734302e-02, 0.000000000000000e+00, 0.000000000000000e+00, 0.000000000000000e+00, 6.217006549838209e+03, 6.094444263605612e+03, 6.910990250644963e+01, 1.161378773520528e+04, 1.365732051028829e+03, -9.352686604229112e+02, 6.167324667967275e+03
1042, 8.283842233671409e-01, 1.361512480345322e+00, 3.857857586046340e-02, 0.000000000000000e+00, 0.000000000000000e+00, 0.000000000000000e+00, 3.928396954987743e+03, 3.928386189633056e+03, 3.644570425603837e+01, 7.544640769047749e+03, 9.383547811399943e+02, -7.665275672653810e+02, 4.181562595617194e+03
1043, 8.086361906938122e-01, 1.360585130187999e+00, 3.789354237818747e-02, 0.000000000000000e+00, 0.000000000000000e+00, 0.000000000000000e+00, 5.332389447888959e+03, 5.440333688439108e+03, 2.944921989952864e+01, 1.039185941009662e+04, 1.067008726245584e+03, -1.103756569864365e+03, 5.668924761077691e+03
1044, 8.193591288657196e-01, 1.343917110406317e+00, 3.904479461079483e-02, 0.000000000000000e+00, 0.000000000000000e+00, 0.000000000000000e+00, 4.270057415383788e+03, 4.424884425878517e+03, 2.554072108710449e+01, 7.972233523312887e+03, 9.687497547500618e+02, -7.174761743790003e+02, 4.185520745125336e+03
1045, 7.995755890740044e-01, 1.342931071952705e+00, 3.830179646544266e-02, 0.000000000000000e+00, 0.000000000000000e+00, 0.000000000000000e+00, 5.027242078450190e+03, 5.375173569754758e+03, -1.326050700344049e+01, 9.771231091624024e+03, 8.396258967782508e+02, -7.389738660824105e+02, 4.972885932201520e+03
1046, 8.103083399462583e-01, 1.326294722788038e+00, 3.950482908417687e-02, 0.000000000000000e+00, 0.000000000000000e+00, 0.000000000000000e+00, 4.447056540123328e+03, 4.867516086666956e+03, 2.339594521891835e+01, 8.865869898479763e+03, 7.953060211976679e+02, -3.358224343804957e+02, 4.481324882272101e+03
1047, 7.905189897759881e-01, 1.325314505707560e+00, 3.870264418275978e-02, 0.000000000000000e+00, 0.000000000000000e+00, 0.000000000000000e+00, 4.252254819984455e+03, 4.751667544452916e+03, 2.789913830005629e+00, 8.776627284789580e+03, 8.473868597425590e+01, -3.650057075264218e+02, 4.345236803170738e+03
1048, 8.012530260029029e-01, 1.308679240148905e+00, 3.995781887374117e-02, 0.000000000000000e+00, 0.000000000000000e+00, 0.000000000000000e+00, 4.777733548851402e+03, 4.849524145981656e+03, 6.700821006083160e+01, 9.233413550343490e+03, 5.631348794013403e+02, -2.540664440090280e+02, 4.549378472864215e+03
1049, 7.814559335660040e-01, 1.307668301400030e+00, 3.909892977268072e-02, 0.000000000000000e+00, 0.000000000000000e+00, 0.000000000000000e+00, 4.182952375453940e+03, 4.357715148142281e+03, -2.005403713577799e+00, 8.431141862123786e+03, 5.766605479630135e+01, -3.073965675594374e+02, 4.198654153842097e+03
1050, 7.921918972264380e-01, 1.291029557825704e+00, 4.040545924686659e-02, 0.000000000000000e+00, 0.000000000000000e+00, 0.000000000000000e+00, 4.012477332644128e+03, 4.243398225319591e+03, 1.256123681946387e+02, 8.209681021275572e+03, 4.934920819607113e+02, -4.510310479851192e+02, 4.253098513408750e+03
1051, 7.723908924072280e-01, 1.290015573635472e+00, 3.948973852822566e-02, 0.000000000000000e+00, 0.000000000000000e+00, 0.000000000000000e+00, 4.216678848913159e+03, 4.432753313590749e+03, 1.819406333638480e+02, 8.101883395599566e+03, 2.957132403118570e+02, -2.776106426551124e+02, 3.859385728549314e+03
1052, 7.830670697082043e-01, 1.273318523350543e+00, 4.084718187643500e-02, 0.000000000000000e+00, 0.000000000000000e+00, 0.000000000000000e+00, 3.962793691372959e+03, 4.101622412403489e+03, 6.971813860982427e+01, 7.642651369332860e+03, 6.075906763180652e+02, -1.999016450839068e+02, 3.780439016614234e+03
1053, 7.633233970518352e-01, 1.272356806260814e+00, 3.987503910048696e-02, 0.000000000000000e+00, 0.000000000000000e+00, 0.000000000000000e+00, 3.988438296179373e+03, 4.083824256753002e+03, 9.995278592922944e+01, 7.895082329266444e+03, 4.583913770752201e+02, -1.415651435870813e+02, 3.952061335635671e+03
1054, 7.740554326422742e-01, 1.255689380452335e+00, 4.128376393483016e-02, 0.000000000000000e+00, 0.000000000000000e+00, 0.000000000000000e+00, 4.479742546993689e+03, 4.599019525884763e+03, 5.043701233828466e+01, 8.506088228016393e+03, 4.992932522714760e+02, -2.906980708242766e+01, 4.062448065509737e+03
1055, 7.542537837257067e-01, 1.254655741610684e+00, 4.025720600293382e-02, 0.000000000000000e+00, 0.000000000000000e+00, 0.000000000000000e+00, 4.579952791607093e+03, 4.646132678975048e+03, 9.394275422705979e+01, 8.692712583014401e+03, 4.916922434507296e+02, -5.525482783210920e+01, 4.172278717626895e+03
1056, 7.649923908152015e-01, 1.238047950291371e+00, 4.171312352119001e-02, 0.000000000000000e+00, 0.000000000000000e+00, 0.000000000000000e+00, 5.036313581154654e+03, 5.120158767660364e+03, 9.069541310708976e+01, 9.385180134270040e+03, 6.209597331229500e+02, 2.473002082300526e+01, 4.442783300029112e+03
1057, 7.451849989266079e-01, 1.237025312315976e+00, 4.063050920992697e-02, 0.000000000000000e+00, 0.000000000000000e+00, 0.000000000000000e+00, 5.639304223256296e+03, 5.671339516427954e+03, 1.341789554329445e+02, 1.031709973118743e+04, 8.436358708541368e+02, 1.286899725265638e+02, 4.896100721455902e+03
1058, 7.559216760237196e-01, 1.220380303877778e+00, 4.213755993974561e-02, 0.000000000000000e+00, 0.000000000000000e+00, 0.000000000000000e+00, 5.100985232896201e+03, 5.103895910612966e+03, 1.547242828996116e+02, 1.005485229506859e+04, 8.602327835928241e+02, -9.818009361786665e+01, 5.181421268403104e+03
1059, 7.361156884505036e-01, 1.219307012765970e+00, 4.100397443131548e-02, 0.000000000000000e+00, 0.000000000000000e+00, 0.000000000000000e+00, 5.749466980973286e+03, 5.996037450130371e+03, 7.499985814754478e+01, 1.112465799759459e+04, 6.607137423903598e+02, 2.151985545364819e+02, 5.393843363371811e+03
1060, 7.468500184238261e-01, 1.202709853662564e+00, 4.255630443128598e-02, 0.000000000000000e+00, 0.000000000000000e+00, 0.000000000000000e+00, 5.190764013150207e+03, 5.312425706134529e+03, 1.709703529350894e+02, 1.043673786580692e+04, 9.146908331510894e+02, -6.272828918086998e+01, 5.431968725086961e+03
1061, 7.270434974360878e-01, 1.201681212643474e+00, 4.136685325336731e-02, 0.000000000000000e+00, 0.000000000000000e+00, 0.000000000000000e+00, 5.898716516929318e+03, 6.000260292870922e+03, 1.736189428798145e+02, 1.172533134419473e+04, 7.097499743042785e+02, 2.248034552379583e+02, 5.926328583848471e+03
1062, 7.936430888806222e-01, 1.256859439320874e+00, 4.178215890898994e-02, 0.000000000000000e+00, 0.000000000000000e+00, 0.000000000000000e+00, 4.440356816508357e+03, 4.499068256694980e+03, 6.615935011501125e+01, 8.639868330934247e+03, 6.870849320207885e+02, -1.733832378792677e+02, 4.348834114529735e+03
1063, 7.377773611958166e-01, 1.185036782216399e+00, 4.296946723176454e-02, 0.000000000000000e+00, 0.000000000000000e+00, 0.000000000000000e+00, 5.704611430640133e+03, 5.496394769850018e+03, 9.683908286880849e+01, 1.106427549140521e+04, 1.048886328416884e+03, -3.046196211680345e+02, 5.787255371098679e+03
1064, 7.179716334852378e-01, 1.184005132345274e+00, 4.172782380855110e-02, 0.000000000000000e+00, 0.000000000000000e+00, 0.000000000000000e+00, 6.186987312582871e+03, 6.082663929828729e+03, 1.898475271783721e+02, 1.231171788737889e+04, 8.622264696075795e+02, -1.777120661081260e+02, 6.371446855681625e+03
1065, 7.575257813277658e-01, 1.186005248298267e+00, 4.369365078280849e-02, 0.000000000000000e+00, 0.000000000000000e+00, 0.000000000000000e+00, 4.569012094910965e+03, 4.552601851853059e+03, 1.096671071347073e+02, 8.860838759939048e+03, 1.279088045681355e+03, -4.365059391824020e+02, 4.899629266716011e+03
1066, 8.522239486434957e-01, 1.482671706018281e+00, 3.404590066122545e-02, 0.000000000000000e+00, 0.000000000000000e+00, 0.000000000000000e+00, 5.665602949652990e+03, 5.768486925868941e+03, 1.853013752201559e+01, 1.075156082115022e+04, 1.234199184918235e+03, -7.590434923711907e+02, 5.626144600576990e+03
1067, 4.111111803077852e-01, 1.357149015760121e-01, 7.500576524724277e-02, 0.000000000000000e+00, 0.000000000000000e+00, 0.000000000000000e+00, 3.641231978045943e+03, 3.572453945253500e+03, -2.781040977932983e+00, 6.713713677586466e+03, 8.519062748298237e+02, -5.573840476267230e+02, 3.572881259486199e+03
1068, 4.020680500566685e-01, 1.181231818956679e-01, 7.556468179686439e-02, 0.000000000000000e+00, 0.000000000000000e+00, 0.000000000000000e+00, 3.578745235996330e+03, 3.505925050365825e+03, -1.535819396243175e+01, 6.649448873262801e+03, 8.020169009333649e+02, -5.761447788945768e+02, 3.547444458408741e+03
1069, 8.951626571730633e-01, 1.073232365531741e-01, 2.383580274980183e-02, 0.000000000000000e+00, 0.000000000000000e+00, 0.000000000000000e+00, -1.243456839898857e+03, -1.736114847668765e+03, -2.151713803025711e+01, -3.634974137690044e+03, 2.980512116113935e+02, 4.138127824430814e+02, 2.359127453833969e+03
1070, 3.116463173403328e-01, 3.201395319796874e-01, 6.100046237261985e-02, 0.000000000000000e+00, 0.000000000000000e+00, 0.000000000000000e+00, 5.463270124082143e+03, 5.658932539824759e+03, 1.548272453629027e+02, 1.122145721349399e+04, 7.230964863407710e+02, -3.056202859377136e+02, 5.830014822649797e+03
1071, 2.918985517373641e-01, 3.190934784310706e-01, 5.821572596053663e-02, 0.000000000000000e+00, 0.000000000000000e+00, 0.000000000000000e+00, 6.047802420391145e+03, 6.258085747771825e+03, 1.929004837183435e+02, 1.227411424202660e+04, 4.357638452074596e+02, -2.580953845774059e+02, 6.195403963398618e+03
1072, 2.813995797346086e-01, 3.355801468082154e-01, 5.473236066951679e-02, 0.000000000000000e+00, 0.000000000000000e+00, 0.000000000000000e+00, 6.177132379300627e+03, 6.420570560793758e+03, 2.031254705356401e+02, 1.274034972810332e+04, 2.175005414236731e+02, -7.657381614740579e+01, 6.466887689959867e+03
1073, 2.723509839772098e-01, 3.179087234924676e-01, 5.494603280027424e-02, 0.000000000000000e+00, 0.000000000000000e+00, 0.000000000000000e+00, 6.048868314052006e+03, 6.287168835001685e+03, 1.579541222532279e+02, 1.248473592666278e+04, 6.460872550762836e+01, -1.688057223669171e+02, 6.333748175657591e+03
1074, 2.828668082333325e-01, 3.013630554911642e-01, 5.846929913051422e-02, 0.000000000000000e+00, 0.000000000000000e+00, 0.000000000000000e+00, 5.619099530196181e+03, 5.884845523416643e+03, 1.866480076413066e+02, 1.183183832382939e+04, 3.476037777366796e+02, -3.138306083349634e+02, 6.146560042563476e+03
1075, 2.632997793886248e-01, 3.002196991912746e-01, 5.515917828261820e-02, 0.000000000000000e+00, 0.000000000000000e+00, 0.000000000000000e+00, 5.848723601015325e+03, 6.058457696536076e+03, 2.214841904728643e+02, 1.200589520903309e+04, -5.652082354832114e+01, -1.506256337961005e+02, 6.073565310282893e+03
1076, 3.404401105261474e-01, 3.388389272665926e-01, 6.300136892073756e-02, 0.000000000000000e+00, 0.000000000000000e+00, 0.000000000000000e+00, 5.144231295110321e+03, 5.333950054406120e+03, 1.491480376248844e+02, 1.039133026950268e+04, 8.210434578568204e+02, -3.233877890343537e+02, 5.382878340081098e+03
1077, 1.015236941452629e+00, 1.164556940441375e+00, 2.379698479186798e-02, 0.000000000000000e+00, 0.000000000000000e+00, 0.000000000000000e+00, -3.215525571776931e+02, -4.055272950887673e+02, 4.366106796579259e+00, -9.375721044183496e+02, 3.529819213280061e+02, -1.821277603071359e+02, 8.989767635509687e+02
1078, 1.024276958936053e+00, 1.182259037833276e+00, 2.273008125026125e-02, 0.000000000000000e+00, 0.000000000000000e+00, 0.000000000000000e+00, -2.832158738189145e+02, -4.556849027265509e+02, 2.630526666052979e+01, -7.729635830104843e+02, 2.936649258046668e+02, -8.058200402832361e+01, 6.822064335684709e+02
1079, 1.043899135312646e+00, 1.183218042255092e+00, 1.972134899390830e-02, 0.000000000000000e+00, 0.000000000000000e+00, 0.000000000000000e+00, -4.685218922087342e+02, -6.059565588409637e+02, 2.629290728881820e+00, -9.526266977179966e+02, 2.264204949154535e+02, -1.281444384800040e+02, 6.243359833869912e+02
1080, 1.033313140605974e+00, 1.199926287875001e+00, 2.165040355661750e-02, 0.000000000000000e+00, 0.000000000000000e+00, 0.000000000000000e+00, -1.186944227831464e+03, -1.363613255204168e+03, -4.976719897939287e+01, -2.641709896096877e+03, -7.805181085011058e+01, 4.564836553442595e+02, 1.594171138784025e+03
1081, 8.499579271051565e-01, 2.427508469420878e-01, 3.386515160695078e-02, 0.000000000000000e+00, 0.000000000000000e+00, 0.000000000000000e+00, -6.431003312200434e+02, -8.472420786645791e+02, -1.937804487729121e+01, -1.630730487199875e+03, 5.079331704180667e+02, 7.252935437786168e+01, 1.267425341636290e+03
1082, 8.695519341019848e-01, 2.437039144389305e-01, 3.078018510743574e-02, 0.000000000000000e+00, 0.000000000000000e+00, 0.000000000000000e+00, -7.993695982821492e+02, -1.119587357404185e+03, 4.858642179544218e+01, -2.096896420078012e+03, 3.934290745664112e+02, 1.432734077915954e+02, 1.379727210245726e+03
1083, 6.427077293185806e-01, 2.499759187845141e-01, 6.015066517961812e-02, 0.000000000000000e+00, 0.000000000000000e+00, 0.000000000000000e+00, 1.753827012433350e+03, 1.606226281731903e+03, -3.797934456930574e+01, 2.823157521016097e+03, 7.428706045411537e+02, -1.694699084989824e+02, 1.751897634992788e+03
1084, 6.320309993643891e-01, 2.666520600104983e-01, 6.117436664821892e-02, 0.000000000000000e+00, 0.000000000000000e+00, 0.000000000000000e+00, 1.891798997153091e+03, 1.743216004386065e+03, -1.066279813149046e+01, 3.082132891594521e+03, 7.628221024050222e+02, -1.480802582500379e+02, 1.851391939222722e+03
1085, 8.390422847621281e-01, 1.345022253146076e+00, 3.926131483798835e-02, 0.000000000000000e+00, 0.000000000000000e+00, 0.000000000000000e+00, 3.835962313084488e+03, 3.642604987494683e+03, -9.667113196577861e+01, 6.842340330363680e+03, 9.147029474157607e+02, -6.887271843199345e+02, 3.690273272243610e+03
1086, 4.325272521265811e-01, 1.024278484523462e-01, 7.515036576731900e-02, 0.000000000000000e+00, 0.000000000000000e+00, 0.000000000000000e+00, 3.177464122382977e+03, 3.039641423483160e+03, -1.968576877947275e+01, 5.818249182192544e+03, 7.411897861236564e+02, -6.087330494965793e+02, 3.180820368221121e+03
1087, 7.287038073653190e-01, 1.167361398441507e+00, 4.337757870868855e-02, 0.000000000000000e+00, 0.000000000000000e+00, 0.000000000000000e+00, 6.236168565037334e+03, 6.152506284394050e+03, 5.086165110634280e+01, 1.148099373448167e+04, 1.254267758697981e+03, -6.614916563578442e+02, 5.830439233794566e+03
1088, 7.088990579954416e-01, 1.166300836696923e+00, 4.208560991145062e-02, 0.000000000000000e+00, 0.000000000000000e+00, 0.000000000000000e+00, 6.229523921195612e+03, 6.937134909588068e+03, 2.588827816938530e+01, 1.332370790621302e+04, 7.033716853300843e+02, -5.227843717565044e+02, 6.936451071893001e+03
1089, 1.080296385003074e+00, 1.442469887846464e+00, 1.846855786813841e-02, 0.000000000000000e+00, 0.000000000000000e+00, 0.000000000000000e+00, -5.946928333711578e+02, -7.812049224956954e+02, 3.572881153372600e+01, -1.581426601423731e+03, 1.080713552530396e+02, -2.344935656711034e+01, 9.300053904603859e+02
1090, 1.071304164125343e+00, 1.424832915702569e+00, 1.953334625093115e-02, 0.000000000000000e+00, 0.000000000000000e+00, 0.000000000000000e+00, -8.470306169194610e+02, -6.225205478470566e+02, -5.692085748529125e+01, -1.582323013319358e+03, 1.355781868927216e+03, -3.397029793365355e+02, 2.574196563768746e+03
1091, 8.160394676760657e-01, 1.412418538664175e+00, 3.555097904126339e-02, 0.000000000000000e+00, 0.000000000000000e+00, 0.000000000000000e+00, 7.277546222833365e+03, 7.041527309513455e+03, 2.541798172535889e+02, 1.328643545202059e+04, 7.353787351021165e+02, -7.876095137988967e+02, 6.423225064678754e+03
1092, 7.979313732072393e-01, 1.377188597507772e+00, 3.627332945351464e-02, 0.000000000000000e+00, 0.000000000000000e+00, 0.000000000000000e+00, 7.913282820075259e+03, 7.781210737741957e+03, 7.154951538644127e+01, 1.549643604142868e+04, 8.155133864026130e+02, -8.445922143395447e+02, 7.916674233873836e+03
1093, 7.798130746001678e-01, 1.341924713452353e+00, 3.697454163825122e-02, 0.000000000000000e+00, 0.000000000000000e+00, 0.000000000000000e+00, 4.467361598328023e+03, 5.003391300547173e+03, 2.806823862273145e+01, 9.022769273392825e+03, 1.535710295042575e+02, -7.535526301461746e+02, 4.513742733997634e+03
1094, 1.068142706060913e+00, 1.493228464823818e+00, 2.097309892066820e-02, 0.000000000000000e+00, 0.000000000000000e+00, 0.000000000000000e+00, 6.563429908454619e+02, 5.518844178699412e+02, -1.824628016623311e+01, 9.146593057512637e+02, 2.237563384179074e+02, -3.637195638445805e+02, 8.078969650779162e+02
1095, 1.087677659773296e+00, 1.494235101542234e+00, 1.818494775164825e-02, 0.000000000000000e+00, 0.000000000000000e+00, 0.000000000000000e+00, 3.474799700036817e+02, 2.317584445928571e+02, -2.977356155402508e+01, 4.488556640857979e+02, 1.655795159247564e+02, -1.370714708854817e+02, 4.203269445674342e+02
1096, 7.616852813148740e-01, 1.306630784889900e+00, 3.765698975151086e-02, 0.000000000000000e+00, 0.000000000000000e+00, 0.000000000000000e+00, 4.049930323527240e+03, 4.076141259348889e+03, 2.209938184674529e+02, 7.729874365622040e+03, -5.532444458999966e+01, -1.052530630528067e+02, 3.692580696037272e+03
1097, 7.435512057929127e-01, 1.271310569046288e+00, 3.832124998117399e-02, 0.000000000000000e+00, 0.000000000000000e+00, 0.000000000000000e+00, 4.532275098323638e+03, 4.569986013980778e+03, 2.200503432473472e+02, 8.936146136482275e+03, 2.185233872305824e+02, 1.300791267942919e+01, 4.417970089868654e+03
1098, 7.254159221053829e-01, 1.235970753883362e+00, 3.896752774779343e-02, 0.000000000000000e+00, 0.000000000000000e+00, 0.000000000000000e+00, 6.626754267787370e+03, 6.867122927948794e+03, 2.511903159940849e+00, 1.288789887418429e+04, 7.434596099025052e+02, 9.209136656793865e+01, 6.279998717986739e+03
1099, 7.073008628340091e-01, 1.200579972039166e+00, 3.960269166240063e-02, 0.000000000000000e+00, 0.000000000000000e+00, 0.000000000000000e+00, 6.449597692875936e+03, 6.728889048096545e+03, 1.680125552936717e+02, 1.359191448955345e+04, 5.406945408660433e+02, -1.308087329091634e+01, 7.075178816903347e+03
1100, 1.052925950712573e+00, 1.200886300888361e+00, 1.859500381134965e-02, 0.000000000000000e+00, 0.000000000000000e+00, 0.000000000000000e+00, -2.831478626026981e+02, -3.633610611884619e+02, 1.727302525706560e+00, -5.682116302002903e+02, 1.926478988191577e+02, -9.163209833130772e+01, 4.487399536909234e+02
1101, 1.042346075242025e+00, 1.217593254723617e+00, 2.055792567870526e-02, 0.000000000000000e+00, 0.000000000000000e+00, 0.000000000000000e+00, -7.370506134048286e+02, -8.778486923312780e+02, -3.003867467407066e+01, -1.710769683059536e+03, -1.889326259343082e+02, -2.177813650957744e+02, 1.040641579758341e+03
1102, 1.022718012716981e+00, 1.216633835641730e+00, 2.349211406970433e-02, 0.000000000000000e+00, 0.000000000000000e+00, 0.000000000000000e+00, -9.169147392684285e+02, -1.017989424165134e+03, -5.187976207412847e+00, -2.217283579700114e+03, 5.465336876244456e+02, -5.474872614080751e+02, 1.834433347637723e+03
1103, 1.031753280583830e+00, 1.234295565232667e+00, 2.243369890876388e-02, 0.000000000000000e+00, 0.000000000000000e+00, 0.000000000000000e+00, -1.085477101589943e+02, -2.685430822703564e+02, -6.609713086006211e+01, -5.218997967595218e+02, 2.915207148027990e+02, -1.192853079757882e+02, 6.641313675646114e+02
1104, 1.051368756213379e+00, 1.235255131008785e+00, 1.945318927073278e-02, 0.000000000000000e+00, 0.000000000000000e+00, 0.000000000000000e+00, -2.232336848591656e+02, -2.661407843948127e+02, 1.739936098141841e+01, -5.992914894397960e+02, 1.851676366550057e+02, 9.829264074224682e+00, 4.808161389781710e+02
1105, 1.040784411088293e+00, 1.251953279965978e+00, 2.136277966849586e-02, 0.000000000000000e+00, 0.000000000000000e+00, 0.000000000000000e+00, -1.263506036760623e+03, -1.151369074532873e+03, -5.052250765377829e+01, -2.548882354599844e+03, 8.732532857659853e+02, 2.527196004300738e+02, 2.072650051583315e+03
1106, 1.060389216787894e+00, 1.252913587133677e+00, 1.833445463699805e-02, 0.000000000000000e+00, 0.000000000000000e+00, 0.000000000000000e+00, -1.522686475734165e+03, -1.487587699796708e+03, -1.036069920947157e+02, -3.309741778704939e+03, -3.664865299218048e+02, 6.031251327925423e+02, 2.187222477780502e+03
1107, 1.049811945138752e+00, 1.269609150614286e+00, 2.027882591173153e-02, 0.000000000000000e+00, 0.000000000000000e+00, 0.000000000000000e+00, -1.738943527191827e+03, -1.930458124690552e+03, 8.582656938640669e-01, -3.631884503086676e+03, 5.243609890085995e+02, -5.463910249129810e+02, 2.231114644465430e+03
1108, 3.913480592723051e-01, 1.347516079042293e-01, 7.520816924431330e-02, 0.000000000000000e+00, 0.000000000000000e+00, 0.000000000000000e+00, 3.845320645818602e+03, 3.806664569183821e+03, 8.407589989561645e+00, 7.140486901981662e+03, 8.555465218765623e+02, -5.540605473560562e+02, 3.755533788124143e+03
1109, 3.823048900444500e-01, 1.171594712161571e-01, 7.573571056698339e-02, 0.000000000000000e+00, 0.000000000000000e+00, 0.000000000000000e+00, 3.849287744820052e+03, 3.734463807847155e+03, -3.158408045316915e+01, 7.147282314020082e+03, 8.347825131867138e+02, -6.055836254095002e+02, 3.802948094965163e+03
1110, 4.201541262314289e-01, 1.533091237643483e-01, 7.444259449617019e-02, 0.000000000000000e+00, 0.000000000000000e+00, 0.000000000000000e+00, 3.638521790123554e+03, 3.503263236122362e+03, -9.011228286917527e+00, 6.630047938213248e+03, 8.484247498949222e+02, -4.730915707719498e+02, 3.493324670081087e+03
1111, 8.612388384551056e-01, 1.500259521318847e+00, 3.365049960367085e-02, 0.000000000000000e+00, 0.000000000000000e+00, 0.000000000000000e+00, 5.626584540552176e+03, 6.078560131162881e+03, 1.002604861184070e+02, 1.072767670046873e+04, 1.264842411834497e+03, -1.022751915181887e+03, 5.646906580802693e+03
1112, 2.737894929245801e-01, 2.837453445547102e-01, 5.870260609999379e-02, 0.000000000000000e+00, 0.000000000000000e+00, 0.000000000000000e+00, 5.667313761087084e+03, 5.866549202216942e+03, 2.110107664331404e+02, 1.166808104224119e+04, 2.940894773861833e+02, -3.426413243531443e+02, 5.966455307084511e+03
1113, 2.542616755905096e-01, 2.825699263807503e-01, 5.536857260866868e-02, 0.000000000000000e+00, 0.000000000000000e+00, 0.000000000000000e+00, 5.721406298014279e+03, 5.913745653831326e+03, 2.572221527363477e+02, 1.182532036564609e+04, 5.826427801283977e+01, -2.108234828485767e+02, 6.038439532007583e+03
1114, 6.410869138439736e-01, 2.842984422723515e-01, 6.036863932404032e-02, 0.000000000000000e+00, 0.000000000000000e+00, 0.000000000000000e+00, 1.732103807499468e+03, 1.625850028645196e+03, -3.229673797001047e+01, 2.846047778721019e+03, 7.523549739005159e+02, -1.605207696091598e+02, 1.774560735351900e+03
1115, 6.212831825014553e-01, 2.833248970920836e-01, 6.212389755502373e-02, 0.000000000000000e+00, 0.000000000000000e+00, 0.000000000000000e+00, 2.081169174146731e+03, 1.931699982096211e+03, -3.682760233779733e+01, 3.360620826730672e+03, 8.050502902249202e+02, -1.862600061353556e+02, 1.975611619565850e+03
1116, 6.122849249417575e-01, 2.657043474744590e-01, 6.289941933280163e-02, 0.000000000000000e+00, 0.000000000000000e+00, 0.000000000000000e+00, 2.073267706725682e+03, 1.931948754911846e+03, -3.097690044148864e+01, 3.466052785349254e+03, 8.007229967753585e+02, -1.732401734115191e+02, 2.042800866364572e+03
1117, 9.146729854917357e-01, 1.082945264070895e-01, 2.039748395015978e-02, 0.000000000000000e+00, 0.000000000000000e+00, 0.000000000000000e+00, -1.712943196373068e+03, -1.915528983546754e+03, -2.830403697392911e+01, -3.528241859414961e+03, 5.607232570058268e+02, 3.173543428644886e+02, 2.053380854535361e+03
1118, 1.004630449086007e+00, 1.181301359955892e+00, 2.557382917340486e-02, 0.000000000000000e+00, 0.000000000000000e+00, 0.000000000000000e+00, -2.378268158882190e+01, -1.274456480316950e+02, -2.525083812436542e+01, -4.812212387262803e+02, 3.099217489239815e+02, -1.155642670507675e+02, 7.090198810137200e+02
1119, 6.568067063412297e-01, 1.646508189977086e-01, 5.836778400050500e-02, 0.000000000000000e+00, 0.000000000000000e+00, 0.000000000000000e+00, 1.406783441175112e+03, 1.296828647286030e+03, -2.940215064552390e+01, 2.308591711267190e+03, 6.367426250795151e+02, -1.226319475092378e+02, 1.479371187359017e+03
1120, 8.481839209787423e-01, 1.139254008272020e+00, 4.204299996566194e-02, 0.000000000000000e+00, 0.000000000000000e+00, 0.000000000000000e+00, 2.102437960217810e+03, 2.020015339700458e+03, -1.628768634143137e+01, 3.633415531988603e+03, 6.892677151955246e+02, -1.738029684117435e+02, 1.998389658788954e+03
1121, 8.845311522150749e-01, 1.209968793685028e+00, 3.907770940402003e-02, 0.000000000000000e+00, 0.000000000000000e+00, 0.000000000000000e+00, 2.292859104208875e+03, 2.103659424138142e+03, -3.412769333787779e+01, 3.706724697772589e+03, 4.871015274676628e+02, -1.922319541466026e+02, 1.768748856874306e+03
1122, 9.971368981777027e-01, 1.129233286473108e+00, 2.589818012976357e-02, 0.000000000000000e+00, 0.000000000000000e+00, 0.000000000000000e+00, 3.645555025225408e+01, -3.594220902979338e+01, -3.085295928246253e+01, -2.732408981791991e+02, 4.893216341158074e+02, -6.453386296355418e+01, 9.013259983678581e+02
1123, 8.756368891980707e-01, 1.063870844156209e-01, 2.717672151938833e-02, 0.000000000000000e+00, 0.000000000000000e+00, 0.000000000000000e+00, -1.373821790762061e+03, -1.441571257627784e+03, -1.616290607316972e+02, -2.848655235872996e+03, 5.188711272848172e+02, -4.799139249635651e+01, 1.724171575779533e+03
1124, 7.443832984189037e-01, 1.860045633853863e-01, 4.813936474153280e-02, 0.000000000000000e+00, 0.000000000000000e+00, 0.000000000000000e+00, 4.795924230790986e+02, 3.375860957036188e+02, -1.948662218504127e+01, 4.846703287230384e+02, 5.499803403019738e+02, -4.699959649700109e+01, 9.675297786491489e+02
1125, 8.348429928949679e-01, 3.625361522322820e-01, 3.804292753558948e-02, 0.000000000000000e+00, 0.000000000000000e+00, 0.000000000000000e+00, -2.412759646709867e+02, -3.946901612299104e+02, -1.859363251005382e+01, -8.772587911287458e+02, 4.554637823340215e+02, -4.362096100126175e+01, 9.795552981779773e+02
1126, 9.053830578731940e-01, 7.625701130575089e-01, 3.370492182147709e-02, 0.000000000000000e+00, 0.000000000000000e+00, 0.000000000000000e+00, -3.026883930045709e+01, -1.655525368385596e+02, -6.277797270344518e+00, -4.890334872488908e+02, 3.995420289857470e+02, -1.209606797585075e+02, 8.304321117884152e+02
1127, 4.615688128410865e-01, 5.000202858986144e-01, 6.279112214027875e-02, 0.000000000000000e+00, 0.000000000000000e+00, 0.000000000000000e+00, 4.507458120613830e+03, 4.587171469342326e+03, 4.951065425149255e+01, 8.619747584592678e+03, 1.020699852566019e+03, -5.901597767945868e+02, 4.557102002103871e+03
1128, 9.075594506822159e-01, 1.142151391072737e+00, 3.697358418828625e-02, 0.000000000000000e+00, 0.000000000000000e+00, 0.000000000000000e+00, 1.447324789074537e+03, 1.358958253304104e+03, 5.799156876331901e+00, 2.487488065238697e+03, 5.337728864202421e+02, -1.497943495909178e+02, 1.450455213399089e+03
1129, 7.758057730964431e-01, 3.596869808370565e-01, 4.603371036384134e-02, 0.000000000000000e+00, 0.000000000000000e+00, 0.000000000000000e+00, 4.342860379631623e+02, 2.734658709412465e+02, -2.232808048730658e+01, 3.257240950607763e+02, 5.645861633502356e+02, -1.133748369804470e+02, 1.008226001367402e+03
1130, 5.278768104420343e-01, 3.653753570276094e-01, 6.733715384256501e-02, 0.000000000000000e+00, 0.000000000000000e+00, 0.000000000000000e+00, 3.315029646657453e+03, 3.215662030009416e+03, -6.573563167121125e+00, 5.925827475474788e+03, 9.429330131310873e+02, -3.004574470073708e+02, 3.166052692760684e+03
1131, 8.888384420393709e-01, 6.927736957369438e-01, 3.505935889659090e-02, 0.000000000000000e+00, 0.000000000000000e+00, 0.000000000000000e+00, 2.065179641357812e+00, -9.151509548327293e+01, -2.520657504112513e+01, -6.579789934564517e+02, 5.079689571892209e+02, -1.450408290678840e+02, 1.105333654599186e+03
1132, 6.927887123533060e-01, 2.351734358937208e-01, 5.486589958505389e-02, 0.000000000000000e+00, 0.000000000000000e+00, 0.000000000000000e+00, 1.073132195799135e+03, 9.385154718672424e+02, -2.437156967470658e+01, 1.563520927621126e+03, 6.663218095193994e+02, -1.117149757734678e+02, 1.302226625582573e+03
1133, 5.069267630742949e-01, 5.884349554361417e-01, 6.069651196659140e-02, 0.000000000000000e+00, 0.000000000000000e+00, 0.000000000000000e+00, 4.551661844111699e+03, 4.559470009703552e+03, 6.724851107506132e+01, 8.665900734736922e+03, 1.044051338194404e+03, -4.996400039800952e+02, 4.574660100581708e+03
1134, 6.563840497831185e-01, 9.920067319553867e-01, 4.836213837897391e-02, 0.000000000000000e+00, 0.000000000000000e+00, 0.000000000000000e+00, 5.102863881800797e+03, 5.125261833282967e+03, 1.317183510608290e+02, 9.999928391169551e+03, 9.391013859479581e+02, -7.001418134567505e+02, 5.295322214181299e+03
1135, 6.200421688675453e-01, 9.212521133285894e-01, 4.993289802649448e-02, 0.000000000000000e+00, 0.000000000000000e+00, 0.000000000000000e+00, 4.660695086103881e+03, 4.643133430327091e+03, 1.235710188603151e+02, 9.079837305398876e+03, 9.891810532352049e+02, -4.117694204502824e+02, 4.805896674481463e+03
1136, 9.234964929867517e-01, 7.979467787395647e-01, 3.164945358184376e-02, 0.000000000000000e+00, 0.000000000000000e+00, 0.000000000000000e+00, -5.172836159513020e+01, -2.033121710808222e+02, -2.714477210554210e+01, -4.453400679571776e+02, 4.249485406657305e+02, -1.086123392451681e+02, 8.352166713396138e+02
1137, 9.384694074406429e-01, 9.021695767950697e-01, 3.099574193594468e-02, 0.000000000000000e+00, 0.000000000000000e+00, 0.000000000000000e+00, 1.123475683775350e+02, -3.378738390829609e+01, 8.809940102255620e-02, -1.661659406158331e+02, 4.253103901110470e+02, -1.048334813891577e+02, 7.961542715943531e+02
1138, 4.720327667216116e-01, 1.043427885832925e-01, 7.340034471282113e-02, 0.000000000000000e+00, 0.000000000000000e+00, 0.000000000000000e+00, 2.944326357920353e+03, 2.851103336337534e+03, -4.026359179345488e+01, 5.339362490708438e+03, 6.701438113126779e+02, -4.641641851633053e+02, 2.822525100078190e+03
1139, 7.986224245627634e-01, 9.299676583166969e-01, 4.656127982824451e-02, 0.000000000000000e+00, 0.000000000000000e+00, 0.000000000000000e+00, 2.308901257925990e+03, 2.162170756171506e+03, -6.386427781986943e+01, 3.867379537620331e+03, 8.055829655620968e+02, -3.692941131343588e+02, 2.246624756277754e+03
1140, 5.523408769336159e-01, 6.767661660377654e-01, 5.850851339480986e-02, 0.000000000000000e+00, 0.000000000000000e+00, 0.000000000000000e+00, 4.281725464146249e+03, 4.279015765393105e+03, 8.894453373599904e+01, 8.141021936757517e+03, 9.416544342669306e+02, -2.654171030955386e+02, 4.218986307590024e+03
1141, 5.473842844196248e-01, 7.798220385776532e-01, 5.287086775325681e-02, 0.000000000000000e+00, 0.000000000000000e+00, 0.000000000000000e+00, 5.044650919536254e+03, 5.240143979815063e+03, 1.085754055880973e+02, 1.010831726213876e+04, 8.922827199436373e+02, -6.425241006754978e+02, 5.324603798326117e+03
1142, 7.746615035473965e-01, 8.081014300385102e-01, 4.873307118096075e-02, 0.000000000000000e+00, 0.000000000000000e+00, 0.000000000000000e+00, 1.861341905529583e+03, 1.688522475434732e+03, -2.609285123584955e+01, 2.992380224833990e+03, 7.860120335034584e+02, -2.234123677396853e+02, 1.873447664649751e+03
1143, 7.383400055648359e-01, 7.373863405692683e-01, 5.180099778320517e-02, 0.000000000000000e+00, 0.000000000000000e+00, 0.000000000000000e+00, 2.244579546782590e+03, 2.135154092637989e+03, -2.020993624360361e+01, 3.850452741711527e+03, 8.116696558785042e+02, -3.205557011018228e+02, 2.247763808716812e+03
1144, 7.756860935291420e-01, 1.221405766233599e+00, 4.275297821763768e-02, 0.000000000000000e+00, 0.000000000000000e+00, 0.000000000000000e+00, 4.688469803382085e+03, 4.438657852008517e+03, 2.761833056730849e+02, 8.863183703036724e+03, 9.512128012826047e+02, -2.524105032895155e+02, 4.654881072830931e+03
1145, 4.475329709171419e-01, 5.853332355784291e-01, 5.653948934638965e-02, 0.000000000000000e+00, 0.000000000000000e+00, 0.000000000000000e+00, 5.634222984427197e+03, 5.828270459597604e+03, 1.622470496254888e+02, 1.141801559020100e+04, 9.880649352072091e+02, -4.502020331718535e+02, 5.998617828556414e+03
1146, 7.020175468418202e-01, 6.666655646171848e-01, 5.477538409110216e-02, 0.000000000000000e+00, 0.000000000000000e+00, 0.000000000000000e+00, 2.205978213513428e+03, 2.029388725569675e+03, -3.556237455001219e+01, 3.775143654052400e+03, 7.678101463145115e+02, -3.442740749670238e+02, 2.213261704941951e+03
1147, 4.734780173521819e-01, 2.595285124364039e-01, 7.098101855767233e-02, 0.000000000000000e+00, 0.000000000000000e+00, 0.000000000000000e+00, 3.402766073090495e+03, 3.309768998267218e+03, 1.140075250530579e+01, 6.136208131890553e+03, 8.863631656029112e+02, -3.331557357504421e+02, 3.228752577805594e+03
1148, 4.932809972467677e-01, 2.604868184452325e-01, 7.032739473732895e-02, 0.000000000000000e+00, 0.000000000000000e+00, 0.000000000000000e+00, 3.363940256690189e+03, 3.239084730323607e+03, -1.129044255957641e+01, 5.945867652450477e+03, 8.386753443512171e+02, -3.273387493283014e+02, 3.071851115510426e+03
1149, 4.842141070631826e-01, 2.428302493119125e-01, 7.095111103671546e-02, 0.000000000000000e+00, 0.000000000000000e+00, 0.000000000000000e+00, 3.317593461650199e+03, 3.223674460815599e+03, -7.766801610286603e+00, 5.924318543625684e+03, 8.567648020453787e+02, -3.401520421779886e+02, 3.098077860537788e+03
1150, 5.040105099780726e-01, 2.438099690298080e-01, 7.012753744707272e-02, 0.000000000000000e+00, 0.000000000000000e+00, 0.000000000000000e+00, 3.175065458786727e+03, 3.067279612846463e+03, -5.327633564948878e+00, 5.638281587638792e+03, 8.357259540102253e+02, -3.434738531224954e+02, 2.965446500140845e+03
1151, 7.713774601775722e-01, 8.769012519116186e-01, 4.880274411055747e-02, 0.000000000000000e+00, 0.000000000000000e+00, 0.000000000000000e+00, 2.230453140847068e+03, 2.088093846907882e+03, -8.306338635825590e+00, 3.677250813520386e+03, 8.655906181557491e+02, -2.915149337300084e+02, 2.195984057238033e+03
1152, 6.566157002126919e-01, 5.782918106535537e-01, 5.837075017135725e-02, 0.000000000000000e+00, 0.000000000000000e+00, 0.000000000000000e+00, 2.612004195889112e+03, 2.431356835196336e+03, -3.187336585755941e+01, 4.361795056546674e+03, 8.371556845608328e+02, -2.891869762507456e+02, 2.401441359337782e+03
1153, 1.037975989826984e+00, 1.096746561610671e+00, 1.911015165351473e-02, 0.000000000000000e+00, 0.000000000000000e+00, 0.000000000000000e+00, -1.416495123981174e+03, -1.466213795760637e+03, -9.580344037248106e+01, -2.929459534157320e+03, 3.192302110730373e+02, -6.840927711132542e+02, 1.988345571291536e+03
1154, 9.353156463586094e-01, 9.710170551482105e-01, 3.230733591632075e-02, 0.000000000000000e+00, 0.000000000000000e+00, 0.000000000000000e+00, 3.308071631379908e+02, 2.414367030180913e+02, -2.687929019383953e+01, 3.564297067704546e+02, 5.048495212011102e+02, -1.380386953846504e+02, 9.137199475569903e+02
1155, 7.738251849516039e-01, 1.032266889654140e+00, 4.730937305376122e-02, 0.000000000000000e+00, 0.000000000000000e+00, 0.000000000000000e+00, 2.910333166762371e+03, 2.855221064638523e+03, 1.523774444500488e+01, 5.126281217737315e+03, 8.491706518211245e+02, -2.648011621592291e+02, 2.722116195987880e+03
1156, 4.021743145020511e-01, 4.969380784834139e-01, 5.808601809538613e-02, 0.000000000000000e+00, 0.000000000000000e+00, 0.000000000000000e+00, 5.086728059954089e+03, 5.387173928410618e+03, 1.668568972509381e+02, 1.020907849343791e+04, 6.408197095455948e+02, -4.828527992041673e+02, 5.177322330004439e+03
1157, 6.112199664699367e-01, 4.899689979217735e-01, 6.183960267526221e-02, 0.000000000000000e+00, 0.000000000000000e+00, 0.000000000000000e+00, 2.580045508323060e+03, 2.493319375908240e+03, -4.898374745741600e+00, 4.533641055885129e+03, 9.833938264728395e+02, -3.590876150088918e+02, 2.698440059267446e+03
1158, 8.210321868887662e-01, 1.309652799662430e+00, 4.029581403696988e-02, 0.000000000000000e+00, 0.000000000000000e+00, 0.000000000000000e+00, 3.709823957279332e+03, 3.884492894026870e+03, 5.565252110171541e+01, 7.306867965173512e+03, 1.130954680025323e+03, -3.995449233735639e+02, 4.082440261829706e+03
1159, 5.977850474928684e-01, 7.651593186249463e-01, 5.620876036535423e-02, 0.000000000000000e+00, 0.000000000000000e+00, 0.000000000000000e+00, 3.839312169180132e+03, 3.852613589881474e+03, -1.071536194289724e+01, 7.133399276649297e+03, 1.082592646753410e+03, -4.774479294780182e+02, 3.873965063135035e+03
1160, 1.004934561759672e+00, 9.571543220044937e-01, 2.190643723656499e-02, 0.000000000000000e+00, 0.000000000000000e+00, 0.000000000000000e+00, -2.000466235274543e+03, -2.084465813093539e+03, -9.862038451287938e+01, -3.940013657259179e+03, 9.017267089539555e+02, 4.876265080919418e+02, 2.605346217765195e+03
1161, 1.013974351515461e+00, 9.748463741190325e-01, 2.076801745812183e-02, 0.000000000000000e+00, 0.000000000000000e+00, 0.000000000000000e+00, -2.379954257211992e+03, -2.521486616498509e+03, 3.304759221477543e+01, -4.754464847899194e+03, 4.623660573930206e+02, -3.650677675354282e+02, 2.523233805215263e+03
1162, 8.430642173064591e-01, 8.286033216415252e-01, 4.214819628149030e-02, 0.000000000000000e+00, 0.000000000000000e+00, 0.000000000000000e+00, 9.820798333075938e+02, 8.223893037777498e+02, -2.587675824182321e+01, 1.404011342092211e+03, 5.634069587831835e+02, -1.694513519142782e+02, 1.145136688283945e+03
1163, 6.341279829194871e-01, 8.358261135165119e-01, 5.428458161373768e-02, 0.000000000000000e+00, 0.000000000000000e+00, 0.000000000000000e+00, 4.077598048106969e+03, 3.933237982603948e+03, 7.220663452864940e+01, 7.502270232809344e+03, 1.150149193059922e+03, -4.088510323332982e+02, 4.090141036090959e+03
1164, 5.749148634263055e-01, 4.193042641164443e-01, 6.453014113595054e-02, 0.000000000000000e+00, 0.000000000000000e+00, 0.000000000000000e+00, 2.826000157802708e+03, 2.751960743038474e+03, -3.506710577740001e+01, 5.018759162771470e+03, 9.218590639659329e+02, -3.114695117147259e+02, 2.796466656266760e+03
1165, 8.398330889286323e-01, 8.974497121720124e-01, 4.284627357261883e-02, 0.000000000000000e+00, 0.000000000000000e+00, 0.000000000000000e+00, 1.509650738850040e+03, 1.372183759253434e+03, -6.210064158194950e+01, 2.415022650130568e+03, 6.426161713718659e+02, -2.365534164222684e+02, 1.543166506542384e+03
1166, 8.158459735220496e-01, 7.755838566543294e-01, 4.476822596859398e-02, 0.000000000000000e+00, 0.000000000000000e+00, 0.000000000000000e+00, 1.195937743868702e+03, 1.080721630964244e+03, -1.406769173660136e+01, 1.874437727878073e+03, 6.967956314423575e+02, -1.992325439742706e+02, 1.458786511905033e+03
1167, 6.615580180806976e-01, 4.751458931579877e-01, 5.852267366935298e-02, 0.000000000000000e+00, 0.000000000000000e+00, 0.000000000000000e+00, 2.007919952030769e+03, 1.855458591095148e+03, -3.778960065539023e+01, 3.241873039644908e+03, 8.069118392909666e+02, -2.304961538491955e+02, 1.962397665564720e+03
1168, 7.795496030968756e-01, 7.048721992163303e-01, 4.816437996820860e-02, 0.000000000000000e+00, 0.000000000000000e+00, 0.000000000000000e+00, 1.292432727048343e+03, 1.156255164154734e+03, -1.538497350129659e+01, 2.026199484266087e+03, 6.886545202003126e+02, -2.701997266260827e+02, 1.516360598596538e+03
1169, 7.432472491377157e-01, 6.341707469036469e-01, 5.145715443600531e-02, 0.000000000000000e+00, 0.000000000000000e+00, 0.000000000000000e+00, 1.709781402223067e+03, 1.557039263216605e+03, -3.808579668904395e+01, 2.718118483332722e+03, 7.505059155728717e+02, -2.565664288168254e+02, 1.756615314069255e+03
1170, 7.069413359555252e-01, 5.634822234770882e-01, 5.465349164834406e-02, 0.000000000000000e+00, 0.000000000000000e+00, 0.000000000000000e+00, 1.926415813646771e+03, 1.785549892250667e+03, -1.166223837885533e+01, 3.248885318491174e+03, 7.986277900631977e+02, -2.419238907783422e+02, 2.011086337220762e+03
1171, 6.161671633678881e-01, 3.868100717702196e-01, 6.226235235819500e-02, 0.000000000000000e+00, 0.000000000000000e+00, 0.000000000000000e+00, 2.275507473586106e+03, 2.140103184418062e+03, -7.422051798156594e+00, 3.941158329427352e+03, 7.924085236487623e+02, -2.668665111955501e+02, 2.261816888086319e+03
1172, 8.842637283697962e-01, 1.432943945624283e+00, 3.655462515676932e-02, 0.000000000000000e+00, 0.000000000000000e+00, 0.000000000000000e+00, 3.417358539985101e+03, 3.357809959648535e+03, -1.593334330681800e+01, 5.756284258078556e+03, 1.066943418970346e+03, -5.917876090791895e+02, 3.174886355308236e+03
1173, 7.606390289072953e-01, 8.936582554510647e-01, 4.943944005027638e-02, 0.000000000000000e+00, 0.000000000000000e+00, 0.000000000000000e+00, 2.525456891756219e+03, 2.440137429327209e+03, -4.531542419490899e+00, 4.406947210195172e+03, 8.158107890913532e+02, -3.065564007218288e+02, 2.446721640783341e+03
1174, 7.515541627803075e-01, 8.759793117549837e-01, 5.014608594296763e-02, 0.000000000000000e+00, 0.000000000000000e+00, 0.000000000000000e+00, 2.543560543185734e+03, 2.437241091898145e+03, -6.976894286801482e+00, 4.417519518281664e+03, 9.248703182561474e+02, -2.950764833197865e+02, 2.559253034967977e+03
1175, 2.520056704517801e-01, 1.280814053001888e-01, 6.886243676274804e-02, 0.000000000000000e+00, 0.000000000000000e+00, 0.000000000000000e+00, 5.154152842020083e+03, 5.194826025613270e+03, 1.543301222024336e+02, 1.035761071973324e+04, 4.936836309230101e+02, -6.015100626098831e+02, 5.362280671865561e+03
1176, 2.716875996006917e-01, 1.291681682153676e-01, 7.070161952546553e-02, 0.000000000000000e+00, 0.000000000000000e+00, 0.000000000000000e+00, 5.047192052982138e+03, 5.024258463012732e+03, 8.920527632736702e+01, 1.003723385373622e+04, 6.355088400300351e+02, -6.211453593899754e+02, 5.235306540130062e+03
1177, 2.626679520187520e-01, 1.115614017475771e-01, 7.104564693786235e-02, 0.000000000000000e+00, 0.000000000000000e+00, 0.000000000000000e+00, 5.003984992763336e+03, 4.976269200124490e+03, 1.014046594390937e+02, 9.824011288008351e+03, 5.352130896938639e+02, -7.814770472394716e+02, 5.107772459342818e+03
1178, 2.826066273554070e-01, 1.125802661903792e-01, 7.258828647588449e-02, 0.000000000000000e+00, 0.000000000000000e+00, 0.000000000000000e+00, 4.771239116539232e+03, 4.706614473663390e+03, 8.065989595473242e+01, 9.389146194187186e+03, 6.563084788939323e+02, -7.790479458125694e+02, 4.975958233190825e+03
1179, 4.412318047926029e-01, 3.095158740413697e-01, 6.997817633593902e-02, 0.000000000000000e+00, 0.000000000000000e+00, 0.000000000000000e+00, 3.973845329061039e+03, 3.940020091107475e+03, 3.793598810384362e+01, 7.414793534944278e+03, 1.073619645333046e+03, -3.896756914297301e+02, 3.984406589911816e+03
1180, 4.214160908085972e-01, 3.085317341971917e-01, 6.971272153009025e-02, 0.000000000000000e+00, 0.000000000000000e+00, 0.000000000000000e+00, 4.266473387922766e+03, 4.252654444655507e+03, 5.248767591950482e+01, 8.047055990106322e+03, 1.070849214262349e+03, -4.005331951589732e+02, 4.274919758349238e+03
1181, 4.304732076184611e-01, 3.262054824502778e-01, 6.923844767386433e-02, 0.000000000000000e+00, 0.000000000000000e+00, 0.000000000000000e+00, 4.248873213860738e+03, 4.257689575888800e+03, 3.195126184282746e+01, 7.997458695224836e+03, 1.066252684886687e+03, -3.809044203005685e+02, 4.227047846705082e+03
1182, 7.216612969101750e-01, 1.081444231624512e+00, 4.689280194847208e-02, 0.000000000000000e+00, 0.000000000000000e+00, 0.000000000000000e+00, 3.984875416236791e+03, 3.930700406609486e+03, 8.293652545379405e+01, 7.390559109244850e+03, 1.084296943733648e+03, -4.510750307784900e+02, 3.993026462954419e+03
1183, 7.018106942498001e-01, 1.080449333293938e+00, 4.629355102719619e-02, 0.000000000000000e+00, 0.000000000000000e+00, 0.000000000000000e+00, 4.606107242139056e+03, 4.629428684767932e+03, 1.246485526313034e+02, 8.767538563318560e+03, 1.133497184554791e+03, -5.037796465854150e+02, 4.677974469031496e+03
1184, 8.341377442867706e-01, 1.447603124048641e+00, 3.480774330935260e-02, 0.000000000000000e+00, 0.000000000000000e+00, 0.000000000000000e+00, 5.147612146890413e+03, 5.554370941338410e+03, 3.060198361146342e+01, 1.075823091054931e+04, 8.393174277400867e+02, -3.408738703877892e+02, 5.641549677866522e+03
1185, 9.782216581982891e-01, 1.317573666238885e+00, 3.040940214405417e-02, 0.000000000000000e+00, 0.000000000000000e+00, 0.000000000000000e+00, 1.181481328787294e+03, 9.597235670051448e+02, -7.250414847855185e+01, 1.797427185566068e+03, 5.592946882727953e+02, -5.745621891586403e+01, 1.236633506289728e+03
1186, 2.202564078077943e-01, 1.775801057097880e-01, 6.026108936281829e-02, 0.000000000000000e+00, 0.000000000000000e+00, 0.000000000000000e+00, 5.491334113023971e+03, 5.732416380258728e+03, 1.773612400190272e+02, 1.120004843180218e+04, -2.980176825846118e+01, -2.069840079332145e+02, 5.612203902675793e+03
1187, 2.007882402001015e-01, 1.763552082114920e-01, 5.677279434324874e-02, 0.000000000000000e+00, 0.000000000000000e+00, 0.000000000000000e+00, 5.670130241983480e+03, 5.767623548277416e+03, 1.262354969504688e+02, 1.114454863659157e+04, -3.768356478174754e+02, -4.901690497820688e+01, 5.470472744110773e+03
1188, 2.097994257787757e-01, 1.940079978973561e-01, 5.656780419856978e-02, 0.000000000000000e+00, 0.000000000000000e+00, 0.000000000000000e+00, 5.651334801029390e+03, 5.909145873697396e+03, 1.382767920479350e+02, 1.139571299753464e+04, -3.016643893086907e+02, -1.334752120739217e+02, 5.653953982013483e+03
1189, 8.010891535275180e-01, 1.085275262509555e+00, 4.533520750635869e-02, 0.000000000000000e+00, 0.000000000000000e+00, 0.000000000000000e+00, 2.705921123808575e+03, 2.618548091366219e+03, -1.482227244829292e+01, 4.816626228158059e+03, 8.084651856601474e+02, -4.482995537159397e+02, 2.685433527016547e+03
1190, 9.131889178454213e-01, 1.425581093084554e-01, 2.139309896949430e-02, 0.000000000000000e+00, 0.000000000000000e+00, 0.000000000000000e+00, -8.438501659757404e+02, -1.132098632781291e+03, -1.109421372130293e+02, -2.084198699297733e+03, 1.258478859871961e+02, 7.846959903255663e+00, 1.161311917051092e+03
1191, 9.175852310414496e-01, 1.348983312040102e+00, 3.607488885415170e-02, 0.000000000000000e+00, 0.000000000000000e+00, 0.000000000000000e+00, 2.294963086233563e+03, 2.207462281347554e+03, -9.545578081731174e+00, 3.766861223928123e+03, 6.661330589672892e+02, -4.079038068553879e+02, 2.033116437451223e+03
1192, 8.589877160876369e-01, 2.604060040510692e-01, 3.275689705066617e-02, 0.000000000000000e+00, 0.000000000000000e+00, 0.000000000000000e+00, -6.394090398732897e+02, -8.533376886354478e+02, -4.705745072135188e+01, -2.150942416574984e+03, 4.869272565844333e+02, 3.988077669808038e+01, 1.652224991481961e+03
1193, 8.785830390279125e-01, 2.613598998369528e-01, 2.964175718343453e-02, 0.000000000000000e+00, 0.000000000000000e+00, 0.000000000000000e+00, -2.111276409279050e+03, -2.152121917688481e+03, -4.469459125678569e+01, -3.967116597863539e+03, 3.762848888697093e+02, 1.546713179106107e+02, 1.967877497987023e+03
1194, 8.891379514539948e-01, 2.446544749892582e-01, 2.759255566850445e-02, 0.000000000000000e+00, 0.000000000000000e+00, 0.000000000000000e+00, -1.190244646733833e+03, -1.311483522097891e+03, 6.656298883528326e+01, -2.325969151453013e+03, 3.923128950937420e+02, 2.261870953091322e+01, 1.281963333845669e+03
1195, 8.981663328640661e-01, 2.623150598548916e-01, 2.642357017213839e-02, 0.000000000000000e+00, 0.000000000000000e+00, 0.000000000000000e+00, -1.081884770021808e+03, -1.584981490014908e+03, -3.653306335664581e+00, -2.952929673809576e+03, 2.468490417424376e+02, 1.641562992641877e+02, 1.753933877754782e+03
1196, 9.087127110892024e-01, 2.455898691310988e-01, 2.430142377408045e-02, 0.000000000000000e+00, 0.000000000000000e+00, 0.000000000000000e+00, -1.021662716432944e+03, -1.201172568648611e+03, -1.760726470901090e+02, -1.841588531980623e+03, 4.904966030298000e+02, 6.258603290800537e+01, 1.176364691124314e+03
1197, 9.177365329342206e-01, 2.632720589641764e-01, 2.310150309607407e-02, 0.000000000000000e+00, 0.000000000000000e+00, 0.000000000000000e+00, -1.185663360531498e+03, -1.118470289557384e+03, 1.357386797629179e+02, -2.222090994528170e+03, 3.102611461429488e+02, 9.568451520682864e+01, 1.232828207087179e+03
1198, 9.071928254720616e-01, 2.799830702017789e-01, 2.524544301672654e-02, 0.000000000000000e+00, 0.000000000000000e+00, 0.000000000000000e+00, -1.214987947602662e+03, -1.371327987501900e+03, 3.630735846792574e+01, -3.077236453236515e+03, 8.322195793893320e+01, 9.953354068290324e+01, 1.804361613420955e+03
1199, 9.267618812736832e-01, 2.809411466825558e-01, 2.189082561741850e-02, 0.000000000000000e+00, 0.000000000000000e+00, 0.000000000000000e+00, -1.219887258421451e+03, -1.056002935065438e+03, 2.524848835573837e+01, -2.015486289463960e+03, 2.774194734186395e+02, 1.218306437164554e+02, 1.033221838201367e+03
1200, 9.162194887208871e-01, 2.976554173803004e-01, 2.405755205392859e-02, 0.000000000000000e+00, 0.000000000000000e+00, 0.000000000000000e+00, -1.815677799902381e+03, -1.636059997730864e+03, -5.084285982688414e+01, -3.546227774008308e+03, 8.451271149924290e+01, -4.420273876160756e+01, 1.836558515641390e+03
1201, 9.357868404921741e-01, 2.986141850500296e-01, 2.066986396116249e-02, 0.000000000000000e+00, 0.000000000000000e+00, 0.000000000000000e+00, -2.819766982073148e+03, -2.293088862166500e+03, 3.907757088137716e+01, -5.111914504768109e+03, 1.136473857660641e+03, -4.332244554686987e+02, 3.343785878179300e+03
1202, 9.252464371670970e-01, 3.153310773195208e-01, 2.285964550834252e-02, 0.000000000000000e+00, 0.000000000000000e+00, 0.000000000000000e+00, -1.367687189405500e+03, -1.288693644125224e+03, 7.228287277218203e+00, -2.397503541583681e+03, 1.183110371410953e+02, -4.838205830289937e+02, 1.375684143501812e+03
1203, 9.448115375166257e-01, 3.162906547207573e-01, 1.943831355610448e-02, 0.000000000000000e+00, 0.000000000000000e+00, 0.000000000000000e+00, -3.874557311208660e+02, -6.775615697859905e+02, 7.144624970998910e+01, -1.312609547055245e+03, 3.019596327371230e+02, -5.228324282569569e+02, 1.334388346926012e+03
1204, 9.342733166098358e-01, 3.330099146916916e-01, 2.165142850493621e-02, 0.000000000000000e+00, 0.000000000000000e+00, 0.000000000000000e+00, -3.075904621910678e+02, -4.516767518612576e+02, -1.415344100590167e+01, -6.123165284031454e+02, 2.722183034261259e+02, -1.963086970922089e+02, 6.389308832364875e+02
1205, 9.282712884008218e-01, 2.465619149060093e-01, 2.090759351326096e-02, 0.000000000000000e+00, 0.000000000000000e+00, 0.000000000000000e+00, -4.970228474375338e+02, -8.858547802848313e+02, -2.806428875533234e+02, -1.512523049651698e+03, 4.346062369180577e+02, 2.470596022287251e+02, 1.331771903117156e+03
1206, 8.680261879199981e-01, 2.780236745181329e-01, 3.163808416946966e-02, 0.000000000000000e+00, 0.000000000000000e+00, 0.000000000000000e+00, -1.249979755031282e+03, -1.388067793522281e+03, -1.151956229019214e+02, -2.778794537851270e+03, 5.191497507838857e+02, -2.759964791026414e+01, 1.730860080851734e+03
1207, 9.056639974213859e-01, 3.143729977933576e-01, 2.617418151670027e-02, 0.000000000000000e+00, 0.000000000000000e+00, 0.000000000000000e+00, -1.854823163316338e+03, -1.928884861715003e+03, 4.724127926395958e+01, -4.496129359500868e+03, 1.843847250106055e+02, -1.525420559829387e+02, 2.639102037942801e+03
1208, 9.006277474514053e-01, 1.502333761620285e+00, 3.458393304336967e-02, 0.000000000000000e+00, 0.000000000000000e+00, 0.000000000000000e+00, 3.384879912880428e+03, 3.455007679252610e+03, 9.349737720674767e+01, 5.838781290700872e+03, 1.141045321326076e+03, -6.309023117796635e+02, 3.313722225652300e+03
1209, 1.904194283610850e-01, 1.927007466479127e-01, 5.253092116323133e-02, 0.000000000000000e+00, 0.000000000000000e+00, 0.000000000000000e+00, 5.580988260045166e+03, 5.638759440077243e+03, 1.392585198920261e+02, 1.089448803417653e+04, -7.061224126898611e+02, -4.821954991510898e+00, 5.429891836107866e+03
1210, 1.994411754828636e-01, 2.103847947795194e-01, 5.235504218367228e-02, 0.000000000000000e+00, 0.000000000000000e+00, 0.000000000000000e+00, 5.604490969304638e+03, 5.799094701614767e+03, 1.121850637496037e+02, 1.129391383898110e+04, -5.428078930696435e+02, -5.982148044680964e+01, 5.677379131076867e+03
1211, 2.188220947016832e-01, 2.116679762459668e-01, 5.636240944039311e-02, 0.000000000000000e+00, 0.000000000000000e+00, 0.000000000000000e+00, 5.667372496543342e+03, 5.833684523969704e+03, 1.683918351596186e+02, 1.150916486102070e+04, -1.944180519912298e+02, -1.860312671058734e+02, 5.786615837644749e+03
1212, 2.084179619202869e-01, 2.280227695200281e-01, 5.217293927630161e-02, 0.000000000000000e+00, 0.000000000000000e+00, 0.000000000000000e+00, 5.927092615398165e+03, 6.115435769920004e+03, 1.288620394390116e+02, 1.192164751662149e+04, -4.441092260907192e+02, -1.031905094868157e+02, 5.959411746225573e+03
1213, 2.619493663319907e-01, 3.343181534535892e-01, 5.091604172015608e-02, 0.000000000000000e+00, 0.000000000000000e+00, 0.000000000000000e+00, 5.938517143325722e+03, 6.244409176219029e+03, 1.501594044151784e+02, 1.253573253974068e+04, -2.964992646370875e+02, 4.241089355846359e-01, 6.475350555378212e+03
1214, 2.439584500534866e-01, 2.988983900094960e-01, 5.130563252998938e-02, 0.000000000000000e+00, 0.000000000000000e+00, 0.000000000000000e+00, 6.312252979822437e+03, 6.329819396313693e+03, 2.087017310899997e+02, 1.228883920149887e+04, -3.493466969859840e+02, -4.215933921974839e+00, 6.009305795632018e+03
1215, 3.930247094394940e-01, 1.005345088776533e-01, 7.611933527792683e-02, 0.000000000000000e+00, 0.000000000000000e+00, 0.000000000000000e+00, 3.563012386723494e+03, 3.381922410986765e+03, -3.945305137938488e+01, 6.561926597704480e+03, 7.589558134614393e+02, -6.939688724988703e+02, 3.570272135843619e+03
1216, 3.732664390454279e-01, 9.957054334746182e-02, 7.625922532485613e-02, 0.000000000000000e+00, 0.000000000000000e+00, 0.000000000000000e+00, 3.610607363673860e+03, 3.502361616112149e+03, -1.994067334586633e+01, 6.879839638346670e+03, 7.304503656373524e+02, -7.672343155456176e+02, 3.797537213161225e+03
1217, 3.625474323845889e-01, 1.161855609850456e-01, 7.566345689668066e-02, 0.000000000000000e+00, 0.000000000000000e+00, 0.000000000000000e+00, 3.967252130985867e+03, 3.912933646915984e+03, 1.537465750726498e+01, 7.571458376194927e+03, 7.896937670846738e+02, -6.629303289189679e+02, 4.047099691857118e+03
1218, 3.535082649587293e-01, 9.858320212712871e-02, 7.615657302994155e-02, 0.000000000000000e+00, 0.000000000000000e+00, 0.000000000000000e+00, 3.841050682059419e+03, 3.752844392022695e+03, -2.576320681463753e+01, 7.264922564518146e+03, 7.206100047651057e+02, -7.895528432407598e+02, 3.932263304458867e+03
1219, 7.581058474661079e-01, 1.008525492597890e-01, 4.521722621627790e-02, 0.000000000000000e+00, 0.000000000000000e+00, 0.000000000000000e+00, 3.820348851274537e+02, 2.263052188089507e+02, -2.081229563065639e+01, 2.393078378933028e+02, 4.664165023672544e+02, -4.539923669303049e+01, 8.261426581469718e+02
1220, 7.776862069836383e-01, 1.017801404542414e-01, 4.245545688256464e-02, 0.000000000000000e+00, 0.000000000000000e+00, 0.000000000000000e+00, 3.186843363511239e+01, -7.097927266179556e+01, -2.927888929122211e+01, -2.863924168794036e+02, 4.745163968148643e+02, -4.126331792820131e+01, 8.731050326354996e+02
1221, 9.538356537403758e-01, 3.339703101526790e-01, 1.819580724283326e-02, 0.000000000000000e+00, 0.000000000000000e+00, 0.000000000000000e+00, -5.992289650934717e+02, -8.569382487864136e+02, -2.710543501111680e+01, -1.051567888133094e+03, 3.534877242091213e+02, -1.167558935940545e+02, 7.565799889919717e+02
1222, 9.432999204641124e-01, 3.506914612543245e-01, 2.043265747778489e-02, 0.000000000000000e+00, 0.000000000000000e+00, 0.000000000000000e+00, -2.362978976288767e+03, -2.117339658992731e+03, -1.513781151849153e+02, -3.978581203538046e+03, 1.422898730736743e+03, 4.399400006877631e+02, 3.129005379781397e+03
1223, 9.237227858956711e-01, 3.497319707980899e-01, 2.381370345070735e-02, 0.000000000000000e+00, 0.000000000000000e+00, 0.000000000000000e+00, -4.039803771760270e+02, -5.223867254534548e+02, -1.210664554491662e+02, -6.825627221148115e+02, 2.644899628974733e+02, -8.810353846508482e+01, 5.794523706578691e+02
1224, 9.327537411678970e-01, 3.674135359435997e-01, 2.261803020749258e-02, 0.000000000000000e+00, 0.000000000000000e+00, 0.000000000000000e+00, -6.099010366424686e+02, -6.667396812205626e+02, 1.688731282724877e+01, -1.339831421019516e+03, 5.218539990248594e+02, -3.014529075297868e+01, 1.146785634908275e+03
1225, 9.523259571221858e-01, 3.683740727244714e-01, 1.920312719045005e-02, 0.000000000000000e+00, 0.000000000000000e+00, 0.000000000000000e+00, -3.324625717740133e+03, -3.668590482799021e+03, 9.258772974517782e+01, -6.577074928592851e+03, 1.168508298002996e+03, -1.202693967523373e+03, 4.247279179575623e+03
1226, 9.417830709370651e-01, 3.850972780920260e-01, 2.141212816579309e-02, 0.000000000000000e+00, 0.000000000000000e+00, 0.000000000000000e+00, -1.770137707962181e+03, -1.925288593100252e+03, 8.112490233888308e+01, -3.640568911874225e+03, 5.755764505605247e+02, 5.354244079080519e+02, 2.259653074978383e+03
1227, 9.131633747525363e-01, 3.664554562929903e-01, 2.592386331544838e-02, 0.000000000000000e+00, 0.000000000000000e+00, 0.000000000000000e+00, -1.024289952422580e+03, -1.089949758358910e+03, -6.409777368912548e+01, -1.811008919275952e+03, 1.050241956930510e+02, -2.093031025573205e+01, 7.863282906733281e+02
1228, 1.024551929935406e+00, 9.581166256323413e-01, 1.870090313845514e-02, 0.000000000000000e+00, 0.000000000000000e+00, 0.000000000000000e+00, -2.060015463609798e+03, -2.273598998115511e+03, -5.260622456935988e+01, -4.451182259524823e+03, -4.639854303054951e+02, 3.254670407128912e+02, 2.494898551685643e+03
1229, 1.033585011914248e+00, 9.758103969113534e-01, 1.751910849053851e-02, 0.000000000000000e+00, 0.000000000000000e+00, 0.000000000000000e+00, -2.447012176326939e+03, -2.629078276070242e+03, -4.797210781055664e+01, -4.913133579164979e+03, 1.260883919123950e+02, 6.510467969903374e+02, 2.644256104394212e+03
1230, 9.595911050397906e-01, 1.504985584291588e+00, 3.229636900042892e-02, 0.000000000000000e+00, 0.000000000000000e+00, 0.000000000000000e+00, 2.923151505795018e+03, 2.582172653236643e+03, -1.138832451735535e+02, 4.360533620584094e+03, 1.070500650664231e+03, -6.619632051898731e+02, 2.732006550300237e+03
1231, 9.056725118148308e-01, 9.066239023623446e-02, 2.163315978747040e-02, 0.000000000000000e+00, 0.000000000000000e+00, 0.000000000000000e+00, -1.422875351367659e+03, -1.731021923906848e+03, -4.389723641198825e+01, -3.331171304741050e+03, 2.959732662741432e+02, -5.953245897404179e+02, 2.116678630542688e+03
1232, 1.069406961842378e+00, 1.270570191772471e+00, 1.720129814613701e-02, 0.000000000000000e+00, 0.000000000000000e+00, 0.000000000000000e+00, -1.453309859467671e+03, -1.556366594805638e+03, -3.658129581785347e+01, -2.864207925997308e+03, -4.962708287553368e+01, -2.039733941064608e+02, 1.411407116458489e+03
1233, 1.058836451777840e+00, 1.287263450600446e+00, 1.918123672577311e-02, 0.000000000000000e+00, 0.000000000000000e+00, 0.000000000000000e+00, -1.025748629593203e+03, -1.125099291480620e+03, -4.386310806084302e+01, -2.055516485390878e+03, 2.646394851733575e+02, -1.097419211935868e+02, 1.104530773077071e+03
1234, 2.734640039194445e-01, 9.502347247339063e-02, 7.294799444269597e-02, 0.000000000000000e+00, 0.000000000000000e+00, 0.000000000000000e+00, 4.318233459598253e+03, 4.218850652315067e+03, 7.375518100250800e+01, 8.576270641945806e+03, 5.688617286122460e+02, -9.629119518292199e+02, 4.725744601359199e+03
1235, 2.536551823902280e-01, 9.394993806760399e-02, 7.138815235283638e-02, 0.000000000000000e+00, 0.000000000000000e+00, 0.000000000000000e+00, 4.602797166703446e+03, 4.532128514340018e+03, 1.118527659591083e+02, 9.143102543293086e+03, 5.045021708957178e+02, -9.226915499676938e+02, 4.929036799174521e+03
1236, 1.078421431672494e+00, 1.288225294473239e+00, 1.605313631659680e-02, 0.000000000000000e+00, 0.000000000000000e+00, 0.000000000000000e+00, -1.277504089165534e+03, -1.291276470756872e+03, -5.100659446079217e+01, -2.369902135506313e+03, 1.973478731088883e+02, -1.301790558318588e+02, 1.163598545130193e+03
1237, 1.067857835800964e+00, 1.304916543263226e+00, 1.806949079166746e-02, 0.000000000000000e+00, 0.000000000000000e+00, 0.000000000000000e+00, -4.861332788744561e+02, -6.058463025815054e+02, -3.368176537582287e+00, -1.155309221050366e+03, 3.900701683569284e+02, -1.591706294538279e+02, 9.563067941879137e+02
1238, 8.415742832879820e-01, 1.499191479581550e+00, 3.222729628615963e-02, 0.000000000000000e+00, 0.000000000000000e+00, 0.000000000000000e+00, 5.220244096897274e+03, 5.949051511835312e+03, 3.744051773038082e+02, 1.141715748976015e+04, 5.320110008006999e+02, -1.362146984929639e+03, 6.422812270899562e+03
1239, 9.613513349634553e-01, 3.860586656087388e-01, 1.796243910220319e-02, 0.000000000000000e+00, 0.000000000000000e+00, 0.000000000000000e+00, -4.071938642590343e+03, -4.058506068729463e+03, 6.695321067543730e+01, -8.070454311846826e+03, 1.049436262562801e+03, 1.210428948837968e+03, 4.873892763874774e+03
1240, 9.508115155401706e-01, 4.027831322066609e-01, 2.019554266697022e-02, 0.000000000000000e+00, 0.000000000000000e+00, 0.000000000000000e+00, -3.323281319931129e+03, -3.226855670839130e+03, 2.683443122873553e+02, -6.489177605531368e+03, 6.127141937094948e+02, -9.888158301955420e+02, 3.822698405412491e+03
1241, 9.312285994387596e-01, 4.018228189928712e-01, 2.356886201641316e-02, 0.000000000000000e+00, 0.000000000000000e+00, 0.000000000000000e+00, -2.238739474387201e+03, -2.468425696201390e+03, -2.984976770823717e+01, -5.521762136537363e+03, 4.356464050202891e+02, -9.551263126827565e+02, 3.658655997130377e+03
1242, 9.402606313343025e-01, 4.194912647107187e-01, 2.237565886668235e-02, 0.000000000000000e+00, 0.000000000000000e+00, 0.000000000000000e+00, -7.203006555469246e+02, -1.189684971172945e+03, 6.624971815234569e+01, -1.882800254325989e+03, 2.691784805896642e+02, -3.334759843166137e+02, 1.261041160858772e+03
1243, 9.598390526055002e-01, 4.204698521700479e-01, 1.896805591801258e-02, 0.000000000000000e+00, 0.000000000000000e+00, 0.000000000000000e+00, -7.218509820280034e+02, -1.179142106272958e+03, 1.232345229834037e+02, -1.642881347551833e+03, 9.803785387658634e+01, -4.367105023454384e+02, 1.132596922623171e+03
1244, 9.492925914081412e-01, 4.371772130044217e-01, 2.117209454106684e-02, 0.000000000000000e+00, 0.000000000000000e+00, 0.000000000000000e+00, -7.415826541839583e+02, -8.668211276993823e+02, -6.650665759063023e+01, -1.286051475775051e+03, 2.594774750304003e+02, 1.428588612819772e+02, 7.214038939712580e+02
1245, 9.688655189578362e-01, 4.381581421597898e-01, 1.772928114900591e-02, 0.000000000000000e+00, 0.000000000000000e+00, 0.000000000000000e+00, -2.130189399563156e+03, -2.761014570051840e+03, -2.188890519420560e+02, -4.499761317252465e+03, 3.496149679654936e+02, 1.214477112846030e+03, 3.074625011509470e+03
1246, 9.583223535974135e-01, 4.548851639102228e-01, 1.995827162468857e-02, 0.000000000000000e+00, 0.000000000000000e+00, 0.000000000000000e+00, -3.712392588495526e+03, -3.425922867900944e+03, 1.389498630535355e+01, -6.602942853182901e+03, 1.882034221774087e+03, 5.924731240407861e+01, 4.461240773595655e+03
1247, 9.463180108695612e-01, 2.818984910277638e-01, 1.842961513622788e-02, 0.000000000000000e+00, 0.000000000000000e+00, 0.000000000000000e+00, -3.278867474801630e+03, -3.709946998433272e+03, -1.347426362688217e+02, -6.365655989802040e+03, 1.226828507534533e+03, 9.454103168176667e+02, 3.954065612209162e+03
1248, 1.090778167825857e+00, 1.425703116414268e+00, 1.656611198103809e-02, 0.000000000000000e+00, 0.000000000000000e+00, 0.000000000000000e+00, -3.116103233108891e+03, -2.757991681424928e+03, 1.480805354586529e+02, -6.598045159158662e+03, 3.226089995984095e+02, -1.842486139402762e+03, 4.905238612170515e+03
1249, 1.081856682349705e+00, 1.408223167303095e+00, 1.766271524262442e-02, 0.000000000000000e+00, 0.000000000000000e+00, 0.000000000000000e+00, -1.995053487894789e+03, -2.110097025571928e+03, -1.410644033962706e+02, -3.631172552244892e+03, 7.006023810466628e+02, 7.824420000763549e+02, 2.422967337835807e+03
1250, 2.647365110460906e-01, 2.660866599485245e-01, 5.894159126169465e-02, 0.000000000000000e+00, 0.000000000000000e+00, 0.000000000000000e+00, 5.651091873710098e+03, 5.777151488012907e+03, 1.937029497295983e+02, 1.134493076687148e+04, 3.149037923138777e+02, -3.592667210697837e+02, 5.702210330819854e+03
1251, 1.048258306671134e+00, 1.303954863926307e+00, 2.106929599561418e-02, 0.000000000000000e+00, 0.000000000000000e+00, 0.000000000000000e+00, -5.573089063942795e+02, -6.583265905418809e+02, -4.695739551168916e+01, -1.159787285597979e+03, 1.797711343963425e+02, -2.774674773015832e+02, 8.042738187015565e+02
1252, 1.057280980321649e+00, 1.321598562007690e+00, 1.999427107675708e-02, 0.000000000000000e+00, 0.000000000000000e+00, 0.000000000000000e+00, -2.598209278962723e+02, -2.257352620019061e+02, -1.565505840179259e+01, -5.293373501709153e+02, 3.802433808078328e+02, -1.672722708019932e+01, 7.199425741685682e+02
1253, 1.076865033243894e+00, 1.322562193059464e+00, 1.694466897958048e-02, 0.000000000000000e+00, 0.000000000000000e+00, 0.000000000000000e+00, -1.957901010991699e+03, -1.996203931209792e+03, 1.003994673567472e+02, -4.228875816624213e+03, 1.126739860451663e+03, 4.082569019956918e+02, 3.067686116167566e+03
1254, 2.935871993010087e-01, 2.847587771878001e-01, 6.156318970521445e-02, 0.000000000000000e+00, 0.000000000000000e+00, 0.000000000000000e+00, 5.678453289523746e+03, 5.819810328492792e+03, 1.657421652165391e+02, 1.137110207156550e+04, 5.438480216925901e+02, -4.053997714994076e+02, 5.751895889592534e+03
1255, 4.106591850253335e-01, 3.252104495493198e-01, 6.871659865004928e-02, 0.000000000000000e+00, 0.000000000000000e+00, 0.000000000000000e+00, 4.483435910484044e+03, 4.505973786790384e+03, 5.848812417649167e+01, 8.550552000723736e+03, 1.051478382171931e+03, -3.623347136508895e+02, 4.491238066354624e+03
1256, 1.056027963254378e+00, 1.132115111389089e+00, 1.679139783669731e-02, 0.000000000000000e+00, 0.000000000000000e+00, 0.000000000000000e+00, -1.613854785053849e+03, -1.654546722888992e+03, 8.326803815823837e+01, -3.413688043146357e+03, 3.093574947569675e+02, -7.677476666182031e+02, 2.289985415609654e+03
1257, 1.030193834349516e+00, 1.268649035814905e+00, 2.318090700501491e-02, 0.000000000000000e+00, 0.000000000000000e+00, 0.000000000000000e+00, -5.791157594926861e+01, -6.632774813668581e+01, -6.620084686231812e+01, -3.174574865397102e+02, 5.547619032702647e+02, 1.253722047808847e+01, 1.001075441019503e+03
1258, 7.867003525540305e-01, 1.193875522121850e-01, 4.141056879224814e-02, 0.000000000000000e+00, 0.000000000000000e+00, 0.000000000000000e+00, -4.697652637118558e+01, -2.071582598950985e+02, -3.097633987295628e+01, -5.598682964515110e+02, 4.868859307926747e+02, -3.077243792754016e+01, 9.609648387139748e+02
1259, 7.972522658828003e-01, 1.027210322468337e-01, 3.959892081324370e-02, 0.000000000000000e+00, 0.000000000000000e+00, 0.000000000000000e+00, -1.529380489370606e+02, -3.206096856329808e+02, -2.389339910668830e+01, -7.099575598013189e+02, 4.373597747733110e+02, -4.989951427338100e+01, 9.099568264943297e+02
1260, 7.882378953517523e-01, 8.514236645427803e-02, 4.066348213524779e-02, 0.000000000000000e+00, 0.000000000000000e+00, 0.000000000000000e+00, -1.824318410533304e+01, -1.370749482022218e+02, -1.905276778640957e+01, -4.881412493371117e+02, 4.427236963577472e+02, -4.524960393730689e+01, 8.799606705019029e+02
1261, 8.077916259506774e-01, 8.608371826947767e-02, 3.773879527031591e-02, 0.000000000000000e+00, 0.000000000000000e+00, 0.000000000000000e+00, -2.127121823396877e+02, -2.860183645558164e+02, -2.187517691271517e+01, -8.482840627287828e+02, 3.772666691938907e+02, -3.261470615888982e+01, 8.912638272360892e+02
1262, 1.012114185691719e+00, 1.233337081205329e+00, 2.524311765102738e-02, 0.000000000000000e+00, 0.000000000000000e+00, 0.000000000000000e+00, 6.500077159938692e+01, -3.921048510803918e+01, -2.425713084486125e+01, -1.913136536850730e+02, 3.772705710826295e+02, -1.354732130470941e+02, 7.305269832304166e+02
1263, 8.537369794719547e-01, 8.118550783343276e-01, 4.082379760352724e-02, 0.000000000000000e+00, 0.000000000000000e+00, 0.000000000000000e+00, 8.577762612680388e+02, 7.191520237536687e+02, -3.626710826829691e+01, 1.226215119857593e+03, 5.505419896121465e+02, -1.543910699421958e+02, 1.091230310899711e+03
1264, 8.628069801037230e-01, 8.295732352492110e-01, 3.991039130533226e-02, 0.000000000000000e+00, 0.000000000000000e+00, 0.000000000000000e+00, 7.660502451107992e+02, 6.538278491104044e+02, -2.354734150919202e+01, 1.012219252303099e+03, 5.130110743330018e+02, -1.775252723962012e+02, 9.932617520742757e+02
1265, 9.778906168629925e-01, 4.558480895841775e-01, 1.647892128636561e-02, 0.000000000000000e+00, 0.000000000000000e+00, 0.000000000000000e+00, -3.533432750809732e+03, -4.258528244262829e+03, -7.100614649034524e+01, -8.480357559161634e+03, -1.464368374981487e+03, -3.556668079775566e+02, 5.313998693589698e+03
1266, 9.673511070594931e-01, 4.725757799986273e-01, 1.873297310906125e-02, 0.000000000000000e+00, 0.000000000000000e+00, 0.000000000000000e+00, -2.903521817259209e+03, -3.060102967205051e+03, 1.781532558163504e+02, -5.656496746388421e+03, 4.872398381469795e+02, -9.351544387514141e+02, 3.256269312727838e+03
1267, 9.206651209261567e-01, 4.185496493901570e-01, 2.567218307329322e-02, 0.000000000000000e+00, 0.000000000000000e+00, 0.000000000000000e+00, -9.894251559945584e+02, -1.147805954590769e+03, 9.572689729377086e+01, -2.118073378609176e+03, 4.361749110753995e+02, -2.916417996147283e+02, 1.404840373331482e+03
1268, 9.477690625665260e-01, 4.715938653909360e-01, 2.213274106646761e-02, 0.000000000000000e+00, 0.000000000000000e+00, 0.000000000000000e+00, -8.211003161675832e+02, -1.080622578171489e+03, 1.526090831520019e+01, -1.748695835861301e+03, 4.267006185309410e+02, 7.823856074211328e+01, 1.119078335876783e+03
1269, 9.568012305675415e-01, 4.893040899852483e-01, 2.093250724164167e-02, 0.000000000000000e+00, 0.000000000000000e+00, 0.000000000000000e+00, -8.234317200414930e+02, -9.048894211928649e+02, 1.905741691587255e+01, -2.408081414863383e+03, 2.180156742307934e+02, 3.602838981173802e+01, 1.592559036196863e+03
1270, 9.763781344998030e-01, 4.902668244083863e-01, 1.749627914448041e-02, 0.000000000000000e+00, 0.000000000000000e+00, 0.000000000000000e+00, -2.267358327961751e+03, -2.069923801093902e+03, 1.489955063642422e+02, -3.977832410452035e+03, 7.462389748965791e+02, -5.189907592817964e+02, 2.418197603762084e+03
1271, 9.658322374778160e-01, 5.069953354940527e-01, 1.972079530406521e-02, 0.000000000000000e+00, 0.000000000000000e+00, 0.000000000000000e+00, -7.460880988695161e+02, -8.991427234753771e+02, -8.164190786679198e+01, -1.492477204953210e+03, 2.649403418363821e+02, -4.303353580048947e+01, 8.381026933020288e+02
1272, 9.462409973997009e-01, 5.060339239688972e-01, 2.307683865398198e-02, 0.000000000000000e+00, 0.000000000000000e+00, 0.000000000000000e+00, -2.020804365564998e+03, -2.121517365953487e+03, 7.993078142872338e+01, -5.315425608493748e+03, -2.758919830884606e+02, -2.821849914553661e+02, 3.319527392408518e+03
1273, 9.552761763569217e-01, 5.237243637014782e-01, 2.188976796287834e-02, 0.000000000000000e+00, 0.000000000000000e+00, 0.000000000000000e+00, -1.073034930286707e+03, -1.188113977370078e+03, -1.873260379334853e+02, -2.216859956951527e+03, 5.803391483458368e+00, -1.951487326514538e+02, 1.187253907002122e+03
1274, 9.748612465504343e-01, 5.246867895916283e-01, 1.849789550577228e-02, 0.000000000000000e+00, 0.000000000000000e+00, 0.000000000000000e+00, -3.067762550326256e+03, -3.119797178387924e+03, -1.137369665892589e+02, -6.042545509784679e+03, 8.221106277214609e+02, 1.118881438637754e+03, 3.810425501183679e+03
1275, 9.643092628206795e-01, 5.414158089231654e-01, 2.069199855935777e-02, 0.000000000000000e+00, 0.000000000000000e+00, 0.000000000000000e+00, -2.227069512459113e+03, -2.206909674011127e+03, -2.763831400268668e+01, -4.224933162088300e+03, 9.814097817477385e+02, -2.961472420568877e+02, 2.680865320242776e+03
1276, 9.838885411092734e-01, 5.423790246905457e-01, 1.726340045342821e-02, 0.000000000000000e+00, 0.000000000000000e+00, 0.000000000000000e+00, -2.807373132021537e+03, -2.929545649399752e+03, 1.481255015152944e+02, -5.923195454442046e+03, -2.626876257752428e+02, -1.453885285740161e+03, 3.994595366635041e+03
1277, 9.733407044843922e-01, 5.591080565588258e-01, 1.948303727200263e-02, 0.000000000000000e+00, 0.000000000000000e+00, 0.000000000000000e+00, -1.964952868477655e+03, -2.206632207919326e+03, -1.302163445387182e+02, -4.491753441132776e+03, -6.234640327809894e+02, 6.288103983171843e+02, 2.869782776543935e+03
1278, 1.077127977847472e+00, 1.510759175253518e+00, 1.995925042494132e-02, 0.000000000000000e+00, 0.000000000000000e+00, 0.000000000000000e+00, 6.046745676395417e+02, 4.932773292018977e+02, -2.973924618127245e+01, 8.848243473851327e+02, 4.280908601005261e+02, 6.655738852798214e+00, 8.213846078480867e+02
1279, 1.057601342358660e+00, 1.509867257624232e+00, 2.259024316447483e-02, 0.000000000000000e+00, 0.000000000000000e+00, 0.000000000000000e+00, 7.175411309730572e+02, 6.348888383316009e+02, -7.649874200088487e+01, 9.875427702785699e+02, 7.769041844355689e+01, -4.447249927787630e+01, 3.790059718858348e+02
1280, 1.096636775081311e+00, 1.511790117836971e+00, 1.711816235805946e-02, 0.000000000000000e+00, 0.000000000000000e+00, 0.000000000000000e+00, 3.569913199561253e+02, 3.297852394633601e+02, -2.179111595485654e+01, 5.281478159403500e+02, 1.710402224339718e+02, 1.780297270283184e+01, 3.533141422666494e+02
1281, 1.066275622432930e+00, 1.339183286134646e+00, 1.890819775101327e-02, 0.000000000000000e+00, 0.000000000000000e+00, 0.000000000000000e+00, -8.078279610437537e+02, -9.050667334730510e+02, 3.519367796129203e+01, -1.716072778371198e+03, 6.786652830308288e+02, -1.929229312617140e+02, 1.497725165797330e+03
1282, 1.107172894147153e+00, 1.495199922952267e+00, 1.519120657766765e-02, 0.000000000000000e+00, 0.000000000000000e+00, 0.000000000000000e+00, 2.568858107892262e+02, 2.071262223840635e+02, -2.288591017988348e+01, 4.289543057067618e+02, 3.056052900881056e+02, -1.532698913481071e+02, 6.267979694378420e+02
1283, 1.065052083577484e+00, 1.149797983888736e+00, 1.561005517030968e-02, 0.000000000000000e+00, 0.000000000000000e+00, 0.000000000000000e+00, -7.642085097581114e+02, -6.825571244273715e+02, -7.610424935128042e+01, -1.084538943906398e+03, 4.011453233553872e+02, -6.691870915649922e+01, 8.056032410827554e+02
1284, 9.253439808386892e-01, 9.137352071585988e-02, 1.808970295485249e-02, 0.000000000000000e+00, 0.000000000000000e+00, 0.000000000000000e+00, -8.801591437329504e+02, -9.929499157291594e+02, 6.987797961356620e+00, -1.789950722060643e+03, 3.418248000509060e+02, -7.440988027525040e+01, 1.051244947843540e+03
1285, 1.085869475878917e+00, 1.340166467026805e+00, 1.580371224175715e-02, 0.000000000000000e+00, 0.000000000000000e+00, 0.000000000000000e+00, -1.377548738386303e+03, -1.286811241109161e+03, -1.018111901669174e+01, -2.241155237857111e+03, 1.784784073654117e+02, -5.131341586271343e+02, 1.310803401439325e+03
1286, 1.892087889794072e-01, 2.266712854059013e-01, 4.752190042410402e-02, 0.000000000000000e+00, 0.000000000000000e+00, 0.000000000000000e+00, 5.791213111587539e+03, 5.955170063332544e+03, 1.457866283595556e+02, 1.148093979971110e+04, -8.194917162085776e+02, 6.438776079500185e+01, 5.792918091650654e+03
1287, 1.981395259785406e-01, 2.442994259170907e-01, 4.736050601424407e-02, 0.000000000000000e+00, 0.000000000000000e+00, 0.000000000000000e+00, 6.379544831832434e+03, 6.300921992791276e+03, 9.936067295784875e+01, 1.225824125053146e+04, -6.347572547310759e+02, 4.630816622569332e+01, 6.022645118418780e+03
1288, 3.839841502085981e-01, 8.294118663491853e-02, 7.666989951842636e-02, 0.000000000000000e+00, 0.000000000000000e+00, 0.000000000000000e+00, 3.327923599266806e+03, 3.252454052571687e+03, -3.161190184578608e+01, 6.214845734472832e+03, 6.704753643122380e+02, -8.157589999770449e+02, 3.450490920101579e+03
1289, 9.342640169081025e-01, 1.090484313257664e-01, 1.683677154816532e-02, 0.000000000000000e+00, 0.000000000000000e+00, 0.000000000000000e+00, -1.925817061406547e+03, -2.180776538575221e+03, -1.084755856170666e+01, -4.110178209284762e+03, -2.412394109313509e+02, 7.055014496846692e+02, 2.438781178869608e+03
1290, 4.884659834998013e-01, 1.737703568269909e-01, 7.175785433833606e-02, 0.000000000000000e+00, 0.000000000000000e+00, 0.000000000000000e+00, 3.148348267709945e+03, 3.058043715197360e+03, -3.152204512043230e+01, 5.626851131220794e+03, 8.635719990525387e+02, -3.519883563339199e+02, 2.997814131703125e+03
1291, 6.014514409836319e-01, 2.824102385313058e-01, 6.375027462733210e-02, 0.000000000000000e+00, 0.000000000000000e+00, 0.000000000000000e+00, 2.227889341901914e+03, 2.089133948637392e+03, -1.718507888795565e+01, 3.715863369995985e+03, 8.511191015468789e+02, -1.910824651899400e+02, 2.173342787102468e+03
1292, 5.925369404884664e-01, 2.647732732122272e-01, 6.449435116042948e-02, 0.000000000000000e+00, 0.000000000000000e+00, 0.000000000000000e+00, 2.299473479050040e+03, 2.144924276503448e+03, -2.643813399897987e+01, 3.878386161068303e+03, 8.499673545009178e+02, -1.918417408773839e+02, 2.245152691001444e+03
1293, 6.032327326602434e-01, 2.480865630333760e-01, 6.367461995256929e-02, 0.000000000000000e+00, 0.000000000000000e+00, 0.000000000000000e+00, 2.233394228660190e+03, 2.113203215433395e+03, -1.669157681838487e+01, 3.806567287690560e+03, 7.929077528605808e+02, -2.124734740628428e+02, 2.168128107067411e+03
1294, 5.834887130442366e-01, 2.471041194714464e-01, 6.524439328364989e-02, 0.000000000000000e+00, 0.000000000000000e+00, 0.000000000000000e+00, 2.431089742312488e+03, 2.299818311443152e+03, -5.618902341597681e+01, 4.187608193590995e+03, 8.521285724771694e+02, -2.346385030103406e+02, 2.384570519219364e+03
1295, 9.437568926285196e-01, 1.212807478313734e+00, 3.353369746340006e-02, 0.000000000000000e+00, 0.000000000000000e+00, 0.000000000000000e+00, 9.551445638811133e+02, 8.871610281818920e+02, 2.734122672130346e+01, 1.424771610789846e+03, 5.751313280854999e+02, -9.077504748356185e+01, 1.129774013169095e+03
1296, 6.960883397165000e-01, 1.664681272911663e-01, 5.394840295357062e-02, 0.000000000000000e+00, 0.000000000000000e+00, 0.000000000000000e+00, 1.130737013700425e+03, 9.631897208477870e+02, -1.908874432453735e+01, 1.640270032973579e+03, 6.415099909938751e+02, -9.281649246532091e+01, 1.278518643198196e+03
1297, 6.533754329858792e-01, 2.332893183637490e-01, 5.905140366402022e-02, 0.000000000000000e+00, 0.000000000000000e+00, 0.000000000000000e+00, 1.587703825352995e+03, 1.460279018534373e+03, -2.392599856655624e+01, 2.541534443116037e+03, 6.903590892285434e+02, -1.443324253440565e+02, 1.594230703023197e+03
1298, 7.408079861615166e-01, 8.927082933157924e-01, 5.061810674575473e-02, 0.000000000000000e+00, 0.000000000000000e+00, 0.000000000000000e+00, 2.638617184945633e+03, 2.538667511278636e+03, 5.822422024213930e+00, 4.539596974368494e+03, 8.537871536448228e+02, -2.788388016590916e+02, 2.496783701399502e+03
1299, 7.498941334652802e-01, 9.103868616174056e-01, 4.994003231935575e-02, 0.000000000000000e+00, 0.000000000000000e+00, 0.000000000000000e+00, 2.509232137487149e+03, 2.413934741959126e+03, 1.890214308628853e+01, 4.374258909299039e+03, 7.559194471901149e+02, -3.599822752402189e+02, 2.401918996872080e+03
1300, 7.317215392589224e-01, 8.750298123578003e-01, 5.129063834552665e-02, 0.000000000000000e+00, 0.000000000000000e+00, 0.000000000000000e+00, 2.900676308914483e+03, 2.760097921542723e+03, -8.659296463308744e+00, 5.011182746915599e+03, 9.227880380947877e+02, -2.745324392809981e+02, 2.748023602533836e+03
1301, 9.502717697477947e-01, 1.075230277749863e+00, 3.155880646017555e-02, 0.000000000000000e+00, 0.000000000000000e+00, 0.000000000000000e+00, 3.557136338429023e+02, 2.404837774592101e+02, -3.365003133387474e+01, 2.659799175208044e+02, 5.004422173946837e+02, -2.002754834161540e+02, 9.412996743090741e+02
1302, 1.010865996514429e+00, 1.043681824155468e+00, 2.249010490895929e-02, 0.000000000000000e+00, 0.000000000000000e+00, 0.000000000000000e+00, -6.470678834251846e+02, -7.828004627614133e+02, -2.152569347404044e+01, -1.600444714830540e+03, 1.033326194345866e+02, -1.358663687183521e+02, 9.416731847887141e+02
1303, 1.030492575185517e+00, 1.044643664446615e+00, 1.936490351375424e-02, 0.000000000000000e+00, 0.000000000000000e+00, 0.000000000000000e+00, -4.750490378533597e+02, -7.356083995540574e+02, 1.640080849152103e+01, -1.183743681114998e+03, 3.693382503636513e+02, 1.284341308007722e+01, 8.921974576011035e+02
1304, 1.070957345192592e+00, 1.236217666192863e+00, 1.630168719371388e-02, 0.000000000000000e+00, 0.000000000000000e+00, 0.000000000000000e+00, -1.039963986158977e+02, -1.201978203486495e+02, 1.682495181167804e+01, -2.158421091535819e+02, 2.698557767796139e+02, -7.482145656913463e+00, 4.800453049574568e+02
1305, 7.986239770742356e-01, 2.918768274501970e-01, 4.217127316933846e-02, 0.000000000000000e+00, 0.000000000000000e+00, 0.000000000000000e+00, 7.630515174433221e+01, -6.316991712856925e+01, -9.916056214607146e+00, -2.595539611158618e+02, 5.627655865047033e+02, -7.885763428088634e+01, 1.026877084006750e+03
1306, 9.447050264085203e-01, 1.401683221485757e+00, 3.384848655397989e-02, 0.000000000000000e+00, 0.000000000000000e+00, 0.000000000000000e+00, 1.699054038212591e+03, 1.661928072816793e+03, 5.437519616369592e+01, 2.930986074102739e+03, 5.289453070951226e+02, -2.832076997997682e+02, 1.628990714442061e+03
1307, 7.196377704850485e-01, 1.149859102308619e+00, 4.377208536387887e-02, 0.000000000000000e+00, 0.000000000000000e+00, 0.000000000000000e+00, 4.864557178549437e+03, 5.130093472619628e+03, 3.690530445072501e+01, 1.018532750561427e+04, 8.330078146661571e+02, -6.089792455118288e+02, 5.492413676095569e+03
1308, 6.998118822685023e-01, 1.148678189419713e+00, 4.243222128017288e-02, 0.000000000000000e+00, 0.000000000000000e+00, 0.000000000000000e+00, 5.913512619886932e+03, 6.099097045711986e+03, -4.351587709917264e+01, 1.207989920561446e+04, 4.558303323130700e+02, -7.877091117193077e+02, 6.277329168852589e+03
1309, 6.891408568763616e-01, 1.165256911950820e+00, 4.021180322410208e-02, 0.000000000000000e+00, 0.000000000000000e+00, 0.000000000000000e+00, 6.285954239842195e+03, 6.178419564080716e+03, 7.967370948483230e+01, 1.298109296412054e+04, -4.249357497076466e+02, -2.487442044740655e+02, 6.804614737630806e+03
1310, 6.800727418150916e-01, 1.147572342158534e+00, 4.051329674745228e-02, 0.000000000000000e+00, 0.000000000000000e+00, 0.000000000000000e+00, 5.163104537961825e+03, 5.510823720128155e+03, 2.996693958288809e+02, 1.051692459102872e+04, -6.755078120846961e+02, -6.355332707916484e+02, 5.456438135611048e+03
1311, 7.394620359771410e-01, 1.150694707859977e+00, 4.460989395317577e-02, 0.000000000000000e+00, 0.000000000000000e+00, 0.000000000000000e+00, 4.442703510511667e+03, 4.465377815897423e+03, -2.671590796639496e+01, 8.647647536102846e+03, 1.068279704167820e+03, -4.821738665378615e+02, 4.659399629614923e+03
1312, 6.694585442667297e-01, 1.164136426063755e+00, 3.767782718722819e-02, 0.000000000000000e+00, 0.000000000000000e+00, 0.000000000000000e+00, 5.400191016901143e+03, 5.639975891712328e+03, 2.502627856829026e+02, 1.063888155811515e+04, -8.580082406550753e+02, -4.427324865804053e+02, 5.406448149201481e+03
1313, 6.603969999267076e-01, 1.146447356166031e+00, 3.792920006667282e-02, 0.000000000000000e+00, 0.000000000000000e+00, 0.000000000000000e+00, 4.549473363509016e+03, 4.423952437812731e+03, -3.530084597287729e+00, 8.207058451275065e+03, -5.979987962767444e+02, 1.802533731113418e+01, 3.863496790079964e+03
1314, 6.494600056941999e-01, 1.162664406724847e+00, 3.431114741988184e-02, 0.000000000000000e+00, 0.000000000000000e+00, 0.000000000000000e+00, 3.814981025972492e+03, 3.620292291505078e+03, -2.821689814390818e+01, 6.617168437245816e+03, -5.672935684680169e+02, -3.848106694105992e+00, 3.066530823967378e+03
1315, 6.402907390087295e-01, 1.144935377258094e+00, 3.449049824731214e-02, 0.000000000000000e+00, 0.000000000000000e+00, 0.000000000000000e+00, 5.173157407280776e+03, 5.376847396567840e+03, 4.669842739548356e+01, 8.797620331507906e+03, -1.461912894408436e+02, 5.520422547904988e+02, 3.663995653454975e+03
1316, 6.513359430335250e-01, 1.128757853215560e+00, 3.817748717134871e-02, 0.000000000000000e+00, 0.000000000000000e+00, 0.000000000000000e+00, 5.378669143587825e+03, 5.688390002779404e+03, 3.088664628485926e+02, 1.015237475456902e+04, 1.594011771683950e+02, 7.665124478339787e+02, 4.850847528740731e+03
1317, 6.587964960814621e-01, 1.180504197315586e+00, 3.414847126150819e-02, 0.000000000000000e+00, 0.000000000000000e+00, 0.000000000000000e+00, 5.762006124077728e+03, 5.820966810851116e+03, -3.616005343846502e+01, 1.032941241276734e+04, -6.052627923307163e+02, -6.220028346067162e+02, 4.781107981159003e+03
1318, 8.506146474537087e-01, 1.516829655430112e+00, 3.189012568962511e-02, 0.000000000000000e+00, 0.000000000000000e+00, 0.000000000000000e+00, 9.645419232909560e+03, 9.602134920537441e+03, 3.055105457791759e+02, 1.904267300577848e+04, 1.217925547056097e+03, -1.709255585824860e+03, 1.010998059540297e+04
1319, 8.662758203984620e-01, 1.397798437418184e+00, 3.766069502947705e-02, 0.000000000000000e+00, 0.000000000000000e+00, 0.000000000000000e+00, 4.599467174391464e+03, 4.424150882793010e+03, 8.950325279033959e+01, 8.606794155996371e+03, 1.473802320451553e+03, -7.378738209941062e+02, 4.996562889471777e+03
1320, 6.312621531696910e-01, 1.127308820105374e+00, 3.468377633956174e-02, 0.000000000000000e+00, 0.000000000000000e+00, 0.000000000000000e+00, 5.386043048083129e+03, 6.014384430536169e+03, -1.425441400060592e+02, 1.032238660249156e+04, -4.284505509947267e+02, 8.290269976210367e+02, 4.932962097427815e+03
1321, 6.422166735877726e-01, 1.110969447680424e+00, 3.842269176345910e-02, 0.000000000000000e+00, 0.000000000000000e+00, 0.000000000000000e+00, 7.037387602876409e+03, 7.251292504188064e+03, -6.138957551839637e+01, 1.325533697141546e+04, -1.792838514585200e+02, 8.643215720613032e+02, 6.302974638089703e+03
1322, 6.225944099738620e-01, 1.109754170366597e+00, 3.494174245559101e-02, 0.000000000000000e+00, 0.000000000000000e+00, 0.000000000000000e+00, 6.109687008228017e+03, 6.135445983927373e+03, -1.449575307223004e+02, 1.195027437618457e+04, -6.127333630779913e+02, 8.125452781233447e+02, 6.093663171386248e+03
1323, 6.332148324523034e-01, 1.093375007349552e+00, 3.866489321691338e-02, 0.000000000000000e+00, 0.000000000000000e+00, 0.000000000000000e+00, 6.197215675636822e+03, 6.459821473742574e+03, 1.149011804282660e+02, 1.386617571565537e+04, -4.910598516524506e+02, 3.618157658359358e+02, 7.617332515479310e+03
1324, 6.136489404919149e-01, 1.092117298030763e+00, 3.514990314134611e-02, 0.000000000000000e+00, 0.000000000000000e+00, 0.000000000000000e+00, 6.403138845774503e+03, 6.386439074311012e+03, -6.121843064301294e+01, 1.231845047282275e+04, -1.162000744311935e+03, 3.104743112603998e-01, 6.257152343282422e+03
1325, 6.241544598924986e-01, 1.075682361433799e+00, 3.890386962111671e-02, 0.000000000000000e+00, 0.000000000000000e+00, 0.000000000000000e+00, 6.332173218516004e+03, 6.404351410117928e+03, 4.739783103270845e+01, 1.266380521405276e+04, -7.880945331889156e+02, -1.380183956968139e+02, 6.447087214119238e+03
1326, 6.044021903333466e-01, 1.074839840610383e+00, 3.524845911514715e-02, 0.000000000000000e+00, 0.000000000000000e+00, 0.000000000000000e+00, 6.086672465839289e+03, 5.890013308146125e+03, 6.898596148845078e+01, 1.108127086245715e+04, -9.212211765386782e+02, -7.705609492881482e-02, 5.341080794770576e+03
1327, 6.150944206026606e-01, 1.057989261448252e+00, 3.913968620814501e-02, 0.000000000000000e+00, 0.000000000000000e+00, 0.000000000000000e+00, 6.043867686000849e+03, 6.167277522551540e+03, 1.157140531167203e+02, 1.140045088856988e+04, -7.645636878765304e+02, 3.980520925368215e+01, 5.463126762677054e+03
1328, 5.953163813580461e-01, 1.057711486273069e+00, 3.535907366261807e-02, 0.000000000000000e+00, 0.000000000000000e+00, 0.000000000000000e+00, 4.845883973559782e+03, 5.015809030511351e+03, 1.851126872993986e+02, 8.753642170602328e+03, -9.207852490628991e+02, 5.174064425126834e+02, 4.252633001245437e+03
1329, 6.060348246623379e-01, 1.040295699422506e+00, 3.937236334668512e-02, 0.000000000000000e+00, 0.000000000000000e+00, 0.000000000000000e+00, 6.053273468188672e+03, 6.578719343029439e+03, 7.403650314454059e+01, 1.163387627268065e+04, -6.959015978594008e+02, 4.197064008490631e+02, 5.521291335185110e+03
1330, 5.863552852510917e-01, 1.039870018048972e+00, 3.558083433391444e-02, 0.000000000000000e+00, 0.000000000000000e+00, 0.000000000000000e+00, 6.125028613221116e+03, 6.127054894925188e+03, -6.681645739831268e+01, 1.093194075521455e+04, -1.025351049197876e+03, 6.500831005940980e+02, 5.247086814679216e+03
1331, 5.968296706552362e-01, 1.022608704144551e+00, 3.957570467535883e-02, 0.000000000000000e+00, 0.000000000000000e+00, 0.000000000000000e+00, 5.949652072760980e+03, 5.683023709204685e+03, 2.144395536239357e+02, 1.165320253813322e+04, -5.122435980923690e+02, 1.983624935581097e+02, 5.930049193449445e+03
1332, 5.773690910500061e-01, 1.021524472493467e+00, 3.585773268788445e-02, 0.000000000000000e+00, 0.000000000000000e+00, 0.000000000000000e+00, 5.537692135839690e+03, 5.201514009628499e+03, 1.835311006429731e+02, 1.081624998611903e+04, -7.125122186015162e+02, 5.078637361091159e+02, 5.669971172901674e+03
1333, 5.877609045452005e-01, 1.004829152533230e+00, 3.980945818922221e-02, 0.000000000000000e+00, 0.000000000000000e+00, 0.000000000000000e+00, 5.653173894135733e+03, 6.023182550023009e+03, 1.601947093463689e+02, 1.128720780352927e+04, -3.584885770806786e+02, -2.103401178637645e+02, 5.512700000320918e+03
1334, 5.683425390351055e-01, 1.003649349333754e+00, 3.606598927876244e-02, 0.000000000000000e+00, 0.000000000000000e+00, 0.000000000000000e+00, 5.613750768486763e+03, 5.752770951587456e+03, 2.415259397924789e+00, 1.057957169645297e+04, -6.912411202296123e+02, -6.085530021487818e+01, 5.043106703937646e+03
1335, 5.787837991016080e-01, 9.871306735465057e-01, 4.004882683891376e-02, 0.000000000000000e+00, 0.000000000000000e+00, 0.000000000000000e+00, 4.807784896556894e+03, 4.984184933325886e+03, 1.044333675818221e+02, 9.624609563737502e+03, -3.222672765561090e+02, 1.137014966802879e+02, 4.771404454391114e+03
1336, 5.589593127167977e-01, 9.857076103902158e-01, 3.619955733301489e-02, 0.000000000000000e+00, 0.000000000000000e+00, 0.000000000000000e+00, 5.858338768657685e+03, 5.932232974789390e+03, 2.549256972998387e+01, 1.067748863177604e+04, -5.866073674896857e+02, 4.467342977093590e+02, 4.950408803916309e+03
1337, 5.697251297364567e-01, 9.693935347469537e-01, 4.027533499279280e-02, 0.000000000000000e+00, 0.000000000000000e+00, 0.000000000000000e+00, 5.436687848695738e+03, 5.815689015172118e+03, 2.974140592779414e+02, 1.097292469279506e+04, -1.607412985413537e+02, 4.471088109379825e+02, 5.444071783687657e+03
1338, 5.499715960662096e-01, 9.680635238217491e-01, 3.638242924494575e-02, 0.000000000000000e+00, 0.000000000000000e+00, 0.000000000000000e+00, 5.020684713392774e+03, 5.299489683497234e+03, 1.470235075640766e+02, 1.052230480002575e+04, -7.280201718291531e+02, 4.811974388915357e+02, 5.582223350772139e+03
1339, 5.606698105254022e-01, 9.517066599135613e-01, 4.049465555825676e-02, 0.000000000000000e+00, 0.000000000000000e+00, 0.000000000000000e+00, 5.973628783082880e+03, 6.246674781016447e+03, 9.175993084307387e+01, 1.241163387346802e+04, 1.861749888635826e+02, 3.975743845405017e+02, 6.353584133707155e+03
1340, 5.408352950842067e-01, 9.503661753117575e-01, 3.653507734571700e-02, 0.000000000000000e+00, 0.000000000000000e+00, 0.000000000000000e+00, 5.197839159302700e+03, 5.711499693989972e+03, 3.662491373096125e+02, 1.047981665236120e+04, -8.230214547440809e+02, 8.341112880550886e+02, 5.474643655801836e+03
1341, 5.516103058329545e-01, 9.340105596504360e-01, 4.071161132369509e-02, 0.000000000000000e+00, 0.000000000000000e+00, 0.000000000000000e+00, 6.236887447465724e+03, 6.358974749923535e+03, 2.769145091652919e+02, 1.282827796757104e+04, 3.053545089726882e+02, 8.379604948683087e+01, 6.571715423559319e+03
1342, 5.321065570521921e-01, 9.327721202130544e-01, 3.676752430619160e-02, 0.000000000000000e+00, 0.000000000000000e+00, 0.000000000000000e+00, 5.906852456770856e+03, 6.286583416059553e+03, 1.418168150294286e+02, 1.226995682566035e+04, -1.287315030758010e+02, 6.165131298758589e+02, 6.282303863187939e+03
1343, 5.425628799059097e-01, 9.164177747239758e-01, 4.091702356574883e-02, 0.000000000000000e+00, 0.000000000000000e+00, 0.000000000000000e+00, 6.311042621562380e+03, 6.783800949162434e+03, 2.390520221133571e+02, 1.313229075282351e+04, 1.534838490467659e+01, 3.351315646560933e+02, 6.636053681921370e+03
1344, 5.231712792045158e-01, 9.151464841233911e-01, 3.695366036697516e-02, 0.000000000000000e+00, 0.000000000000000e+00, 0.000000000000000e+00, 6.627099586101652e+03, 6.893237094479423e+03, -2.161162783689424e+01, 1.275895260863112e+04, -3.299996709962567e+02, 6.961484134769929e+02, 6.149837636460035e+03
1345, 5.335741419585227e-01, 8.987383889508296e-01, 4.114034848118905e-02, 0.000000000000000e+00, 0.000000000000000e+00, 0.000000000000000e+00, 6.057475588613608e+03, 6.412973024961818e+03, 3.639388991489936e+02, 1.315618849027223e+04, 5.348480442648364e+01, 3.845849220528615e+02, 6.988861293242221e+03
1346, 5.137883974098436e-01, 8.972343834414037e-01, 3.706747900586421e-02, 0.000000000000000e+00, 0.000000000000000e+00, 0.000000000000000e+00, 6.547288765361811e+03, 6.738618654474671e+03, 1.168038835580833e+02, 1.329416004021181e+04, -2.974300808814583e+02, 6.206048766560345e+02, 6.762231557145778e+03
1347, 5.243779669950657e-01, 8.809330656212897e-01, 4.133515438915626e-02, 0.000000000000000e+00, 0.000000000000000e+00, 0.000000000000000e+00, 6.486675064216653e+03, 7.089742801893081e+03, 1.738472434372813e+02, 1.378630201676919e+04, 1.528135655764339e+02, 2.526076321274977e+02, 7.042601169138565e+03
1348, 5.048630460160565e-01, 8.796343521061389e-01, 3.724811287854390e-02, 0.000000000000000e+00, 0.000000000000000e+00, 0.000000000000000e+00, 6.818613171766260e+03, 7.020498382856191e+03, 1.862665206795161e+01, 1.376725300320246e+04, -3.697757606746018e+02, 2.292998612918502e+02, 6.891335429474881e+03
1349, 5.154638900862094e-01, 8.633472326580899e-01, 4.155760546635235e-02, 0.000000000000000e+00, 0.000000000000000e+00, 0.000000000000000e+00, 7.182898565117451e+03, 7.118742943786124e+03, 2.584923111687652e+02, 1.496853504248547e+04, -1.553815486892472e+02, -8.996530870378079e+01, 7.836894156441509e+03
1350, 4.956754130201739e-01, 8.619145207458833e-01, 3.737903275726624e-02, 0.000000000000000e+00, 0.000000000000000e+00, 0.000000000000000e+00, 6.410490266817781e+03, 6.379843567715926e+03, 2.160110960283023e+02, 1.332783212718139e+04, -8.007304598268979e+02, -1.719414841209930e+02, 7.086235470154425e+03
1351, 5.062455296612727e-01, 8.455342492175273e-01, 4.174312251681771e-02, 0.000000000000000e+00, 0.000000000000000e+00, 0.000000000000000e+00, 6.604458752956885e+03, 6.983962834366414e+03, 2.109882109379421e+02, 1.394757653770932e+04, -3.212489307591372e+02, -6.471729699249574e+02, 7.278619940619238e+03
1352, 4.870111351885197e-01, 8.443634114973568e-01, 3.761460998079887e-02, 0.000000000000000e+00, 0.000000000000000e+00, 0.000000000000000e+00, 5.516824398644537e+03, 5.491111045007706e+03, 1.455735260692550e+02, 1.089523465415135e+04, -8.644625759212144e+02, -4.223167953203431e+02, 5.648607884674826e+03
1353, 4.971934813642391e-01, 8.278245704414711e-01, 4.194709047789708e-02, 0.000000000000000e+00, 0.000000000000000e+00, 0.000000000000000e+00, 5.609227421818959e+03, 5.819969502541106e+03, 3.928943433206144e+02, 1.136538271062081e+04, -3.362883208563601e+02, -4.280991313355779e+02, 5.772074652054561e+03
1354, 9.923683129795997e-01, 5.597587231832376e-01, 1.610898352886826e-02, 0.000000000000000e+00, 0.000000000000000e+00, 0.000000000000000e+00, -6.787877084165857e+02, -6.567299099390277e+02, -8.686961902531556e+01, -1.115910214521678e+03, 3.163136445122618e+02, -2.832802757170219e+01, 7.255439205506121e+02
1355, 9.823170090145816e-01, 5.766252942032718e-01, 1.826834536353002e-02, 0.000000000000000e+00, 0.000000000000000e+00, 0.000000000000000e+00, -1.369459010803189e+03, -1.536702653854424e+03, -1.159093209485739e+01, -2.962019923726824e+03, -1.713241029954341e+02, -3.882240163716824e+02, 1.684781161824940e+03
1356, 4.779026358418239e-01, 8.266020915074163e-01, 3.776743853846073e-02, 0.000000000000000e+00, 0.000000000000000e+00, 0.000000000000000e+00, 5.199994334739324e+03, 5.672923828543176e+03, 1.663578244196661e+02, 1.027902775593611e+04, -8.367473256405817e+02, -1.406733385565788e+02, 5.085375905232858e+03
1357, 4.882252468604923e-01, 8.101617888548686e-01, 4.216013341612401e-02, 0.000000000000000e+00, 0.000000000000000e+00, 0.000000000000000e+00, 5.330275370187156e+03, 5.593378264681871e+03, 3.065842979773979e+02, 1.102114400286132e+04, -2.739747724321293e+02, -9.077311810445138e+01, 5.611578433738428e+03
1358, 4.689229631525628e-01, 8.089609130866746e-01, 3.793425512180920e-02, 0.000000000000000e+00, 0.000000000000000e+00, 0.000000000000000e+00, 5.313287124916497e+03, 5.593452170112052e+03, 7.153021149207395e+01, 9.947128544425736e+03, -7.900748677157470e+02, 9.112242351838867e+01, 4.708041297019711e+03
1359, 4.792155056467691e-01, 7.925091484031693e-01, 4.236132116239319e-02, 0.000000000000000e+00, 0.000000000000000e+00, 0.000000000000000e+00, 5.478557405776866e+03, 5.538569674037501e+03, 1.862271820324452e+02, 1.073815232665536e+04, -5.065337582185925e+02, 9.475953592385574e+01, 5.315261905711940e+03
1360, 4.598671134533728e-01, 7.912465959041427e-01, 3.809019515593098e-02, 0.000000000000000e+00, 0.000000000000000e+00, 0.000000000000000e+00, 5.198370671619990e+03, 5.252957197452439e+03, 2.771005164502950e+01, 9.728178748516884e+03, -5.861763917451763e+02, 4.210851740509651e+02, 4.673320491442730e+03
1361, 4.701780453305897e-01, 7.748385280825475e-01, 4.255707178160070e-02, 0.000000000000000e+00, 0.000000000000000e+00, 0.000000000000000e+00, 5.847973661323913e+03, 5.895831068087761e+03, 3.260063737532553e+02, 1.119536865732734e+04, -3.236252009319939e+02, 3.429011459224793e+02, 5.415421958080174e+03
1362, 4.508367634486727e-01, 7.735580100398464e-01, 3.824719204825595e-02, 0.000000000000000e+00, 0.000000000000000e+00, 0.000000000000000e+00, 5.154432638354605e+03, 5.514777730785576e+03, 1.089207935379864e+02, 1.016414149063600e+04, -5.643247547109735e+02, 6.801997571794616e+02, 5.079448887819692e+03
1363, 4.611458849860482e-01, 7.571700020766624e-01, 4.275182452611848e-02, 0.000000000000000e+00, 0.000000000000000e+00, 0.000000000000000e+00, 5.890943950944349e+03, 6.119471734577746e+03, 1.669493207547274e+02, 1.190811055101409e+04, -5.009166405594841e+01, 4.473743018774868e+02, 5.964478530725599e+03
1364, 4.417706887577496e-01, 7.558061218996024e-01, 3.840199655861781e-02, 0.000000000000000e+00, 0.000000000000000e+00, 0.000000000000000e+00, 5.450953426682598e+03, 5.687313630452877e+03, -9.386800911360753e+01, 1.138397510503972e+04, -5.437777104509406e+02, 6.924973257703767e+02, 6.017180071434120e+03
1365, 4.520541891652912e-01, 7.395091653710811e-01, 4.293116184526521e-02, 0.000000000000000e+00, 0.000000000000000e+00, 0.000000000000000e+00, 5.668529180887422e+03, 5.777402306079734e+03, 9.518729194316823e+01, 1.217747801490131e+04, -2.290176876903290e+02, 2.270341291293118e+02, 6.481418157530024e+03
1366, 4.327526604510011e-01, 7.381547765326718e-01, 3.855315325638024e-02, 0.000000000000000e+00, 0.000000000000000e+00, 0.000000000000000e+00, 6.655809566577044e+03, 6.695118711031904e+03, 2.946695348421662e+01, 1.312383613781401e+04, -1.021022834088260e+03, 3.790890481331783e+01, 6.687080034414328e+03
1367, 4.430436209887162e-01, 7.217769735491040e-01, 4.313423645869448e-02, 0.000000000000000e+00, 0.000000000000000e+00, 0.000000000000000e+00, 5.488440957399622e+03, 5.904928246607362e+03, 1.603212355848096e+02, 1.170413680207145e+04, -5.743514592360253e+02, -6.700825722013015e+01, 6.107355892215556e+03
1368, 4.237093044854469e-01, 7.203977421357129e-01, 3.871081795744283e-02, 0.000000000000000e+00, 0.000000000000000e+00, 0.000000000000000e+00, 6.215180875696842e+03, 6.019345242983020e+03, 6.531400755343084e+01, 1.136529658704928e+04, -8.821328937231560e+02, 3.748906789707101e+01, 5.470110508955951e+03
1369, 4.338697899012058e-01, 7.040088868920911e-01, 4.330463859816676e-02, 0.000000000000000e+00, 0.000000000000000e+00, 0.000000000000000e+00, 5.605050823121235e+03, 5.962235049323254e+03, 1.627079448134989e+02, 1.114703521438413e+04, -6.340539074442901e+02, 9.591146351811554e+01, 5.493155184690049e+03
1370, 4.146472853094079e-01, 7.027286595905473e-01, 3.884895257648924e-02, 0.000000000000000e+00, 0.000000000000000e+00, 0.000000000000000e+00, 5.669406697314533e+03, 5.804558393074689e+03, 1.095680949447697e+02, 1.042603242781000e+04, -7.999082353951867e+02, 8.633149996824498e+01, 4.896817612328896e+03
1371, 4.248957174520900e-01, 6.863328420091683e-01, 4.350499445158223e-02, 0.000000000000000e+00, 0.000000000000000e+00, 0.000000000000000e+00, 5.438119204156582e+03, 5.752657241955107e+03, 1.580627693624694e+02, 1.097233563071406e+04, -4.305408867575268e+02, 2.937065856768502e+02, 5.465857902995130e+03
1372, 4.056307042255550e-01, 6.850493859866512e-01, 3.899862427818425e-02, 0.000000000000000e+00, 0.000000000000000e+00, 0.000000000000000e+00, 5.146792512414608e+03, 5.383161091984318e+03, 1.060209361122975e+02, 9.953445676950729e+03, -7.478332937918498e+02, 5.962393476022982e+02, 4.980123720355547e+03
1373, 4.158780469611898e-01, 6.686658747202865e-01, 4.369287373528774e-02, 0.000000000000000e+00, 0.000000000000000e+00, 0.000000000000000e+00, 5.901975237977480e+03, 6.235687554313278e+03, 7.046653444995272e+01, 1.142804023907136e+04, -3.388977309602030e+02, 4.509105523103517e+02, 5.456560725107735e+03
1374, 3.425930346572641e-01, 1.150624456802855e-01, 7.533649227076009e-02, 0.000000000000000e+00, 0.000000000000000e+00, 0.000000000000000e+00, 4.169167555962626e+03, 4.046773514168171e+03, 1.355335808334116e+01, 7.944132154002445e+03, 7.466526466932658e+02, -6.901957464994317e+02, 4.222499651054064e+03
1375, 3.335357509590406e-01, 9.724289599139305e-02, 7.580695292680541e-02, 0.000000000000000e+00, 0.000000000000000e+00, 0.000000000000000e+00, 3.935242957555979e+03, 3.836329460998249e+03, 1.185621340242613e+01, 7.579176160107273e+03, 6.551918977487454e+02, -8.524209936575514e+02, 4.137219219239426e+03
1376, 3.444715351691675e-01, 8.100893451846605e-02, 7.664507842475392e-02, 0.000000000000000e+00, 0.000000000000000e+00, 0.000000000000000e+00, 3.625256254960937e+03, 3.506509902293768e+03, -2.274175585846765e+01, 6.836485077001810e+03, 6.598794198359667e+02, -8.803701199410912e+02, 3.786877566911534e+03
1377, 3.246922805801788e-01, 7.974018368285589e-02, 7.626741318147116e-02, 0.000000000000000e+00, 0.000000000000000e+00, 0.000000000000000e+00, 3.689497328256109e+03, 3.647613740551184e+03, 5.351731708750154e+01, 7.034626164364876e+03, 5.943531914428758e+02, -8.987355514828943e+02, 3.850101738239443e+03
1378, 3.517773959915966e-01, 1.327211199869492e-01, 7.487205660216166e-02, 0.000000000000000e+00, 0.000000000000000e+00, 0.000000000000000e+00, 4.112732518375070e+03, 4.053131911689763e+03, 1.944545629550357e+01, 7.830101295134826e+03, 8.359480441428384e+02, -5.753059055673367e+02, 4.139375885189187e+03
1379, 3.963201928278642e-01, 6.671802763325352e-01, 3.909426901154393e-02, 0.000000000000000e+00, 0.000000000000000e+00, 0.000000000000000e+00, 5.002594961614651e+03, 5.289461685194494e+03, -3.669508445910918e+01, 9.797746591107425e+03, -7.745226967875353e+02, 5.833136268775313e+02, 4.952238120586899e+03
1380, 4.067868442815141e-01, 6.509096743685425e-01, 4.387348228078276e-02, 0.000000000000000e+00, 0.000000000000000e+00, 0.000000000000000e+00, 5.752187654041870e+03, 6.134423374341773e+03, 1.590314341003184e+02, 1.176145031020173e+04, -5.385760760922155e+02, 7.957060864348205e+02, 6.066786386961638e+03
1381, 3.874231517721345e-01, 6.495812826828106e-01, 3.926047612292299e-02, 0.000000000000000e+00, 0.000000000000000e+00, 0.000000000000000e+00, 5.928882739512178e+03, 6.210714324467201e+03, -6.614923472702394e+01, 1.151973610954229e+04, -9.137458557887176e+02, 8.415198503473863e+02, 5.865473551827912e+03
1382, 3.977380333111590e-01, 6.332157911269878e-01, 4.405368542203641e-02, 0.000000000000000e+00, 0.000000000000000e+00, 0.000000000000000e+00, 6.582979776710060e+03, 6.758629104501414e+03, 1.963681120414265e+02, 1.340982722896156e+04, -3.681429677958059e+02, 5.613681879176381e+02, 6.848739988089397e+03
1383, 3.782068578615549e-01, 6.318404601956557e-01, 3.935765722595046e-02, 0.000000000000000e+00, 0.000000000000000e+00, 0.000000000000000e+00, 5.860863417558571e+03, 6.049056509887032e+03, 5.499851541235840e+01, 1.250882043673551e+04, -1.186344528169830e+03, 5.527266247867053e+02, 6.937397514458215e+03
1384, 3.886735348231287e-01, 6.155091327205953e-01, 4.422984165229209e-02, 0.000000000000000e+00, 0.000000000000000e+00, 0.000000000000000e+00, 6.807953716118958e+03, 7.093398054733802e+03, -4.975027206282189e+01, 1.369544999299794e+04, -5.777921236170330e+02, 2.661417533181596e+02, 6.839191282354486e+03
1385, 3.694380096745459e-01, 6.142164114183825e-01, 3.955990300394745e-02, 0.000000000000000e+00, 0.000000000000000e+00, 0.000000000000000e+00, 7.261055363463573e+03, 6.942972300741439e+03, 4.412592099698792e+00, 1.318054279924593e+04, -1.051485402714552e+03, 4.439251943467264e+02, 6.397853455206247e+03
1386, 3.796613292788549e-01, 5.978495540522296e-01, 4.440985622928292e-02, 0.000000000000000e+00, 0.000000000000000e+00, 0.000000000000000e+00, 7.964553947193504e+03, 7.865344129730948e+03, 2.298550061135001e+02, 1.505906372940580e+04, -7.705217342343349e+02, 3.706933195776380e+02, 7.307366726126026e+03
1387, 3.604236605456812e-01, 5.965254619292658e-01, 3.970199071749680e-02, 0.000000000000000e+00, 0.000000000000000e+00, 0.000000000000000e+00, 6.444212463114869e+03, 6.698990660784233e+03, 6.256582818506571e+01, 1.228267151126852e+04, -1.429510887594601e+03, 4.187488073224014e+02, 6.271626837292354e+03
1388, 3.706316874745575e-01, 5.801745228626667e-01, 4.458578975748601e-02, 0.000000000000000e+00, 0.000000000000000e+00, 0.000000000000000e+00, 7.105092634013469e+03, 7.258711441304369e+03, 8.264253397974963e+01, 1.430928998859243e+04, -1.096419589539376e+03, 3.474841693039804e+02, 7.403140611562962e+03
1389, 1.037672650946538e+00, 1.320639029421716e+00, 2.286205590643341e-02, 0.000000000000000e+00, 0.000000000000000e+00, 0.000000000000000e+00, 2.312996098576993e+02, 1.263232386533061e+02, -2.086705384664604e+01, 1.245653224893206e+02, 3.163445858433454e+02, -1.776055353146178e+02, 6.382529590603904e+02
1390, 5.727801461001085e-01, 2.638101881984142e-01, 6.595478700445565e-02, 0.000000000000000e+00, 0.000000000000000e+00, 0.000000000000000e+00, 2.557104317886427e+03, 2.427241484825468e+03, -2.062527107129712e+01, 4.437281318285123e+03, 8.726936511843909e+02, -2.132326650685637e+02, 2.493703743510111e+03
1391, 1.003514814919702e+00, 5.766889847341359e-01, 1.444449712925342e-02, 0.000000000000000e+00, 0.000000000000000e+00, 0.000000000000000e+00, -5.826640227325676e+03, -5.363388537115130e+03, 2.893907704498164e+02, -9.349581324248475e+03, 2.044199823425881e+03, -9.805913642890730e+02, 5.470822844694842e+03
1392, 9.915866741467516e-01, 5.942625932149017e-01, 1.699167175796744e-02, 0.000000000000000e+00, 0.000000000000000e+00, 0.000000000000000e+00, -1.539479117260423e+03, -1.757586746489519e+03, -7.026216011879734e+01, -3.233429792132741e+03, 3.327170344128850e+02, 5.194644005385642e+02, 1.924582614433777e+03
1393, 9.718304693273209e-01, 5.933937019414723e-01, 2.044574449998636e-02, 0.000000000000000e+00, 0.000000000000000e+00, 0.000000000000000e+00, -6.811062510438852e+02, -8.501254361465707e+02, -3.537762267369925e+01, -1.465886133452654e+03, 3.371005015560495e+02, -4.789201350628129e+01, 9.291662932090204e+02
1394, 9.808668022586233e-01, 6.111146781531749e-01, 1.923938319415279e-02, 0.000000000000000e+00, 0.000000000000000e+00, 0.000000000000000e+00, -2.617404789854774e+03, -2.637514622045102e+03, -5.559714506255841e+01, -5.007061406918283e+03, 1.332751009112494e+03, 3.587421075574049e+02, 3.374439826542638e+03
1395, 1.000440770813349e+00, 6.120570699406831e-01, 1.577995464701636e-02, 0.000000000000000e+00, 0.000000000000000e+00, 0.000000000000000e+00, -1.860000677833931e+03, -1.960441659111558e+03, 1.883524134834379e+01, -4.176652043767787e+03, -7.455702469268585e+02, -4.574089787401130e+02, 2.727752445748067e+03
1396, 9.898834772707532e-01, 6.288830624974769e-01, 1.802539876683439e-02, 0.000000000000000e+00, 0.000000000000000e+00, 0.000000000000000e+00, -1.570916492442675e+03, -1.603305218039937e+03, -2.159961664471482e+01, -3.123014385559411e+03, 2.502365082325528e+02, -5.815412712548566e+02, 1.887753092328544e+03
1397, 6.304037561665355e-01, 3.009923759516136e-01, 6.133288939313941e-02, 0.000000000000000e+00, 0.000000000000000e+00, 0.000000000000000e+00, 1.870800869197250e+03, 1.732338447790463e+03, -2.680511813075307e+00, 3.061104733965858e+03, 7.985696807286473e+02, -1.919976388973889e+02, 1.903827441851033e+03
1398, 5.637251260168579e-01, 2.461942830620059e-01, 6.668008629998089e-02, 0.000000000000000e+00, 0.000000000000000e+00, 0.000000000000000e+00, 2.704215149323860e+03, 2.551485987089663e+03, -5.289986198661060e+01, 4.649678090858621e+03, 8.362214563436987e+02, -2.662147125678617e+02, 2.534578102368564e+03
1399, 3.512298629449384e-01, 5.789582083465425e-01, 3.977174054237081e-02, 0.000000000000000e+00, 0.000000000000000e+00, 0.000000000000000e+00, 6.626347257265836e+03, 6.414962939839335e+03, 9.718329098576621e+01, 1.223354872421530e+04, -1.701227878698923e+03, 8.528261648017258e+02, 6.600262581096082e+03
1400, 3.615666918939963e-01, 5.624804300104520e-01, 4.475382969279759e-02, 0.000000000000000e+00, 0.000000000000000e+00, 0.000000000000000e+00, 7.087466960336812e+03, 7.091331185528326e+03, 2.753922518927452e+02, 1.384276747742491e+04, -6.888464583199768e+02, -8.537960827945112e+01, 6.876111986081242e+03
1401, 3.420173087723819e-01, 5.614304972275470e-01, 3.982656211389273e-02, 0.000000000000000e+00, 0.000000000000000e+00, 0.000000000000000e+00, 5.981262394904536e+03, 5.802758664581273e+03, 2.429196666008008e+02, 1.166101568451921e+04, -1.584023374919655e+03, 2.945353774301535e+02, 6.424172435259946e+03
1402, 3.524786318191265e-01, 5.447914715215589e-01, 4.491352155192922e-02, 0.000000000000000e+00, 0.000000000000000e+00, 0.000000000000000e+00, 6.424626567084317e+03, 6.254377465715008e+03, 1.541053398880999e+02, 1.243981029322922e+04, -6.506518590106143e+02, -2.048099793240218e+02, 6.221143778669893e+03
1403, 4.197233141525799e-01, 3.428616178144822e-01, 6.827317848712264e-02, 0.000000000000000e+00, 0.000000000000000e+00, 0.000000000000000e+00, 4.377514564611885e+03, 4.438401826207106e+03, 7.083653551126353e+01, 8.435460220786437e+03, 1.061391541596366e+03, -4.077620461994919e+02, 4.485205917831737e+03
1404, 4.395411215399072e-01, 3.438553184481471e-01, 6.876142967327309e-02, 0.000000000000000e+00, 0.000000000000000e+00, 0.000000000000000e+00, 4.172107301342280e+03, 4.140933880125499e+03, 2.701122778625904e+01, 7.744053541708642e+03, 1.073674932186417e+03, -4.108665681928452e+02, 4.103422708038274e+03
1405, 3.333326878468808e-01, 5.434341948941519e-01, 4.010595867104155e-02, 0.000000000000000e+00, 0.000000000000000e+00, 0.000000000000000e+00, 5.167040728705262e+03, 4.991398696964531e+03, 2.358541165732248e+02, 9.653894887091232e+03, -1.145420058534143e+03, 2.116843555783204e+02, 5.018771180879166e+03
1406, 3.435032044707888e-01, 5.271027407911063e-01, 4.509779619926592e-02, 0.000000000000000e+00, 0.000000000000000e+00, 0.000000000000000e+00, 5.495979164205152e+03, 5.554173672154783e+03, 2.945057453229906e+02, 1.130095526686204e+04, -5.634055297592673e+02, -5.448157449323831e+01, 5.880875736322955e+03
1407, 3.242013124303662e-01, 5.257345053067932e-01, 4.020882671282146e-02, 0.000000000000000e+00, 0.000000000000000e+00, 0.000000000000000e+00, 5.112780382774357e+03, 5.089580662404692e+03, 1.672514189331274e+02, 9.629265553989444e+03, -7.744140530627205e+02, 3.777227211331838e+02, 4.776510396951548e+03
1408, 3.344399323502145e-01, 5.093867166309867e-01, 4.526267032446745e-02, 0.000000000000000e+00, 0.000000000000000e+00, 0.000000000000000e+00, 5.410107061757817e+03, 5.779898630425185e+03, 2.467883454984384e+02, 1.099686377538256e+04, -3.098572278765820e+02, 1.605814049532630e+02, 5.461755027723995e+03
1409, 3.151246230943274e-01, 5.080120119233336e-01, 4.032995566844261e-02, 0.000000000000000e+00, 0.000000000000000e+00, 0.000000000000000e+00, 5.561895421109897e+03, 5.674388373147853e+03, 3.940303149990014e+01, 1.094055724227266e+04, -6.206812699814949e+02, 6.167813511307462e+02, 5.535273012518481e+03
1410, 3.253622000695837e-01, 4.917681288375526e-01, 4.540923835432690e-02, 0.000000000000000e+00, 0.000000000000000e+00, 0.000000000000000e+00, 5.592866103942793e+03, 5.928625699779502e+03, 1.034443494561571e+02, 1.137907753749464e+04, -4.344334488963581e+02, 3.656302285576654e+02, 5.713979095566940e+03
1411, 3.999160100338672e-01, 3.418545351610785e-01, 6.747766241541990e-02, 0.000000000000000e+00, 0.000000000000000e+00, 0.000000000000000e+00, 4.616662998494817e+03, 4.684718417628804e+03, 7.901888697949424e+01, 8.929244437353913e+03, 9.812486898301894e+02, -3.981203826963395e+02, 4.657496550103730e+03
1412, 3.908506641639554e-01, 3.241798754898056e-01, 6.788881902851049e-02, 0.000000000000000e+00, 0.000000000000000e+00, 0.000000000000000e+00, 4.663670083478694e+03, 4.716117081079313e+03, 9.066750071620935e+01, 9.037729170803999e+03, 1.011424933762838e+03, -3.823222891951002e+02, 4.736860911608920e+03
1413, 3.062313874120360e-01, 4.903317827800227e-01, 4.049732718991215e-02, 0.000000000000000e+00, 0.000000000000000e+00, 0.000000000000000e+00, 5.600018530286371e+03, 5.712209733355487e+03, 1.716960775437132e+01, 1.068562607365752e+04, -9.371562294790402e+02, 4.181009458356354e+02, 5.335309316898400e+03
1414, 3.163881575354136e-01, 4.740302016070850e-01, 4.559571174355051e-02, 0.000000000000000e+00, 0.000000000000000e+00, 0.000000000000000e+00, 5.945905324583049e+03, 6.071051817635230e+03, 1.067387029875615e+02, 1.190553883174152e+04, -5.064250249870197e+02, 3.588287033199657e+02, 5.998076227924809e+03
1415, 2.968451762670780e-01, 4.726123206012415e-01, 4.052374236430167e-02, 0.000000000000000e+00, 0.000000000000000e+00, 0.000000000000000e+00, 5.481446421309413e+03, 5.583644547939986e+03, 1.410040015395566e+01, 1.071162527615181e+04, -1.005792445844737e+03, 4.085708822650730e+02, 5.510620938109668e+03
1416, 4.917636017853328e-01, 1.052862919407875e-01, 7.229952957874722e-02, 0.000000000000000e+00, 0.000000000000000e+00, 0.000000000000000e+00, 2.793860863073496e+03, 2.665394747661416e+03, -3.364284989281003e+01, 5.054991718252792e+03, 6.507767502841236e+02, -4.375781054881991e+02, 2.695931275059132e+03
1417, 4.827239575198195e-01, 8.770489580924024e-02, 7.298637161739370e-02, 0.000000000000000e+00, 0.000000000000000e+00, 0.000000000000000e+00, 2.728925997517116e+03, 2.642762749133327e+03, -7.588732299490441e+01, 4.970720323229112e+03, 6.110667977552547e+02, -4.913131962798797e+02, 2.662306651632204e+03
1418, 5.024421116523990e-01, 8.864707551721712e-02, 7.176881134310058e-02, 0.000000000000000e+00, 0.000000000000000e+00, 0.000000000000000e+00, 2.745688216281366e+03, 2.665864916558978e+03, -2.523045875390139e+01, 4.895174257742770e+03, 6.393948413121572e+02, -4.421492071238375e+02, 2.571597917962674e+03
1419, 8.334387662878969e-01, 1.731244722198106e-01, 3.524699195557333e-02, 0.000000000000000e+00, 0.000000000000000e+00, 0.000000000000000e+00, -7.917847339706558e+02, -8.570991634384966e+02, -2.406819736183366e+01, -2.013244538760810e+03, 4.669722131605524e+02, 1.909707089701203e+01, 1.439955607462402e+03
1420, 7.385152736901457e-01, 9.991286151189786e-02, 4.788281727781887e-02, 0.000000000000000e+00, 0.000000000000000e+00, 0.000000000000000e+00, 4.589297228000243e+02, 3.503970285476623e+02, -1.628667640768662e+01, 5.187100582634436e+02, 5.008223668584485e+02, -7.872554331529292e+01, 8.908979658379156e+02
1421, 7.490880882089854e-01, 8.326593309480987e-02, 4.623031449620481e-02, 0.000000000000000e+00, 0.000000000000000e+00, 0.000000000000000e+00, 2.991147466760291e+02, 2.220307496503878e+02, -5.488946370120303e+01, 2.946590326428503e+02, 4.435343547575112e+02, -4.865439393886558e+01, 7.822575107425248e+02
1422, 7.295017165308970e-01, 8.232714910261674e-02, 4.887024595322569e-02, 0.000000000000000e+00, 0.000000000000000e+00, 0.000000000000000e+00, 5.768951031318975e+02, 4.409532682273293e+02, -5.733797449146873e+01, 6.690660544177389e+02, 4.604964131136676e+02, -7.129002857221676e+01, 8.371296966004437e+02
1423, 9.593322586103258e-01, 1.092912579881560e+00, 3.058770962676425e-02, 0.000000000000000e+00, 0.000000000000000e+00, 0.000000000000000e+00, 3.372907748158642e+02, 2.247168941733450e+02, -6.748490306087034e+01, 2.452662823666438e+02, 5.628724936161547e+02, -1.782934275366834e+02, 1.034546489590986e+03
1424, 8.910392288174314e-01, 1.072369592523663e+00, 3.836516503436892e-02, 0.000000000000000e+00, 0.000000000000000e+00, 0.000000000000000e+00, 1.700390776897845e+03, 1.573099143650171e+03, -2.518453378494544e+01, 3.040986225663412e+03, 7.262283156467963e+02, -2.930229685795310e+02, 1.955954693559262e+03
1425, 8.963248196915914e-01, 7.448834140739250e-01, 3.471922987864574e-02, 0.000000000000000e+00, 0.000000000000000e+00, 0.000000000000000e+00, 7.461950289002708e+01, -9.218817637398286e+01, -4.363547819025935e+01, -2.941668169252316e+02, 4.382131573911987e+02, -1.175958483213896e+02, 8.518230983143617e+02
1426, 8.856873404141614e-01, 7.616175099022418e-01, 3.635993888868837e-02, 0.000000000000000e+00, 0.000000000000000e+00, 0.000000000000000e+00, 1.612016793494675e+02, 6.501609158603476e+01, -1.855226121323658e+01, -1.765305675613193e+01, 4.889957535280868e+02, -1.489081332168622e+02, 8.994117146849260e+02
1427, 8.766251251974447e-01, 7.439322096866057e-01, 3.734088960169191e-02, 0.000000000000000e+00, 0.000000000000000e+00, 0.000000000000000e+00, 2.082111348064225e+02, 8.661796468614266e+01, -3.009069886385656e+01, 4.059193142463533e+01, 4.845264982217436e+02, -1.494845873588069e+02, 8.924969493140786e+02
1428, 8.349464753333291e-01, 1.000693500656976e+00, 4.348115648870726e-02, 0.000000000000000e+00, 0.000000000000000e+00, 0.000000000000000e+00, 2.071629127913757e+03, 1.969837419681122e+03, -2.085924585768131e+01, 3.557850289534272e+03, 6.646255535141795e+02, -2.500473846654505e+02, 1.970928124327681e+03
1429, 7.424697635396917e-01, 8.582819981907251e-01, 5.084715536195635e-02, 0.000000000000000e+00, 0.000000000000000e+00, 0.000000000000000e+00, 2.664336395666707e+03, 2.547009476618993e+03, -1.498118459088101e+01, 4.761039109441896e+03, 9.456631640995187e+02, -3.092756087479929e+02, 2.761592207301866e+03
1430, 7.226319506965345e-01, 8.573334985083415e-01, 5.195795404835944e-02, 0.000000000000000e+00, 0.000000000000000e+00, 0.000000000000000e+00, 3.045660134990979e+03, 2.911367270797051e+03, -5.983396446026892e+01, 5.530463037539786e+03, 9.456319793327461e+02, -3.171579809358084e+02, 3.085634249576946e+03
1431, 7.333834690587809e-01, 8.406241457506787e-01, 5.154233217718841e-02, 0.000000000000000e+00, 0.000000000000000e+00, 0.000000000000000e+00, 2.864456097027517e+03, 2.741274985590250e+03, -3.417912382718301e+01, 5.104935741190495e+03, 9.241204992582846e+02, -3.497470239120436e+02, 2.871128186970249e+03
1432, 7.135478732298040e-01, 8.396739892357974e-01, 5.261895670600276e-02, 0.000000000000000e+00, 0.000000000000000e+00, 0.000000000000000e+00, 3.030627717378571e+03, 2.965078308617375e+03, -4.523405402632672e+01, 5.495425628519003e+03, 8.387027850857119e+02, -4.542544007546763e+02, 2.996087138155330e+03
1433, 7.242990200565508e-01, 8.229279638897455e-01, 5.223203684802268e-02, 0.000000000000000e+00, 0.000000000000000e+00, 0.000000000000000e+00, 2.742162942781099e+03, 2.636369231615965e+03, -4.373903637704678e+01, 4.944792605497634e+03, 7.776559148687544e+02, -4.439394936176280e+02, 2.739895327274953e+03
1434, 7.044579791636861e-01, 8.219797398421164e-01, 5.327552492193800e-02, 0.000000000000000e+00, 0.000000000000000e+00, 0.000000000000000e+00, 2.930153798060861e+03, 2.821466332628362e+03, -1.964864110220195e+01, 5.153271798607936e+03, 8.216361829601207e+02, -4.943019966199304e+02, 2.820480689645306e+03
1435, 7.152121569810119e-01, 8.052701248895842e-01, 5.291583104869925e-02, 0.000000000000000e+00, 0.000000000000000e+00, 0.000000000000000e+00, 2.743752454913208e+03, 2.662966330738122e+03, -3.256838790834630e+01, 4.690418452863779e+03, 7.121322442497534e+02, -4.034102735988141e+02, 2.442559549444517e+03
1436, 6.953739165954754e-01, 8.043192863865770e-01, 5.392643645047214e-02, 0.000000000000000e+00, 0.000000000000000e+00, 0.000000000000000e+00, 2.679438573210350e+03, 2.582944533746818e+03, -2.060564837957464e+01, 4.741889700187431e+03, 7.925100979290723e+02, -4.714938247001990e+02, 2.648478773870860e+03
1437, 7.061263060174732e-01, 7.875935953528624e-01, 5.359441337124400e-02, 0.000000000000000e+00, 0.000000000000000e+00, 0.000000000000000e+00, 2.524945990548636e+03, 2.487057910751607e+03, -2.288986100299576e+01, 4.460572544187973e+03, 7.752095160961514e+02, -3.641607192112307e+02, 2.454319282828450e+03
1438, 6.862868868674082e-01, 7.866423968691988e-01, 5.457241894805373e-02, 0.000000000000000e+00, 0.000000000000000e+00, 0.000000000000000e+00, 2.870277483340646e+03, 2.817635989179263e+03, 1.212553142335914e+01, 4.867281375754312e+03, 8.574392428325532e+02, -3.512765939939108e+02, 2.583051282768927e+03
1439, 6.970403630440389e-01, 7.699174252680043e-01, 5.426775884916497e-02, 0.000000000000000e+00, 0.000000000000000e+00, 0.000000000000000e+00, 2.627196121754155e+03, 2.502948483433953e+03, 2.517841935900009e+00, 4.487877556173923e+03, 8.414365969615056e+02, -2.766496599888565e+02, 2.462200014567019e+03
1440, 6.771998364499046e-01, 7.689658431634177e-01, 5.521282836641431e-02, 0.000000000000000e+00, 0.000000000000000e+00, 0.000000000000000e+00, 2.943461009409978e+03, 2.789135576184683e+03, -1.774327776915998e+01, 5.091222479359217e+03, 9.594177008397961e+02, -3.152680857902453e+02, 2.833500173633113e+03
1441, 6.879522690004279e-01, 7.522164807350341e-01, 5.493623965073120e-02, 0.000000000000000e+00, 0.000000000000000e+00, 0.000000000000000e+00, 2.610340393732210e+03, 2.521027943188999e+03, -6.792137914697262e+00, 4.621636550057072e+03, 8.628718716143840e+02, -3.098578154083677e+02, 2.598988327782550e+03
1442, 6.681126515327225e-01, 7.512699141914192e-01, 5.584779178006795e-02, 0.000000000000000e+00, 0.000000000000000e+00, 0.000000000000000e+00, 3.020882434564764e+03, 2.919162760393179e+03, -1.156606168219066e+01, 5.284894257410639e+03, 9.665052222210363e+02, -3.353309275057380e+02, 2.916595587145338e+03
1443, 6.788682929940205e-01, 7.345662199537530e-01, 5.559864263658986e-02, 0.000000000000000e+00, 0.000000000000000e+00, 0.000000000000000e+00, 2.927336743992963e+03, 2.812009923464980e+03, -4.579374154849479e+01, 4.937308027180915e+03, 9.167876334360789e+02, -2.665397711627200e+02, 2.650661931633185e+03
1444, 6.590257693832160e-01, 7.336138183114089e-01, 5.647747206652051e-02, 0.000000000000000e+00, 0.000000000000000e+00, 0.000000000000000e+00, 3.140633810136624e+03, 3.059023130616303e+03, 4.181473567579657e+00, 5.631499425767369e+03, 9.733781206906120e+02, -2.988255707975798e+02, 3.086209741835019e+03
1445, 6.697822075638094e-01, 7.168912369684033e-01, 5.625636884397962e-02, 0.000000000000000e+00, 0.000000000000000e+00, 0.000000000000000e+00, 3.045695159425823e+03, 2.852664378976524e+03, -4.695610112905110e+00, 5.203539550994494e+03, 9.562156526716718e+02, -2.792661848563283e+02, 2.843793903034542e+03
1446, 6.499388482894105e-01, 7.159384110790127e-01, 5.710271101496306e-02, 0.000000000000000e+00, 0.000000000000000e+00, 0.000000000000000e+00, 3.275265398496146e+03, 3.183163458277625e+03, 3.597851384527858e+00, 5.881446405465464e+03, 9.804937550529315e+02, -2.841980897928978e+02, 3.188596092829116e+03
1447, 6.606961434207106e-01, 6.992167235218234e-01, 5.690949781746597e-02, 0.000000000000000e+00, 0.000000000000000e+00, 0.000000000000000e+00, 3.080399433781741e+03, 2.948799802001700e+03, -3.186585842296828e+01, 5.478408579467356e+03, 9.768782958223981e+02, -3.314390205956464e+02, 3.046115367631339e+03
1448, 6.408490578436377e-01, 6.982380433913448e-01, 5.772306787332320e-02, 0.000000000000000e+00, 0.000000000000000e+00, 0.000000000000000e+00, 3.404153454407278e+03, 3.259994759207463e+03, -4.284289788922624e+01, 6.130866747008629e+03, 9.916971341538571e+02, -3.772771477349368e+02, 3.351378348958918e+03
1449, 6.516078460808281e-01, 6.815098156568528e-01, 5.755831878764232e-02, 0.000000000000000e+00, 0.000000000000000e+00, 0.000000000000000e+00, 2.985884022412737e+03, 2.867981969973033e+03, -1.218410336997340e+01, 5.352627840058872e+03, 9.519437491767430e+02, -4.602066388298505e+02, 3.041188527404898e+03
1450, 6.317570592250088e-01, 6.805581273405440e-01, 5.833712455408725e-02, 0.000000000000000e+00, 0.000000000000000e+00, 0.000000000000000e+00, 3.319207513824311e+03, 3.201503150602971e+03, -9.476754612144324e-01, 5.955316986061194e+03, 9.733011138827480e+02, -4.904112518424541e+02, 3.291909250036114e+03
1451, 6.425241454211124e-01, 6.638530003013214e-01, 5.820112548226596e-02, 0.000000000000000e+00, 0.000000000000000e+00, 0.000000000000000e+00, 2.889377806972343e+03, 2.771100857475558e+03, -2.905903346478028e+01, 5.058507412917887e+03, 9.803800669148544e+02, -4.331766507510142e+02, 2.902510165078390e+03
1452, 6.226752576213664e-01, 6.628988264431660e-01, 5.894387382699357e-02, 0.000000000000000e+00, 0.000000000000000e+00, 0.000000000000000e+00, 3.115914409461978e+03, 3.062272089352560e+03, 8.145779019738704e+00, 5.617632342184184e+03, 9.854729608310784e+02, -4.518363261299448e+02, 3.149889870320548e+03
1453, 6.334382124912317e-01, 6.461961799087561e-01, 5.883864450284158e-02, 0.000000000000000e+00, 0.000000000000000e+00, 0.000000000000000e+00, 2.998738904742038e+03, 2.873824434601507e+03, -2.024985291372729e+01, 5.121213248017903e+03, 9.696219552734847e+02, -4.311784631333766e+02, 2.857464557956297e+03
1454, 6.135896799269510e-01, 6.452266294101201e-01, 5.954474567395961e-02, 0.000000000000000e+00, 0.000000000000000e+00, 0.000000000000000e+00, 3.308636581357554e+03, 3.193714547812889e+03, 1.896841818864716e+01, 5.794926943834988e+03, 1.069416497612241e+03, -4.081066149861867e+02, 3.226803953004970e+03
1455, 6.243523848989658e-01, 6.285238500772596e-01, 5.947121379849447e-02, 0.000000000000000e+00, 0.000000000000000e+00, 0.000000000000000e+00, 2.852500781564469e+03, 2.809158900857426e+03, -2.613269323576042e+00, 5.063616729021088e+03, 9.724864427539959e+02, -3.740506771647086e+02, 2.871184082248485e+03
1456, 6.045057720842962e-01, 6.275683880674117e-01, 6.013977138817498e-02, 0.000000000000000e+00, 0.000000000000000e+00, 0.000000000000000e+00, 3.236316575123370e+03, 3.172066084240771e+03, -1.286786706554341e+01, 5.702684299935186e+03, 1.071470631994905e+03, -3.829906559475208e+02, 3.182805906100574e+03
1457, 6.152667428229153e-01, 6.108521618714394e-01, 6.009959851672247e-02, 0.000000000000000e+00, 0.000000000000000e+00, 0.000000000000000e+00, 2.947596914473218e+03, 2.858701900438172e+03, 2.123335036829328e+00, 5.210071859981018e+03, 1.021502298012754e+03, -2.945490068903781e+02, 2.952712254381900e+03
1458, 5.954192591090572e-01, 6.098754818426118e-01, 6.073003871842352e-02, 0.000000000000000e+00, 0.000000000000000e+00, 0.000000000000000e+00, 3.381351062200909e+03, 3.303053349314692e+03, 2.032987693399698e+01, 6.010539422844872e+03, 1.070606490469648e+03, -3.157556599131301e+02, 3.295991656128938e+03
1459, 6.061763227381847e-01, 5.931410618629656e-01, 6.072414619092383e-02, 0.000000000000000e+00, 0.000000000000000e+00, 0.000000000000000e+00, 3.174926500808299e+03, 3.025412549559321e+03, 5.870189531396367e+00, 5.561803447613626e+03, 1.062589359395940e+03, -2.964548455395113e+02, 3.118886921336225e+03
1460, 5.863302355247042e-01, 5.922005478920966e-01, 6.131444677052547e-02, 0.000000000000000e+00, 0.000000000000000e+00, 0.000000000000000e+00, 3.397317799348535e+03, 3.288278040133159e+03, -2.277109362765383e+00, 6.144455502425451e+03, 1.093859450117696e+03, -3.263427773421635e+02, 3.430350176427788e+03
1461, 5.970959895477919e-01, 5.755108536860470e-01, 6.134173111629245e-02, 0.000000000000000e+00, 0.000000000000000e+00, 0.000000000000000e+00, 3.337290778976046e+03, 3.269567987151960e+03, -1.900445346089043e+01, 5.990749661285296e+03, 1.068872440966048e+03, -3.117109230753805e+02, 3.308348462867299e+03
1462, 5.772484501932352e-01, 5.745533588002627e-01, 6.189251441118292e-02, 0.000000000000000e+00, 0.000000000000000e+00, 0.000000000000000e+00, 3.622721645606557e+03, 3.567050548373489e+03, -2.234920891378920e+01, 6.635047356993873e+03, 1.048945281463870e+03, -3.445844045764756e+02, 3.592141039504670e+03
1463, 5.880086001832791e-01, 5.578228865399997e-01, 6.195476025358933e-02, 0.000000000000000e+00, 0.000000000000000e+00, 0.000000000000000e+00, 3.449686071680448e+03, 3.380158048486950e+03, -2.502505542561756e+01, 6.232346896349592e+03, 1.034150138888318e+03, -3.286437628585996e+02, 3.387596017177626e+03
1464, 5.681626835491496e-01, 5.568684747857240e-01, 6.246593680836450e-02, 0.000000000000000e+00, 0.000000000000000e+00, 0.000000000000000e+00, 3.772639226343700e+03, 3.721183733084383e+03, -7.698796821780387e+00, 6.850553463991458e+03, 9.711362416276312e+02, -3.724790988269671e+02, 3.588912922936924e+03
1465, 5.789260652213579e-01, 5.401727768047023e-01, 6.256066194500817e-02, 0.000000000000000e+00, 0.000000000000000e+00, 0.000000000000000e+00, 3.426378811954672e+03, 3.319626836845924e+03, -2.212388901839235e+01, 6.258052566807500e+03, 1.006041061890120e+03, -3.632147354551209e+02, 3.430110507036788e+03
1466, 5.590787771984946e-01, 5.392138210131949e-01, 6.303340650200562e-02, 0.000000000000000e+00, 0.000000000000000e+00, 0.000000000000000e+00, 3.578928405473166e+03, 3.512046017533426e+03, -3.437890631664206e+00, 6.665191767660244e+03, 9.844478908079122e+02, -4.257073575598853e+02, 3.631396443151739e+03
1467, 5.698415712602352e-01, 5.225051094865235e-01, 6.316116099804851e-02, 0.000000000000000e+00, 0.000000000000000e+00, 0.000000000000000e+00, 3.568935240504887e+03, 3.498970747141082e+03, 5.665194616999909e+00, 6.497998606511214e+03, 9.798351406413497e+02, -4.324378129250733e+02, 3.497223476528839e+03
1468, 5.499946410608039e-01, 5.215454125293726e-01, 6.359616588450359e-02, 0.000000000000000e+00, 0.000000000000000e+00, 0.000000000000000e+00, 3.628244781247646e+03, 3.578449029207498e+03, 1.774606458736875e+01, 6.684797477032657e+03, 1.002377054030997e+03, -4.357907366257019e+02, 3.616927160079912e+03
1469, 5.607574530806223e-01, 5.048384475705197e-01, 6.375642282394246e-02, 0.000000000000000e+00, 0.000000000000000e+00, 0.000000000000000e+00, 3.463813019164919e+03, 3.405826665187192e+03, 1.558255420138493e+01, 6.301183606632958e+03, 9.886264970869247e+02, -4.422511506246458e+02, 3.426105191617319e+03
1470, 5.409110319676612e-01, 5.038779880258730e-01, 6.415387362956693e-02, 0.000000000000000e+00, 0.000000000000000e+00, 0.000000000000000e+00, 3.638620992418453e+03, 3.585567284519917e+03, 8.374922242944987e-01, 6.667536715255776e+03, 1.045347021832801e+03, -4.558940491134825e+02, 3.638627736712932e+03
1471, 5.516737578326295e-01, 4.871728419462992e-01, 6.434643206748886e-02, 0.000000000000000e+00, 0.000000000000000e+00, 0.000000000000000e+00, 3.413229011539507e+03, 3.343914390052917e+03, 1.603016047534120e+00, 6.246855922080345e+03, 1.029958711053833e+03, -4.049115121302030e+02, 3.450357997078922e+03
1472, 5.318280425705950e-01, 4.862116396780247e-01, 6.470654346283214e-02, 0.000000000000000e+00, 0.000000000000000e+00, 0.000000000000000e+00, 3.671267832362443e+03, 3.678707697631638e+03, 5.230177630961273e+00, 6.918825086163929e+03, 9.866602613144421e+02, -4.726787897733341e+02, 3.756777245571229e+03
1473, 5.425905150768031e-01, 4.695085245883220e-01, 6.493117012997363e-02, 0.000000000000000e+00, 0.000000000000000e+00, 0.000000000000000e+00, 3.367350094890710e+03, 3.402683251271149e+03, -1.370857003247295e+01, 6.280070038375041e+03, 9.928325052358590e+02, -4.372592826223395e+02, 3.451604015180415e+03
1474, 5.227458259695218e-01, 4.685465663216493e-01, 6.525418889436324e-02, 0.000000000000000e+00, 0.000000000000000e+00, 0.000000000000000e+00, 3.751450786295979e+03, 3.722230199579133e+03, -1.669636028870785e+01, 6.834572932163469e+03, 9.523829666954730e+02, -4.627276887165741e+02, 3.600121336824526e+03
1475, 5.335078533794535e-01, 4.518456737381166e-01, 6.551061714224439e-02, 0.000000000000000e+00, 0.000000000000000e+00, 0.000000000000000e+00, 3.435045250725299e+03, 3.394025843907763e+03, 1.824605696278934e+01, 6.311245718712044e+03, 9.543866646686326e+02, -4.081584514021733e+02, 3.409623468668799e+03
1476, 5.136644423261142e-01, 4.508829383739174e-01, 6.579682783377767e-02, 0.000000000000000e+00, 0.000000000000000e+00, 0.000000000000000e+00, 3.661883181340853e+03, 3.645620470934944e+03, 1.007889219463051e+01, 6.759057114357393e+03, 9.319710254123323e+02, -4.472565904201964e+02, 3.584584967845946e+03
1477, 5.244258748768169e-01, 4.341844215531782e-01, 6.608475509600109e-02, 0.000000000000000e+00, 0.000000000000000e+00, 0.000000000000000e+00, 3.418138811690123e+03, 3.395602986601542e+03, -1.688909894068868e+01, 6.225282943133187e+03, 9.508225730981869e+02, -4.159710989560797e+02, 3.343047955725544e+03
1478, 5.046542221538166e-01, 4.331467665541271e-01, 6.633638446026202e-02, 0.000000000000000e+00, 0.000000000000000e+00, 0.000000000000000e+00, 3.651161445562687e+03, 3.597515788564811e+03, -6.447857931585732e-02, 6.635539611553173e+03, 9.489177573139393e+02, -4.260651373405641e+02, 3.509333137261388e+03
1479, 8.438923663899760e-01, 3.802099742755914e-01, 3.699248781929401e-02, 0.000000000000000e+00, 0.000000000000000e+00, 0.000000000000000e+00, -2.728018635979042e+02, -4.196018184310511e+02, -5.732289350656597e+01, -1.071399933463608e+03, 4.535242343129776e+02, -4.571605719667780e+01, 1.084091902326717e+03
1480, 9.659082252869905e-01, 7.310193346133802e-01, 2.409234259311428e-02, 0.000000000000000e+00, 0.000000000000000e+00, 0.000000000000000e+00, -6.198673020230506e+02, -7.908990317579105e+02, -1.269014331464001e+01, -1.477171384112537e+03, 1.937009612742822e+02, 7.613244039564131e+01, 8.648859424944096e+02
1481, 9.764861347075885e-01, 7.142890894298632e-01, 2.203949481525697e-02, 0.000000000000000e+00, 0.000000000000000e+00, 0.000000000000000e+00, -7.949449536379602e+02, -1.021826842564372e+03, -8.694332985752750e+00, -1.906426734602500e+03, 3.823867803402908e+02, -3.362428249553957e+02, 1.346386085260685e+03
1482, 9.855218937453623e-01, 7.319810980470017e-01, 2.086625950439861e-02, 0.000000000000000e+00, 0.000000000000000e+00, 0.000000000000000e+00, -1.625543895060971e+03, -1.494689899955995e+03, -7.386953829189736e+01, -2.872612702858802e+03, 7.828966194300675e+02, -2.289380002908559e+02, 1.935943339880424e+03
1483, 9.960853311429867e-01, 7.152516990602927e-01, 1.872372221672176e-02, 0.000000000000000e+00, 0.000000000000000e+00, 0.000000000000000e+00, -2.212314324408571e+03, -2.427647620304856e+03, -1.748197134653114e+02, -4.085945419396682e+03, 5.242388318334138e+02, 4.711928565208967e+02, 2.176152505826230e+03
1484, 1.005114853024848e+00, 7.329454238068884e-01, 1.751120719415214e-02, 0.000000000000000e+00, 0.000000000000000e+00, 0.000000000000000e+00, -4.132101964240728e+03, -3.983792834281620e+03, 1.585011563891763e+01, -8.034120491509177e+03, 9.634025435483459e+02, -1.287884398599351e+03, 4.856704118200879e+03
1485, 9.870536801803333e-01, 6.975583811120122e-01, 1.992400762442362e-02, 0.000000000000000e+00, 0.000000000000000e+00, 0.000000000000000e+00, -2.440982128169006e+03, -2.396869743405548e+03, 3.001501047960664e+01, -4.980526951054097e+03, 1.821222347375522e+02, -5.045420554347954e+02, 2.725647716252033e+03
1486, 1.006638281217354e+00, 6.985228489024293e-01, 1.651937069981304e-02, 0.000000000000000e+00, 0.000000000000000e+00, 0.000000000000000e+00, -2.230354454018054e+03, -2.210897820261991e+03, 7.814626404342860e+00, -4.721747575551612e+03, -2.221427197311083e+02, -9.585141462151767e+02, 3.026609628703352e+03
1487, 8.761260575123160e-01, 9.681739119056467e-01, 3.940194620191675e-02, 0.000000000000000e+00, 0.000000000000000e+00, 0.000000000000000e+00, 9.979348458304532e+02, 8.409095666070006e+02, -3.338397014950051e+01, 1.439661436318719e+03, 5.779044224525733e+02, -2.005314216852491e+02, 1.189556281300011e+03
1488, 7.250260302943187e-01, 1.012660000756430e+00, 4.908694168375873e-02, 0.000000000000000e+00, 0.000000000000000e+00, 0.000000000000000e+00, 3.688966573011297e+03, 3.605671590900570e+03, 1.621057230830782e+01, 6.421274285256001e+03, 1.121058106388979e+03, -3.816105018302500e+02, 3.450798881047049e+03
1489, 7.199312971205618e-01, 2.880828717890771e-01, 5.216330734738878e-02, 0.000000000000000e+00, 0.000000000000000e+00, 0.000000000000000e+00, 9.245014223874900e+02, 7.821866776327843e+02, -2.294076426501178e+01, 1.320052973986708e+03, 6.254163487428011e+02, -1.324318932788648e+02, 1.208568416574796e+03
1490, 9.192481610299341e-01, 2.288944229304934e-01, 2.213054858526185e-02, 0.000000000000000e+00, 0.000000000000000e+00, 0.000000000000000e+00, -1.481778629899499e+03, -1.892370203421952e+03, -1.231688706987387e+02, -3.561788681961061e+03, -4.671893654998762e+02, -4.890659350074994e+02, 2.249190642185924e+03
1491, 9.387958272816241e-01, 2.298513493004897e-01, 1.866452728606846e-02, 0.000000000000000e+00, 0.000000000000000e+00, 0.000000000000000e+00, -3.537724200532689e+02, -6.938637438960582e+02, 1.586052049475086e+01, -1.007974162966497e+03, 2.608383480998643e+02, -7.227883030144889e+01, 7.359965896354106e+02
1492, 9.297770192991888e-01, 2.121834186997019e-01, 1.990992548451436e-02, 0.000000000000000e+00, 0.000000000000000e+00, 0.000000000000000e+00, -2.277717713253689e+03, -2.657475597767283e+03, 2.289912275048346e+02, -4.785970472250040e+03, 9.552615403307291e+02, -7.403762323956951e+02, 3.165813460533985e+03
1493, 2.709973333773049e-01, 3.520151058565698e-01, 5.073201870020141e-02, 0.000000000000000e+00, 0.000000000000000e+00, 0.000000000000000e+00, 6.000048248271967e+03, 6.234803607657735e+03, 2.228074574710593e+02, 1.239609669748353e+04, -5.279653529239316e+01, 1.700311913892268e+02, 6.301354054562012e+03
1494, 2.516916759270822e-01, 3.506922780676839e-01, 4.626681419343440e-02, 0.000000000000000e+00, 0.000000000000000e+00, 0.000000000000000e+00, 5.676971264512714e+03, 5.910255532459301e+03, 1.301599369887595e+02, 1.183800523510601e+04, -5.731969750305012e+02, 2.640876537562643e+02, 6.149894702155041e+03
1495, 2.607292034233104e-01, 3.683776388338524e-01, 4.611633293322059e-02, 0.000000000000000e+00, 0.000000000000000e+00, 0.000000000000000e+00, 5.681802312630463e+03, 5.840659938548880e+03, 1.551275588458363e+02, 1.146180064614008e+04, -5.146845434579022e+02, 3.892125207674912e+02, 5.816938459614556e+03
1496, 5.210631327398131e-01, 5.029095325777170e-01, 6.427270152397661e-02, 0.000000000000000e+00, 0.000000000000000e+00, 0.000000000000000e+00, 3.823111159507117e+03, 3.820284748566737e+03, 2.088131982980334e+01, 7.221890002664542e+03, 9.356074593154343e+02, -4.580581907575083e+02, 3.849435792384806e+03
1497, 9.528002714288279e-01, 1.230419661124543e+00, 3.265128509697996e-02, 0.000000000000000e+00, 0.000000000000000e+00, 0.000000000000000e+00, 1.192487502998148e+03, 1.022711183471938e+03, -1.108209843769480e+02, 1.558338870735953e+03, 5.584122533949414e+02, -2.232926241226337e+02, 1.160465214721249e+03
1498, 4.687086245217226e-01, 1.728231963765365e-01, 7.265425610540682e-02, 0.000000000000000e+00, 0.000000000000000e+00, 0.000000000000000e+00, 3.305203977014803e+03, 3.213981206878236e+03, -2.687959020372867e+01, 5.987165194646414e+03, 8.672960133453698e+02, -3.847624493219482e+02, 3.185717279824148e+03
1499, 7.118774738728445e-01, 8.740608846996405e-01, 5.222288794094073e-02, 0.000000000000000e+00, 0.000000000000000e+00, 0.000000000000000e+00, 3.269914419488051e+03, 3.116905125609079e+03, -2.469205948307268e+01, 5.871300533267413e+03, 9.897245357474446e+02, -2.716421574862142e+02, 3.217222289166650e+03
1500, 5.665092011189153e-01, 5.912040031153774e-01, 6.162393696891404e-02, 0.000000000000000e+00, 0.000000000000000e+00, 0.000000000000000e+00, 3.669720940938533e+03, 3.678948560809070e+03, 6.430409536960520e-01, 6.860717725251966e+03, 1.082101981077064e+03, -4.001566151682364e+02, 3.761158279570247e+03
1501, 6.068180808260325e-01, 1.794282540901793e-01, 6.337273970813694e-02, 0.000000000000000e+00, 0.000000000000000e+00, 0.000000000000000e+00, 1.875284388533200e+03, 1.768548932168018e+03, -2.742331186203429e+01, 3.108387566902854e+03, 6.919946754334140e+02, -1.814613593098250e+02, 1.789179258205340e+03
1502, 6.119128670733134e-01, 6.796296737564489e-01, 5.884467650029832e-02, 0.000000000000000e+00, 0.000000000000000e+00, 0.000000000000000e+00, 3.479100151623910e+03, 3.395544407162789e+03, 1.362776670631290e+00, 6.286103336937602e+03, 9.762913741384550e+02, -4.934379489673028e+02, 3.422086034456569e+03
1503, 9.872447027719846e-01, 1.335169351639321e+00, 2.951388973551488e-02, 0.000000000000000e+00, 0.000000000000000e+00, 0.000000000000000e+00, 1.064222239660961e+03, 9.895475098212955e+02, -2.575698104326223e+01, 1.405134692892645e+03, 6.034120083739117e+02, -1.648932260827877e+02, 1.150275145858588e+03
1504, 1.099391986250294e+00, 1.443466697673515e+00, 1.550797741850156e-02, 0.000000000000000e+00, 0.000000000000000e+00, 0.000000000000000e+00, -3.610387200140723e+02, -4.095674210274986e+02, -7.013281680001634e+01, -7.705924759845147e+02, 2.639513535043915e+02, -2.570013190889648e+02, 7.563927704221203e+02
1505, 8.544946003638980e-01, 3.634878970670074e-01, 3.516453262601658e-02, 0.000000000000000e+00, 0.000000000000000e+00, 0.000000000000000e+00, -4.690101406885179e+02, -6.273262555877067e+02, 5.565583066041849e+00, -1.201587531992379e+03, 4.163781755604663e+02, -4.269483923073502e+01, 9.856108006290980e+02
1506, 9.612524872641079e-01, 6.102628350178081e-01, 2.258108125446153e-02, 0.000000000000000e+00, 0.000000000000000e+00, 0.000000000000000e+00, -1.521496841785277e+03, -1.682424096851603e+03, -1.708724664319072e+02, -3.836077795318849e+03, -4.314531790380122e+01, 5.877870905174238e+02, 2.477975213448280e+03
1507, 9.356716579566638e-01, 5.227645533449703e-01, 2.516491191137803e-02, 0.000000000000000e+00, 0.000000000000000e+00, 0.000000000000000e+00, -1.773734159443920e+03, -1.834038028387314e+03, 3.418592408461838e+01, -4.297973606033029e+03, 2.583562989417890e+02, -1.933683477485963e+02, 2.557171064499889e+03
1508, 1.044145790480938e+00, 9.590818090039586e-01, 1.534948083538982e-02, 0.000000000000000e+00, 0.000000000000000e+00, 0.000000000000000e+00, -7.971248842397868e+02, -9.359872982848113e+02, 8.906580777651251e+01, -1.464330928966755e+03, 3.648682225188437e+02, 6.885118872912200e+01, 8.995570612492941e+02
1509, 1.053171477768739e+00, 9.767774040192398e-01, 1.412229275740131e-02, 0.000000000000000e+00, 0.000000000000000e+00, 0.000000000000000e+00, -1.001171868705941e+03, -1.334577692137297e+03, 3.360291022674376e+01, -2.515725190656900e+03, -1.049930022538740e+02, 2.739474954952205e+01, 1.392400727483823e+03
1510, 1.035117593916487e+00, 9.413866448280996e-01, 1.656245481663430e-02, 0.000000000000000e+00, 0.000000000000000e+00, 0.000000000000000e+00, -3.474568279264396e+02, -3.202577326878056e+02, -1.803073054926734e+01, -7.040767922009366e+02, 3.833641780176163e+02, 2.784550562109072e+01, 7.627732607511326e+02
1511, 8.635211770703053e-01, 3.811007393724104e-01, 3.408668250208880e-02, 0.000000000000000e+00, 0.000000000000000e+00, 0.000000000000000e+00, -6.764583455948808e+02, -7.627000891023691e+02, 8.898180770164831e+00, -1.557830116013696e+03, 4.228515017839557e+02, -9.847651906852880e+01, 1.128708723641607e+03
1512, 9.493120381010286e-01, 2.131419243560266e-01, 1.637254443863393e-02, 0.000000000000000e+00, 0.000000000000000e+00, 0.000000000000000e+00, -2.542887124206605e+03, -2.938383180189845e+03, 3.668266936725267e+00, -4.877473810213673e+03, -4.184038170959297e+02, -1.057508081462854e+03, 2.926360872520512e+03
1513, 9.402972891943325e-01, 1.954732926773582e-01, 1.764060287641912e-02, 0.000000000000000e+00, 0.000000000000000e+00, 0.000000000000000e+00, -4.403947916216780e+03, -4.246140725317102e+03, 1.226628663956663e+02, -9.237816822804611e+03, 4.158889717837866e+02, 4.219393184549204e+02, 5.025150624728391e+03
1514, 6.253217513930890e-01, 1.041551196420942e+00, 4.218930289377472e-02, 0.000000000000000e+00, 0.000000000000000e+00, 0.000000000000000e+00, 6.695032625293177e+03, 6.944336811488623e+03, 2.272249035346483e+01, 1.305779941453027e+04, -7.541923699125081e+01, 1.480522927447410e+02, 6.248604720889332e+03
1515, 5.620648979191828e-01, 9.177972723214298e-01, 4.407487082476903e-02, 0.000000000000000e+00, 0.000000000000000e+00, 0.000000000000000e+00, 5.748334739072914e+03, 6.093483728004650e+03, 2.093160253033220e+02, 1.188337481888205e+04, 6.785667377422515e+02, -1.175340481618145e+02, 6.098736142047137e+03
1516, 5.344341222089384e-01, 8.645382981238969e-01, 4.477893581259933e-02, 0.000000000000000e+00, 0.000000000000000e+00, 0.000000000000000e+00, 6.294775679597763e+03, 6.548263444940902e+03, 1.887939181467855e+02, 1.427077800641811e+04, 5.859997898630186e+02, -2.508970074209798e+02, 7.936309896618795e+03
1517, 4.714442477964416e-01, 7.408917798638789e-01, 4.649968033373993e-02, 0.000000000000000e+00, 0.000000000000000e+00, 0.000000000000000e+00, 5.472083507761809e+03, 5.622825746450778e+03, 1.810661467078851e+02, 1.153393366956178e+04, 2.887780044041105e+02, -1.495512203083991e+02, 6.022508073973294e+03
1518, 4.440822541688801e-01, 6.874910341982949e-01, 4.717851635658071e-02, 0.000000000000000e+00, 0.000000000000000e+00, 0.000000000000000e+00, 5.537410755320367e+03, 6.025397672250072e+03, 1.849536537218889e+02, 1.153047443993226e+04, 5.669384401980670e+01, 1.292072170022168e+02, 5.778646601168148e+03
1519, 4.172599879465631e-01, 6.345438119314988e-01, 4.788898493449457e-02, 0.000000000000000e+00, 0.000000000000000e+00, 0.000000000000000e+00, 6.500078310077936e+03, 6.701031778028164e+03, 2.428120269255826e+02, 1.343312125076620e+04, 1.187471898095913e+02, 2.130024283871997e+02, 6.860723979387895e+03
1520, 3.719853733703675e-01, 5.460834956005239e-01, 4.894951787436924e-02, 0.000000000000000e+00, 0.000000000000000e+00, 0.000000000000000e+00, 5.649070895822681e+03, 5.907403397808256e+03, 3.542787131578165e+02, 1.206932528747583e+04, -1.260118312896721e+02, -3.271314277383879e+02, 6.353980156756218e+03
1521, 3.462444913130923e-01, 4.251236889487959e-01, 5.670860359999683e-02, 0.000000000000000e+00, 0.000000000000000e+00, 0.000000000000000e+00, 5.743168183921942e+03, 5.981173388704055e+03, 2.118079468357103e+02, 1.195053762608142e+04, 3.994865216216917e+02, -2.030976309228622e+02, 6.152056391051624e+03
1522, 3.266540527638394e-01, 4.239608446823662e-01, 5.363478064422676e-02, 0.000000000000000e+00, 0.000000000000000e+00, 0.000000000000000e+00, 5.849936735968456e+03, 6.104372904633548e+03, 1.805862094998605e+02, 1.198961618443745e+04, 7.362724183014004e+01, -1.235034262107293e+02, 6.029767932220758e+03
1523, 1.116130923179328e+00, 1.512772500803887e+00, 1.406462868833041e-02, 0.000000000000000e+00, 0.000000000000000e+00, 0.000000000000000e+00, 6.352463640356933e+01, 4.425331535665810e+01, -2.177130708474315e+01, 1.311764020921166e+02, 3.498624314818481e+02, 9.492329200015934e+00, 6.124992484699694e+02
1524, 1.105593431007460e+00, 1.529298559926612e+00, 1.603446152706046e-02, 0.000000000000000e+00, 0.000000000000000e+00, 0.000000000000000e+00, 8.576515736671746e+01, 6.830937064233235e+01, -3.111791072823533e+01, 4.327590611162656e+01, 2.334852658741428e+02, -4.874401382088698e+01, 4.182671102892732e+02
1525, 9.718816319594652e-01, 3.693352797547587e-01, 1.567695531688635e-02, 0.000000000000000e+00, 0.000000000000000e+00, 0.000000000000000e+00, -2.787454967849143e+03, -2.701108476355992e+03, -8.908496863663665e+01, -5.964464610929266e+03, 4.876527559981891e+01, -4.068225903619439e+02, 3.301912481615389e+03
1526, 2.645479065932910e-01, 7.747951306250730e-02, 7.332078188693830e-02, 0.000000000000000e+00, 0.000000000000000e+00, 0.000000000000000e+00, 3.939857613769855e+03, 3.968559437188652e+03, 1.219579953222259e+02, 7.855243551873295e+03, 4.509498700624987e+02, -9.629420494877877e+02, 4.319161134869392e+03
1527, 2.446442490920002e-01, 7.634325662625266e-02, 7.172807617765270e-02, 0.000000000000000e+00, 0.000000000000000e+00, 0.000000000000000e+00, 4.332689097669957e+03, 4.269210477290491e+03, 6.138582410350905e+01, 8.587776386670801e+03, 4.221693400985555e+02, -1.062978373801069e+03, 4.723945281841065e+03
1528, 9.643617675072980e-01, 3.172501877551327e-01, 1.590787289131868e-02, 0.000000000000000e+00, 0.000000000000000e+00, 0.000000000000000e+00, -6.642601957561102e+02, -5.945591072492778e+02, -2.462565842223379e+01, -1.228361772259354e+03, 4.280511802599348e+02, -5.077517277978396e+02, 1.298970932481635e+03
1529, 9.161747409988645e-01, 7.399400432441736e-02, 1.938402266791098e-02, 0.000000000000000e+00, 0.000000000000000e+00, 0.000000000000000e+00, -2.028192720161445e+03, -2.270920775594293e+03, -4.904123477933636e+01, -4.483787330465884e+03, -9.725239931944441e+02, -3.966845842435304e+02, 2.968083548795734e+03
1530, 8.966860712748025e-01, 7.304073656303453e-02, 2.285656384068154e-02, 0.000000000000000e+00, 0.000000000000000e+00, 0.000000000000000e+00, -2.578303620471072e+03, -2.726503592259450e+03, 3.348834756312826e+01, -5.328213342515978e+03, 9.818618505931747e+02, -2.365795973898142e+02, 3.199978495979183e+03
1531, 9.356520808614935e-01, 7.495477455812428e-02, 1.581199709442863e-02, 0.000000000000000e+00, 0.000000000000000e+00, 0.000000000000000e+00, -9.071993252071704e+02, -6.035636714704514e+02, -1.824005717131425e+01, -1.370916656442940e+03, 5.261775469026560e+02, 1.292193288092425e+02, 1.153130055540758e+03
1532, 9.582951447395145e-01, 2.307587945596469e-01, 1.509777665428320e-02, 0.000000000000000e+00, 0.000000000000000e+00, 0.000000000000000e+00, -4.139785117012855e+02, -8.747684299247265e+02, 6.032856752599967e+01, -8.206125462223764e+02, 1.637587105077662e+02, -1.645090427419191e+01, 5.314950366545827e+02
1533, 1.100925298041152e+00, 1.409636809423890e+00, 1.463067620065698e-02, 0.000000000000000e+00, 0.000000000000000e+00, 0.000000000000000e+00, -1.801219303539421e+03, -2.079158320385115e+03, 2.603749052137800e+00, -3.615248985836197e+03, -1.816948209848299e+02, 7.013156336393579e+02, 2.106740224925430e+03
1534, 1.009446982674970e+00, 6.298193251313610e-01, 1.452752840547350e-02, 0.000000000000000e+00, 0.000000000000000e+00, 0.000000000000000e+00, -1.026401223908007e+03, -1.282295542185866e+03, -2.729293281825127e+02, -1.850776833094138e+03, 9.603330199271228e+02, 1.213998439094025e+02, 1.889054673895786e+03
1535, 1.126657136201270e+00, 1.496167622991862e+00, 1.198673498515477e-02, 0.000000000000000e+00, 0.000000000000000e+00, 0.000000000000000e+00, -1.537560048728928e+02, -1.883628468053845e+01, 6.521159531176131e+01, 1.199028056477208e+02, 4.326331564438338e+02, -9.336352794303963e+01, 8.103041102151820e+02
1536, 1.088975167345758e+00, 1.271533522532036e+00, 1.394731869043657e-02, 0.000000000000000e+00, 0.000000000000000e+00, 0.000000000000000e+00, -2.757973229926903e+02, -6.190143948804803e+02, -5.433246127444384e+01, -1.061844042710364e+03, 2.173454649107239e+02, 4.564854404228568e+01, 7.891180657046036e+02
1537, 8.310058748592034e-01, 1.515714166775970e+00, 2.975917599694638e-02, 0.000000000000000e+00, 0.000000000000000e+00, 0.000000000000000e+00, 5.029421346825990e+03, 5.310800773635790e+03, 1.542028241321694e+02, 1.183791271095590e+04, -9.859928413186512e+02, -1.509340056534577e+03, 7.371645884120479e+03
1538, 8.219660141622417e-01, 1.498138071284088e+00, 3.002500582983780e-02, 0.000000000000000e+00, 0.000000000000000e+00, 0.000000000000000e+00, 6.177887319084845e+03, 6.723843341437720e+03, 6.427626620398817e+02, 1.214819446442664e+04, -1.766281394481130e+02, 1.588895423703061e+02, 5.838824532803099e+03
1539, 1.002413529607434e+00, 5.437220599177873e-01, 1.391476526623112e-02, 0.000000000000000e+00, 0.000000000000000e+00, 0.000000000000000e+00, -7.964342918316614e+02, -8.170725817183868e+02, -8.894258915147560e+01, -1.349526232344930e+03, 4.325823531271374e+02, -1.942559632866146e+01, 9.387058391487550e+02
1540, 3.354352347469892e-01, 6.334777172897786e-02, 7.713303665610936e-02, 0.000000000000000e+00, 0.000000000000000e+00, 0.000000000000000e+00, 3.277455231410564e+03, 3.224340027933649e+03, -1.078992680473113e+01, 6.140160673315975e+03, 5.385747094276975e+02, -1.003688282523247e+03, 3.498951954498184e+03
1541, 9.809014659934554e-01, 3.870225244281418e-01, 1.440021318209984e-02, 0.000000000000000e+00, 0.000000000000000e+00, 0.000000000000000e+00, -4.496983343938970e+03, -4.929037899221341e+03, 4.364497708426162e+02, -9.351044137664983e+03, 9.349213340695850e+02, -5.271888408498828e+02, 5.067429464948908e+03
1542, 1.125067758263364e+00, 1.530344121426981e+00, 1.292295554201614e-02, 0.000000000000000e+00, 0.000000000000000e+00, 0.000000000000000e+00, 1.459767138699279e+02, 1.554133116058264e+02, 1.183314559643604e+01, 1.927995965099727e+02, 2.549269086669935e+02, -6.221933231796504e+01, 4.569864059697747e+02
1543, 1.066396360809993e+00, 1.528063692963264e+00, 2.165078733115937e-02, 0.000000000000000e+00, 0.000000000000000e+00, 0.000000000000000e+00, 5.566265884904717e+02, 6.223712970672723e+02, -1.128495052351524e+02, 7.175588706853810e+02, 2.730348097755323e+02, -2.869964116238647e+02, 7.270426366882965e+02
1544, 1.047053118715700e+00, 1.526433108708836e+00, 2.408417818280639e-02, 0.000000000000000e+00, 0.000000000000000e+00, 0.000000000000000e+00, 1.355263164358951e+03, 1.087830581330855e+03, -1.645020585224010e+02, 1.416387627953715e+03, 4.614621629720548e+02, -4.414417908992514e+02, 1.181626163088843e+03
1545, 9.884204177417411e-01, 4.391214474569355e-01, 1.417084973036665e-02, 0.000000000000000e+00, 0.000000000000000e+00, 0.000000000000000e+00, -7.735884344914480e+02, -9.128529463543414e+02, 2.085376807532885e+01, -1.224831262074549e+03, 1.528762294305894e+02, -5.276645982460298e+01, 4.898403239275383e+02
1546, 1.097984849243007e+00, 1.289196936745108e+00, 1.274476774969748e-02, 0.000000000000000e+00, 0.000000000000000e+00, 0.000000000000000e+00, -3.713699599624210e+03, -3.952792325711162e+03, -2.615476638513535e+02, -7.586030230015256e+03, 1.410490059243740e+03, 1.077293191456384e+03, 4.876639599165759e+03
1547, 7.987820614434783e-01, 6.849597567439214e-02, 3.882175148349984e-02, 0.000000000000000e+00, 0.000000000000000e+00, 0.000000000000000e+00, -1.404802719923764e+02, -2.741936217749846e+02, -3.194270127041077e+01, -6.575365839865868e+02, 4.009959332659246e+02, 2.168272067822255e+01, 8.384234033523661e+02
1548, 8.183178951898588e-01, 6.942138608546460e-02, 3.583042277365815e-02, 0.000000000000000e+00, 0.000000000000000e+00, 0.000000000000000e+00, -3.645527355938963e+02, -4.999592065741290e+02, 6.184422694380227e+00, -1.004708686985705e+03, 3.239556606298453e+02, -2.807452810456499e+00, 8.102058337355447e+02
1549, 4.934063468396314e-01, 7.107107174604485e-02, 7.247474898211263e-02, 0.000000000000000e+00, 0.000000000000000e+00, 0.000000000000000e+00, 2.399949434546436e+03, 2.271896997752657e+03, -7.814554343541133e+01, 4.418252167345468e+03, 5.614345510307248e+02, -5.753811927148728e+02, 2.511081226255924e+03
1550, 5.131114764152400e-01, 7.201218075925726e-02, 7.114630427878021e-02, 0.000000000000000e+00, 0.000000000000000e+00, 0.000000000000000e+00, 2.338479104310331e+03, 2.228970171398540e+03, -7.186448670015763e+01, 4.227237656375966e+03, 5.946061144999496e+02, -5.172653434968685e+02, 2.380144979250276e+03
1551, 4.736914217065708e-01, 7.011887968458891e-02, 7.366881984464591e-02, 0.000000000000000e+00, 0.000000000000000e+00, 0.000000000000000e+00, 2.467866971873632e+03, 2.409428979568169e+03, -5.776027727851347e+01, 4.517908162851053e+03, 4.982280370084137e+02, -6.216171309451388e+02, 2.497961174022542e+03
1552, 1.075217430517876e+00, 1.133211493485340e+00, 1.350534259130438e-02, 0.000000000000000e+00, 0.000000000000000e+00, 0.000000000000000e+00, -4.864271386538998e+02, -8.489999429131609e+02, 2.571911364573150e+01, -1.335426506751277e+03, 2.959797603143439e+02, -2.306444963968422e+02, 9.842875640962851e+02
1553, 3.317610248167565e-01, 1.315444560444753e-01, 7.430437376970662e-02, 0.000000000000000e+00, 0.000000000000000e+00, 0.000000000000000e+00, 4.361468279386134e+03, 4.298737979232435e+03, 1.396003316551054e+01, 8.390317613508583e+03, 8.257718454599567e+02, -5.868469306174072e+02, 4.423544167902701e+03
1554, 3.156923376412058e-01, 6.244159336435476e-02, 7.671189074625578e-02, 0.000000000000000e+00, 0.000000000000000e+00, 0.000000000000000e+00, 3.315022321203101e+03, 3.261825441262166e+03, 9.708165119068905e+00, 6.387449008964107e+03, 5.250468857263351e+02, -1.014332685550271e+03, 3.676954855081477e+03
1555, 5.528956612616438e-01, 2.629448326795708e-01, 6.728141155823569e-02, 0.000000000000000e+00, 0.000000000000000e+00, 0.000000000000000e+00, 2.747434583590327e+03, 2.691591722825661e+03, -4.013826216796659e+01, 4.940619046734609e+03, 8.837410247036410e+02, -2.757920505802670e+02, 2.740741106174491e+03
1556, 5.601777160334438e-01, 3.150742099477769e-01, 6.640817492221922e-02, 0.000000000000000e+00, 0.000000000000000e+00, 0.000000000000000e+00, 2.729094836021126e+03, 2.648014720314560e+03, -2.709723481669622e+01, 4.909490473989101e+03, 9.504324791965872e+02, -2.453885571782352e+02, 2.798267492354295e+03
1557, 4.287889763216758e-01, 3.605153159863664e-01, 6.782591309826330e-02, 0.000000000000000e+00, 0.000000000000000e+00, 0.000000000000000e+00, 4.358286428309148e+03, 4.397356884527608e+03, 5.721058850131546e+01, 8.334127920196388e+03, 1.064187827178202e+03, -4.197900210674951e+02, 4.426000617085056e+03
1558, 4.486109596013885e-01, 3.615077635673249e-01, 6.828020706255164e-02, 0.000000000000000e+00, 0.000000000000000e+00, 0.000000000000000e+00, 4.071249852724630e+03, 4.052253008536726e+03, 3.501607391600451e+01, 7.632059254863590e+03, 1.063217392888698e+03, -3.873230383442238e+02, 4.073376741459446e+03
1559, 4.777577032183189e-01, 1.904264824055150e-01, 7.202071332877405e-02, 0.000000000000000e+00, 0.000000000000000e+00, 0.000000000000000e+00, 3.319934942524619e+03, 3.235767660104693e+03, -1.476686126134031e+01, 5.944419093875659e+03, 8.816374225083937e+02, -3.646172443036621e+02, 3.138031534306687e+03
1560, 4.579888255776468e-01, 1.894768883746161e-01, 7.277099496548220e-02, 0.000000000000000e+00, 0.000000000000000e+00, 0.000000000000000e+00, 3.423479900206753e+03, 3.349644149521206e+03, -2.983437647730957e+01, 6.207352207502845e+03, 8.924357429117670e+02, -3.702738308011771e+02, 3.280891511174762e+03
1561, 1.038067153716913e+00, 1.508858326636602e+00, 2.500248434693308e-02, 0.000000000000000e+00, 0.000000000000000e+00, 0.000000000000000e+00, 9.649370155534091e+02, 8.449807523681465e+02, -1.109517746213428e+02, 1.066700756801533e+03, 4.699721451523552e+02, -3.406368834684416e+02, 1.041443883225370e+03
1562, 1.027520326740701e+00, 1.525486823348570e+00, 2.632407443246955e-02, 0.000000000000000e+00, 0.000000000000000e+00, 0.000000000000000e+00, 1.320555440899366e+03, 1.151729054978398e+03, -8.819622470561391e+01, 2.047314367845069e+03, 7.195649167112185e+02, -4.669107939737209e+02, 1.705887091333948e+03
1563, 8.273259541738267e-01, 8.702335623182107e-02, 3.472078685702657e-02, 0.000000000000000e+00, 0.000000000000000e+00, 0.000000000000000e+00, -4.958499649081561e+02, -5.230169292323177e+02, -3.262295658392429e+01, -1.182405462713028e+03, 4.164189263285156e+02, -5.090661284450156e+01, 9.922833541875902e+02
1564, 8.378456069755050e-01, 7.037719472001490e-02, 3.274510451268876e-02, 0.000000000000000e+00, 0.000000000000000e+00, 0.000000000000000e+00, -9.856564623076417e+02, -1.045693659789766e+03, -6.984089839420263e+01, -2.039737106325247e+03, 4.579140152593390e+02, 7.228915598826083e+01, 1.307965051897760e+03
1565, 9.634546961143476e-01, 1.213758665647537e+00, 3.129878366947444e-02, 0.000000000000000e+00, 0.000000000000000e+00, 0.000000000000000e+00, 8.531625121038817e+02, 7.061391292531773e+02, 8.158537831925063e+00, 1.077747546709259e+03, 4.982446517015707e+02, -1.753120819131726e+02, 9.706798785693484e+02
1566, 5.744797859605693e-01, 2.294661881481784e-01, 6.598693877687078e-02, 0.000000000000000e+00, 0.000000000000000e+00, 0.000000000000000e+00, 2.444795810329893e+03, 2.312112071568352e+03, -3.913691032236721e+01, 4.202594695405991e+03, 8.159162853854421e+02, -2.699928889290520e+02, 2.358205875386270e+03
1567, 5.546353316461221e-01, 2.285342235288947e-01, 6.740365390405009e-02, 0.000000000000000e+00, 0.000000000000000e+00, 0.000000000000000e+00, 2.659943303882596e+03, 2.531479900178150e+03, -2.795637331005650e+01, 4.595743002829619e+03, 8.348299460837145e+02, -3.081998981559296e+02, 2.527969949085993e+03
1568, 8.062667256343664e-01, 1.203314657442253e-01, 3.852750207598050e-02, 0.000000000000000e+00, 0.000000000000000e+00, 0.000000000000000e+00, -2.549948932205224e+02, -3.864772055479252e+02, -2.861882311142558e+01, -8.832775968480738e+02, 4.153273534225905e+02, 9.035873135870272e+00, 9.217435516921806e+02
1569, 9.522253157630473e-01, 1.453426458415892e+00, 3.309463096459690e-02, 0.000000000000000e+00, 0.000000000000000e+00, 0.000000000000000e+00, 2.422653159203008e+03, 2.472118272913096e+03, -1.720082715378067e+02, 4.201523388835478e+03, 3.948461315939865e+02, -1.002567748960427e+02, 1.914538919749848e+03
1570, 5.029012104688348e-01, 4.675759956136031e-01, 6.529934338527636e-02, 0.000000000000000e+00, 0.000000000000000e+00, 0.000000000000000e+00, 3.776724486423953e+03, 3.782477266919942e+03, 3.702900256396673e+01, 7.104572556014517e+03, 9.149412217979543e+02, -4.904301064028742e+02, 3.780541272915795e+03
1571, 5.369507176715739e-01, 3.830222745870875e-01, 6.671214065513183e-02, 0.000000000000000e+00, 0.000000000000000e+00, 0.000000000000000e+00, 3.099893216300670e+03, 3.011617232303734e+03, -5.066027335544307e+00, 5.523276251925457e+03, 9.239648458010713e+02, -2.805242706370003e+02, 2.981911502837173e+03
1572, 5.171303361474614e-01, 3.820937134800617e-01, 6.737021750480726e-02, 0.000000000000000e+00, 0.000000000000000e+00, 0.000000000000000e+00, 3.421086499674289e+03, 3.330850769752127e+03, 8.066270201740934e+00, 6.105711620436166e+03, 9.676518008930783e+02, -2.933865816626815e+02, 3.244237338678926e+03
1573, 5.483124787284499e-01, 5.559176675662485e-01, 6.269704073806301e-02, 0.000000000000000e+00, 0.000000000000000e+00, 0.000000000000000e+00, 3.807964710418536e+03, 3.750233940157954e+03, -1.406454348999262e+00, 6.984701720562653e+03, 9.964930099717517e+02, -3.888851052571129e+02, 3.702847838400450e+03
1574, 5.937394760203346e-01, 6.442483296831162e-01, 5.997268288462995e-02, 0.000000000000000e+00, 0.000000000000000e+00, 0.000000000000000e+00, 3.534523569544154e+03, 3.493929304031895e+03, 1.871156169567157e+00, 6.503289826301029e+03, 1.089695724569550e+03, -3.787834363413551e+02, 3.595620580980804e+03
1575, 6.391750375299774e-01, 7.326569537359582e-01, 5.711168515952805e-02, 0.000000000000000e+00, 0.000000000000000e+00, 0.000000000000000e+00, 3.402092712344390e+03, 3.324655898421145e+03, 1.045532304553579e+01, 6.181394570065659e+03, 9.785065010581832e+02, -3.161713861565959e+02, 3.334423706238945e+03
1576, 6.573506768136086e-01, 7.680103684004309e-01, 5.592675319661779e-02, 0.000000000000000e+00, 0.000000000000000e+00, 0.000000000000000e+00, 3.244968039344078e+03, 3.178904132249983e+03, 8.591546213940745e+00, 5.891868980671667e+03, 9.790612705999265e+02, -3.318630286094572e+02, 3.223603142282769e+03
1577, 6.755266645577687e-01, 8.033650235004741e-01, 5.471739277580976e-02, 0.000000000000000e+00, 0.000000000000000e+00, 0.000000000000000e+00, 3.120880734699466e+03, 2.961102345189467e+03, 2.984461045197544e+01, 5.242580518115270e+03, 9.205200891374153e+02, -3.834241561873029e+02, 2.802129000527734e+03
1578, 7.321550462222421e-01, 2.370463376662515e-01, 5.023918973890025e-02, 0.000000000000000e+00, 0.000000000000000e+00, 0.000000000000000e+00, 7.391015957329208e+02, 5.801055563870104e+02, -1.740717272604206e+01, 8.992492375067036e+02, 6.069445591733549e+02, -8.692699660877621e+01, 1.097776333950424e+03
1579, 6.937012681568142e-01, 8.387053986902547e-01, 5.348141863241085e-02, 0.000000000000000e+00, 0.000000000000000e+00, 0.000000000000000e+00, 3.251904537290245e+03, 3.115720908510601e+03, -3.817331659048387e+00, 5.718844026161823e+03, 8.218831866735173e+02, -4.563528749103448e+02, 3.015225806977900e+03
1580, 8.390926553676984e-01, 1.121593548025996e+00, 4.276639574080046e-02, 0.000000000000000e+00, 0.000000000000000e+00, 0.000000000000000e+00, 2.563287882099785e+03, 2.408884380064706e+03, -3.668485819165686e+01, 4.405616495453713e+03, 7.370385597662064e+02, -1.535227567209885e+02, 2.325274115782175e+03
1581, 8.283519685746799e-01, 1.138350737443504e+00, 4.330426818545183e-02, 0.000000000000000e+00, 0.000000000000000e+00, 0.000000000000000e+00, 2.580135763541931e+03, 2.432567525066648e+03, 4.340208486605868e+00, 4.487350165894676e+03, 7.988300294585312e+02, -1.242034080563373e+02, 2.429282126707399e+03
1582, 9.396182224971058e-01, 1.091960837943694e+00, 3.306105199953126e-02, 0.000000000000000e+00, 0.000000000000000e+00, 0.000000000000000e+00, 9.154368795539576e+02, 7.575138408227059e+02, -5.750442998320088e+00, 1.087927506700702e+03, 5.280585822902913e+02, -2.577085741561168e+02, 1.057265754653638e+03
1583, 9.486817154466433e-01, 1.109641500921927e+00, 3.211990782064730e-02, 0.000000000000000e+00, 0.000000000000000e+00, 0.000000000000000e+00, 5.328898595191018e+02, 3.727524660186492e+02, -5.171421348592104e+01, 7.638259758634374e+02, 5.747999557994285e+02, -1.914081212382244e+02, 1.106831620520547e+03
1584, 8.734702006401729e-01, 8.128401680719544e-01, 3.847576524040355e-02, 0.000000000000000e+00, 0.000000000000000e+00, 0.000000000000000e+00, 5.847688261992975e+02, 4.624599412803084e+02, -1.442849190271077e+01, 7.149378404631929e+02, 5.032692519419675e+02, -1.212904956005308e+02, 9.232674474634591e+02
1585, 8.825352367844340e-01, 8.304888245513635e-01, 3.752851511404673e-02, 0.000000000000000e+00, 0.000000000000000e+00, 0.000000000000000e+00, 5.771549905943978e+02, 4.902737571407587e+02, -2.134373542063147e+01, 7.433907189273441e+02, 4.515788475205115e+02, -1.998273746158129e+02, 8.846216150812529e+02
1586, 8.718757102610217e-01, 8.472344904694243e-01, 3.898884314634588e-02, 0.000000000000000e+00, 0.000000000000000e+00, 0.000000000000000e+00, 8.409212264854342e+02, 6.962537457986389e+02, -3.459606047425986e+01, 1.137116524250290e+03, 4.982704562351728e+02, -1.840559706119523e+02, 1.000775183410517e+03
1587, 7.300535681637517e-01, 9.094099744943271e-01, 5.094244030020642e-02, 0.000000000000000e+00, 0.000000000000000e+00, 0.000000000000000e+00, 2.867271088640686e+03, 2.736408958944709e+03, -1.147312933863349e+01, 4.931827341119739e+03, 9.404613024303192e+02, -3.782910431610955e+02, 2.762752118254633e+03
1588, 7.391413996494147e-01, 9.271135033067317e-01, 5.029303061278493e-02, 0.000000000000000e+00, 0.000000000000000e+00, 0.000000000000000e+00, 3.050617737660064e+03, 2.861248178196205e+03, -7.804369133487785e+00, 5.074855155233155e+03, 8.310872648183090e+02, -3.880021711872198e+02, 2.653425108246100e+03
1589, 1.042615718956725e+00, 9.935058899190898e-01, 1.632379795742837e-02, 0.000000000000000e+00, 0.000000000000000e+00, 0.000000000000000e+00, -2.250469802178718e+03, -2.294464215863826e+03, 6.095341643470980e+01, -4.850070748832230e+03, -3.210574344336284e+02, -9.713902346157627e+02, 3.129963133980201e+03
1590, 1.062194188748194e+00, 9.944737032803119e-01, 1.288028939121520e-02, 0.000000000000000e+00, 0.000000000000000e+00, 0.000000000000000e+00, -2.834410344063340e+03, -2.818400610659084e+03, -1.890605548656444e+02, -6.148848425019853e+03, 1.144517317140406e+03, 5.256931551535719e+02, 3.988091097526043e+03
1591, 1.003384922710701e+00, 9.915771633423145e-01, 2.276219467140319e-02, 0.000000000000000e+00, 0.000000000000000e+00, 0.000000000000000e+00, -1.679536786815012e+03, -1.901289149027723e+03, -7.644370946915525e+01, -4.047476943343453e+03, 4.864896929601450e+02, 7.055259991540136e+01, 2.423571531035217e+03
1592, 8.659753237812859e-01, 7.606665200978897e-01, 3.888284755158958e-02, 0.000000000000000e+00, 0.000000000000000e+00, 0.000000000000000e+00, 4.239939374732184e+02, 2.942450946466244e+02, -2.055570781676137e+01, 4.071918406862139e+02, 4.725166221794121e+02, -1.600128789229183e+02, 8.734030400672850e+02
1593, 8.569094532566779e-01, 7.429825982341542e-01, 3.983098772170351e-02, 0.000000000000000e+00, 0.000000000000000e+00, 0.000000000000000e+00, 5.980021161521206e+02, 4.454608389632936e+02, -1.507008447254994e+01, 6.125529333476234e+02, 5.571283254242163e+02, -1.481803998533813e+02, 1.011647021335370e+03
1594, 8.915992045159693e-01, 8.482079491542587e-01, 3.657374577879275e-02, 0.000000000000000e+00, 0.000000000000000e+00, 0.000000000000000e+00, 4.314658207526415e+02, 2.964735237096245e+02, -1.759803744528420e+01, 5.368421237972077e+02, 5.255366261437044e+02, -1.483933739702094e+02, 9.690764490184791e+02
1595, 8.809414480565469e-01, 8.649414991276361e-01, 3.805992283327282e-02, 0.000000000000000e+00, 0.000000000000000e+00, 0.000000000000000e+00, 7.845740824110859e+02, 6.347639578405955e+02, -5.261218506202921e+01, 1.010254793276372e+03, 4.692336001991666e+02, -1.216663982172660e+02, 9.057797139329612e+02
1596, 8.393844417474283e-01, 2.594297361987484e-01, 3.576877584808520e-02, 0.000000000000000e+00, 0.000000000000000e+00, 0.000000000000000e+00, -6.080185367167982e+02, -6.070370756228342e+02, 3.900129102553638e+00, -1.417473532531711e+03, 5.763915373897241e+02, -6.458656901655431e+01, 1.290447334430126e+03
1597, 7.400727065284781e-01, 6.568680114788970e-02, 4.723664002302930e-02, 0.000000000000000e+00, 0.000000000000000e+00, 0.000000000000000e+00, 3.662514465231048e+02, 2.763966346286492e+02, -2.409607058243882e+01, 4.323429006807632e+02, 4.113040759849184e+02, -6.148067411617969e+01, 7.341493126072742e+02
1598, 7.204911345363884e-01, 6.474872944721957e-02, 4.985114865125084e-02, 0.000000000000000e+00, 0.000000000000000e+00, 0.000000000000000e+00, 6.149948473051526e+02, 4.864325504210261e+02, -4.942642178408154e+01, 8.120860015817840e+02, 4.326091514574048e+02, -9.631024120114598e+01, 8.229942975072515e+02
1599, 7.302766597549757e-01, 1.133232701862232e+00, 4.504580768613234e-02, 0.000000000000000e+00, 0.000000000000000e+00, 0.000000000000000e+00, 4.514549376495671e+03, 4.546595278704712e+03, 7.517544269675801e+01, 8.599332885339565e+03, 8.335942528042003e+02, -6.563188693608226e+02, 4.466479400200751e+03
1600, 7.501598708304329e-01, 1.133922337232592e+00, 4.547360649859906e-02, 0.000000000000000e+00, 0.000000000000000e+00, 0.000000000000000e+00, 4.229006473194984e+03, 4.287658316285388e+03, 2.816530255577371e+01, 8.132494022196582e+03, 9.841960004267421e+02, -5.745463337545245e+02, 4.348600230895394e+03
1601, 9.976111046475917e-01, 6.808283739990802e-01, 1.774704096645386e-02, 0.000000000000000e+00, 0.000000000000000e+00, 0.000000000000000e+00, -2.063945778403132e+03, -2.332272454001168e+03, -5.721511667401539e+01, -4.302313016370449e+03, 2.725049361512393e+02, 1.066519172013805e+03, 2.850729804688454e+03
1602, 1.017180712146993e+00, 6.817947330383636e-01, 1.425404398193088e-02, 0.000000000000000e+00, 0.000000000000000e+00, 0.000000000000000e+00, -8.257935564464353e+02, -1.145591018468219e+03, -4.563775995645177e+01, -1.931227791540565e+03, -2.236306669342771e+02, 1.926425675736404e+02, 1.112813605023166e+03
1603, 1.026200913504207e+00, 6.994907671080128e-01, 1.298524211433933e-02, 0.000000000000000e+00, 0.000000000000000e+00, 0.000000000000000e+00, -4.655794188487630e+03, -4.238829306593696e+03, -2.430118888614718e+02, -8.677942926766211e+03, 1.846862513871094e+03, 7.265035678864482e+02, 5.479226681882309e+03
1604, 9.780194442028396e-01, 6.798649278272896e-01, 2.111261965144880e-02, 0.000000000000000e+00, 0.000000000000000e+00, 0.000000000000000e+00, -2.226477639784656e+03, -2.504802857114514e+03, 4.954344563047030e+01, -4.849797407770466e+03, 3.860794108319794e+02, -3.150429043261391e+01, 2.585855495097006e+03
1605, 9.522122337734565e-01, 5.924919744433024e-01, 2.374935023964108e-02, 0.000000000000000e+00, 0.000000000000000e+00, 0.000000000000000e+00, -4.385589627019159e+02, -6.848543828418822e+02, -3.450824885847224e+01, -1.256772062369981e+03, 3.495788317286520e+02, -6.097678088621801e+01, 9.539156205983081e+02
1606, 1.062288092090825e+00, 1.407226431371709e+00, 2.058723701886523e-02, 0.000000000000000e+00, 0.000000000000000e+00, 0.000000000000000e+00, 4.082057639615296e+02, 3.698052051756964e+02, -6.168664495408565e+01, 6.858996102765126e+02, 3.801807812891087e+02, -3.551374195029965e+02, 9.553260386599770e+02
1607, 9.266312674926784e-01, 5.050754504495252e-01, 2.631736011468649e-02, 0.000000000000000e+00, 0.000000000000000e+00, 0.000000000000000e+00, -2.092769597693506e+03, -2.091270413333357e+03, -5.694310377783604e+01, -4.556007942077894e+03, 7.339087995257706e+02, -4.124128149093562e+01, 2.775235971294186e+03
1608, 1.072882839268544e+00, 1.390646695787945e+00, 1.875016652423508e-02, 0.000000000000000e+00, 0.000000000000000e+00, 0.000000000000000e+00, -7.631627482183035e+02, -9.186846868124418e+02, -3.534306070449760e+01, -1.609724304235678e+03, 2.350099444971854e+02, -4.854293570899283e+02, 1.218833888276562e+03
1609, 2.452200158361338e-01, 2.649049211889063e-01, 5.557699824159808e-02, 0.000000000000000e+00, 0.000000000000000e+00, 0.000000000000000e+00, 5.606559453386482e+03, 5.849877655799820e+03, 2.326125145713105e+02, 1.158483425153163e+04, 1.550701545260191e+02, -2.352123482492554e+02, 5.894471204691048e+03
1610, 2.556928958967019e-01, 2.484394000624831e-01, 5.917884064338307e-02, 0.000000000000000e+00, 0.000000000000000e+00, 0.000000000000000e+00, 5.503485615114400e+03, 5.730484135559665e+03, 1.841714617811885e+02, 1.123298018679224e+04, 3.303416315101205e+02, -2.871235974616380e+02, 5.679304854265899e+03
1611, 2.752882622907097e-01, 2.495861699216903e-01, 6.206550630947934e-02, 0.000000000000000e+00, 0.000000000000000e+00, 0.000000000000000e+00, 5.360624169281034e+03, 5.575579132332368e+03, 1.680343732780344e+02, 1.081726265864811e+04, 5.177239993438095e+02, -4.028103054395682e+02, 5.479394785167393e+03
1612, 9.069106459722951e-01, 1.365623370481638e+00, 3.666192106875560e-02, 0.000000000000000e+00, 0.000000000000000e+00, 0.000000000000000e+00, 2.622860545020430e+03, 2.608312836414033e+03, -2.533685356005108e+01, 4.878886283077619e+03, 6.495812482968435e+02, -5.248595319559546e+02, 2.686430646669417e+03
1613, 8.978649134543308e-01, 1.348015766444266e+00, 3.734996358501934e-02, 0.000000000000000e+00, 0.000000000000000e+00, 0.000000000000000e+00, 2.560170599396381e+03, 2.358325993864698e+03, 2.015521083594249e+01, 4.069499439744978e+03, 7.196662320146462e+02, -3.756989022660130e+02, 2.145201814994966e+03
1614, 6.907051848730588e-01, 1.131231700490801e+00, 4.276127134303750e-02, 0.000000000000000e+00, 0.000000000000000e+00, 0.000000000000000e+00, 4.883516544112166e+03, 5.494544134886032e+03, 2.140334244899885e+02, 9.961989305107796e+03, 1.672994165315839e+02, -6.212411239034643e+02, 4.943720575811128e+03
1615, 1.791506992453943e-01, 2.428482988220759e-01, 4.191100463435358e-02, 0.000000000000000e+00, 0.000000000000000e+00, 0.000000000000000e+00, 5.184129548963688e+03, 5.227982497701229e+03, 8.809630112248426e+01, 9.935012466326991e+03, -1.137114421997612e+03, 2.750887446589304e+02, 5.147218987360805e+03
1616, 1.882084865545232e-01, 2.605679588373633e-01, 4.180805355826334e-02, 0.000000000000000e+00, 0.000000000000000e+00, 0.000000000000000e+00, 5.107246895933145e+03, 4.941469428695219e+03, 1.656259408796462e+02, 9.977922816397004e+03, -1.007246167070414e+03, 3.865869254780458e+02, 5.304026125654375e+03
1617, 1.702024898188700e-01, 2.251888575284784e-01, 4.203806795336117e-02, 0.000000000000000e+00, 0.000000000000000e+00, 0.000000000000000e+00, 4.894231653153809e+03, 4.745286103391002e+03, -3.588376941171034e+01, 8.845955857400388e+03, -1.264159041032616e+03, 2.015425490151979e+02, 4.598577614036825e+03
1618, 6.436816306060990e-01, 1.076829122988640e+00, 4.166501510493692e-02, 0.000000000000000e+00, 0.000000000000000e+00, 0.000000000000000e+00, 5.867366366279699e+03, 6.569681732895632e+03, 1.987614261827046e+02, 1.288149071295741e+04, 1.092284548250172e+02, -2.586703771135840e+02, 6.717149833407645e+03
1619, 5.983043487823402e-01, 9.882896897462028e-01, 4.304921450287846e-02, 0.000000000000000e+00, 0.000000000000000e+00, 0.000000000000000e+00, 5.576189628987025e+03, 5.962780893108167e+03, 1.789331978759832e+02, 1.103808291644382e+04, -6.366606756651777e+00, -2.097327397622954e+02, 5.300787412630641e+03
1620, 5.801901846245989e-01, 9.529347182600756e-01, 4.357921492716529e-02, 0.000000000000000e+00, 0.000000000000000e+00, 0.000000000000000e+00, 6.146170911006549e+03, 6.157997073919049e+03, 2.096364223247123e+02, 1.208944224133553e+04, 3.076744348194964e+02, 7.160502837840808e+01, 5.973570345408263e+03
1621, 5.076601834287738e-01, 8.113689142329074e-01, 4.558538953981628e-02, 0.000000000000000e+00, 0.000000000000000e+00, 0.000000000000000e+00, 5.540993036989518e+03, 5.786660205178699e+03, 1.849397378762245e+02, 1.126762453368423e+04, 1.314460075186463e+02, -5.407608861045031e+02, 5.699081031170074e+03
1622, 4.895668378170714e-01, 7.760449465028785e-01, 4.605929569531655e-02, 0.000000000000000e+00, 0.000000000000000e+00, 0.000000000000000e+00, 5.311066799939406e+03, 5.533544552587799e+03, 2.732007711500439e+02, 1.101331705786672e+04, -1.011743740876275e+01, -2.239335739853887e+02, 5.627716441008461e+03
1623, 1.084113074304337e+00, 1.150795580851017e+00, 1.229385824792332e-02, 0.000000000000000e+00, 0.000000000000000e+00, 0.000000000000000e+00, -6.102676992456561e+03, -6.314537641034367e+03, -5.768184024318660e+02, -1.125251539814823e+04, 1.734725021868245e+03, 2.051685081852906e+03, 6.937498005216634e+03
1624, 3.900742157484729e-01, 5.814247029993753e-01, 4.853266610966211e-02, 0.000000000000000e+00, 0.000000000000000e+00, 0.000000000000000e+00, 6.949696077393406e+03, 7.275213934760870e+03, 2.620065454427692e+02, 1.489392464458463e+04, 1.435110247001592e+02, -1.494595012446898e+02, 7.808039709257742e+03
1625, 3.447784085851401e-01, 4.931377582315574e-01, 4.953553851237130e-02, 0.000000000000000e+00, 0.000000000000000e+00, 0.000000000000000e+00, 5.221454858735186e+03, 5.787893928003815e+03, 1.710732107277380e+02, 1.109572365792448e+04, 1.640243034736402e+02, 1.449634511135286e+02, 5.633118589753683e+03
1626, 2.416294523149278e-01, 3.669406999899433e-01, 4.085626916645156e-02, 0.000000000000000e+00, 0.000000000000000e+00, 0.000000000000000e+00, 5.692152554205059e+03, 5.621893613979773e+03, 1.816543457585744e+01, 1.100848306158416e+04, -7.105353471696055e+02, 3.552437032477719e+02, 5.525938090819602e+03
1627, 2.327835355254426e-01, 3.491455994040400e-01, 4.104662296345609e-02, 0.000000000000000e+00, 0.000000000000000e+00, 0.000000000000000e+00, 5.667509807140912e+03, 5.721184643391325e+03, 7.911067686860683e+01, 1.093826823260075e+04, -8.517921720259187e+02, 1.910791188780449e+02, 5.459471327131568e+03
1628, 2.506232238983140e-01, 3.846083574219123e-01, 4.073278041192349e-02, 0.000000000000000e+00, 0.000000000000000e+00, 0.000000000000000e+00, 5.314928809127521e+03, 5.572583565377298e+03, 1.555944479324847e+02, 1.057060609446142e+04, -7.228180848160180e+02, 4.679718816104898e+02, 5.350831649841019e+03
1629, 8.400308101915664e-01, 1.533325726365492e+00, 2.948342891062091e-02, 0.000000000000000e+00, 0.000000000000000e+00, 0.000000000000000e+00, 9.227963326354093e+03, 9.263442573179998e+03, 4.195605264506191e+02, 1.853545668104821e+04, -3.448473514736794e+02, -3.382928242263421e+01, 9.337491843377333e+03
1630, 8.596214095767331e-01, 1.534377666951099e+00, 3.155026559910100e-02, 0.000000000000000e+00, 0.000000000000000e+00, 0.000000000000000e+00, 7.544845477311998e+03, 7.892474526960636e+03, 2.386209812611553e+02, 1.476312860592722e+04, 1.044341480651470e+03, -1.242803173643976e+03, 7.602079903874737e+03
1631, 9.071811378168868e-01, 5.638631709094089e-02, 2.063081911090494e-02, 0.000000000000000e+00, 0.000000000000000e+00, 0.000000000000000e+00, -2.074517703527645e+03, -2.214332565539882e+03, -7.325761493872407e+01, -4.473578261401680e+03, 2.115090501157682e+02, 5.329285207001228e+02, 2.538102072206166e+03
1632, 9.974394603959764e-01, 4.568137948358841e-01, 1.288293000544923e-02, 0.000000000000000e+00, 0.000000000000000e+00, 0.000000000000000e+00, -3.217244009114589e+03, -3.431890307907151e+03, -1.368332676671037e+02, -6.104889326175689e+03, 1.053638337789671e+03, 6.437726503609740e+02, 3.520611747588436e+03
1633, 9.598193327471296e-01, 1.964334607617615e-01, 1.403199101641069e-02, 0.000000000000000e+00, 0.000000000000000e+00, 0.000000000000000e+00, -2.212857398309358e+03, -2.278786390523165e+03, 5.058257666985635e+01, -4.932394487656326e+03, -3.471995455409462e+02, -6.762353028687811e+02, 2.993682212887114e+03
1634, 9.508088666773751e-01, 1.787643010867020e-01, 1.532307449382294e-02, 0.000000000000000e+00, 0.000000000000000e+00, 0.000000000000000e+00, -4.356345817018833e+03, -3.869186723748626e+03, 8.880230312873486e+01, -7.742725932897747e+03, 1.628484475191003e+03, -5.712139228854089e+02, 4.723663703115139e+03
1635, 1.054694449820294e+00, 9.423539763969699e-01, 1.310941866279330e-02, 0.000000000000000e+00, 0.000000000000000e+00, 0.000000000000000e+00, -5.548793158017897e+03, -5.263347415686590e+03, -4.125549808158760e+01, -9.927940475853578e+03, 2.737116867027469e+03, 6.397645563561043e+02, 6.649575009157618e+03
1636, 1.045671543347542e+00, 9.246575307669898e-01, 1.435405309504886e-02, 0.000000000000000e+00, 0.000000000000000e+00, 0.000000000000000e+00, -6.726869559885499e+02, -7.259542257100288e+02, -1.566033428449975e+02, -1.098442798737765e+03, 5.770561295757732e+02, -1.833291224177821e+02, 1.155339967602817e+03
1637, 1.019979024321906e+00, 6.130773075816136e-01, 1.219982228454413e-02, 0.000000000000000e+00, 0.000000000000000e+00, 0.000000000000000e+00, -6.812502913679036e+03, -6.487679923996919e+03, -4.909003107614199e+00, -1.228061207638335e+04, 2.485753363032877e+03, -9.583448860561090e+02, 7.285200872887902e+03
1638, 8.115109514798773e-01, 1.514628657715376e+00, 2.667881971656180e-02, 0.000000000000000e+00, 0.000000000000000e+00, 0.000000000000000e+00, 3.881735156923740e+03, 3.514932061335827e+03, 2.907952011402043e+02, 7.131720302179533e+03, -5.915328405852302e+02, -3.461197662548550e+02, 3.681286201381075e+03
1639, 8.024719512842803e-01, 1.497024028788572e+00, 2.687836245467753e-02, 0.000000000000000e+00, 0.000000000000000e+00, 0.000000000000000e+00, 3.311743065000091e+03, 3.158671627666304e+03, 1.289042712759462e+02, 5.924757014417180e+03, -2.331142658143576e+02, -1.523338669095065e+02, 2.744766493355509e+03
1640, 1.036327027544199e+00, 1.542724374950838e+00, 2.546429419359709e-02, 0.000000000000000e+00, 0.000000000000000e+00, 0.000000000000000e+00, 1.406269871639485e+03, 1.301234100953403e+03, 7.290520991057721e+01, 2.322343181374757e+03, 5.699935432115470e+02, -4.148789027062334e+02, 1.566346138809367e+03
1641, 1.016747648133800e+00, 1.542869969476332e+00, 2.752699943871439e-02, 0.000000000000000e+00, 0.000000000000000e+00, 0.000000000000000e+00, 1.844615217770738e+03, 1.649271654908016e+03, -4.268180880463436e+01, 2.940602477104714e+03, 7.701262610687970e+02, -4.711942486389615e+02, 1.975920514719147e+03
1642, 6.386650138113609e-01, 1.178759553632605e+00, 2.978616304181235e-02, 0.000000000000000e+00, 0.000000000000000e+00, 0.000000000000000e+00, 4.431990159380375e+03, 4.682934692004952e+03, 1.080469313753922e+02, 8.347941919692084e+03, -7.041376128696720e+02, -7.547798356510773e+02, 4.200773049796840e+03
1643, 6.480281656114859e-01, 1.196911297813840e+00, 2.965290085827688e-02, 0.000000000000000e+00, 0.000000000000000e+00, 0.000000000000000e+00, 4.934914627282666e+03, 4.421655675517526e+03, 2.117657203270187e+02, 1.011443818195540e+04, -4.953071075980494e+02, 5.029666301309577e+02, 5.601676863386093e+03
1644, 5.941234621212508e-01, 1.092204243653950e+00, 3.040493691328199e-02, 0.000000000000000e+00, 0.000000000000000e+00, 0.000000000000000e+00, 5.619259248905600e+03, 5.098253599558908e+03, 1.283759113277921e+02, 9.197193683908225e+03, -1.279125764467303e+03, 4.396707348137343e+01, 4.461044088541225e+03
1645, 5.484075968327153e-01, 1.001752278502323e+00, 3.122038403734055e-02, 0.000000000000000e+00, 0.000000000000000e+00, 0.000000000000000e+00, 4.490160049060947e+03, 4.432074434794020e+03, 2.602978433506727e+01, 8.021403991854386e+03, -1.003631747596329e+03, 3.248702247984922e+02, 4.002331431539982e+03
1646, 5.033158539144943e-01, 9.132581565791525e-01, 3.187561296753151e-02, 0.000000000000000e+00, 0.000000000000000e+00, 0.000000000000000e+00, 6.219280688469909e+03, 6.678710163681335e+03, 3.685864451101658e+01, 1.234084046061101e+04, -8.451034791400019e+02, 7.234526230202508e+02, 6.212002168113989e+03
1647, 6.112919550246579e-01, 1.125650137785055e+00, 3.016299688630389e-02, 0.000000000000000e+00, 0.000000000000000e+00, 0.000000000000000e+00, 3.928908184748178e+03, 4.184741212961258e+03, -1.026020034218364e+02, 7.508888016615377e+03, -8.770311533191158e+02, 8.163784442358773e+02, 4.037868595089060e+03
1648, 8.877028918790972e-01, 5.543489264300021e-02, 2.407009907329044e-02, 0.000000000000000e+00, 0.000000000000000e+00, 0.000000000000000e+00, -1.896971333521399e+03, -2.008322811660298e+03, 9.091599469738199e+00, -4.613082531415217e+03, 2.710235515949976e+02, -5.784941563556007e+02, 2.883017851010605e+03
1649, 2.553619046711820e-01, 5.979972572587314e-02, 7.367864298420443e-02, 0.000000000000000e+00, 0.000000000000000e+00, 0.000000000000000e+00, 3.667524870623784e+03, 3.650633988266513e+03, 9.647074551749733e+01, 7.342355247822656e+03, 4.078123316112911e+02, -1.080516214005902e+03, 4.194774499842436e+03
1650, 2.356369606072937e-01, 5.874186861527007e-02, 7.206555160433288e-02, 0.000000000000000e+00, 0.000000000000000e+00, 0.000000000000000e+00, 3.766991016937723e+03, 3.740658177950228e+03, 8.743085973457073e+01, 7.417270269724638e+03, 3.020419571345835e+02, -1.088258958970021e+03, 4.155826926161045e+03
1651, 2.249938021137013e-01, 7.525362043332604e-02, 6.980391682740252e-02, 0.000000000000000e+00, 0.000000000000000e+00, 0.000000000000000e+00, 4.620764805336588e+03, 4.545745898209953e+03, 1.441068037939425e+02, 9.009742973188911e+03, 3.806663954213614e+02, -1.052545297333708e+03, 4.839275707705861e+03
1652, 2.159886063526261e-01, 5.765039248047674e-02, 7.011275357984093e-02, 0.000000000000000e+00, 0.000000000000000e+00, 0.000000000000000e+00, 4.041453823648721e+03, 4.017290661270195e+03, 8.698809083832933e+01, 7.979762619426027e+03, 2.724467808621826e+02, -1.194038234507264e+03, 4.486489325707511e+03
1653, 5.670881484550334e-01, 1.039212288414988e+00, 3.081472355904749e-02, 0.000000000000000e+00, 0.000000000000000e+00, 0.000000000000000e+00, 4.651818722233643e+03, 4.587428605274210e+03, -2.058037153803345e+02, 7.846758928765501e+03, -1.090473041920671e+03, 1.065670594033603e+03, 4.185562435596544e+03
1654, 3.861341446084526e-01, 6.832020438263003e-01, 3.338399126480515e-02, 0.000000000000000e+00, 0.000000000000000e+00, 0.000000000000000e+00, 4.367533052524632e+03, 4.704022399311304e+03, -3.788193369698630e+00, 7.704954451346934e+03, -1.051509854123441e+03, 7.100558528154276e+02, 3.867583204135601e+03
1655, 5.211294840283281e-01, 9.487930650334133e-01, 3.152938542492817e-02, 0.000000000000000e+00, 0.000000000000000e+00, 0.000000000000000e+00, 3.592023140680759e+03, 3.971371024237145e+03, 8.672841396250139e+01, 7.330867258525134e+03, -7.349994330448053e+02, 9.981284401461832e+02, 4.163719089158940e+03
1656, 3.408074948668659e-01, 5.956249643193903e-01, 3.361812985004053e-02, 0.000000000000000e+00, 0.000000000000000e+00, 0.000000000000000e+00, 5.149958508739045e+03, 4.860322210228381e+03, -9.894951160548229e+01, 8.048881567960197e+03, -1.636334381799248e+03, 6.884922738839521e+02, 4.337220989475712e+03
1657, 4.760794742619582e-01, 8.603350142845821e-01, 3.216326680892191e-02, 0.000000000000000e+00, 0.000000000000000e+00, 0.000000000000000e+00, 6.403740999797048e+03, 5.892939160371074e+03, 9.144192568619764e+01, 1.242585565685412e+04, -8.977221584889792e+02, -3.176031042544874e+02, 6.507557606376113e+03
1658, 4.588036242805648e-01, 8.252228155203757e-01, 3.259543249209059e-02, 0.000000000000000e+00, 0.000000000000000e+00, 0.000000000000000e+00, 4.100342199086442e+03, 3.908687582498378e+03, 1.775917513164025e+02, 7.440441253345688e+03, -1.039442312364020e+03, -8.746962054066728e+01, 3.897695324687486e+03
1659, 2.960377175562707e-01, 5.068047132700513e-01, 3.426229806414822e-02, 0.000000000000000e+00, 0.000000000000000e+00, 0.000000000000000e+00, 4.407910378531958e+03, 4.703759908492761e+03, -3.031262044622832e+02, 8.867367065839309e+03, -1.100609190534928e+03, 5.692472861224778e+02, 4.851469715680625e+03
1660, 4.404203379795256e-01, 7.897297629034924e-01, 3.273394106407267e-02, 0.000000000000000e+00, 0.000000000000000e+00, 0.000000000000000e+00, 4.457183428842491e+03, 4.626916582883603e+03, -5.338905301102806e+01, 8.072342839056027e+03, -8.871739441820358e+02, 5.739948139674935e+02, 3.980297555436626e+03
1661, 3.410301739285330e-01, 1.492887679723446e-01, 7.386842460703931e-02, 0.000000000000000e+00, 0.000000000000000e+00, 0.000000000000000e+00, 4.398159271052763e+03, 4.388557995447948e+03, 4.985207489880573e+01, 8.378519402945863e+03, 8.449911726784412e+02, -5.473370928519536e+02, 4.350838437836266e+03
1662, 4.224429217857828e-01, 7.541752089198446e-01, 3.300569147213632e-02, 0.000000000000000e+00, 0.000000000000000e+00, 0.000000000000000e+00, 5.267373415292887e+03, 5.334070056453403e+03, -1.866604863075098e+02, 1.060452157122805e+04, -1.433883303903647e+03, 6.321803736523050e+02, 5.967007248072298e+03
1663, 1.114657317472982e+00, 1.547260658487046e+00, 1.492441731601606e-02, 0.000000000000000e+00, 0.000000000000000e+00, 0.000000000000000e+00, -1.357809389961715e+01, -2.462352334234659e+01, -4.952822233570311e+01, -2.264089284215682e+02, 2.624738019776313e+02, -3.786169419235931e+01, 5.112781101585175e+02
1664, 1.133963468680475e+00, 1.547996950785150e+00, 1.177044045353566e-02, 0.000000000000000e+00, 0.000000000000000e+00, 0.000000000000000e+00, -3.380701751791385e+02, -3.205338433591057e+02, -7.709414887657036e+01, -6.993713661135225e+02, 2.682625823980609e+02, -7.037445756279554e+00, 6.091432596043892e+02
1665, 2.753189600110285e-01, 6.103327922933510e-02, 7.497178025624097e-02, 0.000000000000000e+00, 0.000000000000000e+00, 0.000000000000000e+00, 3.607700694085103e+03, 3.571856043385536e+03, 3.433361401209114e+01, 6.921147944929461e+03, 4.830412490657430e+02, -1.084134400794260e+03, 3.915169474676252e+03
1666, 4.043764127371583e-01, 7.187795002629241e-01, 3.321291405995325e-02, 0.000000000000000e+00, 0.000000000000000e+00, 0.000000000000000e+00, 4.611696561600199e+03, 4.282805488021929e+03, 1.194865757615931e+02, 8.602588607142350e+03, -1.038418219148534e+03, 2.300030871273331e+02, 4.558994407328140e+03
1667, 3.592634511774501e-01, 6.303500254493655e-01, 3.370153217606097e-02, 0.000000000000000e+00, 0.000000000000000e+00, 0.000000000000000e+00, 5.532609487854185e+03, 5.100704988001531e+03, -1.583338519383401e+01, 9.746278987465221e+03, -1.411095532590457e+03, 6.452868427535880e+02, 5.194705399689397e+03
1668, 9.702284138607804e-01, 1.797213288867339e-01, 1.166044943529819e-02, 0.000000000000000e+00, 0.000000000000000e+00, 0.000000000000000e+00, -9.103725876870541e+03, -9.326710440682900e+03, 3.892031274548743e+02, -1.955933629021258e+04, 1.668018711369459e+01, -2.123512932254738e+03, 1.100096654541872e+04
1669, 9.613115816941210e-01, 1.620554805934268e-01, 1.295783751252824e-02, 0.000000000000000e+00, 0.000000000000000e+00, 0.000000000000000e+00, -5.259400184368753e+03, -5.360878411457394e+03, -3.966517941231917e+02, -9.412310266159933e+03, 1.220777591445637e+03, 1.543518540012103e+03, 5.378268326925621e+03
1670, 2.662380263271945e-01, 2.319366034108895e-01, 6.233208675292846e-02, 0.000000000000000e+00, 0.000000000000000e+00, 0.000000000000000e+00, 5.269609331700550e+03, 5.485953120664900e+03, 1.695666106222823e+02, 1.071423509430880e+04, 5.022468043811833e+02, -3.774639788695255e+02, 5.457407314172592e+03
1671, 9.978635865272926e-01, 1.318518367155334e+00, 2.810898138714659e-02, 0.000000000000000e+00, 0.000000000000000e+00, 0.000000000000000e+00, 6.571959816405945e+02, 4.869803496531734e+02, -3.821739797586692e+01, 9.837361463381098e+02, 5.565137418636259e+02, -1.072703102245339e+02, 1.076665771062276e+03
1672, 3.782028618650802e-01, 3.753441387042997e-01, 6.414579625380201e-02, 0.000000000000000e+00, 0.000000000000000e+00, 0.000000000000000e+00, 5.166084294975117e+03, 5.331600582299855e+03, 8.493188215302473e+01, 1.032708267054603e+04, 9.547251506471007e+02, -3.804658984972598e+02, 5.385115978083706e+03
1673, 3.144019583297872e-01, 5.418960525325119e-01, 3.425425635011427e-02, 0.000000000000000e+00, 0.000000000000000e+00, 0.000000000000000e+00, 4.373493444506559e+03, 4.310858550422267e+03, 2.089154690950009e+02, 7.635334420065706e+03, -7.688831808036873e+02, 4.080691759392755e+02, 3.640312782951867e+03
1674, 4.378558714117435e-01, 3.781559820999499e-01, 6.737533760312035e-02, 0.000000000000000e+00, 0.000000000000000e+00, 0.000000000000000e+00, 4.266269350530576e+03, 4.270941717665429e+03, 3.998981586356479e+01, 8.072333453241310e+03, 1.096488413961807e+03, -4.016061657862892e+02, 4.308582490251266e+03
1675, 4.576807093642288e-01, 3.791502483140776e-01, 6.779517651538515e-02, 0.000000000000000e+00, 0.000000000000000e+00, 0.000000000000000e+00, 4.080572943135302e+03, 4.044973946543389e+03, 8.620821762380345e+00, 7.538459558353902e+03, 1.053154259395204e+03, -3.950586715738272e+02, 3.984618316226044e+03
1676, 4.684418174582132e-01, 3.624876992647448e-01, 6.844407380281947e-02, 0.000000000000000e+00, 0.000000000000000e+00, 0.000000000000000e+00, 3.837476133531425e+03, 3.794945717109864e+03, 1.356063420012910e+01, 7.106181264353282e+03, 1.005959788653020e+03, -3.703054465843053e+02, 3.777969929978995e+03
1677, 4.468950013072257e-01, 3.957918307156522e-01, 6.692022557844512e-02, 0.000000000000000e+00, 0.000000000000000e+00, 0.000000000000000e+00, 4.204290261322196e+03, 4.209432277309383e+03, 5.009587945914107e+01, 7.975254487246715e+03, 1.093013005065694e+03, -3.757954656718026e+02, 4.268024724670317e+03
1678, 4.667506981086434e-01, 3.968002545138560e-01, 6.730570116971295e-02, 0.000000000000000e+00, 0.000000000000000e+00, 0.000000000000000e+00, 3.996251340338751e+03, 3.967238928934439e+03, 4.104449410464200e+01, 7.491769513715228e+03, 1.050025349231693e+03, -3.501351764031858e+02, 4.000174997494355e+03
1679, 4.559956490174981e-01, 4.134910947270480e-01, 6.646040319384949e-02, 0.000000000000000e+00, 0.000000000000000e+00, 0.000000000000000e+00, 4.174222169333306e+03, 4.154461126857352e+03, 4.859271185985216e+01, 7.777911745063328e+03, 1.050036006372061e+03, -3.680506116678474e+02, 4.096263672790045e+03
1680, 1.006885087932181e+00, 1.336121867534675e+00, 2.716766376744035e-02, 0.000000000000000e+00, 0.000000000000000e+00, 0.000000000000000e+00, 7.046528986006374e+02, 5.333107023799005e+02, -7.537797726193247e+00, 7.324183742848674e+02, 4.358127573441205e+02, -9.846411342281773e+01, 7.962039599878476e+02
1681, 1.028469040488220e+00, 1.302842008293688e+00, 2.391049587783840e-02, 0.000000000000000e+00, 0.000000000000000e+00, 0.000000000000000e+00, -1.491761758787468e+02, -3.043677342980869e+02, 1.086162882318054e+01, -6.975568048089954e+02, 4.719954680142404e+02, -2.740632259973549e+02, 1.064766047323143e+03
1682, 5.961554729892975e-01, 1.960932968619552e-01, 6.431783302830098e-02, 0.000000000000000e+00, 0.000000000000000e+00, 0.000000000000000e+00, 2.008459212717679e+03, 1.896061765281367e+03, -3.783766374213749e+01, 3.336939179064249e+03, 7.321641642150106e+02, -2.274680062408287e+02, 1.922114253218557e+03
1683, 6.158536260247304e-01, 1.970022855924231e-01, 6.256852613709693e-02, 0.000000000000000e+00, 0.000000000000000e+00, 0.000000000000000e+00, 1.848861492546110e+03, 1.733534526819229e+03, -1.914738840581522e+01, 3.102003985212888e+03, 6.931484120458284e+02, -1.998851428289640e+02, 1.813977336969255e+03
1684, 5.654707147674821e-01, 2.118177859995444e-01, 6.672515974625937e-02, 0.000000000000000e+00, 0.000000000000000e+00, 0.000000000000000e+00, 2.417421626356502e+03, 2.288352501617812e+03, -3.893668897853840e+01, 4.107077604068255e+03, 8.098901663235292e+02, -2.942771405813500e+02, 2.306900545820154e+03
1685, 1.008054954526990e+00, 1.524928153718026e+00, 2.832152048882390e-02, 0.000000000000000e+00, 0.000000000000000e+00, 0.000000000000000e+00, 1.534948711897149e+03, 1.428232884378615e+03, -1.336352130817683e+02, 2.589451829822790e+03, 7.700542424666830e+02, -5.629581372300581e+02, 2.004791405303261e+03
1686, 9.978170719327996e-01, 1.544205850604234e+00, 2.927229492487646e-02, 0.000000000000000e+00, 0.000000000000000e+00, 0.000000000000000e+00, 2.713245797830866e+03, 2.724616193780803e+03, 1.630046521788122e+01, 4.897621316940839e+03, 7.050113231989986e+02, -6.467529255555046e+02, 2.737439777053474e+03
1687, 9.724961130957566e-01, 1.231403150759214e+00, 3.037428039463110e-02, 0.000000000000000e+00, 0.000000000000000e+00, 0.000000000000000e+00, 7.105692908609374e+02, 5.766761880993630e+02, -7.860833887082833e+01, 9.586800965204645e+02, 5.000602573740160e+02, -8.329930619242357e+01, 9.498639794844213e+02
1688, 3.801225253519976e-01, 3.408178227360837e-01, 6.635538944514041e-02, 0.000000000000000e+00, 0.000000000000000e+00, 0.000000000000000e+00, 4.866140605673269e+03, 4.971701882977386e+03, 9.198305332390575e+01, 9.480313150334203e+03, 9.584165197612233e+02, -3.758405331103733e+02, 4.900968388899169e+03
1689, 3.710617876201447e-01, 3.231564572107438e-01, 6.673306393054199e-02, 0.000000000000000e+00, 0.000000000000000e+00, 0.000000000000000e+00, 4.846487410895549e+03, 4.943791788243017e+03, 9.761119868657869e+01, 9.495314840748331e+03, 9.773650882678082e+02, -3.714812428632212e+02, 4.947425561134181e+03
1690, 1.003074634238848e+00, 1.215683016216198e+00, 2.625599734769425e-02, 0.000000000000000e+00, 0.000000000000000e+00, 0.000000000000000e+00, 3.350992826018302e+02, 1.849412003173838e+02, -1.943456579319740e+01, 1.983679109739493e+02, 5.143455941725640e+02, -1.791385834881787e+02, 9.548668866235582e+02
1691, 1.094820253013221e+00, 1.545989007134600e+00, 1.792942055321455e-02, 0.000000000000000e+00, 0.000000000000000e+00, 0.000000000000000e+00, -2.504322013302809e+02, -1.689696249155489e+02, -1.157488753860347e+02, -8.673428547372871e+02, 1.635266910249360e+02, 2.801025165311491e+02, 8.906506827487159e+02
1692, 4.843941557540481e-01, 5.327196218969113e-02, 7.317687046333161e-02, 0.000000000000000e+00, 0.000000000000000e+00, 0.000000000000000e+00, 2.209853661045533e+03, 2.156739715853219e+03, -4.764114299215523e+01, 4.038202963525745e+03, 4.875026769998769e+02, -5.866419402440364e+02, 2.279259752994579e+03
1693, 5.533461556673858e-01, 4.528024622495633e-01, 6.495974687309478e-02, 0.000000000000000e+00, 0.000000000000000e+00, 0.000000000000000e+00, 3.250773174870896e+03, 3.173462380906166e+03, -2.041886686298443e+01, 5.819784823478598e+03, 9.952101583142019e+02, -3.667552727152973e+02, 3.190692557738003e+03
1694, 5.715133138088134e-01, 4.881284742777038e-01, 6.372047253503549e-02, 0.000000000000000e+00, 0.000000000000000e+00, 0.000000000000000e+00, 3.249297007476909e+03, 3.134709524129040e+03, -2.334656300522225e+01, 5.664350320004513e+03, 1.023842379143262e+03, -4.113899063085036e+02, 3.126734315218237e+03
1695, 4.646643344944989e-01, 5.255883007378517e-02, 7.434676092217149e-02, 0.000000000000000e+00, 0.000000000000000e+00, 0.000000000000000e+00, 2.129693824416371e+03, 2.085777229219979e+03, -4.979654756365893e+01, 3.928156368897756e+03, 4.115358218983750e+02, -6.250447507966015e+02, 2.236726548069212e+03
1696, 5.896842860993019e-01, 5.234498353898887e-01, 6.246283008353653e-02, 0.000000000000000e+00, 0.000000000000000e+00, 0.000000000000000e+00, 3.273585583810901e+03, 3.168018920560473e+03, -1.914917286179042e+01, 5.906616262250306e+03, 1.007483820152566e+03, -3.853843403604109e+02, 3.273177267183729e+03
1697, 6.169354662644519e-01, 5.764638690935275e-01, 6.054159529363443e-02, 0.000000000000000e+00, 0.000000000000000e+00, 0.000000000000000e+00, 2.906689711042087e+03, 2.765642116631997e+03, -8.154722293317079e+00, 4.995420442396679e+03, 1.029238670028734e+03, -3.180029682226792e+02, 2.856374418480857e+03
1698, 8.771994620899143e-01, 7.207946679870912e-02, 2.622876788456483e-02, 0.000000000000000e+00, 0.000000000000000e+00, 0.000000000000000e+00, -9.414297474012697e+02, -1.027024914332425e+03, 1.012231474579248e+02, -2.296402219651810e+03, 4.904835764546207e+02, 4.459990056521664e+01, 1.576618560292756e+03
1699, 8.681400228680469e-01, 5.448494401280825e-02, 2.742526411183026e-02, 0.000000000000000e+00, 0.000000000000000e+00, 0.000000000000000e+00, -1.093448784447686e+03, -1.260810626396114e+03, 7.049393049346291e+01, -2.620618229229625e+03, 4.811664713998444e+02, 1.254754710689234e+02, 1.691558627951503e+03
1700, 6.351118257571887e-01, 6.117700290258116e-01, 5.923679241415638e-02, 0.000000000000000e+00, 0.000000000000000e+00, 0.000000000000000e+00, 2.788368298932405e+03, 2.670617973473089e+03, -3.361738946434011e+01, 4.786868442143500e+03, 9.533031795896621e+02, -3.077944027948317e+02, 2.693910805928825e+03
1701, 8.374344633830694e-01, 1.156027276577689e+00, 4.261455819916488e-02, 0.000000000000000e+00, 0.000000000000000e+00, 0.000000000000000e+00, 2.499945064481599e+03, 2.410263183385526e+03, -6.530157247574260e+01, 4.110155037033404e+03, 8.217901948477587e+02, -1.695466926678165e+02, 2.206869764379237e+03
1702, 8.176032409160601e-01, 1.155073157838356e+00, 4.367475953799732e-02, 0.000000000000000e+00, 0.000000000000000e+00, 0.000000000000000e+00, 2.557041871021342e+03, 2.565659148086386e+03, -5.296158183919764e+01, 4.437736999358385e+03, 8.411775418964919e+02, -1.347456508072270e+02, 2.388829186417299e+03
1703, 8.267040132440834e-01, 1.172697033213710e+00, 4.301879212764942e-02, 0.000000000000000e+00, 0.000000000000000e+00, 0.000000000000000e+00, 2.566169430160764e+03, 2.451279492774546e+03, 2.011495963662704e+01, 4.368861706001509e+03, 9.079813050660050e+02, -4.201653506008199e+02, 2.544431388969770e+03
1704, 8.085189267602685e-01, 1.137399795586711e+00, 4.432443069248432e-02, 0.000000000000000e+00, 0.000000000000000e+00, 0.000000000000000e+00, 3.138227431307428e+03, 2.874974490529897e+03, -1.090250986642477e+02, 5.355947018796889e+03, 8.590683614553770e+02, -2.413692244820588e+02, 2.827690852223297e+03
1705, 7.977606183043402e-01, 1.154118299221218e+00, 4.446762999401697e-02, 0.000000000000000e+00, 0.000000000000000e+00, 0.000000000000000e+00, 3.383793822924114e+03, 3.190404159481462e+03, -5.040762589813598e+01, 5.663069727725962e+03, 1.052179874367505e+03, -2.542016899896631e+02, 3.032492763413994e+03
1706, 6.623609618093500e-01, 6.648202487925898e-01, 5.724444056097597e-02, 0.000000000000000e+00, 0.000000000000000e+00, 0.000000000000000e+00, 2.746704915301306e+03, 2.608069659878015e+03, -5.354412441141797e+01, 4.684482419924184e+03, 8.512967461873147e+02, -4.143242771340168e+02, 2.596258627453708e+03
1707, 7.099125278067959e-01, 8.138436067494739e-02, 5.141287934049999e-02, 0.000000000000000e+00, 0.000000000000000e+00, 0.000000000000000e+00, 7.034124243632947e+02, 5.730883796165152e+02, -3.744609826448952e+01, 9.894667890458099e+02, 4.858208745495364e+02, -9.548987633690098e+01, 9.357983568773852e+02
1708, 7.009055094149858e-01, 6.377146453193459e-02, 5.236856062274423e-02, 0.000000000000000e+00, 0.000000000000000e+00, 0.000000000000000e+00, 7.907530957348072e+02, 6.892235198011924e+02, -5.164825206446388e+01, 1.185492103787007e+03, 4.524260429303076e+02, -1.456465114002463e+02, 9.444120610184674e+02
1709, 7.942162069591072e-01, 1.712651475076457e-01, 4.109199103851462e-02, 0.000000000000000e+00, 0.000000000000000e+00, 0.000000000000000e+00, 3.871127201659093e+01, -1.214449267842078e+02, -6.912587318809821e+00, -3.366173399139187e+02, 4.670056838008479e+02, -7.184310459815346e+01, 8.810907693831268e+02
1710, 7.596421632686445e-01, 6.662572446210345e-02, 4.452751631988722e-02, 0.000000000000000e+00, 0.000000000000000e+00, 0.000000000000000e+00, 2.919233182973136e+02, 1.728476339396622e+02, -3.740346701091609e+01, 2.048272954722650e+02, 3.966143857590163e+02, -4.474848116943803e+01, 7.025005110188121e+02
1711, 8.947484445211829e-01, 7.793031159542197e-01, 3.537063570953725e-02, 0.000000000000000e+00, 0.000000000000000e+00, 0.000000000000000e+00, 1.220167289414133e+02, 5.453345299936318e+00, -3.047336115897516e+01, -1.738300023907898e+02, 4.572225759754230e+02, -1.717590193287169e+02, 8.860441445721619e+02
1712, 6.805312242387614e-01, 7.001671328686989e-01, 5.589140955055695e-02, 0.000000000000000e+00, 0.000000000000000e+00, 0.000000000000000e+00, 2.760093205929008e+03, 2.611439350342687e+03, -1.832733786781686e+01, 4.864655990185703e+03, 9.002794073458983e+02, -3.061104853256486e+02, 2.734549588022556e+03
1713, 5.221453135824665e-01, 8.958430746173342e-02, 7.041718343509393e-02, 0.000000000000000e+00, 0.000000000000000e+00, 0.000000000000000e+00, 2.535843375092131e+03, 2.443890332135165e+03, -3.131585643845315e+01, 4.468285367549538e+03, 6.621960799913409e+02, -4.283224477210189e+02, 2.406099476163105e+03
1714, 5.328071781511073e-01, 7.294947750133553e-02, 6.968883048346761e-02, 0.000000000000000e+00, 0.000000000000000e+00, 0.000000000000000e+00, 2.140869238089975e+03, 2.018982695984738e+03, -6.809215485500253e+01, 3.741662665369894e+03, 5.995648877677933e+02, -4.723640928639163e+02, 2.129375119305372e+03
1715, 5.237745686640666e-01, 5.537991000320253e-02, 7.043685781126452e-02, 0.000000000000000e+00, 0.000000000000000e+00, 0.000000000000000e+00, 1.981555425569455e+03, 1.927999390719572e+03, -1.123953629582043e+02, 3.433459626630926e+03, 5.280655997638953e+02, -5.488203090148977e+02, 1.991662991192707e+03
1716, 5.434587893304853e-01, 5.629724652975923e-02, 6.887880703115919e-02, 0.000000000000000e+00, 0.000000000000000e+00, 0.000000000000000e+00, 1.805244830990668e+03, 1.739488133699770e+03, -4.766743625806219e+01, 3.176129930260143e+03, 4.985461795526044e+02, -4.524467816621708e+02, 1.827670779631294e+03
1717, 5.524880941167748e-01, 7.388300941800416e-02, 6.810790847137217e-02, 0.000000000000000e+00, 0.000000000000000e+00, 0.000000000000000e+00, 1.922806469599780e+03, 1.818380746581611e+03, -5.320213680354648e+01, 3.396898544827022e+03, 5.489215039441651e+02, -4.521154165634259e+02, 1.965565112853783e+03
1718, 5.631306902456167e-01, 5.725084752024440e-02, 6.720151262993215e-02, 0.000000000000000e+00, 0.000000000000000e+00, 0.000000000000000e+00, 1.814126822809723e+03, 1.715613828275689e+03, -8.614599458578105e+01, 2.991692941841482e+03, 5.163031082959947e+02, -4.353582589947185e+02, 1.703805410401609e+03
1719, 5.721594600381847e-01, 7.481722177192031e-02, 6.640757421266259e-02, 0.000000000000000e+00, 0.000000000000000e+00, 0.000000000000000e+00, 1.885307374462511e+03, 1.762487369381281e+03, -8.338907931527761e+01, 3.132460636102318e+03, 5.181031330206600e+02, -4.412078207605020e+02, 1.770253707772971e+03
1720, 5.827942029547162e-01, 5.818459941536017e-02, 6.540880626703238e-02, 0.000000000000000e+00, 0.000000000000000e+00, 0.000000000000000e+00, 1.414290700642354e+03, 1.368118194980430e+03, -5.162466800089052e+01, 2.446566626285280e+03, 3.854708132750355e+02, -3.968688965782493e+02, 1.428867236266388e+03
1721, 5.918211758087857e-01, 7.575159149654262e-02, 6.459190056824599e-02, 0.000000000000000e+00, 0.000000000000000e+00, 0.000000000000000e+00, 1.822144054201655e+03, 1.663506671206576e+03, -8.481856757887735e+01, 3.050205648878573e+03, 4.812798865118128e+02, -3.903419821902786e+02, 1.703435270863506e+03
1722, 6.024450423845696e-01, 5.910390618765501e-02, 6.350466690410431e-02, 0.000000000000000e+00, 0.000000000000000e+00, 0.000000000000000e+00, 1.435372367603227e+03, 1.371587116385863e+03, -9.141756859247516e+01, 2.421960539116915e+03, 3.927486692603846e+02, -3.684677671262911e+02, 1.391217490619011e+03
1723, 5.812104344248029e-01, 9.236698271068920e-02, 6.560706406872055e-02, 0.000000000000000e+00, 0.000000000000000e+00, 0.000000000000000e+00, 1.938959283311020e+03, 1.834227389218024e+03, -5.834584321903775e+01, 3.431507523436060e+03, 5.929829828375348e+02, -3.280170328342696e+02, 1.944960439317428e+03
1724, 6.114729511887678e-01, 7.668627230472308e-02, 6.266453987279511e-02, 0.000000000000000e+00, 0.000000000000000e+00, 0.000000000000000e+00, 1.525862459398295e+03, 1.458596211283555e+03, -4.754582121394574e+01, 2.708896897648126e+03, 4.846300074706634e+02, -3.409123612386127e+02, 1.594903689937343e+03
1725, 6.220915064805519e-01, 6.005300905334043e-02, 6.149190687806502e-02, 0.000000000000000e+00, 0.000000000000000e+00, 0.000000000000000e+00, 1.364133490416775e+03, 1.325263965335080e+03, -7.629785917466324e+01, 2.340685244335099e+03, 4.185670762718939e+02, -3.252883260351512e+02, 1.361476785728681e+03
1726, 6.987012584088327e-01, 7.355160215768540e-01, 5.451791433163726e-02, 0.000000000000000e+00, 0.000000000000000e+00, 0.000000000000000e+00, 2.508956290323184e+03, 2.431780665527815e+03, -3.708621793744946e+01, 4.320013565829821e+03, 8.127861783378496e+02, -2.721945330317429e+02, 2.373586711754273e+03
1727, 4.037336084039970e-01, 8.390967494254670e-02, 7.632833409525261e-02, 0.000000000000000e+00, 0.000000000000000e+00, 0.000000000000000e+00, 3.225714607966706e+03, 3.099359106207011e+03, -4.095028195260451e+01, 5.927981150898467e+03, 6.715433196883757e+02, -7.375540270468540e+02, 3.263365796637458e+03
1728, 3.946953410539563e-01, 6.633202427735406e-02, 7.690524035711221e-02, 0.000000000000000e+00, 0.000000000000000e+00, 0.000000000000000e+00, 2.911914921153478e+03, 2.824237465725243e+03, -5.621214325366622e+01, 5.342633276885070e+03, 5.991877600334482e+02, -8.550616705016992e+02, 3.067433287445189e+03
1729, 4.144358581711396e-01, 6.728613494562639e-02, 7.637247640393242e-02, 0.000000000000000e+00, 0.000000000000000e+00, 0.000000000000000e+00, 2.884733490844747e+03, 2.744131360775136e+03, -9.111227672466677e+01, 5.186056655794161e+03, 5.834575266555370e+02, -7.887007262277627e+02, 2.924337037908383e+03
1730, 4.539786575804053e-01, 6.918201225462749e-02, 7.472153759245559e-02, 0.000000000000000e+00, 0.000000000000000e+00, 0.000000000000000e+00, 2.621721704372855e+03, 2.546390914199807e+03, -6.495769812096636e+01, 4.726109315715097e+03, 5.192237349873343e+02, -6.523654980201298e+02, 2.586663434985476e+03
1731, 4.448956929098629e-01, 5.162960548458883e-02, 7.537873403619436e-02, 0.000000000000000e+00, 0.000000000000000e+00, 0.000000000000000e+00, 2.373367920611588e+03, 2.303970574539469e+03, -5.339196732604220e+01, 4.304774671312496e+03, 4.575688852200036e+02, -6.790901852274960e+02, 2.426794785449631e+03
1732, 3.551818932006778e-01, 6.440226482381484e-02, 7.729419966683901e-02, 0.000000000000000e+00, 0.000000000000000e+00, 0.000000000000000e+00, 3.214988520920536e+03, 3.148394364536411e+03, -5.495768815016189e+01, 6.033230377695541e+03, 5.543612592835379e+02, -9.467347698921626e+02, 3.428488124128990e+03
1733, 9.289550570583829e-01, 1.108664548243720e+00, 3.446741106574659e-02, 0.000000000000000e+00, 0.000000000000000e+00, 0.000000000000000e+00, 9.886629522148480e+02, 8.474474555352592e+02, 1.449354189359164e+01, 1.344051028628079e+03, 5.423391576230559e+02, -2.455954745840135e+02, 1.122677910371456e+03
1734, 9.380202048838133e-01, 1.126369063166380e+00, 3.355684356408414e-02, 0.000000000000000e+00, 0.000000000000000e+00, 0.000000000000000e+00, 9.906308992550598e+02, 8.388788183655541e+02, -8.067419629873427e+01, 1.549320715427009e+03, 5.890722345069020e+02, -2.087120405844117e+02, 1.269319016175737e+03
1735, 9.577393079230031e-01, 1.127319203572191e+00, 3.116976906889661e-02, 0.000000000000000e+00, 0.000000000000000e+00, 0.000000000000000e+00, 5.131858435181599e+02, 3.607264070281478e+02, 1.480650375276101e+01, 5.904782407991172e+02, 5.548195047625538e+02, -1.072318879047394e+02, 9.998148475555803e+02
1736, 9.470848239215173e-01, 1.144014771320818e+00, 3.263654609204626e-02, 0.000000000000000e+00, 0.000000000000000e+00, 0.000000000000000e+00, 8.820693850302232e+02, 7.499568725368672e+02, -1.215889657803038e+01, 1.162219286384805e+03, 5.745388099389489e+02, -7.681816485118642e+01, 1.068353935060145e+03
1737, 9.667942436891027e-01, 1.144993105815615e+00, 3.020990015753937e-02, 0.000000000000000e+00, 0.000000000000000e+00, 0.000000000000000e+00, 2.406321271635879e+02, 1.349747367230463e+02, -1.689837489778680e+01, 1.869351538080616e+02, 4.640923995249140e+02, -8.404186488849555e+01, 8.225353507890666e+02
1738, 9.561452115656270e-01, 1.161712783336586e+00, 3.170752319693765e-02, 0.000000000000000e+00, 0.000000000000000e+00, 0.000000000000000e+00, 5.950627725956344e+02, 4.470080836349732e+02, -4.779068144308945e+01, 6.015484614838865e+02, 5.236069580459890e+02, -1.229825341866015e+02, 9.474392804398717e+02
1739, 9.159536900834749e-01, 1.383168342849776e+00, 3.596665880643885e-02, 0.000000000000000e+00, 0.000000000000000e+00, 0.000000000000000e+00, 2.993395877281102e+03, 2.898419920167330e+03, 2.084094047807787e+00, 5.300045448743405e+03, 8.147994990749398e+02, -4.676085304430628e+02, 2.862937275488984e+03
1740, 7.168707772097670e-01, 7.708666387296821e-01, 5.312287774273795e-02, 0.000000000000000e+00, 0.000000000000000e+00, 0.000000000000000e+00, 2.398364053399328e+03, 2.348046899292864e+03, -2.501626027910113e+01, 4.165653241976495e+03, 7.574370051201581e+02, -3.119924022730795e+02, 2.286874618721162e+03
1741, 4.645594801442183e-01, 2.416737674461730e-01, 7.157183574929545e-02, 0.000000000000000e+00, 0.000000000000000e+00, 0.000000000000000e+00, 3.459774444021466e+03, 3.337450541171800e+03, -6.811492782496199e+00, 6.117626181704440e+03, 9.017512613601102e+02, -3.421398625109910e+02, 3.192967593386201e+03
1742, 7.350396633493248e-01, 8.062188261064874e-01, 5.170607139906535e-02, 0.000000000000000e+00, 0.000000000000000e+00, 0.000000000000000e+00, 2.401404713984151e+03, 2.433781534559769e+03, -4.597279476992506e+01, 4.391004505166888e+03, 7.957182040901237e+02, -3.906567788585405e+02, 2.501763318795578e+03
1743, 2.913985541468420e-01, 1.302326331714501e-01, 7.219533531542734e-02, 0.000000000000000e+00, 0.000000000000000e+00, 0.000000000000000e+00, 4.824418255318937e+03, 4.782643579535377e+03, 7.224694653465750e+01, 9.498120362075504e+03, 7.173926274297654e+02, -6.273302987473592e+02, 4.978024127820006e+03
1744, 9.305524136411456e-01, 1.074279641966195e+00, 3.399303216785200e-02, 0.000000000000000e+00, 0.000000000000000e+00, 0.000000000000000e+00, 6.476796812877317e+02, 4.803315200316781e+02, -3.608004405406607e+01, 7.164571636412325e+02, 5.742583556075567e+02, -1.955135794421154e+02, 1.073380407541179e+03
1745, 8.454467826794457e-01, 3.457988165482955e-01, 3.623607327505803e-02, 0.000000000000000e+00, 0.000000000000000e+00, 0.000000000000000e+00, -3.938582418279624e+02, -5.066290453145359e+02, -1.065657123460517e+01, -1.010902756161079e+03, 5.064639982801168e+02, -7.760531363346509e+01, 1.054420394067185e+03
1746, 8.650666627051337e-01, 3.467188576463800e-01, 3.328343778775796e-02, 0.000000000000000e+00, 0.000000000000000e+00, 0.000000000000000e+00, -5.348321660111171e+02, -7.664784125015804e+02, 8.793088915133627e-01, -1.686299029737344e+03, 4.023624012792891e+02, -1.930393103795866e+02, 1.307778381963043e+03
1747, 8.560444837903669e-01, 3.290931884362320e-01, 3.437375835471665e-02, 0.000000000000000e+00, 0.000000000000000e+00, 0.000000000000000e+00, -8.991380155525078e+02, -9.675153202376790e+02, -3.065312662119914e+01, -1.796824945550679e+03, 6.319294754152191e+02, -8.822675236421237e+01, 1.404745946806755e+03
1748, 7.532076402530916e-01, 8.415723666415158e-01, 5.026616450354973e-02, 0.000000000000000e+00, 0.000000000000000e+00, 0.000000000000000e+00, 2.562332741992393e+03, 2.423376770455643e+03, -4.326377088674819e+01, 4.521124707135748e+03, 9.126982802065017e+02, -2.904555620556196e+02, 2.624142446508505e+03
1749, 2.053830772585488e-01, 7.413780026001163e-02, 6.750765318839225e-02, 0.000000000000000e+00, 0.000000000000000e+00, 0.000000000000000e+00, 4.709505285837795e+03, 4.671005124920002e+03, 1.967456217399564e+02, 9.662558225699964e+03, 1.977398205454345e+02, -9.590065696326676e+02, 5.264733559582328e+03
1750, 1.963804238661707e-01, 5.653063131511540e-02, 6.778807754128623e-02, 0.000000000000000e+00, 0.000000000000000e+00, 0.000000000000000e+00, 4.056206572489869e+03, 4.116363350331305e+03, 1.361977185319890e+02, 8.055035272963850e+03, 1.146943300704255e+02, -1.127574357639464e+03, 4.434307024052726e+03
1751, 8.675617583593542e-01, 7.262487276739227e-01, 3.831363481214539e-02, 0.000000000000000e+00, 0.000000000000000e+00, 0.000000000000000e+00, 3.486297043881198e+02, 1.965788234648454e+02, -1.847486232017171e+01, 2.106138001347497e+02, 5.023066037581218e+02, -1.438872343734669e+02, 9.171983227146194e+02
1752, 8.478426339490408e-01, 7.252994365013743e-01, 4.077145454230185e-02, 0.000000000000000e+00, 0.000000000000000e+00, 0.000000000000000e+00, 5.810676028886218e+02, 4.233785624747344e+02, -2.382307433754188e+01, 7.067219803030440e+02, 5.741680937020469e+02, -1.799693491862106e+02, 1.071608925987868e+03
1753, 3.817899455980180e-01, 3.065459711303349e-01, 6.829498313407094e-02, 0.000000000000000e+00, 0.000000000000000e+00, 0.000000000000000e+00, 4.738683277844597e+03, 4.843495422793972e+03, 5.976010147495823e+01, 9.278507551968498e+03, 1.008602098480203e+03, -3.416983118938566e+02, 4.853656652793186e+03
1754, 3.620055667343147e-01, 3.055180479973216e-01, 6.710678530116790e-02, 0.000000000000000e+00, 0.000000000000000e+00, 0.000000000000000e+00, 5.057478941729288e+03, 5.103755897395324e+03, 7.252983214718500e+01, 9.801144193543198e+03, 9.490013173422175e+02, -3.540652537449075e+02, 5.037723497143700e+03
1755, 5.130705509040858e-01, 2.614379689755259e-01, 6.947792530725599e-02, 0.000000000000000e+00, 0.000000000000000e+00, 0.000000000000000e+00, 3.140309051961651e+03, 3.040608562258118e+03, -8.927717947269487e+00, 5.670901002728646e+03, 8.248647220862814e+02, -3.097921983254717e+02, 2.999249110321744e+03
1756, 9.537469517165365e-01, 5.581462479966842e-01, 2.282945195637765e-02, 0.000000000000000e+00, 0.000000000000000e+00, 0.000000000000000e+00, -1.626042296645023e+03, -1.746449381077094e+03, -1.703360902371562e+02, -3.404655979813617e+03, 7.588162057208743e+02, 4.105106257631496e+02, 2.298654603613544e+03
1757, 9.116306666214634e-01, 4.008419299624649e-01, 2.683097321398741e-02, 0.000000000000000e+00, 0.000000000000000e+00, 0.000000000000000e+00, -1.481436447172673e+03, -1.474771848879144e+03, 2.200794858777962e+01, -2.707669499627892e+03, 6.558246911048416e+02, -6.105538043851680e+01, 1.677742134759036e+03
1758, 9.010519964560977e-01, 4.175921256595640e-01, 2.885788570744886e-02, 0.000000000000000e+00, 0.000000000000000e+00, 0.000000000000000e+00, -6.370549821055647e+02, -6.855318277850487e+02, -1.848985080118702e+01, -1.522770863860349e+03, 2.348204729201611e+02, -2.214135939595851e+01, 9.548948749925255e+02
1759, 9.100920103650532e-01, 4.352588185993673e-01, 2.772087769181410e-02, 0.000000000000000e+00, 0.000000000000000e+00, 0.000000000000000e+00, -1.040020341891056e+03, -1.203988379485321e+03, -6.252793322131502e+01, -2.122643648618544e+03, 4.629698194203297e+02, 1.881536773695562e+02, 1.335065889710422e+03
1760, 8.134942457553406e-01, 1.034119451382775e+00, 4.502605847327515e-02, 0.000000000000000e+00, 0.000000000000000e+00, 0.000000000000000e+00, 2.419861777601784e+03, 2.280246241412522e+03, -2.462717341399763e+01, 4.048670293134161e+03, 8.518371745526897e+02, -2.599431124718445e+02, 2.298113819306467e+03
1761, 5.080604797113955e-01, 3.644273582338254e-01, 6.796047442446963e-02, 0.000000000000000e+00, 0.000000000000000e+00, 0.000000000000000e+00, 3.476421167828486e+03, 3.370502342756636e+03, -1.320460786989729e+01, 6.273008099989493e+03, 9.725185874128225e+02, -3.231492163851318e+02, 3.358497433444360e+03
1762, 6.903130607608083e-01, 8.042961590775005e-02, 5.385794491703363e-02, 0.000000000000000e+00, 0.000000000000000e+00, 0.000000000000000e+00, 9.283795977780603e+02, 7.822839871384801e+02, -5.374917045970673e+01, 1.405959177766573e+03, 5.219761619060702e+02, -1.238353075322663e+02, 1.091443206943128e+03
1763, 6.812977161627446e-01, 6.286944767423484e-02, 5.479121655719665e-02, 0.000000000000000e+00, 0.000000000000000e+00, 0.000000000000000e+00, 9.823874950938742e+02, 9.028226455565398e+02, -6.398249403712638e+01, 1.637587295519718e+03, 4.504419356051463e+02, -1.973918611485905e+02, 1.107074499988874e+03
1764, 6.707022200489514e-01, 7.950375163313121e-02, 5.620462612856184e-02, 0.000000000000000e+00, 0.000000000000000e+00, 0.000000000000000e+00, 1.192643764571784e+03, 1.083173358205713e+03, -2.361476634312665e+01, 1.891371918228710e+03, 5.255288732223854e+02, -1.704582680715532e+02, 1.222324704120947e+03
1765, 6.918808674116538e-01, 4.613788670515044e-02, 5.332037863293567e-02, 0.000000000000000e+00, 0.000000000000000e+00, 0.000000000000000e+00, 7.707257997198994e+02, 7.092981944397991e+02, -6.765427745890298e+01, 1.203068375579224e+03, 3.761291703434793e+02, -1.860274764260382e+02, 8.713326866176855e+02
1766, 6.616627390142180e-01, 6.189421624124540e-02, 5.711648655330216e-02, 0.000000000000000e+00, 0.000000000000000e+00, 0.000000000000000e+00, 1.167159579424591e+03, 1.050520510081106e+03, -9.063175525511450e+01, 1.882087984641466e+03, 4.401814330716834e+02, -2.244639675312564e+02, 1.168413251516597e+03
1767, 6.510810226479601e-01, 7.856499900510309e-02, 5.845036348525160e-02, 0.000000000000000e+00, 0.000000000000000e+00, 0.000000000000000e+00, 1.294146930629995e+03, 1.176067989163972e+03, -7.521221247680795e+01, 2.189534285026664e+03, 5.664532923404946e+02, -2.380202543045303e+02, 1.439071608414651e+03
1768, 1.021456257704848e+00, 1.026952985834481e+00, 2.051033434145295e-02, 0.000000000000000e+00, 0.000000000000000e+00, 0.000000000000000e+00, -3.657657603038145e+02, -3.683833514056640e+02, -2.753007125840121e+00, -8.198094230998435e+02, 3.185708339024582e+02, -8.453947353020806e+01, 7.286285970202833e+02
1769, 1.051644234438760e+00, 1.011201485992891e+00, 1.511430634755089e-02, 0.000000000000000e+00, 0.000000000000000e+00, 0.000000000000000e+00, -1.270269660086277e+03, -1.156904351128851e+03, 1.852034706501547e+02, -2.425365310433752e+03, 1.671002894113628e+02, 1.829438318940155e+02, 1.328577910276458e+03
1770, 8.584976892448625e-01, 7.085657551840419e-01, 3.927837330827712e-02, 0.000000000000000e+00, 0.000000000000000e+00, 0.000000000000000e+00, 3.646277879044438e+02, 2.600664357082734e+02, -3.959302551915112e+01, 3.261067112400463e+02, 5.732275378046320e+02, -1.484986385908873e+02, 1.031996571771630e+03
1771, 8.387751289972025e-01, 7.076168097695796e-01, 4.170434500750603e-02, 0.000000000000000e+00, 0.000000000000000e+00, 0.000000000000000e+00, 6.362426151876770e+02, 5.153782232372143e+02, -3.203165253963574e+01, 7.964930788283249e+02, 5.512680301833423e+02, -1.793957813258320e+02, 1.034878219820452e+03
1772, 8.494328657038308e-01, 6.908833425490140e-01, 4.023528331477439e-02, 0.000000000000000e+00, 0.000000000000000e+00, 0.000000000000000e+00, 4.576775148693497e+02, 3.315913415232467e+02, -2.625654734794907e+01, 4.638336685418552e+02, 5.533406485588965e+02, -1.739771283060334e+02, 1.013973268679055e+03
1773, 8.297069829488182e-01, 6.899347275140261e-01, 4.262971201362513e-02, 0.000000000000000e+00, 0.000000000000000e+00, 0.000000000000000e+00, 7.326574195681267e+02, 5.647313207140040e+02, -2.684623242032589e+01, 8.829213124401080e+02, 5.748864177147025e+02, -1.696836141270102e+02, 1.075190480156737e+03
1774, 8.403673258163857e-01, 6.732015017525184e-01, 4.118447337196561e-02, 0.000000000000000e+00, 0.000000000000000e+00, 0.000000000000000e+00, 3.880569546574011e+02, 2.850540668943659e+02, -2.436381459412823e+01, 4.153524012890700e+02, 5.694908627787345e+02, -1.743598546956961e+02, 1.039283665636498e+03
1775, 8.206382504040489e-01, 6.722532083138222e-01, 4.354777471841116e-02, 0.000000000000000e+00, 0.000000000000000e+00, 0.000000000000000e+00, 8.428087320978922e+02, 6.698853432104493e+02, -3.850646780237893e+01, 9.953810383666881e+02, 5.965785356106670e+02, -1.786637851866880e+02, 1.116912021319730e+03
1776, 8.313011196843245e-01, 6.555202663210609e-01, 4.212619463496651e-02, 0.000000000000000e+00, 0.000000000000000e+00, 0.000000000000000e+00, 5.484247925063875e+02, 4.082844114323302e+02, 7.813924966250454e-01, 5.838131543410417e+02, 5.830744601003551e+02, -1.612533097508132e+02, 1.060088770140244e+03
1777, 8.115689881660861e-01, 6.545722853752003e-01, 4.445872636727366e-02, 0.000000000000000e+00, 0.000000000000000e+00, 0.000000000000000e+00, 8.303809314776380e+02, 6.989483151570690e+02, -2.342805063897983e+01, 1.103641145513679e+03, 6.418971519089532e+02, -1.651957818164415e+02, 1.203109472417830e+03
1778, 8.222342926759361e-01, 6.378397034164132e-01, 4.306060141952790e-02, 0.000000000000000e+00, 0.000000000000000e+00, 0.000000000000000e+00, 6.362339604061525e+02, 5.012024874511511e+02, -2.258014234611607e+01, 7.856463272495123e+02, 5.890284236376631e+02, -1.456957508011120e+02, 1.080188743449730e+03
1779, 8.024992731427529e-01, 6.368920242084957e-01, 4.536262279859573e-02, 0.000000000000000e+00, 0.000000000000000e+00, 0.000000000000000e+00, 9.703490129478524e+02, 7.956450939609291e+02, -3.878551149020824e+01, 1.308594463588606e+03, 6.614842932918157e+02, -1.250628659998011e+02, 1.252255473084959e+03
1780, 8.131669036269529e-01, 6.201598772803643e-01, 4.398774029676353e-02, 0.000000000000000e+00, 0.000000000000000e+00, 0.000000000000000e+00, 7.831385734123965e+02, 5.826974540568270e+02, -2.237546489880900e+01, 1.014369950204550e+03, 6.418565032539632e+02, -1.506826130960020e+02, 1.202310240412558e+03
1781, 7.934291371589623e-01, 6.192124774927721e-01, 4.625958869870424e-02, 0.000000000000000e+00, 0.000000000000000e+00, 0.000000000000000e+00, 1.144086002611562e+03, 1.010434713981293e+03, -2.372650683329221e+01, 1.733538582683356e+03, 6.477525085084435e+02, -1.765954534624648e+02, 1.340930553304746e+03
1782, 8.040990148946842e-01, 6.024807988186609e-01, 4.490774798411717e-02, 0.000000000000000e+00, 0.000000000000000e+00, 0.000000000000000e+00, 7.580013219556727e+02, 6.598452505667691e+02, -3.399835708172535e+01, 1.117837640373760e+03, 6.412938921893349e+02, -2.254284355687756e+02, 1.250652662325523e+03
1783, 7.843586427518163e-01, 6.015336755896558e-01, 4.714989235144577e-02, 0.000000000000000e+00, 0.000000000000000e+00, 0.000000000000000e+00, 1.103406005296269e+03, 9.265916521817410e+02, -3.894183933197734e+01, 1.578564485660554e+03, 6.203843283254160e+02, -2.114937103723442e+02, 1.278445168902479e+03
1784, 7.950311563183586e-01, 5.847761851996989e-01, 4.582060855598383e-02, 0.000000000000000e+00, 0.000000000000000e+00, 0.000000000000000e+00, 8.561002748316940e+02, 7.001163403632462e+02, -1.782560220054161e+01, 1.126810558589816e+03, 6.260435081934928e+02, -2.099849615665890e+02, 1.203689009542652e+03
1785, 7.752875315848864e-01, 5.838376548582039e-01, 4.803349247342100e-02, 0.000000000000000e+00, 0.000000000000000e+00, 0.000000000000000e+00, 1.093153997368755e+03, 9.611860459410748e+02, -5.015321679916642e+01, 1.558580738477849e+03, 6.751444647607526e+02, -1.989161920599072e+02, 1.337597899166742e+03
1786, 7.859619247822484e-01, 5.671251311747042e-01, 4.672717711630393e-02, 0.000000000000000e+00, 0.000000000000000e+00, 0.000000000000000e+00, 7.838165171841471e+02, 6.511708461808736e+02, -1.417036446799649e+01, 1.076682281874431e+03, 6.097570473978800e+02, -1.878257110690026e+02, 1.167930420655315e+03
1787, 7.662167895323664e-01, 5.661785425058181e-01, 4.891063728541643e-02, 0.000000000000000e+00, 0.000000000000000e+00, 0.000000000000000e+00, 1.087702278812709e+03, 9.185290519530475e+02, -1.759591147625786e+01, 1.529303701750485e+03, 6.849311852779019e+02, -2.230187337975167e+02, 1.362303797251384e+03
1788, 7.768928287152180e-01, 5.494487135715422e-01, 4.762672280343866e-02, 0.000000000000000e+00, 0.000000000000000e+00, 0.000000000000000e+00, 8.637295628295168e+02, 7.127632484247401e+02, -1.676202564009943e+01, 1.184370974279920e+03, 6.569440366834772e+02, -1.742864135179163e+02, 1.249281535634590e+03
1789, 7.571455476773432e-01, 5.485023619266999e-01, 4.978128033359551e-02, 0.000000000000000e+00, 0.000000000000000e+00, 0.000000000000000e+00, 1.042515117053363e+03, 9.026476227371052e+02, -3.193016001325586e+01, 1.509793804835038e+03, 7.039008614515532e+02, -2.157445029294123e+02, 1.390105870958609e+03
1790, 7.678234728185396e-01, 5.317732702354181e-01, 4.851975970870891e-02, 0.000000000000000e+00, 0.000000000000000e+00, 0.000000000000000e+00, 9.809636232792059e+02, 8.585638291076904e+02, -2.936552183825660e+01, 1.405783282875543e+03, 6.559709431306123e+02, -1.626731949244286e+02, 1.272917763660182e+03
1791, 7.875592671467699e-01, 5.327199797313897e-01, 4.626726433930722e-02, 0.000000000000000e+00, 0.000000000000000e+00, 0.000000000000000e+00, 7.448024193529990e+02, 6.030702245779016e+02, -3.758997611514948e+01, 8.967014570342129e+02, 6.824018146269881e+02, -1.751579351732736e+02, 1.248193475456892e+03
1792, 7.784924526322001e-01, 5.150442190034910e-01, 4.718233348288910e-02, 0.000000000000000e+00, 0.000000000000000e+00, 0.000000000000000e+00, 7.785489198001599e+02, 6.468050981282920e+02, -2.427598911566698e+01, 1.028565514399139e+03, 6.631394122480790e+02, -1.944561008095993e+02, 1.243893890320420e+03
1793, 7.587536879241341e-01, 5.140980488680219e-01, 4.940641399150075e-02, 0.000000000000000e+00, 0.000000000000000e+00, 0.000000000000000e+00, 9.777203900002410e+02, 8.322922471725509e+02, -2.263470719180383e+01, 1.383038738624207e+03, 6.994515795881681e+02, -2.007948946900087e+02, 1.354461996080651e+03
1794, 7.694246846799130e-01, 4.973696997530955e-01, 4.809087154979168e-02, 0.000000000000000e+00, 0.000000000000000e+00, 0.000000000000000e+00, 8.325280267511973e+02, 6.577522392919768e+02, -2.917276551519245e+01, 1.037469668525666e+03, 6.790646426777093e+02, -1.453618493836132e+02, 1.248077004257600e+03
1795, 7.496839262448493e-01, 4.964238216782705e-01, 5.028666032967387e-02, 0.000000000000000e+00, 0.000000000000000e+00, 0.000000000000000e+00, 1.043901971527921e+03, 9.238746598200446e+02, -1.643498301615816e+01, 1.541020006104471e+03, 7.233362044585159e+02, -1.701531411431216e+02, 1.406596257464448e+03
1796, 7.603566672287715e-01, 4.796964301265946e-01, 4.899285193345407e-02, 0.000000000000000e+00, 0.000000000000000e+00, 0.000000000000000e+00, 9.790954771850561e+02, 8.334136763449989e+02, -2.610266441839138e+01, 1.385668507133191e+03, 7.063507004969628e+02, -1.596568036820759e+02, 1.349468034221578e+03
1797, 7.406141532800709e-01, 4.787508042980289e-01, 5.116056081336810e-02, 0.000000000000000e+00, 0.000000000000000e+00, 0.000000000000000e+00, 1.148124510875863e+03, 9.863860550704027e+02, -2.306898694806367e+01, 1.687802970600680e+03, 7.236124206344091e+02, -1.878056965637286e+02, 1.443243987701181e+03
1798, 7.512885427424461e-01, 4.620244120612372e-01, 4.988841620198159e-02, 0.000000000000000e+00, 0.000000000000000e+00, 0.000000000000000e+00, 1.004179831286578e+03, 8.431912731843631e+02, -2.930833057531301e+01, 1.392747395130776e+03, 7.026670070663006e+02, -1.801621436653703e+02, 1.349307932442551e+03
1799, 7.315443867470945e-01, 4.610790445539813e-01, 5.202838267475019e-02, 0.000000000000000e+00, 0.000000000000000e+00, 0.000000000000000e+00, 1.243392725304181e+03, 1.100215319298379e+03, -3.323840815317142e+01, 1.895485910123157e+03, 7.509491575274337e+02, -1.636790012598607e+02, 1.521364859334467e+03
1800, 7.422203434276138e-01, 4.443537351020549e-01, 5.077778079033806e-02, 0.000000000000000e+00, 0.000000000000000e+00, 0.000000000000000e+00, 1.108045997115590e+03, 9.516189973878448e+02, -3.768896385070127e+01, 1.674198031373220e+03, 7.074712805825640e+02, -1.388305630237221e+02, 1.413219368842228e+03
1801, 7.224748311136164e-01, 4.434087006523765e-01, 5.289018421607532e-02, 0.000000000000000e+00, 0.000000000000000e+00, 0.000000000000000e+00, 1.397789987283389e+03, 1.216382940564136e+03, -2.011897439999405e+01, 2.140095510482081e+03, 7.359787268005840e+02, -1.867260391645336e+02, 1.565053889968497e+03
1802, 7.331521111427789e-01, 4.266847859309945e-01, 5.166096414264824e-02, 0.000000000000000e+00, 0.000000000000000e+00, 0.000000000000000e+00, 1.266350045820740e+03, 1.091578539064138e+03, -4.770674691098930e+01, 1.810592684035681e+03, 6.984624610838964e+02, -2.160345366573441e+02, 1.425571193440024e+03
1803, 7.134056625198678e-01, 4.257400908165958e-01, 5.374598233189135e-02, 0.000000000000000e+00, 0.000000000000000e+00, 0.000000000000000e+00, 1.363329619111114e+03, 1.222662479716861e+03, -3.347244220935040e+01, 2.147955662487894e+03, 7.515643305042215e+02, -2.319103921341320e+02, 1.614017256669543e+03
1804, 7.240840196628976e-01, 4.090179030600651e-01, 5.253796896794731e-02, 0.000000000000000e+00, 0.000000000000000e+00, 0.000000000000000e+00, 1.103531176363412e+03, 9.157304304061615e+02, -2.255827438827127e+01, 1.551928506500921e+03, 7.067654657126111e+02, -2.008883863589812e+02, 1.393443923545321e+03
1805, 7.043370409553272e-01, 4.080735213908279e-01, 5.459582858181886e-02, 0.000000000000000e+00, 0.000000000000000e+00, 0.000000000000000e+00, 1.449768115031521e+03, 1.301845670090689e+03, -1.712432868994025e+01, 2.246138091348183e+03, 7.705129956180352e+02, -2.173033938118649e+02, 1.642406781191751e+03
1806, 7.150162820329675e-01, 3.913532532321501e-01, 5.340892833467335e-02, 0.000000000000000e+00, 0.000000000000000e+00, 0.000000000000000e+00, 1.218003117382941e+03, 1.088975828261210e+03, -3.028792957913108e+01, 1.803988439712178e+03, 7.321353244966857e+02, -2.321764543997942e+02, 1.485991632218641e+03
1807, 6.952690313885057e-01, 3.904091794859451e-01, 5.543998418429638e-02, 0.000000000000000e+00, 0.000000000000000e+00, 0.000000000000000e+00, 1.482552664057548e+03, 1.340146330096054e+03, -3.537212546715143e+01, 2.300239585278005e+03, 7.853234414635356e+02, -2.316382393218697e+02, 1.679361893259342e+03
1808, 7.059490122917838e-01, 3.736910181532224e-01, 5.427403742647234e-02, 0.000000000000000e+00, 0.000000000000000e+00, 0.000000000000000e+00, 1.177764252723774e+03, 1.032655787286874e+03, -1.610994007704445e+01, 1.749718512198639e+03, 7.568786423104556e+02, -1.787365784425454e+02, 1.498798941836578e+03
1809, 6.862018898968623e-01, 3.727473264332757e-01, 5.627847843202080e-02, 0.000000000000000e+00, 0.000000000000000e+00, 0.000000000000000e+00, 1.558926693550356e+03, 1.413184015426474e+03, -3.343056201480700e+01, 2.450819381054481e+03, 7.987289311576865e+02, -2.222318445669618e+02, 1.735545397037972e+03
1810, 6.968823048317863e-01, 3.560318335010281e-01, 5.513332042335268e-02, 0.000000000000000e+00, 0.000000000000000e+00, 0.000000000000000e+00, 1.262730973818206e+03, 1.130801311878824e+03, -2.088576204391731e+01, 1.945273596399050e+03, 7.702952559979601e+02, -1.945660662798939e+02, 1.571069169911222e+03
1811, 6.771362870583442e-01, 3.550886647619521e-01, 5.711125207091772e-02, 0.000000000000000e+00, 0.000000000000000e+00, 0.000000000000000e+00, 1.584593143754081e+03, 1.451576107555314e+03, -3.454395514960207e+01, 2.517458598792378e+03, 7.942808089671915e+02, -2.286409863314679e+02, 1.750735403768674e+03
1812, 6.755432123143360e-01, 3.894292511249026e-01, 5.734266646222877e-02, 0.000000000000000e+00, 0.000000000000000e+00, 0.000000000000000e+00, 1.768409096804955e+03, 1.605179708474125e+03, -1.080253712350384e+01, 2.912999773599450e+03, 7.852050608979171e+02, -2.432250925891605e+02, 1.884417382397304e+03
1813, 7.208603849398962e-01, 4.778047321821828e-01, 5.320200509329009e-02, 0.000000000000000e+00, 0.000000000000000e+00, 0.000000000000000e+00, 1.350790438238488e+03, 1.218004855883372e+03, -2.730813967734825e+01, 2.083314458583102e+03, 7.525110098288884e+02, -2.110188323137201e+02, 1.576748104766873e+03
1814, 7.166163650253068e-01, 3.569757404403856e-01, 5.303436198354285e-02, 0.000000000000000e+00, 0.000000000000000e+00, 0.000000000000000e+00, 1.094712714309209e+03, 9.327862830230474e+02, -1.976379056626248e+01, 1.564275422701695e+03, 7.374060450617687e+02, -1.656396968017669e+02, 1.427420153809074e+03
1815, 7.075532569492375e-01, 3.393185432467630e-01, 5.391393538174379e-02, 0.000000000000000e+00, 0.000000000000000e+00, 0.000000000000000e+00, 1.183009440699058e+03, 1.030971052022159e+03, -5.605585781528813e+01, 1.661647273491983e+03, 7.256777650123653e+02, -1.708589604264685e+02, 1.414853687852601e+03
1816, 7.347511487863778e-01, 3.922978382292360e-01, 5.125637366028254e-02, 0.000000000000000e+00, 0.000000000000000e+00, 0.000000000000000e+00, 9.236814835394107e+02, 7.857632641127210e+02, -3.281550997649579e+01, 1.268408869139267e+03, 7.139828065250434e+02, -1.917871330956463e+02, 1.352144379580161e+03
1817, 7.027191222676180e-01, 4.424627810027643e-01, 5.487669481158902e-02, 0.000000000000000e+00, 0.000000000000000e+00, 0.000000000000000e+00, 1.628868242694358e+03, 1.506065296711816e+03, 8.539403935861580e-01, 2.698641723844811e+03, 7.612432206194975e+02, -2.244358601830337e+02, 1.783383715301433e+03
1818, 7.390030231405973e-01, 5.131516564192078e-01, 5.150387332729203e-02, 0.000000000000000e+00, 0.000000000000000e+00, 0.000000000000000e+00, 1.369782256531865e+03, 1.191696913576583e+03, -3.693591761178677e+01, 1.998159943949407e+03, 7.638191977161957e+02, -1.932242914281884e+02, 1.550753600741139e+03
1819, 7.710196507232918e-01, 4.629703461656608e-01, 4.762630967733362e-02, 0.000000000000000e+00, 0.000000000000000e+00, 0.000000000000000e+00, 7.906051606596916e+02, 6.233310209427962e+02, -3.040819418054070e+01, 9.780664837755224e+02, 6.811804607293811e+02, -1.719482266854346e+02, 1.256173885286585e+03
1820, 7.982174712311645e-01, 5.159917138121586e-01, 4.483527512394417e-02, 0.000000000000000e+00, 0.000000000000000e+00, 0.000000000000000e+00, 5.234062737323493e+02, 3.565481537274461e+02, -2.307395055830094e+01, 4.616851302896869e+02, 6.008485097955399e+02, -1.465865167009447e+02, 1.081882292668319e+03
1821, 8.238265311278148e-01, 6.033824817143917e-01, 4.253724339867033e-02, 0.000000000000000e+00, 0.000000000000000e+00, 0.000000000000000e+00, 5.253052931647516e+02, 3.711716542245697e+02, -5.565007102433964e+01, 5.171416472119657e+02, 5.934188204136483e+02, -1.879889967036205e+02, 1.092846558503884e+03
1822, 8.072814224627944e-01, 5.336682862758397e-01, 4.389143516968216e-02, 0.000000000000000e+00, 0.000000000000000e+00, 0.000000000000000e+00, 4.552229172004904e+02, 2.978681203691811e+02, -4.481418834907898e+01, 3.534034764739412e+02, 5.984007554857388e+02, -1.379382750813328e+02, 1.075389317091162e+03
1823, 7.528921139278575e-01, 4.275872523410525e-01, 4.945297683837428e-02, 0.000000000000000e+00, 0.000000000000000e+00, 0.000000000000000e+00, 8.666645836689382e+02, 7.220600573177320e+02, -4.450401541010640e+01, 1.175899209393492e+03, 6.797876875475229e+02, -2.019687516423062e+02, 1.294566762233182e+03
1824, 5.889727482002131e-01, 3.337718413021117e-01, 6.444510457539268e-02, 0.000000000000000e+00, 0.000000000000000e+00, 0.000000000000000e+00, 2.348195948755227e+03, 2.241084024424904e+03, -2.569640048482844e+01, 3.958544462721388e+03, 8.798355961285637e+02, -2.484968742588096e+02, 2.299292904813935e+03
1825, 6.087535260986128e-01, 3.348002805648846e-01, 6.302428918460766e-02, 0.000000000000000e+00, 0.000000000000000e+00, 0.000000000000000e+00, 2.179323360584671e+03, 2.052934165113377e+03, -2.500179861070105e+01, 3.672448832210534e+03, 8.491892255815354e+02, -2.548216180303708e+02, 2.189556414716411e+03
1826, 7.589783852432775e-01, 9.280462889303249e-01, 4.925661172927151e-02, 0.000000000000000e+00, 0.000000000000000e+00, 0.000000000000000e+00, 2.398762301094246e+03, 2.394047893020124e+03, -5.430863757273809e-01, 4.439607487721168e+03, 7.241411155185269e+02, -3.906902458068030e+02, 2.491134527345935e+03
1827, 7.482281731449026e-01, 9.447921566896187e-01, 4.963859928465275e-02, 0.000000000000000e+00, 0.000000000000000e+00, 0.000000000000000e+00, 2.821223520910146e+03, 2.710502115464366e+03, -4.687737824361993e+01, 5.035287221475898e+03, 7.635395697545250e+02, -4.015061469593901e+02, 2.720050292203108e+03
1828, 7.283832658139808e-01, 9.438174193012944e-01, 5.048185578887084e-02, 0.000000000000000e+00, 0.000000000000000e+00, 0.000000000000000e+00, 3.034694520931495e+03, 2.923069841125800e+03, 1.846595644418187e+01, 5.354339002536688e+03, 8.805036936675159e+02, -3.630983765042662e+02, 2.893880559749156e+03
1829, 1.039526622343059e+00, 1.062334522056687e+00, 1.820618779577406e-02, 0.000000000000000e+00, 0.000000000000000e+00, 0.000000000000000e+00, -1.441787972956760e+03, -1.545995904751754e+03, 7.305722669769159e+01, -2.899157395505185e+03, 1.655223190300675e+02, 5.114089545295575e+02, 1.692849024329009e+03
1830, 8.612035797697406e-01, 8.639914620616269e-01, 4.036530827007698e-02, 0.000000000000000e+00, 0.000000000000000e+00, 0.000000000000000e+00, 1.014302844614083e+03, 8.598106801185738e+02, -2.976922413676499e+01, 1.435518676651895e+03, 5.810063575097723e+02, -2.037850374554668e+02, 1.185881089591501e+03
1831, 1.001821722717700e+00, 1.025992194027132e+00, 2.359233516247903e-02, 0.000000000000000e+00, 0.000000000000000e+00, 0.000000000000000e+00, -4.554196445326151e+02, -6.602468970845464e+02, -2.250036463854764e+01, -1.382180963936545e+03, 2.902518781083667e+02, 1.535715061417874e+02, 1.017852961711687e+03
1832, 9.124076867806880e-01, 1.038906359373631e+00, 3.583083242737333e-02, 0.000000000000000e+00, 0.000000000000000e+00, 0.000000000000000e+00, 8.045854291284786e+02, 6.853105107827498e+02, -4.956319390326118e+01, 1.059890954339131e+03, 6.174823468642793e+02, -1.168673495672983e+02, 1.141076584565457e+03
1833, 9.049413532412190e-01, 9.868032529923844e-01, 3.627496137813952e-02, 0.000000000000000e+00, 0.000000000000000e+00, 0.000000000000000e+00, 7.458383368230026e+02, 5.883941436596884e+02, -1.863755234434033e+01, 9.691501421219619e+02, 5.447724714545227e+02, -1.085852315662396e+02, 1.018116620498319e+03
1834, 6.178167522994762e-01, 3.524626039986076e-01, 6.227550398980296e-02, 0.000000000000000e+00, 0.000000000000000e+00, 0.000000000000000e+00, 2.203030713908963e+03, 2.074714906403166e+03, -1.828636564754862e+01, 3.671844580951308e+03, 8.147207980540902e+02, -2.691197983798636e+02, 2.138209687422758e+03
1835, 6.286041217538806e-01, 3.355325224902729e-01, 6.145714334479276e-02, 0.000000000000000e+00, 0.000000000000000e+00, 0.000000000000000e+00, 2.056904399300309e+03, 1.904142641819612e+03, -1.140900525491826e+01, 3.398238865819635e+03, 8.077587760112807e+02, -2.221957370652829e+02, 2.033062952709188e+03
1836, 6.376027615004337e-01, 3.533051567116571e-01, 6.068751170678659e-02, 0.000000000000000e+00, 0.000000000000000e+00, 0.000000000000000e+00, 1.912933082844444e+03, 1.823601529703428e+03, -1.303201441646924e+01, 3.256516566981534e+03, 7.662749626075166e+02, -2.492030540440064e+02, 1.970169801371552e+03
1837, 8.446598365477651e-01, 7.941750665604754e-01, 4.173061753449594e-02, 0.000000000000000e+00, 0.000000000000000e+00, 0.000000000000000e+00, 8.535364521238711e+02, 7.459903190199957e+02, -4.804470302265061e+01, 1.215394048665615e+03, 5.499398433891979e+02, -2.297904711848873e+02, 1.119848575750945e+03
1838, 8.056930907605135e-01, 5.680724335544848e-01, 4.441662073623912e-02, 0.000000000000000e+00, 0.000000000000000e+00, 0.000000000000000e+00, 5.950731439225336e+02, 4.648327002494418e+02, -1.089101985366706e+01, 6.765831821935599e+02, 6.281898495763979e+02, -1.821772906590032e+02, 1.148046759946525e+03
1839, 8.702733672119767e-01, 8.816751429999486e-01, 3.946221147688118e-02, 0.000000000000000e+00, 0.000000000000000e+00, 0.000000000000000e+00, 9.690391770107732e+02, 8.555085764742668e+02, -4.176431028791946e+01, 1.404175028963992e+03, 5.322194987191554e+02, -2.109466146586991e+02, 1.113613317763589e+03
1840, 8.900069658568607e-01, 8.826256757156632e-01, 3.712257186901784e-02, 0.000000000000000e+00, 0.000000000000000e+00, 0.000000000000000e+00, 7.587975431990221e+02, 6.543558698898938e+02, -3.740253187687443e+01, 1.043948324577697e+03, 5.186964481905566e+02, -2.027727730303718e+02, 1.027952291068633e+03
1841, 9.945556092701251e-01, 7.496748380987550e-01, 1.968135189521813e-02, 0.000000000000000e+00, 0.000000000000000e+00, 0.000000000000000e+00, -9.566759673870124e+02, -1.165089649441411e+03, 4.245103413572096e+01, -1.877898238055426e+03, 5.209399777266531e+02, -1.043448180800492e+01, 1.232866455352460e+03
1842, 1.014142087229746e+00, 7.506399731769137e-01, 1.628619620978209e-02, 0.000000000000000e+00, 0.000000000000000e+00, 0.000000000000000e+00, -1.395702399701052e+03, -1.320142735220977e+03, 6.173824214604251e+01, -2.778452688039400e+03, 4.962833175439903e+02, -4.286820925526201e+02, 1.823134390415538e+03
1843, 1.024685756285453e+00, 7.339119928898703e-01, 1.402535138034455e-02, 0.000000000000000e+00, 0.000000000000000e+00, 0.000000000000000e+00, -1.252114230788437e+03, -2.049355876901391e+03, 1.083373274816068e-01, -3.105120009603077e+03, 1.176793701451249e+02, -3.967278643901946e+02, 1.762287040777792e+03
1844, 1.032990203010908e+00, 7.510832431070518e-01, 1.287884690036505e-02, 0.000000000000000e+00, 0.000000000000000e+00, 0.000000000000000e+00, -5.395096104857262e+03, -5.360538080423466e+03, 1.747814955799607e+02, -1.004117272161876e+04, 2.298025569104380e+03, -8.773708363970227e+02, 6.323885706680513e+03
1845, 1.023110556753839e+00, 7.680845902553225e-01, 1.505295433488202e-02, 0.000000000000000e+00, 0.000000000000000e+00, 0.000000000000000e+00, -1.054965125382657e+03, -1.181982167980514e+03, 8.053190179298348e+00, -2.198137091331816e+03, 4.774143921067644e+02, 4.278968160798747e+02, 1.552748618794690e+03
1846, 9.733807113285469e-01, 3.349328423385630e-01, 1.463003184806603e-02, 0.000000000000000e+00, 0.000000000000000e+00, 0.000000000000000e+00, 1.729792261319002e+01, -6.225641875054724e+02, 7.472966369212597e+01, -2.645227732492057e+02, 2.781062194320939e+02, -8.444877786595100e+01, 7.607217648184248e+02
1847, 6.618762425676654e-01, 1.112275260511392e+00, 4.109096448680699e-02, 0.000000000000000e+00, 0.000000000000000e+00, 0.000000000000000e+00, 5.533243622172948e+03, 5.952546744862790e+03, 2.531767561609037e+02, 1.127415887807635e+04, 4.602792502206341e+02, 5.325003492627932e+02, 5.692563186323913e+03
1848, 7.680646133801710e-01, 9.457433162736626e-01, 4.856670401585497e-02, 0.000000000000000e+00, 0.000000000000000e+00, 0.000000000000000e+00, 2.726525962866500e+03, 2.582922559049840e+03, -4.667828834616260e+01, 4.936460974935998e+03, 7.874675648869276e+02, -3.320999652464500e+02, 2.723878141714647e+03
1849, 7.573148070871611e-01, 9.624710075863288e-01, 4.897889582816957e-02, 0.000000000000000e+00, 0.000000000000000e+00, 0.000000000000000e+00, 3.052729916889099e+03, 2.974623707108739e+03, -1.336405750770130e+01, 5.485839569804703e+03, 7.742579986371164e+02, -2.907364653247117e+02, 2.858095406447269e+03
1850, 7.771495779489850e-01, 9.634218060517439e-01, 4.787099987986924e-02, 0.000000000000000e+00, 0.000000000000000e+00, 0.000000000000000e+00, 2.814594556458908e+03, 2.783859729729345e+03, -6.196091488745300e+01, 5.066204560541364e+03, 8.454618768356946e+02, -2.019574994470926e+02, 2.723635511336596e+03
1851, 7.664012830244276e-01, 9.801500461663559e-01, 4.831328978491910e-02, 0.000000000000000e+00, 0.000000000000000e+00, 0.000000000000000e+00, 2.794690447486878e+03, 2.750380699183575e+03, -4.287141637473459e+01, 5.059307336012167e+03, 8.294141922505618e+02, -2.590454009809855e+02, 2.738869977048328e+03
1852, 6.336860401676457e-01, 2.322867939712731e-01, 6.096793181482262e-02, 0.000000000000000e+00, 0.000000000000000e+00, 0.000000000000000e+00, 1.812821256874110e+03, 1.660746905820517e+03, -2.862077568730589e+01, 2.940870646470238e+03, 7.425093784745969e+02, -1.786948945571804e+02, 1.794263912106921e+03
1853, 8.793419337284657e-01, 8.993593196081220e-01, 3.855124623112468e-02, 0.000000000000000e+00, 0.000000000000000e+00, 0.000000000000000e+00, 9.867575668733558e+02, 8.639029507959611e+02, -3.617851252166379e+01, 1.465069358452432e+03, 5.259738609798726e+02, -1.566430611288630e+02, 1.100055246604176e+03
1854, 8.990717310909282e-01, 9.003101926291943e-01, 3.617696334240390e-02, 0.000000000000000e+00, 0.000000000000000e+00, 0.000000000000000e+00, 7.580927058016100e+02, 5.853544346566277e+02, -5.470556289313964e+01, 1.008960807892664e+03, 5.318407998758363e+02, -1.126572789795965e+02, 1.015738563705686e+03
1855, 8.884097129856161e-01, 9.170439150875451e-01, 3.763227850367564e-02, 0.000000000000000e+00, 0.000000000000000e+00, 0.000000000000000e+00, 7.949675568118664e+02, 6.289103175026661e+02, -2.483356551539422e+01, 9.723210518819531e+02, 5.190083651826842e+02, -1.206063338014438e+02, 9.706064760191177e+02
1856, 9.081356130180771e-01, 9.179951344354829e-01, 3.522279554499290e-02, 0.000000000000000e+00, 0.000000000000000e+00, 0.000000000000000e+00, 3.407790256524861e+02, 3.245789525342220e+02, -1.184535675938570e+01, 4.799666152162114e+02, 4.704936715920547e+02, -7.068588856061551e+01, 8.374925573193375e+02
1857, 7.862368596362597e-01, 9.810768660211725e-01, 4.716930814156981e-02, 0.000000000000000e+00, 0.000000000000000e+00, 0.000000000000000e+00, 2.629663657251162e+03, 2.586253442040897e+03, -1.828396557601705e+01, 4.594263453069312e+03, 9.080441052808854e+02, -2.133249237782503e+02, 2.560854989132431e+03
1858, 1.074073349898659e+00, 1.167487258962914e+00, 1.441375906134346e-02, 0.000000000000000e+00, 0.000000000000000e+00, 0.000000000000000e+00, -4.406950562141076e+03, -3.709988496328925e+03, 7.776005428754814e+01, -7.257806907698782e+03, 2.084358813998378e+03, -6.550045534817335e+02, 4.993892722313261e+03
1859, 8.974766885433760e-01, 9.347289117555653e-01, 3.670501949270310e-02, 0.000000000000000e+00, 0.000000000000000e+00, 0.000000000000000e+00, 4.691398258627135e+02, 4.176269945707479e+02, -5.267305750131693e+01, 6.707804062734955e+02, 4.880096520543670e+02, -1.499873413179937e+02, 9.186793753958077e+02
1860, 9.171985545635557e-01, 9.356804977264765e-01, 3.425989072024967e-02, 0.000000000000000e+00, 0.000000000000000e+00, 0.000000000000000e+00, 4.281839176164732e+02, 2.961227941755454e+02, -8.906596827121342e+00, 4.245807988864649e+02, 5.175484863090722e+02, -1.329474147778450e+02, 9.347778482685511e+02
1861, 1.066551954301209e+00, 1.115432254099140e+00, 1.465689152696211e-02, 0.000000000000000e+00, 0.000000000000000e+00, 0.000000000000000e+00, -1.285296811124299e+03, -1.245109818295373e+03, 1.714540151136395e+02, -1.905458547678955e+03, 1.896747489872812e+02, 1.950306134562420e+02, 8.493337381736919e+02
1862, 7.465569541874334e-01, 9.791968045639319e-01, 4.923024240428679e-02, 0.000000000000000e+00, 0.000000000000000e+00, 0.000000000000000e+00, 3.176689634101383e+03, 3.075616663414531e+03, -5.861608378799813e+01, 5.562686112290825e+03, 8.499018507479215e+02, -2.950367330077545e+02, 2.895306843230381e+03
1863, 7.556446903026285e-01, 9.968757916738328e-01, 4.859655702415566e-02, 0.000000000000000e+00, 0.000000000000000e+00, 0.000000000000000e+00, 2.920135244363000e+03, 2.839787640052777e+03, -2.612935120244684e+01, 5.223501072815804e+03, 8.688596277730496e+02, -3.765838061073568e+02, 2.861689235353856e+03
1864, 1.050095291166441e+00, 1.045608655862733e+00, 1.608700697208428e-02, 0.000000000000000e+00, 0.000000000000000e+00, 0.000000000000000e+00, -9.886438067997475e+02, -1.183305477261441e+03, -1.412995135362977e+02, -2.121097880740911e+03, 2.502171957679574e+02, -5.763698274409833e+02, 1.531087561337401e+03
1865, 1.059121858465595e+00, 1.063301279158211e+00, 1.488158578523612e-02, 0.000000000000000e+00, 0.000000000000000e+00, 0.000000000000000e+00, -1.109080962800779e+03, -1.135547467545275e+03, -7.613554305698280e+01, -2.101866349078614e+03, 4.370884884930795e+02, 4.356258990481584e+02, 1.455982972008197e+03
1866, 1.069672432346407e+00, 1.046576754543687e+00, 1.265430590132718e-02, 0.000000000000000e+00, 0.000000000000000e+00, 0.000000000000000e+00, 7.227886944582752e+02, 5.757801570435737e+02, -1.475947693705166e+02, 1.161544845397841e+03, 3.713396340918238e+02, -1.301803578253675e+01, 8.707237203828231e+02
1867, 9.191785125244237e-01, 1.314749719842720e+00, 3.608176639966247e-02, 0.000000000000000e+00, 0.000000000000000e+00, 0.000000000000000e+00, 2.263140990276664e+03, 2.070788675945920e+03, -7.924931382504032e+01, 3.640568328171489e+03, 7.347351466670058e+02, -3.478071475330549e+02, 2.049515753627852e+03
1868, 6.501474000901444e-01, 3.019366143788740e-01, 5.955729041107929e-02, 0.000000000000000e+00, 0.000000000000000e+00, 0.000000000000000e+00, 1.659499279366256e+03, 1.547403656816424e+03, -2.898209431457638e+01, 2.700682533931545e+03, 7.354913085020755e+02, -1.868434085670513e+02, 1.715643827047060e+03
1869, 9.022454919023031e-01, 8.314434948049718e-01, 3.500736030520744e-02, 0.000000000000000e+00, 0.000000000000000e+00, 0.000000000000000e+00, 2.689712278256473e+02, 1.211339967671343e+02, -5.875475508015243e+01, 1.357768878287449e+02, 4.693992166825188e+02, -9.984523624173434e+01, 8.492207886510000e+02
1870, 1.814244283275848e-01, 1.750560951647931e-01, 5.270626217569246e-02, 0.000000000000000e+00, 0.000000000000000e+00, 0.000000000000000e+00, 5.469307639393512e+03, 5.502771960648939e+03, 1.241958408643285e+02, 1.048712155224196e+04, -6.761416092261894e+02, 5.338056454302696e+01, 5.141787946799323e+03
1871, 1.712180560765104e-01, 1.913416744036016e-01, 4.781557732528040e-02, 0.000000000000000e+00, 0.000000000000000e+00, 0.000000000000000e+00, 5.011174369637303e+03, 4.958089780078312e+03, 1.345798046182069e+02, 9.455437001851929e+03, -1.001336137578671e+03, 1.314823521339345e+02, 4.806706809754008e+03
1872, 1.622155867512086e-01, 1.736675568963258e-01, 4.795947822727162e-02, 0.000000000000000e+00, 0.000000000000000e+00, 0.000000000000000e+00, 4.877923585600833e+03, 4.990895511457566e+03, 7.933328206390426e+01, 9.245747335080858e+03, -1.027072339451470e+03, 2.866797261774861e+02, 4.693322424285767e+03
1873, 1.522304309675337e-01, 1.898376385009206e-01, 4.226853536656160e-02, 0.000000000000000e+00, 0.000000000000000e+00, 0.000000000000000e+00, 4.410257319353434e+03, 4.177751631667434e+03, 5.310364580142200e+01, 7.683754727821204e+03, -1.066300935579686e+03, 2.730092588535036e+02, 3.895382671529391e+03
1874, 1.432154728569327e-01, 1.721476818990204e-01, 4.237430942632289e-02, 0.000000000000000e+00, 0.000000000000000e+00, 0.000000000000000e+00, 4.324439605452484e+03, 4.034407932178327e+03, -7.729452520918940e+01, 7.294140247420186e+03, -9.868635762171504e+02, 2.336767039866930e+02, 3.587197292002675e+03
1875, 1.096577227340278e+00, 1.323291620789152e+00, 1.368097276642618e-02, 0.000000000000000e+00, 0.000000000000000e+00, 0.000000000000000e+00, -9.810273560341541e+02, -1.438575975135351e+03, -1.170151949149831e+02, -1.790521776534624e+03, -1.502154949456764e+01, -1.503826304919019e+02, 7.770767764026339e+02
1876, 1.105424873817692e+00, 1.341181240547520e+00, 1.251543180036501e-02, 0.000000000000000e+00, 0.000000000000000e+00, 0.000000000000000e+00, -5.404978176334731e+03, -5.439083878660994e+03, 9.546288887402234e+01, -1.058670621797732e+04, 2.024338104524943e+03, -2.110070110050895e+02, 6.255356734206592e+03
1877, 1.094871838580214e+00, 1.357818170928568e+00, 1.464738944888307e-02, 0.000000000000000e+00, 0.000000000000000e+00, 0.000000000000000e+00, -1.247800642370690e+03, -1.394352015814570e+03, 9.741145559970066e+00, -2.249263687388455e+03, 5.507488246272242e+02, 2.586809786266446e+02, 1.410193167703943e+03
1878, 1.114397474122909e+00, 1.358733514512122e+00, 1.130333062890432e-02, 0.000000000000000e+00, 0.000000000000000e+00, 0.000000000000000e+00, -2.625685043185292e+03, -3.088388033764019e+03, -7.743415962716726e+00, -5.679301186419721e+03, 2.178843284097791e+02, -7.692620244451705e+02, 3.169170411336516e+03
1879, 4.975195902815912e-01, 1.913736860366370e-01, 7.109870786464149e-02, 0.000000000000000e+00, 0.000000000000000e+00, 0.000000000000000e+00, 3.085223486333798e+03, 2.986457632093965e+03, -5.875270392592872e+00, 5.515004107614403e+03, 8.861990842726011e+02, -3.465336931891079e+02, 2.978250279785071e+03
1880, 3.608493055282514e-01, 1.503424309313267e-01, 7.440274823279658e-02, 0.000000000000000e+00, 0.000000000000000e+00, 0.000000000000000e+00, 4.217338201476405e+03, 4.149736480089918e+03, 3.217928074301690e+01, 7.933316616118580e+03, 8.704671882410321e+02, -5.361323485035149e+02, 4.147629647082978e+03
1881, 8.001601220301077e-01, 2.575318509991961e-01, 4.148495859977541e-02, 0.000000000000000e+00, 0.000000000000000e+00, 0.000000000000000e+00, -2.260156001674060e+01, -1.639645506775806e+02, -1.527866759422781e+01, -4.618443926189230e+02, 5.042882979892004e+02, -6.819586597179486e+01, 9.635338523382611e+02
1882, 9.102256850492063e-01, 2.112286941756967e-01, 2.334320561657431e-02, 0.000000000000000e+00, 0.000000000000000e+00, 0.000000000000000e+00, -1.743959203238535e+03, -2.115321414643368e+03, -3.503513380724904e+00, -4.271199547477946e+03, 3.411293822621261e+02, 4.761980680040529e+02, 2.572114009269533e+03
1883, 8.371892721936101e-01, 7.420071222063506e-01, 4.218559619363541e-02, 0.000000000000000e+00, 0.000000000000000e+00, 0.000000000000000e+00, 8.163300723954310e+02, 6.683697367784764e+02, -4.337636798583874e+01, 1.119489663450277e+03, 5.753812132586619e+02, -1.715190816530965e+02, 1.116129530622552e+03
1884, 8.190376827145358e-01, 7.066684919255095e-01, 4.399697616959586e-02, 0.000000000000000e+00, 0.000000000000000e+00, 0.000000000000000e+00, 9.324227114746909e+02, 7.703344868236579e+02, -3.288113140625306e+01, 1.213603506595002e+03, 6.364665522226329e+02, -1.983339876678678e+02, 1.219603608840556e+03
1885, 6.678733336044599e-01, 1.198223502058243e+00, 3.394404511994157e-02, 0.000000000000000e+00, 0.000000000000000e+00, 0.000000000000000e+00, 5.680921059536701e+03, 4.991611422160313e+03, 1.941312728079839e+02, 1.051229859152654e+04, -4.626283537852937e+02, 2.289022474163725e+02, 5.297168703981571e+03
1886, 6.572051822491584e-01, 1.214805550203003e+00, 2.950487188446450e-02, 0.000000000000000e+00, 0.000000000000000e+00, 0.000000000000000e+00, 4.347988959221708e+03, 4.342202288394578e+03, 1.134771242793825e+02, 7.624172108429447e+03, -6.591945739252590e+02, 3.786585642131811e+02, 3.539033521034165e+03
1887, 8.008949267922070e-01, 6.713053690717770e-01, 4.577856416298091e-02, 0.000000000000000e+00, 0.000000000000000e+00, 0.000000000000000e+00, 1.064503343404491e+03, 8.650090613153102e+02, -1.380567317701653e+01, 1.397062077653238e+03, 6.589684809871144e+02, -1.764183497866750e+02, 1.270195778341360e+03
1888, 9.888409190886387e-01, 1.300913038932997e+00, 2.903946990842576e-02, 0.000000000000000e+00, 0.000000000000000e+00, 0.000000000000000e+00, 1.147512935831211e+03, 1.065913422423781e+03, -5.043001987190376e+00, 1.948625355598170e+03, 5.310500511915996e+02, -2.523498446006365e+02, 1.323242257396453e+03
1889, 5.457504444991877e-01, 2.108296105895685e-01, 6.810950219971486e-02, 0.000000000000000e+00, 0.000000000000000e+00, 0.000000000000000e+00, 2.642127286120548e+03, 2.539551501653957e+03, -1.836216464647675e+01, 4.657866886854355e+03, 8.388414904964940e+02, -3.191096244393018e+02, 2.588042407571232e+03
1890, 7.827506728180103e-01, 6.359445932087706e-01, 4.753271898235099e-02, 0.000000000000000e+00, 0.000000000000000e+00, 0.000000000000000e+00, 1.079659517989111e+03, 9.875277334039215e+02, -5.776061089862697e+01, 1.720987867408211e+03, 6.629060269717593e+02, -1.780683422477556e+02, 1.379254912142684e+03
1891, 7.646052378059547e-01, 6.005684610873960e-01, 4.926052243696077e-02, 0.000000000000000e+00, 0.000000000000000e+00, 0.000000000000000e+00, 1.301799797248884e+03, 1.135528258628393e+03, -2.404810501958993e+01, 1.968204567774738e+03, 7.353248456196721e+02, -2.420057836465365e+02, 1.543401732230211e+03
1892, 7.464593101927319e-01, 5.652318049925658e-01, 5.096294472789157e-02, 0.000000000000000e+00, 0.000000000000000e+00, 0.000000000000000e+00, 1.314618008665767e+03, 1.171710057229107e+03, -3.519334919397008e+01, 2.002340364483342e+03, 7.457010877673998e+02, -2.413835858392960e+02, 1.561534461103887e+03
1893, 7.373857616678897e-01, 5.475569629631944e-01, 5.180500721729814e-02, 0.000000000000000e+00, 0.000000000000000e+00, 0.000000000000000e+00, 1.360783137669107e+03, 1.212764413800798e+03, -2.677702319085734e+01, 2.108352151788116e+03, 7.479652191580074e+02, -2.348483809253570e+02, 1.592919145830318e+03
1894, 2.697592774060309e-01, 3.860545367754606e-01, 4.596349670595724e-02, 0.000000000000000e+00, 0.000000000000000e+00, 0.000000000000000e+00, 5.827609131887214e+03, 5.854308763248431e+03, 7.179780132124039e+01, 1.121328613851540e+04, -4.165849792871107e+02, 3.638785280579035e+02, 5.458548411125634e+03
1895, 2.596898896728537e-01, 4.023280141585970e-01, 4.062191324603238e-02, 0.000000000000000e+00, 0.000000000000000e+00, 0.000000000000000e+00, 5.262290963748844e+03, 5.017872040238490e+03, 9.910914228861851e+01, 1.008462564908148e+04, -7.055298686989935e+02, 5.171577445597652e+02, 5.178654625627881e+03
1896, 9.129580181066124e-01, 1.451535653899540e+00, 3.536371554017129e-02, 0.000000000000000e+00, 0.000000000000000e+00, 0.000000000000000e+00, 3.138022696050656e+03, 3.014657903368603e+03, -3.816992273967554e+01, 5.570976857230018e+03, 9.250248859965058e+02, -5.728633906399680e+02, 3.128981791146004e+03
1897, 9.312827101071077e-01, 1.778062846961297e-01, 1.889760657852356e-02, 0.000000000000000e+00, 0.000000000000000e+00, 0.000000000000000e+00, -1.685381235718885e+03, -1.917070802476606e+03, -2.541987500639399e+00, -3.720810566311111e+03, 3.526780608140024e+02, -5.118050507474425e+02, 2.209991614047515e+03
1898, 6.770043996291198e-01, 1.215983677042541e+00, 3.374221593495037e-02, 0.000000000000000e+00, 0.000000000000000e+00, 0.000000000000000e+00, 6.146567007962354e+03, 5.631666127699025e+03, -8.139397787677196e+01, 1.057445435956390e+04, -1.175791259165774e+03, 1.678514744701757e+02, 5.138393227143725e+03
1899, 6.662524330750924e-01, 1.232518354489788e+00, 2.934650928065757e-02, 0.000000000000000e+00, 0.000000000000000e+00, 0.000000000000000e+00, 4.534287408606586e+03, 4.268189492932837e+03, -7.057568229570452e+01, 7.782998853965230e+03, -8.354564637502145e+02, 6.449583073100655e+01, 3.689280949720575e+03
1900, 6.861098134026836e-01, 1.233715015367554e+00, 3.353519732871214e-02, 0.000000000000000e+00, 0.000000000000000e+00, 0.000000000000000e+00, 6.296674822032699e+03, 6.094639879200366e+03, -1.107129885795264e+02, 1.111526789924240e+04, -9.572037136673541e+02, 5.650461126497831e+02, 5.289281786112653e+03
1901, 6.753393202819293e-01, 1.250285606839336e+00, 2.918827338452919e-02, 0.000000000000000e+00, 0.000000000000000e+00, 0.000000000000000e+00, 5.684548560883805e+03, 5.536479632225607e+03, -2.367919217763771e+02, 9.845003675471287e+03, -6.918128801951580e+02, 3.533565143432611e+02, 4.463849706770209e+03
1902, 6.951634273822028e-01, 1.251405338573121e+00, 3.331960201378848e-02, 0.000000000000000e+00, 0.000000000000000e+00, 0.000000000000000e+00, 4.876454412703812e+03, 5.345027001198894e+03, -3.685232472048746e+01, 1.041172292561341e+04, -4.679853496913951e+02, 6.405533238193509e+02, 5.491549281545717e+03
1903, 6.843557184034644e-01, 1.267948901323356e+00, 2.902442540887713e-02, 0.000000000000000e+00, 0.000000000000000e+00, 0.000000000000000e+00, 4.039338919573096e+03, 4.401533568543586e+03, -3.932368646514859e+01, 8.014004841684341e+03, -6.072826713860550e+02, 4.425437962189478e+02, 4.023444077934456e+03
1904, 7.042169643408400e-01, 1.269094373477466e+00, 3.310098574509172e-02, 0.000000000000000e+00, 0.000000000000000e+00, 0.000000000000000e+00, 4.833247390055130e+03, 5.369156171682709e+03, -2.350298099521270e+01, 9.570214318317167e+03, -5.440044097096539e+01, 2.296316392255478e+02, 4.511784479562329e+03
1905, 6.934298323905617e-01, 1.285692460213264e+00, 2.886179810594015e-02, 0.000000000000000e+00, 0.000000000000000e+00, 0.000000000000000e+00, 3.568062989384483e+03, 3.790167234347972e+03, 1.994487910814358e+02, 7.987103838565658e+03, -3.136081684826816e+02, 3.085496085074004e+02, 4.392694262594589e+03
1906, 7.132703571836807e-01, 1.286782053032577e+00, 3.287938202418946e-02, 0.000000000000000e+00, 0.000000000000000e+00, 0.000000000000000e+00, 4.501464643562923e+03, 4.549689014718737e+03, 1.099094199849637e+02, 8.498693034410586e+03, -7.630268711915249e+01, 2.987507543744684e+02, 4.013584327600981e+03
1907, 7.024428548086097e-01, 1.303347368078133e+00, 2.869397995819210e-02, 0.000000000000000e+00, 0.000000000000000e+00, 0.000000000000000e+00, 3.920786150944346e+03, 3.890902936317454e+03, 3.169083161652396e+02, 7.511358736379513e+03, -1.734401888960867e+02, 4.599611551081517e+02, 3.745214584180896e+03
1908, 7.223232126352264e-01, 1.304468047958434e+00, 3.265480477210045e-02, 0.000000000000000e+00, 0.000000000000000e+00, 0.000000000000000e+00, 4.699332447362886e+03, 5.339903114922979e+03, 2.366168608773030e+02, 9.212812583431507e+03, -5.005517185227021e+02, -4.028880238960654e+02, 4.392858488472251e+03
1909, 7.115153038663755e-01, 1.321085019288126e+00, 2.852636251405546e-02, 0.000000000000000e+00, 0.000000000000000e+00, 0.000000000000000e+00, 4.217435357470959e+03, 4.384597682877990e+03, 3.739245695428708e+02, 8.393542228466978e+03, -9.998855694833146e+02, -2.726264133235865e+02, 4.517905686968587e+03
1910, 7.313754238699667e-01, 1.322152105581032e+00, 3.242732436423476e-02, 0.000000000000000e+00, 0.000000000000000e+00, 0.000000000000000e+00, 6.388009084401290e+03, 6.191173887273888e+03, -6.770216527438282e+01, 1.172233426666374e+04, 7.695106979526713e+01, -4.660948208552136e+02, 5.497908737947585e+03
1911, 7.205299742618971e-01, 1.338734005478645e+00, 2.835333287498120e-02, 0.000000000000000e+00, 0.000000000000000e+00, 0.000000000000000e+00, 4.023747854927120e+03, 3.246460112356252e+03, -3.278718005549586e+01, 8.513441131862408e+03, -4.654808981355366e+02, 3.922964991262428e+02, 5.036490597089283e+03
1912, 7.404267878273981e-01, 1.339833791427782e+00, 3.219651373600551e-02, 0.000000000000000e+00, 0.000000000000000e+00, 0.000000000000000e+00, 4.705298766809748e+03, 4.446835996513038e+03, 1.708160166511798e+02, 8.664443016071751e+03, -3.999781079528985e+02, 1.559679674408393e+02, 4.171975239203097e+03
1913, 7.296021586675442e-01, 1.356467387141243e+00, 2.817949815011662e-02, 0.000000000000000e+00, 0.000000000000000e+00, 0.000000000000000e+00, 4.336337556989513e+03, 4.537794504607419e+03, 8.587632751580632e+01, 7.525294558294794e+03, -5.755625680564257e+02, 4.184900376709124e+02, 3.333007184115437e+03
1914, 7.494773042864236e-01, 1.357512812456486e+00, 3.196187148714448e-02, 0.000000000000000e+00, 0.000000000000000e+00, 0.000000000000000e+00, 4.678599261213109e+03, 4.681436984807759e+03, 2.995625006478857e+02, 8.533634597794595e+03, -6.468425693870599e+02, -1.755795671875157e+01, 4.046692454815873e+03
1915, 7.386173142345258e-01, 1.374109153674401e+00, 2.800093770846627e-02, 0.000000000000000e+00, 0.000000000000000e+00, 0.000000000000000e+00, 3.830919500955113e+03, 3.720737434288288e+03, 6.877295035585148e+01, 7.027181321049328e+03, -9.307208709804036e+02, -8.337449697211584e+01, 3.635129645380860e+03
1916, 7.585268069377088e-01, 1.375188857821287e+00, 3.172339948562630e-02, 0.000000000000000e+00, 0.000000000000000e+00, 0.000000000000000e+00, 6.002824544397120e+03, 6.075064293465433e+03, 2.928872041189626e+02, 1.148593132419773e+04, -1.093390507499477e+03, -3.337142377702928e+02, 5.818207026937499e+03
1917, 7.476887763784131e-01, 1.391837990508990e+00, 2.782086141370902e-02, 0.000000000000000e+00, 0.000000000000000e+00, 0.000000000000000e+00, 4.943181318305370e+03, 4.543122999345615e+03, 2.730375936565085e+01, 8.739101601449698e+03, -1.007728073987619e+03, 4.193462970079891e+01, 4.375123607462387e+03
1918, 7.675751894953672e-01, 1.392861785677443e+00, 3.148110241877298e-02, 0.000000000000000e+00, 0.000000000000000e+00, 0.000000000000000e+00, 6.809381062680070e+03, 6.428595114912720e+03, -6.365835615173740e+01, 1.231835566800599e+04, -1.127472803601340e+03, -1.509419027363329e+02, 6.040333729022683e+03
1919, 7.567027952303236e-01, 1.409470854537029e+00, 2.763667145978884e-02, 0.000000000000000e+00, 0.000000000000000e+00, 0.000000000000000e+00, 5.559156096354184e+03, 4.855072246075102e+03, -9.172421403469350e+01, 9.899368322719409e+03, -8.566223846947074e+02, 4.467943783433695e+01, 4.962024189197200e+03
1920, 7.766212879757777e-01, 1.410530649920453e+00, 3.123490526465470e-02, 0.000000000000000e+00, 0.000000000000000e+00, 0.000000000000000e+00, 5.613597076827684e+03, 5.293673780947367e+03, 9.749338776767966e+01, 1.103552341909752e+04, -9.403905274770219e+02, -5.997324758028448e+01, 5.824649775518054e+03
1921, 7.657722820247028e-01, 1.427191860350891e+00, 2.745061792674664e-02, 0.000000000000000e+00, 0.000000000000000e+00, 0.000000000000000e+00, 7.714203185148320e+03, 7.012858080084678e+03, 1.260199986883235e+02, 1.261151807497313e+04, -8.464583451550235e+02, 1.948213224174058e+02, 5.497387585562052e+03
1922, 7.856646903969635e-01, 1.428194079699765e+00, 3.098490937140820e-02, 0.000000000000000e+00, 0.000000000000000e+00, 0.000000000000000e+00, 5.211187975321859e+03, 5.721894861184811e+03, 3.403944152463837e+02, 1.257759233666916e+04, -6.546472036452152e+02, -7.867545443773707e+00, 7.238517870329644e+03
1923, 7.750664725712290e-01, 1.444684810624352e+00, 2.733576674116006e-02, 0.000000000000000e+00, 0.000000000000000e+00, 0.000000000000000e+00, 4.878100683752280e+03, 4.834977233314940e+03, -2.066237430469374e+02, 8.860982825277850e+03, -5.674071711255725e+02, 7.924062295673940e+02, 4.360575777459528e+03
1924, 7.947037882687896e-01, 1.445850308580428e+00, 3.073108190169312e-02, 0.000000000000000e+00, 0.000000000000000e+00, 0.000000000000000e+00, 4.993552428460742e+03, 5.750755371548526e+03, 2.758940581220826e+02, 1.059337573289700e+04, -7.030294552102657e+02, 4.229128064045732e+02, 5.471639993192304e+03
1925, 1.071214155935939e+00, 1.012170296094481e+00, 1.162292357130512e-02, 0.000000000000000e+00, 0.000000000000000e+00, 0.000000000000000e+00, -5.974065052833279e+03, -5.878815724138215e+03, -1.045520934867260e+02, -1.191887450200674e+04, 1.852394101452255e+03, -1.738975611652866e+03, 7.437409804943238e+03
1926, 1.081745412172082e+00, 9.954445666108005e-01, 9.283308959140455e-03, 0.000000000000000e+00, 0.000000000000000e+00, 0.000000000000000e+00, -4.539881096807113e+03, -4.829957292446409e+03, -1.018821526260047e+02, -9.601578817606962e+03, -1.500533277821964e+03, 1.902618639369301e+03, 6.471666194339153e+03
1927, 2.788028534329944e-01, 4.037430162259555e-01, 4.581091252484806e-02, 0.000000000000000e+00, 0.000000000000000e+00, 0.000000000000000e+00, 5.601197078572511e+03, 5.796449747252296e+03, 1.321249255181787e+02, 1.107368678301679e+04, -5.958688115866534e+02, 3.695215661312860e+02, 5.517693125207559e+03
1928, 2.686941397453644e-01, 4.201082936601013e-01, 4.048027596018011e-02, 0.000000000000000e+00, 0.000000000000000e+00, 0.000000000000000e+00, 5.247908153095453e+03, 5.331896680223919e+03, 1.384417781017198e+02, 9.973809339305573e+03, -9.551635888728741e+02, 5.685990541035015e+02, 5.070374748458597e+03
1929, 2.878488031184022e-01, 4.213057507694642e-01, 4.567474437990916e-02, 0.000000000000000e+00, 0.000000000000000e+00, 0.000000000000000e+00, 6.106378711139971e+03, 6.105574187246098e+03, 1.001347771982243e+02, 1.147889354967240e+04, -6.315304683447395e+02, 3.336269255303084e+02, 5.516224483153387e+03
1930, 2.780778089428613e-01, 4.377375398800779e-01, 4.047787952900112e-02, 0.000000000000000e+00, 0.000000000000000e+00, 0.000000000000000e+00, 5.375364850400096e+03, 5.419098549180145e+03, 6.420485496737322e+01, 1.006605280462214e+04, -1.198220683037114e+03, 3.940445421302606e+02, 5.156035637556972e+03
1931, 1.117694142934122e+00, 1.478570569801129e+00, 1.315840571595769e-02, 0.000000000000000e+00, 0.000000000000000e+00, 0.000000000000000e+00, -6.741017539690313e+01, -9.451972919575840e+01, -3.645269670407545e+01, -1.993721115658981e+02, 1.422502134975203e+02, -1.935320668777155e+02, 4.377524426406076e+02
1932, 1.053270884949400e+00, 1.389664289856942e+00, 2.162753644961050e-02, 0.000000000000000e+00, 0.000000000000000e+00, 0.000000000000000e+00, 1.794426530372621e+02, 3.427622137857666e+01, 8.372979375020122e+00, 5.849936830618600e+01, 3.544305732902022e+02, -2.108051945512615e+02, 7.270031432347873e+02
1933, 9.416370900809886e-01, 6.093032989958285e-01, 2.579615857154025e-02, 0.000000000000000e+00, 0.000000000000000e+00, 0.000000000000000e+00, -7.699297087928156e+02, -6.928384358718841e+02, -8.320667255875742e+01, -1.872981252044917e+03, 5.900618183363026e+02, -4.545913581842326e+00, 1.540471458495395e+03
1934, 8.904671845528830e-01, 4.343196380891540e-01, 3.082888876770816e-02, 0.000000000000000e+00, 0.000000000000000e+00, 0.000000000000000e+00, -7.390789014500969e+02, -8.946838843276137e+02, -7.578738321634033e+01, -1.602764802107097e+03, 2.499393030149467e+02, -1.293954899081768e+02, 9.437383865624970e+02
1935, 9.160494047713778e-01, 5.218065201855109e-01, 2.832427404220482e-02, 0.000000000000000e+00, 0.000000000000000e+00, 0.000000000000000e+00, -1.256704300854413e+03, -1.402342296654975e+03, 4.307465412466560e+01, -2.938903151767785e+03, 5.508500866956377e+02, -2.570917403486640e+02, 1.928775142684655e+03
1936, 9.041275046783631e-01, 3.487747961614126e-01, 2.708697110760692e-02, 0.000000000000000e+00, 0.000000000000000e+00, 0.000000000000000e+00, -8.535562666513439e+02, -1.006504144175066e+03, 6.017239609407593e+00, -1.858811036446021e+03, 2.329305240866528e+01, -6.663782697050445e+01, 9.461695103745468e+02
1937, 6.483443424505446e-01, 3.364880032163998e-01, 5.976230689421611e-02, 0.000000000000000e+00, 0.000000000000000e+00, 0.000000000000000e+00, 1.840037714098268e+03, 1.701577301092149e+03, -2.906803978207583e+01, 2.957286474458314e+03, 7.752567512083104e+02, -2.231067541832972e+02, 1.837673697440609e+03
1938, 8.995156357561477e-01, 4.519748788726712e-01, 2.971350195433638e-02, 0.000000000000000e+00, 0.000000000000000e+00, 0.000000000000000e+00, -7.845919772754175e+02, -8.386776258589376e+02, -3.955964482773114e+01, -1.722526323033132e+03, 4.717570443918912e+02, -4.225723871407034e+00, 1.226511272039155e+03
1939, 9.250929635954885e-01, 5.394943380710243e-01, 2.719569453960784e-02, 0.000000000000000e+00, 0.000000000000000e+00, 0.000000000000000e+00, -1.451784432898324e+03, -1.666428714965432e+03, -1.278658979826841e+00, -3.143043851825300e+03, 4.983140008570028e+02, -4.212926193591496e+02, 1.954694164007423e+03
1940, 9.506788328076907e-01, 6.269935207325793e-01, 2.465191259422425e-02, 0.000000000000000e+00, 0.000000000000000e+00, 0.000000000000000e+00, -1.323006739649369e+03, -1.559415306401533e+03, 2.394707325419114e+01, -2.886533811807126e+03, 7.614145622905050e+02, -4.592347253081698e+02, 2.122390424577923e+03
1941, 8.129613903311728e-01, 1.480661514748819e+00, 3.028209206110678e-02, 0.000000000000000e+00, 0.000000000000000e+00, 0.000000000000000e+00, 5.381601116515555e+03, 5.953374540451110e+03, -9.307028929362377e+01, 1.271467220775455e+04, -1.104735317998284e+03, -3.017419343765815e+01, 7.321068184512304e+03
1942, 7.838786783103932e-01, 1.462018036081756e+00, 2.713449067269806e-02, 0.000000000000000e+00, 0.000000000000000e+00, 0.000000000000000e+00, 4.771654560207471e+03, 4.290895142108597e+03, 2.653706131369825e+02, 7.398434114533677e+03, -7.608601088263529e+02, -2.983629998654336e+01, 3.216303634932395e+03
1943, 8.871735964896281e-01, 1.364687953471582e+00, 3.770744370097361e-02, 0.000000000000000e+00, 0.000000000000000e+00, 0.000000000000000e+00, 2.895720568391195e+03, 2.590007162540592e+03, -1.934116719569929e+00, 4.959422520535702e+03, 6.745736070003909e+02, -5.611448851279314e+02, 2.700562609675100e+03
1944, 8.814609067504735e-01, 4.165717520253912e-01, 3.192703152191162e-02, 0.000000000000000e+00, 0.000000000000000e+00, 0.000000000000000e+00, -9.124252848708231e+02, -8.957689553576391e+02, -1.920268930896582e+01, -2.131982684312505e+03, 2.674369016774576e+02, -6.971011626216122e+01, 1.318394195089469e+03
1945, 1.078625976779367e+00, 1.064191316855578e+00, 1.140965441603491e-02, 0.000000000000000e+00, 0.000000000000000e+00, 0.000000000000000e+00, -8.010621378860872e+02, -7.052641108615072e+02, 1.313315680017892e+02, -2.082884086062646e+03, 4.498363680804660e+02, 4.819279676841694e+01, 1.562309391838586e+03
1946, 6.444074062321212e-01, 2.155583970757853e-01, 5.988272343807526e-02, 0.000000000000000e+00, 0.000000000000000e+00, 0.000000000000000e+00, 1.659370163028296e+03, 1.516381462456201e+03, -3.481616752775529e+01, 2.661699302130758e+03, 7.074521271844817e+02, -1.495435010498575e+02, 1.655482715762155e+03
1947, 6.640266878673174e-01, 2.166077662215490e-01, 5.788107184718740e-02, 0.000000000000000e+00, 0.000000000000000e+00, 0.000000000000000e+00, 1.419213036377889e+03, 1.277446448306291e+03, -2.694028000536064e+01, 2.239534672927148e+03, 6.721516943315729e+02, -1.096934718538535e+02, 1.484236693509490e+03
1948, 8.781329800404989e-01, 1.347009348913777e+00, 3.834988134415437e-02, 0.000000000000000e+00, 0.000000000000000e+00, 0.000000000000000e+00, 2.755507456105124e+03, 2.701729476701491e+03, 3.407632034756809e+00, 4.806535750435973e+03, 9.841547912814045e+02, -4.874802274562697e+02, 2.817540949931408e+03
1949, 8.888221528714245e-01, 1.330446719229674e+00, 3.802962949369599e-02, 0.000000000000000e+00, 0.000000000000000e+00, 0.000000000000000e+00, 2.369842349711975e+03, 2.209734324946882e+03, -5.573027208219435e+01, 4.063901939517390e+03, 7.704610866658952e+02, -4.217577242972732e+02, 2.343179931216437e+03
1950, 2.070474187651642e-01, 2.619082597473520e-01, 4.719440064456134e-02, 0.000000000000000e+00, 0.000000000000000e+00, 0.000000000000000e+00, 5.515586341290535e+03, 5.549220980643543e+03, 1.798985277473476e+02, 1.090153699746023e+04, -7.602045743393201e+02, 3.187397378099290e+02, 5.564534997512324e+03
1951, 1.970930051652424e-01, 2.781830838196465e-01, 4.166515449413576e-02, 0.000000000000000e+00, 0.000000000000000e+00, 0.000000000000000e+00, 5.443556236195824e+03, 5.465150911894328e+03, 6.778127613820429e+00, 1.023203420628113e+04, -9.159761274223331e+02, 2.758033871365264e+02, 5.056872464605964e+03
1952, 1.044024498988485e+00, 7.664777471779693e-01, 1.116857981551767e-02, 0.000000000000000e+00, 0.000000000000000e+00, 0.000000000000000e+00, -2.754235184995406e+03, -3.208357037389171e+03, 1.869616925419263e+02, -5.948201583384482e+03, 1.472027820426472e+02, -8.317677521562389e+02, 3.347025672844321e+03
1953, 1.032390113265758e+00, 7.853979108617493e-01, 1.374624086230646e-02, 0.000000000000000e+00, 0.000000000000000e+00, 0.000000000000000e+00, -1.423767778480153e+03, -1.450408766694488e+03, -4.477210777204635e+01, -3.036126399356754e+03, 1.179038504012897e+02, -5.268587580270256e+02, 1.854161068786318e+03
1954, 1.051738140291196e+00, 7.870031513083225e-01, 1.018119046279888e-02, 0.000000000000000e+00, 0.000000000000000e+00, 0.000000000000000e+00, -3.115667144553283e+03, -3.498885174320258e+03, -9.618953106800298e+01, -6.561458350359334e+03, -6.425959165078714e+01, 1.217096755390054e+03, 3.896660425856101e+03
1955, 1.041216155207185e+00, 8.034050559495720e-01, 1.252292946636159e-02, 0.000000000000000e+00, 0.000000000000000e+00, 0.000000000000000e+00, -7.543144415967941e+03, -7.577602095591775e+03, -1.455937067460406e+02, -1.466637182605354e+04, 3.133481004913033e+03, 6.358836008678572e+02, 9.012705046091209e+03
1956, 1.021644210821389e+00, 8.027619797535408e-01, 1.605291777500453e-02, 0.000000000000000e+00, 0.000000000000000e+00, 0.000000000000000e+00, -6.748940802574550e+02, -5.528133312678922e+02, -8.487269356989238e-01, -9.602364917805452e+02, 3.005219105430980e+02, -1.619309622926463e+02, 6.933730188099440e+02
1957, 1.030680532902175e+00, 8.202986202081597e-01, 1.481198290648216e-02, 0.000000000000000e+00, 0.000000000000000e+00, 0.000000000000000e+00, -2.149669585372371e+03, -2.411685764135773e+03, 2.027285400047024e+02, -3.825113510839096e+03, -1.168875659340717e+02, 3.500638626643625e+02, 1.722988748097836e+03
1958, 1.011093770981384e+00, 8.194138831544069e-01, 1.824206633928597e-02, 0.000000000000000e+00, 0.000000000000000e+00, 0.000000000000000e+00, -2.080751913981158e+03, -2.208923860246978e+03, -1.681823557170198e+02, -3.898997807110491e+03, 7.557637957728576e+02, 6.235513995395390e+02, 2.460536478841303e+03
1959, 1.020123489732794e+00, 8.370770417358598e-01, 1.703526284887258e-02, 0.000000000000000e+00, 0.000000000000000e+00, 0.000000000000000e+00, -2.360810572986384e+03, -2.519160725465635e+03, 9.172474927791859e+01, -5.191666457547413e+03, 1.407294545604321e+02, -1.037194461546805e+03, 3.301897186346057e+03
1960, 1.039690533130037e+00, 8.381122978536999e-01, 1.356743301133524e-02, 0.000000000000000e+00, 0.000000000000000e+00, 0.000000000000000e+00, -2.039135394881634e+03, -2.499609660485339e+03, -1.435151927204758e+02, -4.235387935469010e+03, 1.767083289419110e+02, 9.297825326589084e+02, 2.602536839682099e+03
1961, 1.029144239252225e+00, 8.548356335295850e-01, 1.581844689381639e-02, 0.000000000000000e+00, 0.000000000000000e+00, 0.000000000000000e+00, -4.554868041256793e+03, -4.303957162749532e+03, -1.725908904801928e+02, -8.087869201135871e+03, 2.064156906174950e+03, 3.937592588711577e+02, 5.173804692646639e+03
1962, 1.048712399603204e+00, 8.558512260658646e-01, 1.230449956273847e-02, 0.000000000000000e+00, 0.000000000000000e+00, 0.000000000000000e+00, -2.993715461010817e+03, -3.322519834212497e+03, 1.665095132141286e+02, -7.983329620293483e+03, -1.263251373580474e+03, -3.665248842433182e+02, 5.351389038654306e+03
1963, 1.038171500619814e+00, 8.725791900449441e-01, 1.458622551482200e-02, 0.000000000000000e+00, 0.000000000000000e+00, 0.000000000000000e+00, -1.724820259415090e+03, -2.070976716339369e+03, 2.129578461544378e+01, -4.602808608558555e+03, 3.314586932368508e+02, -8.583982369971550e+02, 3.154029915457448e+03
1964, 1.009555193323348e+00, 8.539171670369908e-01, 1.919377156850524e-02, 0.000000000000000e+00, 0.000000000000000e+00, 0.000000000000000e+00, -2.131512690912004e+03, -2.305493182752925e+03, -3.929115378060069e+01, -4.540610955361733e+03, -1.879294961826099e+02, 6.125406385277716e+02, 2.578970633958527e+03
1965, 1.057597567328353e+00, 8.733689281764436e-01, 1.104673964292411e-02, 0.000000000000000e+00, 0.000000000000000e+00, 0.000000000000000e+00, -2.175630862868135e+02, -5.785651120407167e+02, -3.328472734115724e+02, -4.176769628612797e+02, -7.135497220658435e+01, 5.743608569263447e+01, 6.750257340417993e+02
1966, 8.690668457356100e-01, 1.329501989939171e+00, 3.898282786919560e-02, 0.000000000000000e+00, 0.000000000000000e+00, 0.000000000000000e+00, 2.667951075436150e+03, 2.525086830668701e+03, -5.010579211095273e+01, 4.679255156894969e+03, 9.295401402115366e+02, -4.102385458318129e+02, 2.730870029968916e+03
1967, 8.797732672791050e-01, 1.312842101845316e+00, 3.870264627083676e-02, 0.000000000000000e+00, 0.000000000000000e+00, 0.000000000000000e+00, 2.511210063738854e+03, 2.404175829701845e+03, -2.347173730230534e+01, 4.282391316351135e+03, 7.569930119711377e+02, -4.079478439740191e+02, 2.357572638045260e+03
1968, 8.600065155078028e-01, 1.311896328324235e+00, 3.960999230305411e-02, 0.000000000000000e+00, 0.000000000000000e+00, 0.000000000000000e+00, 2.826491354183650e+03, 2.866805066112004e+03, -1.024600611585048e+02, 5.198270091033191e+03, 7.309503263446740e+02, -3.309353193046259e+02, 2.737564292400022e+03
1969, 8.707197301907103e-01, 1.295229269659408e+00, 3.936870901769779e-02, 0.000000000000000e+00, 0.000000000000000e+00, 0.000000000000000e+00, 2.513114943834301e+03, 2.672884436657740e+03, -7.925624863712128e+00, 4.998840363904816e+03, 7.746358363688943e+02, -3.219178827226515e+02, 2.813979018819784e+03
1970, 1.787348806192215e-01, 2.763833415854363e-01, 3.537955198180763e-02, 0.000000000000000e+00, 0.000000000000000e+00, 0.000000000000000e+00, 5.188150478670636e+03, 4.934556093958392e+03, 1.774970574644853e+01, 9.235263201249129e+03, -1.047156698498522e+03, 6.605525950038182e+02, 4.697797607821109e+03
1971, 1.606489523993077e-01, 2.412026436370762e-01, 3.545577444290075e-02, 0.000000000000000e+00, 0.000000000000000e+00, 0.000000000000000e+00, 4.311929212327077e+03, 3.997189651557464e+03, -1.522668098069884e+02, 7.621708158693803e+03, -9.353339241041386e+02, 1.254941593259913e+02, 3.851852357200520e+03
1972, 8.509412999180727e-01, 1.294282044754269e+00, 4.023034749414925e-02, 0.000000000000000e+00, 0.000000000000000e+00, 0.000000000000000e+00, 3.467915383019968e+03, 3.361397592836863e+03, 1.095934880973481e+02, 5.779167076246711e+03, 6.997421599755180e+02, -3.231478848094044e+02, 2.723535016775159e+03
1973, 8.616617332249590e-01, 1.277607132046608e+00, 4.002779163447769e-02, 0.000000000000000e+00, 0.000000000000000e+00, 0.000000000000000e+00, 3.014744218257703e+03, 2.811332814989438e+03, 4.772370213640404e+00, 5.198968959299899e+03, 7.570539182497489e+02, -3.120481328053187e+02, 2.695939999613342e+03
1974, 8.418880731859052e-01, 1.276566356831736e+00, 4.084371956472736e-02, 0.000000000000000e+00, 0.000000000000000e+00, 0.000000000000000e+00, 3.122550430118260e+03, 3.017180562112910e+03, 1.156797231328190e+01, 5.554284234954908e+03, 9.190092305469423e+02, -1.762957038009301e+02, 2.967834135137329e+03
1975, 8.525935876077343e-01, 1.259941051447628e+00, 4.068128529401446e-02, 0.000000000000000e+00, 0.000000000000000e+00, 0.000000000000000e+00, 3.161272135618014e+03, 2.959223445811123e+03, 2.735509465353868e+01, 5.407930005034787e+03, 8.150638518045754e+02, -2.525738146491744e+02, 2.780079545791873e+03
1976, 8.327975463134740e-01, 1.259026934912048e+00, 4.144569710133141e-02, 0.000000000000000e+00, 0.000000000000000e+00, 0.000000000000000e+00, 3.543523833710796e+03, 3.292683053106906e+03, -2.195267640810239e+01, 6.237675185866599e+03, 1.005629881655459e+03, -2.099886129710100e+02, 3.341374181852239e+03
1977, 8.435278805041929e-01, 1.242311881021649e+00, 4.132747933925343e-02, 0.000000000000000e+00, 0.000000000000000e+00, 0.000000000000000e+00, 3.300271059448924e+03, 3.138159295308511e+03, -2.642034678060949e+01, 5.717002550517031e+03, 8.515482524255866e+02, -3.793938594202681e+02, 2.977913432919162e+03
1978, 8.632816354215939e-01, 1.243228614846948e+00, 4.031676608684608e-02, 0.000000000000000e+00, 0.000000000000000e+00, 0.000000000000000e+00, 2.843838384308399e+03, 2.796790949210396e+03, -1.707236944486404e+01, 5.127048270650651e+03, 8.192256395230269e+02, -3.252757949976171e+02, 2.766651294682477e+03
1979, 8.542259455838803e-01, 1.225532190140269e+00, 4.099875351686446e-02, 0.000000000000000e+00, 0.000000000000000e+00, 0.000000000000000e+00, 2.946763284735869e+03, 2.787377544950443e+03, -8.604334490965239e+01, 5.091853899133331e+03, 7.383667567365252e+02, -2.740293557010569e+02, 2.617586187661052e+03
1980, 8.344435333136434e-01, 1.224618588548688e+00, 4.196814761649269e-02, 0.000000000000000e+00, 0.000000000000000e+00, 0.000000000000000e+00, 3.328083967772438e+03, 3.166882228745761e+03, -9.602039743709449e+01, 5.870375541080773e+03, 8.319459022391715e+02, -4.144865621230884e+02, 3.085208793676920e+03
1981, 8.451916925644077e-01, 1.207994801894833e+00, 4.167117795133968e-02, 0.000000000000000e+00, 0.000000000000000e+00, 0.000000000000000e+00, 2.757544064655413e+03, 2.758626576050859e+03, -3.132931541336254e+00, 5.107547508183788e+03, 6.846973165048180e+02, -4.045152091434359e+02, 2.723477887861600e+03
1982, 8.253737484648520e-01, 1.207003621802187e+00, 4.259974175658286e-02, 0.000000000000000e+00, 0.000000000000000e+00, 0.000000000000000e+00, 3.367938409985556e+03, 3.258449494421408e+03, 1.192433400301299e+01, 5.792262895768246e+03, 8.362431631562657e+02, -4.043181999924653e+02, 2.956945682195964e+03
1983, 8.146301513622993e-01, 1.223744316441667e+00, 4.262842622718616e-02, 0.000000000000000e+00, 0.000000000000000e+00, 0.000000000000000e+00, 3.887214728356381e+03, 3.795691175085957e+03, -1.820154804319938e+01, 7.109302471832870e+03, 7.817195872954793e+02, -5.260528267827802e+02, 3.653706072597099e+03
1984, 1.335983910190453e-01, 1.881424864154031e-01, 3.564922194507305e-02, 0.000000000000000e+00, 0.000000000000000e+00, 0.000000000000000e+00, 4.056406912945847e+03, 3.707801235954464e+03, -6.613592963349106e+01, 6.767907659122890e+03, -9.202471471561058e+02, 2.101731560195154e+02, 3.332448252183204e+03
1985, 1.425848151949660e-01, 2.058419875594201e-01, 3.557098440286281e-02, 0.000000000000000e+00, 0.000000000000000e+00, 0.000000000000000e+00, 4.361363225991082e+03, 3.942012667374542e+03, -1.177520597303235e+01, 6.662596802918080e+03, -1.070599285589609e+03, 2.492622010233206e+02, 3.172051992716819e+03
1986, 7.408115022331592e-01, 1.116550260112980e+00, 4.595363901685991e-02, 0.000000000000000e+00, 0.000000000000000e+00, 0.000000000000000e+00, 3.884199939932686e+03, 3.904538672562026e+03, -2.273963266965065e+01, 7.241564455232721e+03, 9.360398879307893e+02, -5.847160001011633e+02, 3.854836871233607e+03
1987, 7.604463240663049e-01, 1.117341072178431e+00, 4.600508462584686e-02, 0.000000000000000e+00, 0.000000000000000e+00, 0.000000000000000e+00, 3.747920314321147e+03, 3.718107393197212e+03, -5.508768724159275e+01, 6.777876144159804e+03, 9.356413816303814e+02, -5.952140709434464e+02, 3.601398435450445e+03
1988, 7.109411079641480e-01, 1.098046835477655e+00, 4.587051126027659e-02, 0.000000000000000e+00, 0.000000000000000e+00, 0.000000000000000e+00, 4.310688203109886e+03, 4.388909933924730e+03, 6.980385388283018e+01, 8.378768632823863e+03, 1.112711944054252e+03, -4.010132408430139e+02, 4.522015140714947e+03
1989, 2.499188548272539e-01, 4.184261426140422e-01, 3.428854499825047e-02, 0.000000000000000e+00, 0.000000000000000e+00, 0.000000000000000e+00, 5.083505620348260e+03, 4.929046102624147e+03, -1.470896490952465e+01, 8.765915162709536e+03, -8.651390529153944e+02, 7.233450011273915e+02, 4.238928019890980e+03
1990, 7.590689469981432e-01, 1.151516747536843e+00, 4.497411882385154e-02, 0.000000000000000e+00, 0.000000000000000e+00, 0.000000000000000e+00, 4.082542029858528e+03, 4.100835724962451e+03, -4.437880336822948e+00, 7.641377506002880e+03, 1.118666747450925e+03, -5.065375171671768e+02, 4.138186327754606e+03
1991, 8.055486236343388e-01, 1.206090118841457e+00, 4.320803522864203e-02, 0.000000000000000e+00, 0.000000000000000e+00, 0.000000000000000e+00, 3.744430644818925e+03, 3.600820662180979e+03, -2.530238398173663e+01, 6.479478073265310e+03, 8.849660415406032e+02, -5.192045964918133e+02, 3.324759229128914e+03
1992, 2.319935440918187e-01, 3.831898979120555e-01, 3.445970245504083e-02, 0.000000000000000e+00, 0.000000000000000e+00, 0.000000000000000e+00, 4.945734657017675e+03, 4.954019792953991e+03, 4.053691474446079e+01, 9.442127184193996e+03, -8.798624337120102e+02, 6.465961048035288e+02, 4.874630670932826e+03
1993, 3.357027762344142e-01, 4.415095368632159e-01, 5.342236840956053e-02, 0.000000000000000e+00, 0.000000000000000e+00, 0.000000000000000e+00, 6.137215249120684e+03, 6.388770705126416e+03, 1.092876584884299e+02, 1.242023872127816e+04, 1.367752530175189e+02, -6.164470455736309e+01, 6.169480469188822e+03
1994, 3.162407438216436e-01, 4.400891054735067e-01, 4.983537168086026e-02, 0.000000000000000e+00, 0.000000000000000e+00, 0.000000000000000e+00, 5.600275703260488e+03, 5.896883326436548e+03, 1.903124752649070e+02, 1.165955429825090e+04, -4.098246748467982e+02, 1.005065014135763e+02, 5.970631032743265e+03
1995, 9.842586507530291e-01, 3.182860001999513e-01, 1.219887237237301e-02, 0.000000000000000e+00, 0.000000000000000e+00, 0.000000000000000e+00, -7.919859269481707e+03, -7.544854698529490e+03, -1.097806501527023e+02, -1.587313856102553e+04, 2.222664599280997e+03, -2.011995437832888e+03, 9.663283192975312e+03
1996, 9.923092418664571e-01, 3.362116372346921e-01, 1.107440639449013e-02, 0.000000000000000e+00, 0.000000000000000e+00, 0.000000000000000e+00, -5.809303051209583e+02, -1.050731223413494e+03, -1.445398125652429e+02, -5.166135956732825e+02, 2.299116740420974e+02, 3.891420048559758e+01, 6.934420970295674e+02
1997, 9.749463290391260e-01, 3.004454864210364e-01, 1.355440713073936e-02, 0.000000000000000e+00, 0.000000000000000e+00, 0.000000000000000e+00, -4.546786768186213e+03, -5.138461065536169e+03, -2.794090372214419e+02, -9.420930212343857e+03, 1.346333419852650e+03, 6.853356475113703e+02, 5.320202205047621e+03
1998, 1.875807372392130e-01, 2.942450068071018e-01, 3.520279843090358e-02, 0.000000000000000e+00, 0.000000000000000e+00, 0.000000000000000e+00, 4.515091302018899e+03, 4.425804736833798e+03, 6.763313416500361e+00, 8.391293681225863e+03, -1.035580493760789e+03, 5.606151706264894e+02, 4.420327587939872e+03
1999, 2.060742341722026e-01, 2.958557697571361e-01, 4.154250540228076e-02, 0.000000000000000e+00, 0.000000000000000e+00, 0.000000000000000e+00, 5.112638038606211e+03, 4.974331544478026e+03, 1.890019230059120e+02, 9.518457079866193e+03, -9.794713985690399e+02, 4.929785988134875e+02, 4.873814218373063e+03
2000, 1.967280637531215e-01, 3.117962460911266e-01, 3.520989502785419e-02, 0.000000000000000e+00, 0.000000000000000e+00, 0.000000000000000e+00, 4.617272419811047e+03, 4.594264835595956e+03, -1.265098466364427e+01, 7.949155847479276e+03, -1.037678929604779e+03, 3.233345079486484e+02, 3.837067050525149e+03
2001, 2.152465505817539e-01, 3.136508463575746e-01, 4.145877116727571e-02, 0.000000000000000e+00, 0.000000000000000e+00, 0.000000000000000e+00, 4.912070982766179e+03, 4.924964014428973e+03, 1.141261496408888e+02, 9.479104101205283e+03, -1.019914569009056e+03, 2.400296627042052e+02, 4.912399522417128e+03
2002, 2.056094198304809e-01, 3.297285617873712e-01, 3.503119481732178e-02, 0.000000000000000e+00, 0.000000000000000e+00, 0.000000000000000e+00, 4.547649993386915e+03, 4.588602956963724e+03, 2.306859458966781e+01, 8.125533138401363e+03, -1.020219365338449e+03, 1.166662146480030e+02, 3.977608852540558e+03
2003, 1.246123018457540e-01, 1.704438418261817e-01, 3.572589783352823e-02, 0.000000000000000e+00, 0.000000000000000e+00, 0.000000000000000e+00, 3.882096550715150e+03, 3.535764853539347e+03, -1.362203818763317e+01, 6.458963228877976e+03, -9.343679739824272e+02, 1.589813510060477e+02, 3.216854139314814e+03
2004, 1.342214679641365e-01, 1.544566997141305e-01, 4.248585584912661e-02, 0.000000000000000e+00, 0.000000000000000e+00, 0.000000000000000e+00, 4.838014730875326e+03, 4.636530478695779e+03, -1.509963548765253e+02, 7.960116056842015e+03, -1.088219084289203e+03, 4.184135520467553e+02, 3.816207354137261e+03
2005, 1.156307090467466e-01, 1.527433347614591e-01, 3.580339741320114e-02, 0.000000000000000e+00, 0.000000000000000e+00, 0.000000000000000e+00, 4.064594363503132e+03, 3.723062241314274e+03, -1.167461409795392e+02, 6.147797130731718e+03, -9.404818597165461e+02, 2.937373353372158e+02, 2.849756280473558e+03
2006, 9.932961439741481e-01, 3.688466642667748e-01, 1.164572098709800e-02, 0.000000000000000e+00, 0.000000000000000e+00, 0.000000000000000e+00, -6.682393955236359e+03, -5.982891336802337e+03, 5.304820832162144e+01, -1.507930254737797e+04, 1.895474208722415e+03, 1.837113404623116e+03, 9.888523859215979e+03
2007, 8.288358304489554e-01, 5.290930790605408e-02, 3.387711029663097e-02, 0.000000000000000e+00, 0.000000000000000e+00, 0.000000000000000e+00, -5.588565722265801e+02, -5.839067756557614e+02, -3.196078878332684e+01, -1.426907222278234e+03, 3.820198904654574e+02, 2.580360473397928e+01, 1.084100614620615e+03
2008, 3.263748292780485e-01, 4.667578020577373e-02, 7.758083421961011e-02, 0.000000000000000e+00, 0.000000000000000e+00, 0.000000000000000e+00, 2.803578208602194e+03, 2.869139150818584e+03, -1.465167773822464e+01, 5.199507379575503e+03, 4.255328058172373e+02, -9.591325858622760e+02, 2.981841700825629e+03
2009, 1.087793111445573e+00, 1.119043468104606e+00, 1.093687105295029e-02, 0.000000000000000e+00, 0.000000000000000e+00, 0.000000000000000e+00, -4.038656373076909e+03, -4.848877877672850e+03, -8.765247650612817e+01, -8.010653683525949e+03, 4.216015625238004e+02, -2.323892551207642e+03, 5.474737085445899e+03
2010, 1.000432398392181e+00, 3.879890270385355e-01, 1.072323032721999e-02, 0.000000000000000e+00, 0.000000000000000e+00, 0.000000000000000e+00, -4.361267940960290e+03, -5.516649260895481e+03, 6.643608788590984e+01, -8.265846847002427e+03, -4.037587508154353e+02, -2.719506604746955e+03, 5.895660952378294e+03
2011, 1.093530579087329e+00, 1.168473422652432e+00, 1.097258931307987e-02, 0.000000000000000e+00, 0.000000000000000e+00, 0.000000000000000e+00, -6.508754333732027e+03, -6.786480004004932e+03, 7.223768811852137e+02, -1.525293056629135e+04, 1.989893709177266e+02, -2.671786137788784e+03, 9.859455675222653e+03
2012, 1.083092697752853e+00, 1.185175770413164e+00, 1.320146099045737e-02, 0.000000000000000e+00, 0.000000000000000e+00, 0.000000000000000e+00, 6.017636771498854e+01, -2.141024545931517e+02, 1.287976307519999e+02, -4.349798296548312e+02, 1.459764347164248e+02, -1.452203610260516e+02, 6.012972482861207e+02
2013, 5.342545941056799e-01, 3.877402735225001e-02, 6.965944284795150e-02, 0.000000000000000e+00, 0.000000000000000e+00, 0.000000000000000e+00, 1.476200951659662e+03, 1.522782402617064e+03, -7.903111918752828e+01, 2.572014208698362e+03, 3.903742194343016e+02, -4.663792537621782e+02, 1.510090933156034e+03
2014, 1.137111151358889e+00, 1.479674765993272e+00, 9.818579731368429e-03, 0.000000000000000e+00, 0.000000000000000e+00, 0.000000000000000e+00, -5.258552436807711e+03, -4.928657306473313e+03, -2.371725712629092e+02, -8.990698818331255e+03, 2.045636703614075e+03, 5.867682018222932e+02, 5.387438737498947e+03
2015, 1.128881825104899e+00, 1.458034335568108e+00, 1.082284638101242e-02, 0.000000000000000e+00, 0.000000000000000e+00, 0.000000000000000e+00, -1.593366008317499e+02, -1.802414938905734e+02, -5.576756465671298e+01, -4.090563372714539e+02, 2.605286663996325e+02, 3.249782373700775e+01, 5.231639747062352e+02
2016, 7.915390565450037e-01, 1.513881773373344e+00, 2.210376867517443e-02, 0.000000000000000e+00, 0.000000000000000e+00, 0.000000000000000e+00, 6.914673251310751e+03, 6.862154392600096e+03, -8.460562116476757e+01, 1.261726753830045e+04, -2.086308341832581e+02, -1.460928015427389e+03, 6.275095248939757e+03
2017, 9.220218044002289e-02, 1.650127849953326e-01, 1.486743145588412e-02, 0.000000000000000e+00, 0.000000000000000e+00, 0.000000000000000e+00, 1.553831990883433e+03, 1.437864981836966e+03, 3.901553973420499e+01, 3.325820598601564e+03, -9.944839126629055e+02, 7.187476106008604e+02, 2.807176512060305e+03
2018, 1.104023342499749e+00, 1.563446188116109e+00, 1.683577971663799e-02, 0.000000000000000e+00, 0.000000000000000e+00, 0.000000000000000e+00, 2.611008290771820e+02, 3.400920347094539e+02, -3.154396891001093e+01, 3.276665739415861e+02, 4.664669510209470e+02, -5.191503349280995e+02, 1.212321337926517e+03
2019, 8.987038551755347e-01, 3.750099628156623e-02, 2.174813464767243e-02, 0.000000000000000e+00, 0.000000000000000e+00, 0.000000000000000e+00, -1.579302159006117e+03, -1.691233385457925e+03, 3.140913117298260e+00, -3.467292799577504e+03, -2.197615269179142e+02, 7.552191991771940e+02, 2.285102896802354e+03
2020, 1.108261422628377e+00, 1.272197503661983e+00, 1.055342980703076e-02, 0.000000000000000e+00, 0.000000000000000e+00, 0.000000000000000e+00, 6.854003393300097e+01, -2.571763753236390e+02, -6.710660211103219e+01, -1.910215140650828e+02, 2.340220010849785e+02, 2.294756961346424e+02, 6.516947027011375e+02
2021, 1.099474990467576e+00, 1.254685424764584e+00, 1.175879662506427e-02, 0.000000000000000e+00, 0.000000000000000e+00, 0.000000000000000e+00, -4.122113987752885e+03, -4.767665664289330e+03, 3.309286926115851e+01, -8.296562165441104e+03, 1.003189805362263e+03, -1.336394415366595e+03, 4.850591449150050e+03
2022, 1.118841655164866e+00, 1.255600520289604e+00, 8.228451910500742e-03, 0.000000000000000e+00, 0.000000000000000e+00, 0.000000000000000e+00, -1.842565192157931e+03, -2.261684630936564e+03, 9.015406531418512e+01, -4.058272465278481e+03, -5.474044044983609e+02, -5.888877759707642e+02, 2.473879197949532e+03
2023, 1.110044822833130e+00, 1.238113296137596e+00, 9.476199065499616e-03, 0.000000000000000e+00, 0.000000000000000e+00, 0.000000000000000e+00, -5.005453938214421e+03, -5.558186047084382e+03, -4.196886245979438e+02, -1.174206494944522e+04, -2.335552855122014e+03, 1.372271196677196e+03, 8.031570285049107e+03
2024, 1.028734247020559e+00, 6.308962119576257e-01, 1.095408366576210e-02, 0.000000000000000e+00, 0.000000000000000e+00, 0.000000000000000e+00, -7.645285314652819e+03, -8.448199226510489e+03, -4.000731071695629e+02, -1.518251400698930e+04, 1.324979072856866e+03, 3.045729133631411e+03, 9.218406766173071e+03
2025, 3.048552757547649e-01, 7.899350387913172e-02, 7.559689878759801e-02, 0.000000000000000e+00, 0.000000000000000e+00, 0.000000000000000e+00, 3.955398116745711e+03, 3.924690119371448e+03, -6.805787746165493e-02, 7.582276562142310e+03, 6.056273992560338e+02, -9.505943337405175e+02, 4.132530317936753e+03
2026, 3.213176168206759e-01, 1.482961478429624e-01, 7.305036795911893e-02, 0.000000000000000e+00, 0.000000000000000e+00, 0.000000000000000e+00, 4.521960864383133e+03, 4.521709688913043e+03, 4.892224831194525e+01, 8.806763608510144e+03, 8.153407053944195e+02, -5.223960401094072e+02, 4.602263060868625e+03
2027, 3.028161747723259e-01, 1.133370363474953e-01, 7.382709711708543e-02, 0.000000000000000e+00, 0.000000000000000e+00, 0.000000000000000e+00, 4.465450373193882e+03, 4.354455042538920e+03, 2.476243489005529e+01, 8.730552243193075e+03, 7.119844068399855e+02, -7.126263376617935e+02, 4.660786857379145e+03
2028, 1.036727482915436e+00, 6.827638075038247e-01, 1.063080429787835e-02, 0.000000000000000e+00, 0.000000000000000e+00, 0.000000000000000e+00, -3.869106111522923e+02, -7.346751359045576e+02, -7.648131855439328e+01, -6.466075883299900e+02, 9.988511942113360e+01, 1.653448364402927e+02, 4.770380709175948e+02
2029, 1.045740039630231e+00, 7.004617127894259e-01, 9.318714575779126e-03, 0.000000000000000e+00, 0.000000000000000e+00, 0.000000000000000e+00, -5.546886615769026e+03, -5.868319313767902e+03, -2.474280240543166e+02, -1.192049667221680e+04, -1.958653661674300e+03, 2.057394304381250e+03, 7.941585849570111e+03
2030, 2.859390017127119e-01, 2.329978235827855e-01, 6.480557554539119e-02, 0.000000000000000e+00, 0.000000000000000e+00, 0.000000000000000e+00, 5.090100842433152e+03, 5.283740197784990e+03, 1.808945126781274e+02, 1.032512430998387e+04, 6.261321626048897e+02, -4.422184813954457e+02, 5.318855593207871e+03
2031, 2.949871191965381e-01, 2.506535830030568e-01, 6.450616693092542e-02, 0.000000000000000e+00, 0.000000000000000e+00, 0.000000000000000e+00, 5.266887895554019e+03, 5.390369701740912e+03, 1.515277835341526e+02, 1.046851162477480e+04, 6.485071949739545e+02, -5.078895131387014e+02, 5.341746279043879e+03
2032, 3.499994408428450e-01, 1.669761149635611e-01, 7.342073643593938e-02, 0.000000000000000e+00, 0.000000000000000e+00, 0.000000000000000e+00, 4.375809929529139e+03, 4.339557622045097e+03, 5.917340198976262e+01, 8.295235057776588e+03, 8.693192260675013e+02, -4.850787007465257e+02, 4.299866513432725e+03
2033, 3.698980239496323e-01, 1.679633329906722e-01, 7.392946809654273e-02, 0.000000000000000e+00, 0.000000000000000e+00, 0.000000000000000e+00, 4.174727017165940e+03, 4.163255468333080e+03, 2.501422710820076e+01, 7.866638754407662e+03, 8.578278962045470e+02, -4.879488252221423e+02, 4.073875454539181e+03
2034, 4.868090880590537e-01, 2.080351064223352e-01, 7.138260761703898e-02, 0.000000000000000e+00, 0.000000000000000e+00, 0.000000000000000e+00, 3.264218853026201e+03, 3.153768336410963e+03, -1.290807828711645e+01, 5.787094169472228e+03, 8.586410664896248e+02, -3.218293803824232e+02, 3.029648133015620e+03
2035, 5.064504204375366e-01, 2.090297455205949e-01, 7.044118052250145e-02, 0.000000000000000e+00, 0.000000000000000e+00, 0.000000000000000e+00, 3.006276867460721e+03, 2.928719506456974e+03, -4.064266704877235e+00, 5.372211352865274e+03, 8.544870250695408e+02, -3.452739489647229e+02, 2.887090724379356e+03
2036, 5.348235073319316e-01, 2.276820731472245e-01, 6.867515102712375e-02, 0.000000000000000e+00, 0.000000000000000e+00, 0.000000000000000e+00, 2.828014107341908e+03, 2.718842318679392e+03, -3.114506391425961e+01, 5.006608137871037e+03, 8.356995701935626e+02, -3.202355780536174e+02, 2.720620383775925e+03
2037, 5.620517392215251e-01, 2.804868740805634e-01, 6.657129687619558e-02, 0.000000000000000e+00, 0.000000000000000e+00, 0.000000000000000e+00, 2.659899622220217e+03, 2.534081007802125e+03, -2.779511987726811e+01, 4.648496846115315e+03, 9.165361336811831e+02, -2.285904366073898e+02, 2.626736704008479e+03
2038, 5.421820817138341e-01, 2.796502096514967e-01, 6.777356706062453e-02, 0.000000000000000e+00, 0.000000000000000e+00, 0.000000000000000e+00, 2.985791734029743e+03, 2.917385165822552e+03, -1.300915128973449e+01, 5.344068848394072e+03, 8.917446082285902e+02, -2.948614754006073e+02, 2.893861602249846e+03
2039, 7.311087504059162e-01, 4.886524673530704e-02, 4.823918665446495e-02, 0.000000000000000e+00, 0.000000000000000e+00, 0.000000000000000e+00, 4.633192622177462e+02, 3.568600762040837e+02, -3.206588664781533e+01, 5.969082058656815e+02, 3.854848091839330e+02, -8.479245375113078e+01, 7.168339365477274e+02
2040, 5.996755746253715e-01, 3.169296168752715e-01, 6.377032736095474e-02, 0.000000000000000e+00, 0.000000000000000e+00, 0.000000000000000e+00, 2.244665044025426e+03, 2.130316429408373e+03, -1.655628662303679e+01, 3.773649082934127e+03, 8.498214213796415e+02, -2.146859010865824e+02, 2.198041580245162e+03
2041, 9.887603758820309e-01, 1.524892555678353e+00, 3.005183430613106e-02, 0.000000000000000e+00, 0.000000000000000e+00, 0.000000000000000e+00, 2.209306662669349e+03, 2.138690171953466e+03, 4.209405410916653e+01, 4.142118372775121e+03, 7.810436759701774e+02, -5.784372644569811e+02, 2.591603476980178e+03
2042, 9.779585055272171e-01, 1.540516349366829e+00, 3.083532037642296e-02, 0.000000000000000e+00, 0.000000000000000e+00, 0.000000000000000e+00, 3.310409338749346e+03, 3.345769828680634e+03, -1.990337581743457e+01, 5.876635517340458e+03, 5.477928897004525e+02, -4.262503927646104e+02, 2.818246249728172e+03
2043, 3.980893175191200e-01, 3.762504919925118e-01, 6.557486532027920e-02, 0.000000000000000e+00, 0.000000000000000e+00, 0.000000000000000e+00, 4.902616952487148e+03, 4.978457810164773e+03, 7.906229249448187e+01, 9.499896754396144e+03, 1.026709483568894e+03, -4.139466828980686e+02, 4.948462081056518e+03
2044, 1.009386016250185e+00, 1.490318040070953e+00, 2.806111513975143e-02, 0.000000000000000e+00, 0.000000000000000e+00, 0.000000000000000e+00, 1.633185671605463e+03, 1.677242684694919e+03, -1.492715248844960e+02, 2.670164718473090e+03, 6.226963596365069e+02, -2.387937118109328e+02, 1.559726228651217e+03
2045, 8.468895165975400e-01, 8.790581812031509e-02, 3.160038115207611e-02, 0.000000000000000e+00, 0.000000000000000e+00, 0.000000000000000e+00, -8.083086886752362e+02, -8.295897715828191e+02, 1.631696995777783e+01, -2.007085496028407e+03, 5.147094854201370e+02, -3.716043751603957e+01, 1.487187425219819e+03
2046, 8.363304609367402e-01, 1.046198930768771e-01, 3.360364878544787e-02, 0.000000000000000e+00, 0.000000000000000e+00, 0.000000000000000e+00, -7.528826098518450e+02, -8.898122192366534e+02, -6.220399347612483e+01, -1.643749868467139e+03, 4.587272752911801e+02, 9.493978505881108e+01, 1.166339968759316e+03
2047, 7.272751353792772e-01, 3.402630416418000e-01, 5.172379983728494e-02, 0.000000000000000e+00, 0.000000000000000e+00, 0.000000000000000e+00, 9.133695470858771e+02, 7.753341020020015e+02, -4.309733374502214e+01, 1.214515115385780e+03, 7.102002922147722e+02, -1.722813886507308e+02, 1.326302882565439e+03
2048, 7.363363343626731e-01, 3.579196213099837e-01, 5.081790701084753e-02, 0.000000000000000e+00, 0.000000000000000e+00, 0.000000000000000e+00, 8.891861524880890e+02, 7.042138411031065e+02, -2.887423197355464e+01, 1.063384508624134e+03, 6.681130631085196e+02, -1.698619758428179e+02, 1.234895674723239e+03
2049, 7.182154026419978e-01, 3.226076903912052e-01, 5.262339315104051e-02, 0.000000000000000e+00, 0.000000000000000e+00, 0.000000000000000e+00, 8.537259287117247e+02, 7.151644975836894e+02, -1.070434466904829e+01, 1.149998431196068e+03, 6.816726719291823e+02, -1.294326827819795e+02, 1.262007808984839e+03
2050, 6.984941137538123e-01, 3.216643525637736e-01, 5.478717421724619e-02, 0.000000000000000e+00, 0.000000000000000e+00, 0.000000000000000e+00, 1.170176169372512e+03, 1.015615650782756e+03, -2.810665097895711e+01, 1.690208362076554e+03, 7.332990395690709e+02, -1.450838233264025e+02, 1.432968675129557e+03
2051, 6.051149738689863e-01, 2.137010023463498e-01, 6.353971807318334e-02, 0.000000000000000e+00, 0.000000000000000e+00, 0.000000000000000e+00, 1.951020838533502e+03, 1.830820237209783e+03, -2.927345880426930e+01, 3.307742125660192e+03, 7.301857954277671e+02, -2.221189265542839e+02, 1.941214747612438e+03
2052, 5.262057743000608e-01, 3.997482162316558e-01, 6.677515219026404e-02, 0.000000000000000e+00, 0.000000000000000e+00, 0.000000000000000e+00, 3.335069704858678e+03, 3.246710608909033e+03, -7.235843287242403e+00, 5.877965088497366e+03, 9.122130963567321e+02, -3.235342486374399e+02, 3.083729998080806e+03
2053, 5.063736597753892e-01, 3.987880804656490e-01, 6.721833979487772e-02, 0.000000000000000e+00, 0.000000000000000e+00, 0.000000000000000e+00, 3.498875090578825e+03, 3.423721473582394e+03, 1.164948147486127e+01, 6.307867768825438e+03, 9.720542302486025e+02, -3.237375816981503e+02, 3.355098712225508e+03
2054, 5.565948490781981e-01, 1.941544744197194e-01, 6.744944739832930e-02, 0.000000000000000e+00, 0.000000000000000e+00, 0.000000000000000e+00, 2.412250643122873e+03, 2.340828118604759e+03, -4.977709065627800e+01, 4.145911986568798e+03, 7.997595105060948e+02, -2.911232331911053e+02, 2.305437618215688e+03
2055, 1.858243700690891e-01, 7.298787363244691e-02, 6.480527752054879e-02, 0.000000000000000e+00, 0.000000000000000e+00, 0.000000000000000e+00, 4.844640300764032e+03, 4.724220767507210e+03, 1.749729276408283e+02, 9.732334717444985e+03, -4.174182404006190e+01, -9.451809773530226e+02, 5.222050019953550e+03
2056, 1.768245008014757e-01, 5.537646132302625e-02, 6.505736295540948e-02, 0.000000000000000e+00, 0.000000000000000e+00, 0.000000000000000e+00, 4.170194408660236e+03, 4.068429727510863e+03, 1.588246865292992e+02, 8.273766735021427e+03, -2.073763076256724e+02, -9.299579471400809e+02, 4.479555403136132e+03
2057, 6.550717782706037e-01, 1.988858601465039e-01, 5.872997054473800e-02, 0.000000000000000e+00, 0.000000000000000e+00, 0.000000000000000e+00, 1.497081924701670e+03, 1.367574778595564e+03, -2.665289246473236e+01, 2.431881997506880e+03, 6.774284234255331e+02, -1.255022803903431e+02, 1.561344923580984e+03
2058, 6.746681293720401e-01, 1.999309099924501e-01, 5.664204803646464e-02, 0.000000000000000e+00, 0.000000000000000e+00, 0.000000000000000e+00, 1.282418781165754e+03, 1.139863371947876e+03, -2.265550582491859e+01, 1.994598771410770e+03, 6.706630122423053e+02, -9.614328392589815e+01, 1.416927849286376e+03
2059, 9.758453903553422e-01, 1.162662964659898e+00, 2.924022894774492e-02, 0.000000000000000e+00, 0.000000000000000e+00, 0.000000000000000e+00, 1.934110706564146e+02, 1.132027163690359e+02, -3.701291056039022e+01, 2.259103932199813e+01, 4.672685965618875e+02, -8.070045659589479e+01, 8.370060043616705e+02
2060, 9.537242761953298e-01, 1.419230182580593e+00, 3.309044531259878e-02, 0.000000000000000e+00, 0.000000000000000e+00, 0.000000000000000e+00, 2.208326500426333e+03, 2.262005125959055e+03, -2.974421379194200e+01, 4.350930791222638e+03, 2.447454737713732e+02, -5.755595966495302e+02, 2.377979022579991e+03
2061, 9.340604045438643e-01, 1.418292762513287e+00, 3.455002922550414e-02, 0.000000000000000e+00, 0.000000000000000e+00, 0.000000000000000e+00, 2.770651400722406e+03, 2.656815679912050e+03, 2.728273146571859e+01, 4.308797421530697e+03, 6.631315002119147e+02, -2.211141346228379e+02, 2.005513724029260e+03
2062, 9.544119882917639e-01, 1.196111342927262e+00, 3.221342211223249e-02, 0.000000000000000e+00, 0.000000000000000e+00, 0.000000000000000e+00, 9.424358546991776e+02, 8.207856528232315e+02, 5.419692125690578e-01, 1.283144592338845e+03, 5.911676881407839e+02, -8.846600578957887e+01, 1.115457660547169e+03
2063, 9.741607565480711e-01, 1.196979814518979e+00, 2.983158622610238e-02, 0.000000000000000e+00, 0.000000000000000e+00, 0.000000000000000e+00, 2.956754960079649e+02, 1.680874013770984e+02, -1.776385402820602e+01, 1.536689505033283e+02, 4.694099724128662e+02, -1.667367175128611e+02, 8.739070118292266e+02
2064, 8.179313630347070e-01, 5.168883971927631e-01, 4.236721097046209e-02, 0.000000000000000e+00, 0.000000000000000e+00, 0.000000000000000e+00, 3.407238171726458e+02, 1.971506998112363e+02, -2.712564082407411e+01, 2.067592176126954e+02, 5.798522795708885e+02, -1.340975129726898e+02, 1.041232859300280e+03
2065, 6.600864543530622e-01, 9.612522737768037e-02, 5.756031472389653e-02, 0.000000000000000e+00, 0.000000000000000e+00, 0.000000000000000e+00, 1.379409262647867e+03, 1.253889141544961e+03, -3.386197077398968e+01, 2.184747008452851e+03, 5.771746337138061e+02, -1.935861446042017e+02, 1.371374724775244e+03
2066, 1.124786197009725e+00, 1.342068158327215e+00, 9.064996487118076e-03, 0.000000000000000e+00, 0.000000000000000e+00, 0.000000000000000e+00, -3.650175732057525e+03, -4.205732962843016e+03, -1.354388141422773e+02, -8.391666461097895e+03, -1.770943347731796e+03, -6.469240238929424e+02, 5.556572039383444e+03
2067, 9.097242110780978e-01, 8.835278197001677e-01, 3.463754529377168e-02, 0.000000000000000e+00, 0.000000000000000e+00, 0.000000000000000e+00, 3.610954301213546e+02, 2.485748243780552e+02, -7.821294379374239e+00, 4.574262408450410e+02, 5.062403281398428e+02, -1.478258339256522e+02, 9.313208211760603e+02
2068, 8.419579110783963e-01, 6.387495980710899e-01, 4.062926688576528e-02, 0.000000000000000e+00, 0.000000000000000e+00, 0.000000000000000e+00, 4.390935920842649e+02, 3.056876851628606e+02, -2.998090957421939e+01, 3.451055369592274e+02, 5.676608835933155e+02, -1.418300502941445e+02, 1.021691156551635e+03
2069, 1.002058933799249e+00, 8.017669865405426e-01, 1.943694556775745e-02, 0.000000000000000e+00, 0.000000000000000e+00, 0.000000000000000e+00, -6.171435929284937e+02, -6.880495938293418e+02, -1.334459549975328e+02, -1.411132304286014e+03, 3.360380334582896e+02, -2.722118597853088e+02, 1.092535220839416e+03
2070, 9.191322319202919e-01, 4.529597412386855e-01, 2.657475358248658e-02, 0.000000000000000e+00, 0.000000000000000e+00, 0.000000000000000e+00, -1.051302558474753e+03, -1.146306598456015e+03, 6.979160134073132e+01, -2.671917222656770e+03, 3.280161153745559e+02, -5.500873837438017e+01, 1.681644112054141e+03
2071, 9.085591407770803e-01, 4.696658771165244e-01, 2.859013924678204e-02, 0.000000000000000e+00, 0.000000000000000e+00, 0.000000000000000e+00, -8.040654642738699e+02, -1.036307861983856e+03, -6.351217635528526e+01, -1.852172632309570e+03, 4.189542182854736e+02, 1.007210345333313e+01, 1.203338642161017e+03
2072, 3.727281771618917e-01, 2.888955180893380e-01, 6.869872512962137e-02, 0.000000000000000e+00, 0.000000000000000e+00, 0.000000000000000e+00, 4.863735168007773e+03, 4.858844020836064e+03, 6.387374460687523e+01, 9.443563416334628e+03, 9.745846476546693e+02, -4.374497509988719e+02, 4.942977184603097e+03
2073, 3.529498073082967e-01, 2.878661965420302e-01, 6.747836051029810e-02, 0.000000000000000e+00, 0.000000000000000e+00, 0.000000000000000e+00, 5.009726893573746e+03, 5.075399794923605e+03, 8.710293544113556e+01, 9.900941264792757e+03, 9.003923384534151e+02, -4.479061232369943e+02, 5.163701216717793e+03
2074, 3.422500025575996e-01, 3.044581865886367e-01, 6.556980240710622e-02, 0.000000000000000e+00, 0.000000000000000e+00, 0.000000000000000e+00, 5.042479860208517e+03, 5.219734865898672e+03, 1.030873244300967e+02, 1.017856606607865e+04, 8.667899995042632e+02, -4.006669155437504e+02, 5.316752908708029e+03
2075, 3.331980224872292e-01, 2.868143583925593e-01, 6.590871227443633e-02, 0.000000000000000e+00, 0.000000000000000e+00, 0.000000000000000e+00, 5.135017601732188e+03, 5.239464710216151e+03, 9.495516449641849e+01, 1.035039531010548e+04, 8.250640703463024e+02, -4.488463664910184e+02, 5.416638580396135e+03
2076, 3.438941385023215e-01, 2.702167525821486e-01, 6.784684994597803e-02, 0.000000000000000e+00, 0.000000000000000e+00, 0.000000000000000e+00, 5.029177758705215e+03, 5.114464781246838e+03, 9.155872911846052e+01, 9.880922020675820e+03, 8.564716147516255e+02, -5.074964216324864e+02, 5.111882547037862e+03
2077, 3.241487022521781e-01, 2.691635280632991e-01, 6.624560893248076e-02, 0.000000000000000e+00, 0.000000000000000e+00, 0.000000000000000e+00, 5.169563783952392e+03, 5.275677424577664e+03, 9.973870359435865e+01, 1.024369302135215e+04, 7.572804902401397e+02, -5.406208417386717e+02, 5.276996364355768e+03
2078, 2.143575990537384e-01, 9.173691463280179e-02, 6.722222670560819e-02, 0.000000000000000e+00, 0.000000000000000e+00, 0.000000000000000e+00, 5.043668762791623e+03, 5.038537169743267e+03, 2.065785668990242e+02, 1.023720158974539e+04, 3.043037802837699e+02, -8.367049700006626e+02, 5.431897712614570e+03
2079, 1.006479952466544e+00, 9.227339740003022e-01, 2.102543317946352e-02, 0.000000000000000e+00, 0.000000000000000e+00, 0.000000000000000e+00, -1.078362511340420e+03, -1.284648276227315e+03, -4.422237203884772e+01, -2.355072299911406e+03, -6.427826993438130e+01, -3.624562784761470e+02, 1.349651899453272e+03
2080, 1.017055371045202e+00, 9.060041294235062e-01, 1.894745291892162e-02, 0.000000000000000e+00, 0.000000000000000e+00, 0.000000000000000e+00, -2.084452896223559e+03, -2.144174663450276e+03, -2.706473727147163e+01, -4.096846808840364e+03, 1.206206861157844e+03, 7.768159782410265e+01, 2.884132104437158e+03
2081, 8.529404824775020e-01, 3.978862996511257e-01, 3.593422187613973e-02, 0.000000000000000e+00, 0.000000000000000e+00, 0.000000000000000e+00, -2.011473038181122e+02, -3.931760797972064e+02, -1.659721370931487e+01, -9.681843818382381e+02, 4.191673747543677e+02, -9.668400822882222e+01, 1.016809420523144e+03
2082, 7.957145063768922e-01, 1.369902336480813e-01, 4.035846165357080e-02, 0.000000000000000e+00, 0.000000000000000e+00, 0.000000000000000e+00, -1.691538356632758e+02, -2.804866204679885e+02, -2.232762673392952e+01, -6.823817587554353e+02, 4.971214833204555e+02, -6.842701761497671e+01, 9.877198198874086e+02
2083, 8.152852850493159e-01, 1.379348548736516e-01, 3.744784342770383e-02, 0.000000000000000e+00, 0.000000000000000e+00, 0.000000000000000e+00, -2.555988105035805e+02, -4.205449387413561e+02, -2.504792562146844e+00, -9.272617658298965e+02, 3.817579973122367e+02, -2.530779523727417e+01, 8.981692088959063e+02
2084, 5.460309487683634e-01, 4.006903362704869e-01, 6.608258623196006e-02, 0.000000000000000e+00, 0.000000000000000e+00, 0.000000000000000e+00, 3.026386013834820e+03, 2.987327857410567e+03, 4.834359828777222e+00, 5.454666761507995e+03, 8.786921121855904e+02, -3.142038906730996e+02, 2.933506255368616e+03
2085, 9.899189192684769e-01, 4.047135578310502e-01, 1.311162272990288e-02, 0.000000000000000e+00, 0.000000000000000e+00, 0.000000000000000e+00, -2.511086220839958e+02, -3.180779002385270e+02, -1.198811299064183e+02, -4.022927009767923e+02, 1.598021201843700e+02, -1.705503859917608e+02, 4.735015655204193e+02
2086, 3.553173552322229e-01, 4.425851938631876e-01, 5.647127255524965e-02, 0.000000000000000e+00, 0.000000000000000e+00, 0.000000000000000e+00, 5.587942443965216e+03, 5.940052402247257e+03, 1.506803042474016e+02, 1.170913683703705e+04, 4.928419856722874e+02, -9.305002203720463e+01, 6.021663970092199e+03
2087, 1.068144132435467e+00, 1.080959895629052e+00, 1.366072456168133e-02, 0.000000000000000e+00, 0.000000000000000e+00, 0.000000000000000e+00, -2.142623367890674e+03, -2.116924417253621e+03, 1.739883952276700e+02, -4.282074524405073e+03, 4.028488718950113e+02, -6.508272048052088e+02, 2.545839549964398e+03
2088, 1.087239863816548e+00, 1.082088212122011e+00, 1.021769305331227e-02, 0.000000000000000e+00, 0.000000000000000e+00, 0.000000000000000e+00, -2.166015380676847e+03, -2.596749066985119e+03, -4.919305513661134e+01, -5.076365098545827e+03, -1.432711268537056e+02, 5.768071175519240e+02, 2.910161575645468e+03
2089, 9.618471391897324e-01, 1.248092779798311e+00, 3.175939659591708e-02, 0.000000000000000e+00, 0.000000000000000e+00, 0.000000000000000e+00, 1.088299786501507e+03, 8.350027273302032e+02, -3.042631968105400e+01, 1.278140128167318e+03, 6.757620026091834e+02, -1.876428032295890e+02, 1.275403605089521e+03
2090, 9.815310360659077e-01, 1.249045115957393e+00, 2.944024978945976e-02, 0.000000000000000e+00, 0.000000000000000e+00, 0.000000000000000e+00, 5.448815673701521e+02, 4.669067885334302e+02, -4.650978511057281e+01, 5.808433616363525e+02, 4.748412242881268e+02, -1.831328039962566e+02, 8.908997399359758e+02
2091, 9.065428130691204e-01, 9.524143051804722e-01, 3.576927349867241e-02, 0.000000000000000e+00, 0.000000000000000e+00, 0.000000000000000e+00, 6.851299973240582e+02, 5.712851593607669e+02, -5.064075102982652e+01, 8.830604365581730e+02, 5.415476288105456e+02, -1.340670288493200e+02, 1.008021492413693e+03
2092, 1.008020381233800e+00, 8.883108222294978e-01, 2.012050768955653e-02, 0.000000000000000e+00, 0.000000000000000e+00, 0.000000000000000e+00, -7.275927577959690e+02, -8.567844309332431e+02, -1.284872448959097e+01, -1.462051309725686e+03, 4.252567044325436e+02, -1.271091195124312e+02, 1.026025911799557e+03
2093, 4.489382877558153e-01, 1.718695521968747e-01, 7.337593969084567e-02, 0.000000000000000e+00, 0.000000000000000e+00, 0.000000000000000e+00, 3.541588894635198e+03, 3.434900445806778e+03, -2.796030113859796e+01, 6.411703280202206e+03, 8.727164376293608e+02, -4.083009437253111e+02, 3.367866286225455e+03
2094, 4.382059112760468e-01, 1.885062081242432e-01, 7.330383104964577e-02, 0.000000000000000e+00, 0.000000000000000e+00, 0.000000000000000e+00, 3.594198049674675e+03, 3.503438693284818e+03, -1.670191759422397e+01, 6.544771240549583e+03, 9.135829785835938e+02, -3.714477885126943e+02, 3.449720330181407e+03
2095, 4.471637359696438e-01, 2.060289597882057e-01, 7.273076991420488e-02, 0.000000000000000e+00, 0.000000000000000e+00, 0.000000000000000e+00, 3.472334293124002e+03, 3.423582422672405e+03, 4.798324376460546e+00, 6.348541805386874e+03, 9.172717710594743e+02, -3.664116387273966e+02, 3.367813970394232e+03
2096, 4.274288762218890e-01, 2.052865085600062e-01, 7.305412911579398e-02, 0.000000000000000e+00, 0.000000000000000e+00, 0.000000000000000e+00, 3.747018884544714e+03, 3.686196494862289e+03, -2.370097308417154e+01, 6.872576439497844e+03, 9.808483388938661e+02, -4.032357673264231e+02, 3.652202913893948e+03
2097, 4.184047662102506e-01, 1.875489986590827e-01, 7.360162326967887e-02, 0.000000000000000e+00, 0.000000000000000e+00, 0.000000000000000e+00, 3.866320609355518e+03, 3.823076088799231e+03, 7.703267148868720e+00, 7.119135406841924e+03, 9.222259964040529e+02, -4.411178182607969e+02, 3.722737673641067e+03
2098, 4.076578072016359e-01, 2.044415369715021e-01, 7.313406649421066e-02, 0.000000000000000e+00, 0.000000000000000e+00, 0.000000000000000e+00, 4.017146564602704e+03, 4.007010917451245e+03, -4.454810362237556e-01, 7.527165297878268e+03, 9.650218518159196e+02, -4.701366775773661e+02, 3.976530919819593e+03
2099, 4.361258908272124e-01, 2.231100058711841e-01, 7.250381985299428e-02, 0.000000000000000e+00, 0.000000000000000e+00, 0.000000000000000e+00, 3.717408492772571e+03, 3.633398797535967e+03, -1.382675459105907e+01, 6.696828103473637e+03, 1.002536439286583e+03, -4.020210059425308e+02, 3.554570736443116e+03
2100, 9.113064502592452e-01, 8.491062672861409e-01, 3.401735956313395e-02, 0.000000000000000e+00, 0.000000000000000e+00, 0.000000000000000e+00, 1.147789777526725e+02, 4.027532808576834e+01, -9.490730099149001e+00, -1.010302597504436e+02, 4.394497141084662e+02, -1.250604270702395e+02, 8.139929679057468e+02
2101, 1.047186104986360e+00, 8.901978857956474e-01, 1.333897644556765e-02, 0.000000000000000e+00, 0.000000000000000e+00, 0.000000000000000e+00, -4.864698554251601e+02, -5.703164266509235e+02, -1.012859991283793e+02, -1.079140627095913e+03, 3.239262724903860e+02, -2.617188202427863e+02, 9.271714795675501e+02
2102, 1.066744833460862e+00, 8.912466337221099e-01, 9.732279666639611e-03, 0.000000000000000e+00, 0.000000000000000e+00, 0.000000000000000e+00, -5.998755698226496e+03, -5.775293639637662e+03, -2.387190943327447e+02, -1.171150157194390e+04, 1.849849038363617e+03, 8.890629315801319e+02, 6.838864391371628e+03
2103, 6.265208494177718e-01, 1.803638056170392e-01, 6.152660514118231e-02, 0.000000000000000e+00, 0.000000000000000e+00, 0.000000000000000e+00, 1.712798812535019e+03, 1.606939430867783e+03, -3.156336140858498e+01, 2.840960548747873e+03, 6.637272271428681e+02, -1.819785295733602e+02, 1.681463768487877e+03
2104, 9.962661247269620e-01, 1.352774146514839e+00, 2.860803189419133e-02, 0.000000000000000e+00, 0.000000000000000e+00, 0.000000000000000e+00, 1.014055779099853e+03, 8.117998219715204e+02, -4.910180301507418e+01, 1.337413351286277e+03, 6.437639288042348e+02, -1.999015558685134e+02, 1.257489336862861e+03
2105, 1.015898280746532e+00, 1.353726019345660e+00, 2.621598570725112e-02, 0.000000000000000e+00, 0.000000000000000e+00, 0.000000000000000e+00, 4.672499146404469e+02, 3.471553358430893e+02, -4.154381674758546e+01, 4.574513807659371e+02, 3.857736194557077e+02, -1.232626236963389e+02, 7.145379724404939e+02
2106, 1.065303963129834e+00, 9.259371125080470e-01, 1.079325731183836e-02, 0.000000000000000e+00, 0.000000000000000e+00, 0.000000000000000e+00, -2.055708568514431e+03, -2.593250607024219e+03, -7.192559887611755e+01, -5.157691839855955e+03, -1.832952090093714e+02, 1.132987030838985e+03, 3.494437774543165e+03
2107, 4.758282224890874e-01, 4.144798553486204e-01, 6.681111766024490e-02, 0.000000000000000e+00, 0.000000000000000e+00, 0.000000000000000e+00, 3.840655368753320e+03, 3.833347293035119e+03, 4.436223286107204e+01, 7.081931373444061e+03, 1.027653924161691e+03, -3.755358749656114e+02, 3.758565471536599e+03
2108, 4.650672961630966e-01, 4.311537298786315e-01, 6.599729917273207e-02, 0.000000000000000e+00, 0.000000000000000e+00, 0.000000000000000e+00, 4.038125129910113e+03, 4.071426115406053e+03, 4.736584616296784e+01, 7.588506075719351e+03, 9.835365929971342e+02, -4.617698645211582e+02, 4.004564909500149e+03
2109, 4.452204972235111e-01, 4.301610668837676e-01, 6.537131052082923e-02, 0.000000000000000e+00, 0.000000000000000e+00, 0.000000000000000e+00, 4.246196350172959e+03, 4.244236158345218e+03, 6.074129775758736e+01, 8.048319167550942e+03, 1.040167894769513e+03, -3.919340454006623e+02, 4.263959169876386e+03
2110, 1.252129602629073e-01, 1.367812693496091e-01, 4.258808782251518e-02, 0.000000000000000e+00, 0.000000000000000e+00, 0.000000000000000e+00, 5.021266849214989e+03, 4.534160074339148e+03, -9.646066252289036e+01, 8.164972915723756e+03, -1.260512703999641e+03, 4.350885773886226e+02, 4.124800405540534e+03
2111, 1.066515845360249e-01, 1.350449590303839e-01, 3.587999785779306e-02, 0.000000000000000e+00, 0.000000000000000e+00, 0.000000000000000e+00, 3.676163608092514e+03, 3.429758628236426e+03, -6.776498166377672e+01, 6.110535687965232e+03, -8.589938797045885e+02, 2.971932859802453e+02, 3.013151758987533e+03
2112, 1.042695753404597e+00, 1.406275587131171e+00, 2.331822977959529e-02, 0.000000000000000e+00, 0.000000000000000e+00, 0.000000000000000e+00, 5.401634066962664e+02, 3.791795453339883e+02, -1.244598969033662e+01, 5.866912782641116e+02, 2.514902791821895e+02, -1.226308209925368e+02, 5.204734644505294e+02
2113, 3.986388744170335e-01, 1.865844471428489e-01, 7.365407679064287e-02, 0.000000000000000e+00, 0.000000000000000e+00, 0.000000000000000e+00, 3.970070624676890e+03, 3.933535407241096e+03, 1.730932109667447e+01, 7.456544230608254e+03, 9.175566252643740e+02, -4.810724202379695e+02, 3.937655830348428e+03
2114, 9.325964483049134e-01, 5.915466370616598e-01, 2.692858059406014e-02, 0.000000000000000e+00, 0.000000000000000e+00, 0.000000000000000e+00, -1.074670268476761e+03, -1.170865145878410e+03, -8.072175466173572e+01, -2.100947446255420e+03, 2.164546723669021e+02, -1.376523125545026e+02, 1.086612189707683e+03
2115, 8.490650118164559e-01, 1.550554140690808e+00, 2.923559450660068e-02, 0.000000000000000e+00, 0.000000000000000e+00, 0.000000000000000e+00, 6.952143044087435e+03, 7.713762362024343e+03, 6.240231743863677e+02, 1.339791063088065e+04, -2.346395824559020e+02, -1.180148327564891e+03, 6.536848999940032e+03
2116, 8.288561783571052e-01, 1.552381851446418e+00, 2.585175328786074e-02, 0.000000000000000e+00, 0.000000000000000e+00, 0.000000000000000e+00, 7.827574535928587e+03, 8.077657509523333e+03, 1.330412345286422e+02, 1.449996507717817e+04, -2.955249148991511e+02, -1.244160873199015e+03, 6.919075041689381e+03
2117, 8.684031109589219e-01, 1.550931302619248e+00, 3.124865500472128e-02, 0.000000000000000e+00, 0.000000000000000e+00, 0.000000000000000e+00, 7.685339714255135e+03, 8.429806829310171e+03, 5.315452350491755e+02, 1.582150161950990e+04, 2.399633820634420e+02, -2.247793811009676e+03, 8.767688189485083e+03
2118, 8.792224085940819e-01, 1.535219398842093e+00, 3.284876899473705e-02, 0.000000000000000e+00, 0.000000000000000e+00, 0.000000000000000e+00, 5.926238288512119e+03, 6.469517107109961e+03, 5.975655802254064e+01, 1.131049227967485e+04, 9.415502292080531e+02, -2.648881145805030e+03, 7.076734330437220e+03
2119, 8.882099805597052e-01, 1.552892361805905e+00, 3.242822934627242e-02, 0.000000000000000e+00, 0.000000000000000e+00, 0.000000000000000e+00, 7.250820183445057e+03, 7.218444393845717e+03, 2.324393052578202e+02, 1.352225182894749e+04, 1.345361110795513e+03, -2.084946527860414e+03, 7.626796532406224e+03
2120, 8.988335049278638e-01, 1.536339237706033e+00, 3.346890259288238e-02, 0.000000000000000e+00, 0.000000000000000e+00, 0.000000000000000e+00, 4.324059701732586e+03, 4.664423878225621e+03, 1.198681968441246e+00, 7.867902699145719e+03, 1.381778981269435e+03, -1.973356074739375e+03, 5.373901759652897e+03
2121, 9.078838139763593e-01, 1.553307220483521e+00, 3.300764724762757e-02, 0.000000000000000e+00, 0.000000000000000e+00, 0.000000000000000e+00, 3.922786338639856e+03, 4.385533043393390e+03, -4.315072289229802e+01, 8.630200992200536e+03, 1.467338058433656e+03, -2.205799780231994e+03, 6.423163824294912e+03
2122, 9.184641455433433e-01, 1.537228871122463e+00, 3.351383276918677e-02, 0.000000000000000e+00, 0.000000000000000e+00, 0.000000000000000e+00, 4.024168166139025e+03, 4.278265893551046e+03, -4.696746043227519e+02, 6.370674851931030e+03, 1.219369058249577e+03, -1.451454094602495e+03, 4.051782278704928e+03
2123, 9.070043029777888e-01, 5.041193049453374e-01, 2.944335432297911e-02, 0.000000000000000e+00, 0.000000000000000e+00, 0.000000000000000e+00, -9.845489657002681e+02, -9.322629905195233e+02, -6.620182342403442e-01, -2.351788408858972e+03, 5.522948484494094e+02, -4.342524347431205e+01, 1.692427940772889e+03
2124, 8.756562054363832e-01, 3.300343632527163e-01, 3.134533643905427e-02, 0.000000000000000e+00, 0.000000000000000e+00, 0.000000000000000e+00, -8.116913101935493e+02, -1.053910505410004e+03, 6.648297871198928e+01, -2.148046493797728e+03, 3.972413136094894e+02, -9.654795520255617e+01, 1.426692294866816e+03
2125, 8.665792752924570e-01, 3.123189222326779e-01, 3.246442410670155e-02, 0.000000000000000e+00, 0.000000000000000e+00, 0.000000000000000e+00, -9.043648703836634e+02, -1.059800985665247e+03, -1.714721762449950e+01, -2.089588587672760e+03, 5.070362391478556e+02, -9.893620884840638e+01, 1.430452208398336e+03
2126, 8.469687214674755e-01, 3.113679097906571e-01, 3.546221455377583e-02, 0.000000000000000e+00, 0.000000000000000e+00, 0.000000000000000e+00, -6.284673338038864e+02, -6.805253025671805e+02, -1.091650742376027e+01, -1.430700656249593e+03, 5.069408695345731e+02, -1.254513465628537e+02, 1.192922657003794e+03
2127, 9.885430849048131e-01, 6.631585137646496e-01, 1.896970027605771e-02, 0.000000000000000e+00, 0.000000000000000e+00, 0.000000000000000e+00, -1.700670606761998e+03, -2.081799733242328e+03, 5.263329116394522e+01, -4.135633033228110e+03, -6.547700202595258e+02, -2.186590809697495e+02, 2.565966452649328e+03
2128, 9.689835773255251e-01, 6.621719924117833e-01, 2.228972116728677e-02, 0.000000000000000e+00, 0.000000000000000e+00, 0.000000000000000e+00, -2.291883859519915e+03, -2.400901555833711e+03, -1.025649361678494e+02, -4.588913387191855e+03, 1.039683290450935e+03, 4.888249785117379e+02, 3.004836926059013e+03
2129, 9.584074047016905e-01, 6.789034843275799e-01, 2.435250592075833e-02, 0.000000000000000e+00, 0.000000000000000e+00, 0.000000000000000e+00, -1.239103914976642e+03, -1.368411479412699e+03, -4.882328648750327e+01, -2.745154729986722e+03, 5.495031302402861e+02, -8.844764555321511e+01, 1.739726101764494e+03
2130, 1.018468432385231e+00, 6.475797656952769e-01, 1.325891384383006e-02, 0.000000000000000e+00, 0.000000000000000e+00, 0.000000000000000e+00, -5.958478324571210e+03, -5.372098810477446e+03, 2.975392497492451e+02, -1.188965471774320e+04, 2.610306525542650e+03, -8.597789096036331e+02, 7.869241594994742e+03
2131, 8.935564824209292e-01, 3.654985819991286e-01, 2.912155005699677e-02, 0.000000000000000e+00, 0.000000000000000e+00, 0.000000000000000e+00, -9.369026616246933e+02, -1.198560114655868e+03, -6.805723574880344e+01, -2.525306387889474e+03, 2.775843327451727e+02, -9.828928818162446e+01, 1.565218913386474e+03
2132, 1.007785007338706e+00, 4.400265572034740e-01, 1.052641386320199e-02, 0.000000000000000e+00, 0.000000000000000e+00, 0.000000000000000e+00, 1.346626904027792e+01, -4.808550368955574e+02, 3.479706532421208e+01, -3.286133042946215e+02, 7.228323091713065e+00, -1.643050096589723e+02, 5.263577000453281e+02
2133, 8.798912578539093e-01, 4.510110210915322e-01, 3.274038314671451e-02, 0.000000000000000e+00, 0.000000000000000e+00, 0.000000000000000e+00, -8.734219785173217e+02, -1.125414252517604e+03, 7.470194062627331e-01, -1.872677010979261e+03, 2.881359962639177e+02, -4.410432956951144e+00, 1.029239168036088e+03
2134, 9.054722802022726e-01, 5.385030813959755e-01, 3.027042480863617e-02, 0.000000000000000e+00, 0.000000000000000e+00, 0.000000000000000e+00, -3.844921540697986e+02, -5.537134431239424e+02, -6.659645163604150e+00, -1.210956083365693e+03, 3.896264205267322e+02, -2.060660065800623e+02, 1.074603216152944e+03
2135, 9.310789892149938e-01, 6.259381130367250e-01, 2.777549158488825e-02, 0.000000000000000e+00, 0.000000000000000e+00, 0.000000000000000e+00, -7.760803870243974e+02, -7.988965129151572e+02, 3.407457288461524e+01, -1.645122820111008e+03, 6.273705868324178e+02, -2.755534006982493e+02, 1.465599182476681e+03
2136, 2.467843063029744e-01, 2.306155522712751e-01, 5.945407389646284e-02, 0.000000000000000e+00, 0.000000000000000e+00, 0.000000000000000e+00, 5.604562709777178e+03, 5.742418518808908e+03, 1.809811372938021e+02, 1.127585526107053e+04, 2.640170753577552e+02, -2.836627086796796e+02, 5.652390110813429e+03
2137, 2.572670426217550e-01, 2.142519210270915e-01, 6.261080908932956e-02, 0.000000000000000e+00, 0.000000000000000e+00, 0.000000000000000e+00, 5.332471215509027e+03, 5.534385693575970e+03, 1.516072437458245e+02, 1.085610294911406e+04, 4.351816507722252e+02, -3.221774536327604e+02, 5.512211369122171e+03
2138, 1.064048863608768e+00, 1.373306670506825e+00, 1.980533610802264e-02, 0.000000000000000e+00, 0.000000000000000e+00, 0.000000000000000e+00, -1.055337463319463e+03, -1.239041914646605e+03, 1.403814461882353e+01, -2.685241879303861e+03, 7.758949018632503e+02, 8.344263267984016e+01, 2.053882410898818e+03
2139, 1.044314128649134e+00, 1.372068906506391e+00, 2.264506134527620e-02, 0.000000000000000e+00, 0.000000000000000e+00, 0.000000000000000e+00, 3.066522505842238e+02, 2.819109733826205e+02, -7.359515703994867e+01, 1.541359776044384e+02, 4.021809089177950e+02, -1.598684285622983e+02, 7.734796908772938e+02
2140, 3.452089184465182e-01, 4.590349793641679e-01, 5.328992631958980e-02, 0.000000000000000e+00, 0.000000000000000e+00, 0.000000000000000e+00, 5.734156059233103e+03, 6.063215640513818e+03, 1.311389386300090e+02, 1.195399028058956e+04, 3.104722381592775e+02, 2.042701522974662e+00, 6.090049730358606e+03
2141, 1.103875303464854e+00, 1.375522299305237e+00, 1.347460190218691e-02, 0.000000000000000e+00, 0.000000000000000e+00, 0.000000000000000e+00, -1.797712755390705e+03, -1.633758957867720e+03, 1.094206300166487e+02, -3.547912656388275e+03, 3.447641307593569e+02, -5.929380555003518e+02, 2.196420864666678e+03
2142, 1.123043959497480e+00, 1.376510423722598e+00, 1.013560113056811e-02, 0.000000000000000e+00, 0.000000000000000e+00, 0.000000000000000e+00, -1.535520502268521e+03, -1.721864952910985e+03, -2.660604029345928e+02, -3.848520199201544e+03, 6.383341238692090e+02, 8.427142753851231e+02, 2.918724896143299e+03
2143, 8.674136197399183e-01, 1.363747725274535e+00, 3.843309700458190e-02, 0.000000000000000e+00, 0.000000000000000e+00, 0.000000000000000e+00, 3.280621918942853e+03, 3.256278562949569e+03, -4.209621389186030e+01, 5.846194757695604e+03, 9.666917222945525e+02, -6.200199780797490e+02, 3.256882020284413e+03
2144, 1.073529904760394e+00, 9.441863426619714e-01, 9.662425724472902e-03, 0.000000000000000e+00, 0.000000000000000e+00, 0.000000000000000e+00, -4.058316779650904e+03, -5.220386201331705e+03, -4.190595953956264e+01, -1.151717932549508e+04, -3.135302145445684e+03, 4.099639947347126e+02, 8.849698193867242e+03
2145, 1.117526335365898e+00, 1.290173327266241e+00, 9.252121598070137e-03, 0.000000000000000e+00, 0.000000000000000e+00, 0.000000000000000e+00, -4.988376746470069e+03, -5.613132072240237e+03, 1.307857491340416e+01, -1.075659765775723e+04, -1.848929053893739e+03, 2.483060543711032e+03, 7.668889296469809e+03
2146, 1.144497607569819e+00, 1.531328707512011e+00, 9.596894800522109e-03, 0.000000000000000e+00, 0.000000000000000e+00, 0.000000000000000e+00, -2.848278783910048e+03, -2.875153044253329e+03, 1.443456306391010e+02, -5.482083894542683e+03, 1.039610681962254e+03, -8.374413765863527e+02, 3.503665551031860e+03
2147, 7.888756244274251e-01, 1.136149682732777e+00, 4.507009616224279e-02, 0.000000000000000e+00, 0.000000000000000e+00, 0.000000000000000e+00, 3.273821229966022e+03, 3.221676991445334e+03, -6.433223611174070e+01, 6.051015402268704e+03, 9.534553965728655e+02, -4.205528375863547e+02, 3.336252796896343e+03
2148, 7.995122491193972e-01, 1.119572029060886e+00, 4.496647319461113e-02, 0.000000000000000e+00, 0.000000000000000e+00, 0.000000000000000e+00, 3.262074481540985e+03, 3.087111903145962e+03, -9.426955570118942e+01, 5.605162469695367e+03, 8.005450192483610e+02, -3.107719358022899e+02, 2.858258343652506e+03
2149, 8.221611982023762e-01, 1.275417823161681e+00, 4.128394097708714e-02, 0.000000000000000e+00, 0.000000000000000e+00, 0.000000000000000e+00, 3.440863861242536e+03, 3.463853922390203e+03, 2.511682914645782e+01, 6.354525125692996e+03, 9.803131722665279e+02, -2.500069355118431e+02, 3.390488161331093e+03
2150, 2.462729204015559e-01, 4.271220168826192e-02, 7.400509156476903e-02, 0.000000000000000e+00, 0.000000000000000e+00, 0.000000000000000e+00, 3.202524298410930e+03, 3.400523466557472e+03, 5.465928867991197e+01, 6.276519590749660e+03, 2.351194661927613e+02, -1.046532783586156e+03, 3.512904954900573e+03
2151, 1.243575226745676e-01, 2.039313999819012e-01, 2.793413259423195e-02, 0.000000000000000e+00, 0.000000000000000e+00, 0.000000000000000e+00, 3.271523110877094e+03, 2.878384116225930e+03, 2.288704648263142e+01, 5.432193012399219e+03, -8.606580515438957e+02, 3.983782153345080e+02, 2.893506555794857e+03
2152, 6.912548811137380e-01, 1.096995145101942e+00, 4.486489410949349e-02, 0.000000000000000e+00, 0.000000000000000e+00, 0.000000000000000e+00, 5.257053580675285e+03, 5.330349429427288e+03, 2.050357668983319e+02, 1.034710186100083e+04, 8.433051095405536e+02, -1.598204548977692e+02, 5.279878940132981e+03
2153, 6.821095682489537e-01, 1.079306054009807e+00, 4.524050560618488e-02, 0.000000000000000e+00, 0.000000000000000e+00, 0.000000000000000e+00, 4.932572035678659e+03, 4.918262198702603e+03, 2.591629053261601e+02, 9.859015372994581e+03, 1.043303598874383e+03, -4.294647000793221e+02, 5.325486695772901e+03
2154, 4.053764006052668e-01, 5.009943486333657e-02, 7.696919460597759e-02, 0.000000000000000e+00, 0.000000000000000e+00, 0.000000000000000e+00, 2.467563539751667e+03, 2.410303435392035e+03, -1.535885612756754e+01, 4.536037595596036e+03, 4.836336182815477e+02, -7.836382070009449e+02, 2.635333624335121e+03
2155, 3.856498482953194e-01, 4.897730904981703e-02, 7.747276220330833e-02, 0.000000000000000e+00, 0.000000000000000e+00, 0.000000000000000e+00, 2.631509044698453e+03, 2.589628638692559e+03, -1.672211906632988e+01, 4.814078765832374e+03, 5.038807806823636e+02, -8.466349919059392e+02, 2.787412833050605e+03
2156, 1.873507821463186e-01, 4.058315996681136e-02, 6.792188392489153e-02, 0.000000000000000e+00, 0.000000000000000e+00, 0.000000000000000e+00, 3.456196352023416e+03, 3.519051481735639e+03, 1.053488163789553e+02, 6.865774299584101e+03, -4.207429159436294e+01, -1.053192559379620e+03, 3.844621261247983e+03
2157, 1.037106049644122e+00, 6.489613615467431e-01, 9.774402542313963e-03, 0.000000000000000e+00, 0.000000000000000e+00, 0.000000000000000e+00, -7.339088889093818e+03, -7.595310726412534e+03, 5.515690701710294e+02, -1.606609150406440e+04, -1.993641878647458e+03, -3.301791804667956e+03, 1.093307697447730e+04
2158, 9.270345218393166e-01, 1.553289380293684e+00, 3.300430140632914e-02, 0.000000000000000e+00, 0.000000000000000e+00, 0.000000000000000e+00, 4.791115538393548e+03, 4.325942114110273e+03, -2.898178977485055e+02, 6.926138390203327e+03, 1.601050996341446e+03, -1.713962028209713e+03, 4.745833794599949e+03
2159, 9.381273796342497e-01, 1.537982092120638e+00, 3.303200066511944e-02, 0.000000000000000e+00, 0.000000000000000e+00, 0.000000000000000e+00, 2.818285809696277e+03, 3.042162609817942e+03, -3.416230490453307e+01, 4.758047334234880e+03, 1.097041880900221e+03, -8.170200102836717e+02, 2.999182711471321e+03
2160, 9.471449917333784e-01, 1.554566672568709e+00, 3.242400900235462e-02, 0.000000000000000e+00, 0.000000000000000e+00, 0.000000000000000e+00, 2.650396883316604e+03, 2.865184641724205e+03, -3.566270128251036e+01, 4.883738684229825e+03, 9.755426770421092e+02, -1.438226773416133e+03, 3.690340050182993e+03
2161, 9.291023615052140e-01, 1.520731945947975e+00, 3.364079904976641e-02, 0.000000000000000e+00, 0.000000000000000e+00, 0.000000000000000e+00, 2.845394027730117e+03, 2.846850774954023e+03, -7.772283927651490e+01, 5.326220841137932e+03, 8.265438946582796e+02, -8.633035393950579e+02, 3.233328906047847e+03
2162, 1.102250549451343e+00, 1.186229087981603e+00, 9.761955065567686e-03, 0.000000000000000e+00, 0.000000000000000e+00, 0.000000000000000e+00, -8.123867952492887e+03, -7.351826501879784e+03, -5.111478634459167e+02, -1.307713002844776e+04, 3.042798911236890e+03, 4.462149505876814e+02, 7.623122210545868e+03
2163, 1.092109001051547e+00, 1.202864450627552e+00, 1.197277049800322e-02, 0.000000000000000e+00, 0.000000000000000e+00, 0.000000000000000e+00, -6.571196640744225e+02, -5.573112431090883e+02, 1.086280111715302e+02, -5.268116353280350e+02, 3.737254145815028e+02, -1.741431563667156e+02, 7.478808543723808e+02
2164, 1.058432825802542e+00, 8.387369303907362e-01, 1.010109020514860e-02, 0.000000000000000e+00, 0.000000000000000e+00, 0.000000000000000e+00, 3.708980393891255e+02, -3.034104369068380e+01, 1.993129819036089e+02, 1.142662874566824e+02, -2.904455728673594e+01, 3.960073122491738e+02, 8.462003877985516e+02
2165, 1.042693677237202e+00, 7.341755303634772e-01, 1.068159487096712e-02, 0.000000000000000e+00, 0.000000000000000e+00, 0.000000000000000e+00, -4.742157839101311e+03, -5.049916937886096e+03, -3.415968581426752e+02, -9.428849481717518e+03, 8.665545990274819e+02, 1.825538151453710e+03, 5.763506459321846e+03
2166, 1.088409292527484e+00, 1.047714300268835e+00, 9.220654245750096e-03, 0.000000000000000e+00, 0.000000000000000e+00, 0.000000000000000e+00, -5.719569452907785e+03, -5.597259164656391e+03, -4.246559511346759e+01, -1.133137690484195e+04, 1.723496302063028e+03, 4.951058367214401e+02, 6.468836242315930e+03
2167, 9.777864582719676e-01, 1.972614486110097e-01, 1.061227119297782e-02, 0.000000000000000e+00, 0.000000000000000e+00, 0.000000000000000e+00, -9.237784241325362e+01, -4.635044946556605e+02, -3.909840454364696e+02, -3.403257300969444e+02, 4.230550778678412e+02, -1.767425577656838e+02, 1.093818650777359e+03
2168, 1.146142970887488e+00, 1.497164183301877e+00, 8.564983053978400e-03, 0.000000000000000e+00, 0.000000000000000e+00, 0.000000000000000e+00, -1.989004999909617e+03, -2.319257688529472e+03, 9.589153519021579e+01, -5.007545335710700e+03, 5.547514982105876e+02, -8.292707963212415e+02, 3.352264149847212e+03
2169, 3.065288753321279e-01, 4.533342353741632e-02, 7.713958699405002e-02, 0.000000000000000e+00, 0.000000000000000e+00, 0.000000000000000e+00, 2.964081138356362e+03, 2.928081287068634e+03, 5.017413020912625e+01, 5.726373459384882e+03, 4.099302997747449e+02, -9.385522657301619e+02, 3.299290668832431e+03
2170, 1.060750263251212e+00, 8.047015872717970e-01, 8.870209512088986e-03, 0.000000000000000e+00, 0.000000000000000e+00, 0.000000000000000e+00, -6.703579284367001e+03, -7.060308363595360e+03, 1.038651061253406e+02, -1.395449107356501e+04, -2.461997017232096e+03, -7.924224859538631e-01, 8.266378894519761e+03
2171, 9.943976457754330e-01, 3.014913557290679e-01, 9.852678224558271e-03, 0.000000000000000e+00, 0.000000000000000e+00, 0.000000000000000e+00, -6.491167891676144e+03, -7.219843065942872e+03, 4.172412118434355e+01, -1.291608903149446e+04, -1.085325305444203e+03, 2.568227267924767e+03, 7.775299884453671e+03
2172, 9.853937457418744e-01, 2.837668103090370e-01, 1.117757630492213e-02, 0.000000000000000e+00, 0.000000000000000e+00, 0.000000000000000e+00, -5.655411761571596e+03, -6.670089465786044e+03, 1.511363887671461e+02, -1.246322080122082e+04, -5.096180278092137e+02, -2.563209152166355e+03, 7.811906580135176e+03
2173, 1.156154031228537e+00, 1.484114841969826e+00, 6.408978806813685e-03, 0.000000000000000e+00, 0.000000000000000e+00, 0.000000000000000e+00, -4.029918057182909e+03, -4.792808368099055e+03, 2.710372516072429e+02, -1.011452489159324e+04, -1.162128711166254e+03, -1.957448698009891e+02, 6.111424998928182e+03
2174, 6.131573248766254e-01, 4.409521520658437e-02, 6.234830902509074e-02, 0.000000000000000e+00, 0.000000000000000e+00, 0.000000000000000e+00, 1.263674088887325e+03, 1.214907262436819e+03, -5.150772743334112e+01, 2.177515278863582e+03, 3.137628314434184e+02, -2.995259017060265e+02, 1.206025222412372e+03
2175, 6.327708748342027e-01, 4.357437944546627e-02, 6.024849744359051e-02, 0.000000000000000e+00, 0.000000000000000e+00, 0.000000000000000e+00, 1.082154233523534e+03, 1.065243428201650e+03, -6.338552752518413e+01, 1.842064501298402e+03, 3.547519272780041e+02, -2.816081386781931e+02, 1.103680062942812e+03
2176, 9.176458376711790e-01, 3.974450620172298e-02, 1.836399768729166e-02, 0.000000000000000e+00, 0.000000000000000e+00, 0.000000000000000e+00, -2.002919636919717e+03, -1.856771432147700e+03, 1.747232426132452e+01, -3.824754206353280e+03, 8.136240716666642e+02, -3.926826274165401e+02, 2.460927776634546e+03
2177, 1.068834651666186e+00, 7.893487133748066e-01, 6.935831142772787e-03, 0.000000000000000e+00, 0.000000000000000e+00, 0.000000000000000e+00, 2.737051237833945e+02, 8.032552261374215e+01, -6.828545643840097e+01, 3.276287434328354e+02, 1.362304843705551e+02, -1.202953140876426e+02, 4.047332307074729e+02
2178, 9.868360422684309e-01, 1.557606913986140e+00, 3.011510591234999e-02, 0.000000000000000e+00, 0.000000000000000e+00, 0.000000000000000e+00, 3.754959916835105e+03, 3.566660038549074e+03, -3.319887512215856e+02, 5.574917564256602e+03, 7.640528718440114e+02, -5.830058039695296e+02, 2.606159579569994e+03
2179, 5.737666730346833e-01, 4.062045654001846e-02, 6.622110291690531e-02, 0.000000000000000e+00, 0.000000000000000e+00, 0.000000000000000e+00, 1.316330453639708e+03, 1.283497617847827e+03, -8.243197680424724e+01, 2.141017254314833e+03, 3.532533770184608e+02, -3.990377059853805e+02, 1.257261043116680e+03
2180, 9.168015112658365e-01, 1.571306434851784e+00, 3.249980097512163e-02, 0.000000000000000e+00, 0.000000000000000e+00, 0.000000000000000e+00, 4.415393235321253e+03, 3.821740324110592e+03, 2.146256130373484e+02, 7.719101611896661e+03, 1.526615616632911e+03, -1.556767149889300e+03, 5.256291370640448e+03
2181, 1.113798207379510e+00, 1.205467008990604e+00, 8.034164137704617e-03, 0.000000000000000e+00, 0.000000000000000e+00, 0.000000000000000e+00, -3.162340996126408e+03, -3.863866453588908e+03, 2.183340668191000e+02, -8.142427840964615e+03, 2.735331723165561e+02, -1.410350786040592e+03, 5.304194920051521e+03
2182, 1.015867139663544e+00, 4.570734905141643e-01, 9.365111801671069e-03, 0.000000000000000e+00, 0.000000000000000e+00, 0.000000000000000e+00, -5.140783163049018e+03, -5.461557856020824e+03, -2.814178123621068e+02, -1.067077648477611e+04, -6.570424890690186e+02, 1.701533332055092e+03, 6.255253002480220e+03
2183, 1.006347805642174e+00, 4.742111494289617e-01, 1.159618193836717e-02, 0.000000000000000e+00, 0.000000000000000e+00, 0.000000000000000e+00, -9.351386631475902e+03, -9.324156971244332e+03, -5.147849113908643e+01, -1.819240289333250e+04, 2.027283545354940e+03, -8.349625889498843e+02, 9.635046510811952e+03
2184, 1.026229544294417e+00, 4.755975059908449e-01, 7.780404953320491e-03, 0.000000000000000e+00, 0.000000000000000e+00, 0.000000000000000e+00, -3.914589639076732e+03, -4.427159816639395e+03, -7.149940964436399e+01, -8.778535022097301e+03, -1.307624201462532e+03, 1.350336163920109e+02, 5.160160987165182e+03
2185, 1.015036899241995e+00, 4.923882666500508e-01, 1.035652650800569e-02, 0.000000000000000e+00, 0.000000000000000e+00, 0.000000000000000e+00, -2.194622661280144e+03, -2.409119668191362e+03, -1.243217631930810e+02, -4.392082055083676e+03, 4.449264135678511e+02, -9.479697576747708e+02, 2.782027051969249e+03
2186, 6.232188569990085e-01, 2.605684863178459e-02, 6.118205726218135e-02, 0.000000000000000e+00, 0.000000000000000e+00, 0.000000000000000e+00, 8.935386551371035e+02, 9.137827079794606e+02, -5.745239137933178e+01, 1.514677175291409e+03, 2.484036294238238e+02, -2.756552755982351e+02, 8.925365179780325e+02
2187, 9.021323184527576e-02, 3.214230875541498e-02, 4.908826765879275e-02, 0.000000000000000e+00, 0.000000000000000e+00, 0.000000000000000e+00, 2.960045894534265e+03, 2.515884003023452e+03, 1.166932564505941e+02, 4.753415165291614e+03, -9.117184143477828e+02, -4.792402998401424e+02, 2.726454943530593e+03
2188, 7.988955406182481e-01, 1.531427692356808e+00, 2.151244574706453e-02, 0.000000000000000e+00, 0.000000000000000e+00, 0.000000000000000e+00, 5.682715283320131e+03, 5.414993238325376e+03, 3.858174597720346e+02, 9.924619213411615e+03, 1.267975078259546e+02, 8.614606960522622e+02, 4.682116721487530e+03
2189, 2.241964157094444e-02, 2.097924585401826e-02, 1.816087472393930e-02, 0.000000000000000e+00, 0.000000000000000e+00, 0.000000000000000e+00, 6.166947555325992e+02, 3.714736426289031e+02, 9.598648891553889e+01, 3.503814093061916e+02, -1.186721420618254e+02, -5.177716278152310e+01, 3.790548921647424e+02
2190, 1.026096834919905e+00, 1.561044997949906e+00, 2.665782339893198e-02, 0.000000000000000e+00, 0.000000000000000e+00, 0.000000000000000e+00, 1.500452601243300e+03, 1.236576315926474e+03, -8.332095630981242e+01, 2.034244780741029e+03, 4.134430364006544e+02, -3.580810744026346e+02, 1.188999002591817e+03
2191, 1.045586859166424e+00, 1.561032254747101e+00, 2.454929536687740e-02, 0.000000000000000e+00, 0.000000000000000e+00, 0.000000000000000e+00, 2.473959464427798e+03, 2.524261200550720e+03, -1.057309217136183e+02, 4.490863913012633e+03, -8.880649770684414e+01, 4.042833260380271e+02, 2.125208675090902e+03
2192, 1.104753212964631e+00, 1.150603649311646e+00, 8.487647049471157e-03, 0.000000000000000e+00, 0.000000000000000e+00, 0.000000000000000e+00, -3.075820320716256e+03, -4.097223359462218e+03, 1.071781978814028e+02, -8.303702156236601e+03, -7.004716181668663e+02, 1.306021209094833e+03, 5.445893445377864e+03
2193, 1.041988129949019e+00, 6.151727681620078e-01, 8.031264850084074e-03, 0.000000000000000e+00, 0.000000000000000e+00, 0.000000000000000e+00, -2.624352771740743e+03, -3.462165527590547e+03, -1.822069626360960e+01, -7.128417825282498e+03, -1.268313853947741e+03, -2.818723828615962e+02, 4.720188689415991e+03
2194, 1.030845764773010e+00, 5.970855526611283e-01, 9.765104035533411e-03, 0.000000000000000e+00, 0.000000000000000e+00, 0.000000000000000e+00, -4.145224079992273e+03, -4.678575396275111e+03, -3.021323080663179e+02, -9.276648564290534e+03, -5.361197108667750e+02, 1.705883596079297e+03, 5.809076537584887e+03
2195, 1.009444331212585e+00, 4.056810229676785e-01, 9.396075194543030e-03, 0.000000000000000e+00, 0.000000000000000e+00, 0.000000000000000e+00, -4.268756392648453e+03, -4.464718389595848e+03, -4.681024751952073e+02, -7.643613294877691e+03, 1.217801206943795e+03, 1.295268741180304e+03, 4.572347206106374e+03
2196, 1.049972035878690e+00, 5.966694289618870e-01, 6.008649193886642e-03, 0.000000000000000e+00, 0.000000000000000e+00, 0.000000000000000e+00, 1.620976882657595e+02, 2.048618994490696e+02, 1.498054125972659e+02, 2.791654304686333e+02, -1.628234672585087e+02, 2.610620275002917e+02, 6.015371147157427e+02
2197, 7.831899253720690e-01, 1.495723800583615e+00, 2.250417047464353e-02, 0.000000000000000e+00, 0.000000000000000e+00, 0.000000000000000e+00, 3.240282858751777e+03, 3.489666201977337e+03, 1.756999815847338e+02, 5.895434484596676e+03, -1.447781249974824e+02, -1.697130090529984e+02, 2.586846091716058e+03
2198, 7.556695766042127e-01, 1.443913131904447e+00, 2.257639657072463e-02, 0.000000000000000e+00, 0.000000000000000e+00, 0.000000000000000e+00, 6.652234284008660e+03, 6.403280565004017e+03, -8.045911579161913e+01, 1.146163728171427e+04, -2.576780521037315e+02, 8.747126509792364e+02, 5.186871457816942e+03
2199, 9.833274447816581e-01, 1.616879642693197e-01, 8.679096990157077e-03, 0.000000000000000e+00, 0.000000000000000e+00, 0.000000000000000e+00, -3.841999923851926e+03, -4.828241983681443e+03, -2.056429188472123e+02, -8.778816042603570e+03, -6.660246513536844e+02, 1.197605474014163e+03, 5.122142251636526e+03
2200, 9.718058399299098e-01, 1.453461131029069e-01, 1.054511161135548e-02, 0.000000000000000e+00, 0.000000000000000e+00, 0.000000000000000e+00, 7.390721975551580e+01, -3.938374771469598e+02, 6.959145125142868e+01, -2.994650350945595e+02, 2.297504171027336e+02, -3.254551650673357e+02, 8.210949495284186e+02
2201, 9.523027730346090e-01, 1.443850601756007e-01, 1.426090801000249e-02, 0.000000000000000e+00, 0.000000000000000e+00, 0.000000000000000e+00, -6.119857226667039e+02, -5.981835939966062e+02, 6.675321579899031e+01, -9.996793230587190e+02, 2.580145476160116e+02, -1.220123700789254e+02, 6.431107017129854e+02
2202, 9.627855086964506e-01, 1.273284692383250e-01, 1.186629707622471e-02, 0.000000000000000e+00, 0.000000000000000e+00, 0.000000000000000e+00, -5.028147507741690e+03, -4.019002146739590e+03, 3.493179922578736e+02, -7.954440442085026e+03, 2.292011450485986e+03, -6.742348256865644e+02, 5.479453995059472e+03
2203, 7.357573473948285e-01, 1.409116031452521e+00, 2.214984685232124e-02, 0.000000000000000e+00, 0.000000000000000e+00, 0.000000000000000e+00, 3.206154106221931e+03, 3.116693053503398e+03, 1.969549776614266e+02, 5.612692831132842e+03, -7.089960676571643e+02, 1.255258559400612e+02, 2.772434613341323e+03
2204, 5.142094676888755e-01, 3.732178879272376e-02, 7.122235016945513e-02, 0.000000000000000e+00, 0.000000000000000e+00, 0.000000000000000e+00, 1.712712428070654e+03, 1.750128618506458e+03, -1.274461173382694e+02, 2.883187460745067e+03, 4.182975208521306e+02, -5.337664051198473e+02, 1.660115287782330e+03
2205, 7.176941415431468e-01, 1.373707426957349e+00, 2.237238879185315e-02, 0.000000000000000e+00, 0.000000000000000e+00, 0.000000000000000e+00, 3.600909247167172e+03, 3.245591520448354e+03, -1.291829538506741e+01, 5.929816022041520e+03, -8.692030489493621e+02, 4.731736954769175e+01, 2.941312391148377e+03
2206, 1.153713438124943e+00, 1.548798224672309e+00, 8.313300207872531e-03, 0.000000000000000e+00, 0.000000000000000e+00, 0.000000000000000e+00, -2.128258534771920e+03, -2.685789900966950e+03, -1.099646528355578e+02, -4.498445962214412e+03, 2.647777019931988e+02, 5.951759552382355e+02, 2.432381025468015e+03
2207, 6.996422914216522e-01, 1.338235556031272e+00, 2.259803137250047e-02, 0.000000000000000e+00, 0.000000000000000e+00, 0.000000000000000e+00, 4.384448978763466e+03, 4.154075116936601e+03, 3.335602770685607e+01, 7.783365962293048e+03, -8.381494279651058e+02, 1.146806542982489e+02, 3.813004934513218e+03
2208, 6.815879047216340e-01, 1.302802375228680e+00, 2.280421743175066e-02, 0.000000000000000e+00, 0.000000000000000e+00, 0.000000000000000e+00, 4.668335872355333e+03, 4.850453744107267e+03, -2.145500920309009e+02, 8.356748423273941e+03, -7.127539887008460e+02, 9.247765326999851e+02, 4.146518189826866e+03
2209, 6.641433636811594e-01, 1.267086485326244e+00, 2.326889733642402e-02, 0.000000000000000e+00, 0.000000000000000e+00, 0.000000000000000e+00, 4.104701009240925e+03, 3.949775713705956e+03, 7.185295097959252e+01, 7.401325893280533e+03, -7.542537391149333e+02, 5.610640985075991e+02, 3.750870762129236e+03
2210, 8.580565843492693e-01, 1.568334439162421e+00, 2.893206467608238e-02, 0.000000000000000e+00, 0.000000000000000e+00, 0.000000000000000e+00, 6.259838909394508e+03, 6.504789987705455e+03, -1.985913708742683e+02, 1.309139625683044e+04, -5.714477213516811e+01, -1.990350483261525e+03, 7.554427628525967e+03
2211, 6.460922425336222e-01, 1.231646455805310e+00, 2.346490483960962e-02, 0.000000000000000e+00, 0.000000000000000e+00, 0.000000000000000e+00, 3.406351748345200e+03, 3.483080435308855e+03, -2.171364342482401e+01, 5.834241411675169e+03, -4.104144632514947e+02, 1.220010322761803e+02, 2.503124851110603e+03
2212, 7.783085552787824e-01, 1.532810198895529e+00, 1.367177183137221e-02, 0.000000000000000e+00, 0.000000000000000e+00, 0.000000000000000e+00, 3.313932050471994e+03, 3.454670420261211e+03, 8.832793738974334e+02, 7.899905260136326e+03, -1.314383725009521e+03, 1.467368506719810e+03, 5.864162963746124e+03
2213, 8.073405409331439e-01, 1.551014939487491e+00, 2.091550861425508e-02, 0.000000000000000e+00, 0.000000000000000e+00, 0.000000000000000e+00, 4.621145198156779e+03, 5.255311411660005e+03, 3.362508329367137e+02, 8.482981265237935e+03, -8.664191506717842e+02, -1.143726063977406e+03, 4.402552313112807e+03
2214, 6.271114394350216e-01, 1.195671544018854e+00, 2.342173995911389e-02, 0.000000000000000e+00, 0.000000000000000e+00, 0.000000000000000e+00, 2.784669230694133e+03, 2.581616575847978e+03, 2.211495847521539e+02, 6.433754570600553e+03, -1.202638736355741e+03, 1.609290169970762e+02, 4.319889618633941e+03
2215, 6.195524217078002e-01, 1.177688004654555e+00, 2.409695846206455e-02, 0.000000000000000e+00, 0.000000000000000e+00, 0.000000000000000e+00, 1.994263096889236e+03, 2.169078865241677e+03, 2.015424213697356e+02, 4.421751063050853e+03, -5.974864029192610e+02, 3.407087403957154e+02, 2.653294290114517e+03
2216, 7.693731152321777e-01, 1.515145952404819e+00, 1.375161351130749e-02, 0.000000000000000e+00, 0.000000000000000e+00, 0.000000000000000e+00, 1.823707983333097e+03, 2.742429477250447e+03, 6.102288538704743e+02, 5.326533982287828e+03, -1.865663045666913e+03, -5.901573253255597e+02, 4.743396272265539e+03
2217, 7.702104150637394e-01, 1.479631836976757e+00, 2.120607102396268e-02, 0.000000000000000e+00, 0.000000000000000e+00, 0.000000000000000e+00, 4.983251701405808e+03, 4.643336788689957e+03, 1.727294144721165e+02, 9.469063057492103e+03, 4.953093957140367e+02, 6.749022634743799e+02, 4.894366106646622e+03
2218, 1.019943691860061e+00, 3.889567834903138e-01, 6.929033529664307e-03, 0.000000000000000e+00, 0.000000000000000e+00, 0.000000000000000e+00, 4.270717086702026e+02, 2.155048848381330e+02, 5.202958179330709e+01, 3.318260694230104e+02, 3.757922042229538e+02, 4.694390924965448e+01, 6.870758339648762e+02
2219, 5.305459364437001e-02, 2.902836059510735e-02, 3.639398058455456e-02, 0.000000000000000e+00, 0.000000000000000e+00, 0.000000000000000e+00, 1.530265755052118e+03, 9.807125629132056e+02, 1.206746963680583e+02, 1.805621561367701e+03, -6.484861867268958e+02, -2.697174357729557e+02, 1.432719382514818e+03
2220, 1.084598573242147e+00, 1.563258080731986e+00, 1.963444290585459e-02, 0.000000000000000e+00, 0.000000000000000e+00, 0.000000000000000e+00, 5.868756953468089e+02, 3.228401908303710e+02, -7.959452609355850e+01, 7.784406437572849e+02, -1.735990768660075e+01, -6.955111551012970e+02, 1.275973781256434e+03
2221, 1.129031912452369e+00, 1.237843807411973e+00, 5.863991034272858e-03, 0.000000000000000e+00, 0.000000000000000e+00, 0.000000000000000e+00, 6.896077515317923e+01, 2.932081858071458e+01, -5.366829894221476e+01, -4.171138796016926e+01, 1.204653729868284e+02, 9.522312062753652e+01, 2.980126161967302e+02
2222, 9.821731438858350e-01, 1.285003251691372e-01, 8.105400167144228e-03, 0.000000000000000e+00, 0.000000000000000e+00, 0.000000000000000e+00, -5.500075865069037e+03, -6.388923618108558e+03, 8.245629498816678e+02, -1.485051108553336e+04, 2.393494013768898e+02, -2.202238707484910e+03, 9.832126848324186e+03
2223, 9.739248422247038e-01, 1.101348065864731e-01, 9.290814256319557e-03, 0.000000000000000e+00, 0.000000000000000e+00, 0.000000000000000e+00, -4.490607582210675e+03, -5.155972607949004e+03, -7.361380108038531e+02, -9.755390443722445e+03, 1.228733846421661e+03, 1.844171672930743e+03, 6.404343244922553e+03
2224, 9.842420770394016e-01, 9.253548002096802e-02, 6.816434342054372e-03, 0.000000000000000e+00, 0.000000000000000e+00, 0.000000000000000e+00, -2.515400821180725e+01, -3.380696081152442e+02, 1.341618004248281e+02, -9.177467765020640e+01, 3.381862016505745e+01, 2.201675626004968e+02, 5.332526321263624e+02
2225, 9.645088996264656e-01, 9.281866705884313e-02, 1.071911444985123e-02, 0.000000000000000e+00, 0.000000000000000e+00, 0.000000000000000e+00, -4.588025762318581e+03, -5.351231134416852e+03, -1.204740985857073e+02, -8.435188900543128e+03, -9.387736863445239e+02, -1.853452103627172e+03, 5.043833394037786e+03
2226, 4.750239500152352e-01, 3.568106077133315e-02, 7.389563649818610e-02, 0.000000000000000e+00, 0.000000000000000e+00, 0.000000000000000e+00, 1.983332067500384e+03, 2.034350216927995e+03, -1.029417299634425e+02, 3.501236757149710e+03, 3.870970987445228e+02, -6.036758250721507e+02, 1.950331717005991e+03
2227, 7.334664395479288e-01, 1.443987082585706e+00, 1.406805359569075e-02, 0.000000000000000e+00, 0.000000000000000e+00, 0.000000000000000e+00, 2.098487079859728e+03, 2.484192782695021e+03, -1.083448761683001e+02, 5.363761156451397e+03, -9.617233620716836e+02, 9.750257667068905e+02, 3.900426374265490e+03
2228, 7.154363173856623e-01, 1.408575222266365e+00, 1.409885255743220e-02, 0.000000000000000e+00, 0.000000000000000e+00, 0.000000000000000e+00, 9.280727970900665e+02, 1.046112544483987e+03, 2.610893142711856e+02, 2.083078494811451e+03, -5.629936263213895e+02, 2.629836608166206e+02, 1.604526266665948e+03
2229, 9.094170096891503e-01, 1.966424874963177e-02, 1.942895359867180e-02, 0.000000000000000e+00, 0.000000000000000e+00, 0.000000000000000e+00, -1.550172654701784e+02, -2.503188641892987e+02, -7.787606385160112e+01, -3.961572339140500e+02, 9.009524877921697e+01, 1.485760963560305e+02, 3.911776186564932e+02
2230, 6.975414757743044e-01, 1.373075083609734e+00, 1.420840947334438e-02, 0.000000000000000e+00, 0.000000000000000e+00, 0.000000000000000e+00, 1.238903846476079e+03, 1.375710168656019e+03, 9.534521358733019e+01, 2.360678119651469e+03, -3.255068508868155e+02, 2.557785961598671e+02, 1.290361192481667e+03
2231, 6.796793666066406e-01, 1.337551895803549e+00, 1.432738931475732e-02, 0.000000000000000e+00, 0.000000000000000e+00, 0.000000000000000e+00, 1.612290294990874e+03, 1.423399674596455e+03, 1.743019481647942e+02, 2.481197654723588e+03, -8.453262585962334e+02, -1.107576885358234e+02, 1.796241317597470e+03
2232, 1.020083154858353e+00, 4.235789614739688e-01, 7.739514714367925e-03, 0.000000000000000e+00, 0.000000000000000e+00, 0.000000000000000e+00, -4.278363675768954e+03, -4.842649589106567e+03, 7.946415602606594e+02, -1.176125113238100e+04, -3.436271631059458e+02, -1.740396927483478e+03, 7.963986702813563e+03
2233, 6.618067222152494e-01, 1.302038930093436e+00, 1.441694102078775e-02, 0.000000000000000e+00, 0.000000000000000e+00, 0.000000000000000e+00, 1.538694710398386e+03, 1.601176487063928e+03, -1.722455058427350e+02, 2.803168371254210e+03, -6.519858692587341e+02, 4.333691662235071e+02, 1.857815872799130e+03
2234, 6.439794210774549e-01, 1.266496362276468e+00, 1.453477365600294e-02, 0.000000000000000e+00, 0.000000000000000e+00, 0.000000000000000e+00, 2.269787211176039e+03, 1.903513525484755e+03, -4.730051935676585e-01, 4.495267778183564e+03, -9.641671686802005e+02, 8.639743797539387e+02, 3.306095277206620e+03
2235, 1.055790673650436e+00, 6.828134519303068e-01, 6.942653353293944e-03, 0.000000000000000e+00, 0.000000000000000e+00, 0.000000000000000e+00, 1.374229314882532e+02, -5.746242415264598e+00, -2.552390495125223e+01, 9.952460002725005e+00, 1.683864643739523e+02, 8.701008766407706e+01, 3.580851445510932e+02
2236, 1.067565810689463e+00, 7.017887006916012e-01, 5.062835247558133e-03, 0.000000000000000e+00, 0.000000000000000e+00, 0.000000000000000e+00, 4.426117654355913e+02, 1.435531136363163e+02, -3.594523334791861e+00, -4.774126599374970e+01, 3.710749834723096e+02, 5.246324207642877e+01, 7.775755418873755e+02
2237, 6.261211609595491e-01, 1.230973167726995e+00, 1.460495882638876e-02, 0.000000000000000e+00, 0.000000000000000e+00, 0.000000000000000e+00, 1.241825393567866e+03, 1.871147912130864e+03, 3.906479971574048e+02, 3.086220159942111e+03, -7.212864071582759e+02, 1.687238467313897e+00, 2.157708989605462e+03
2238, 6.092531298425493e-01, 1.195651278312520e+00, 1.538921364971777e-02, 0.000000000000000e+00, 0.000000000000000e+00, 0.000000000000000e+00, 1.406778440446775e+03, 1.477061088190077e+03, 2.727299730398117e+02, 2.979514135813415e+03, -7.931054155475448e+02, -3.211503527663875e+01, 2.116881865091037e+03
2239, 9.709390140679286e-01, 1.838015043603961e-02, 7.661586650873404e-03, 0.000000000000000e+00, 0.000000000000000e+00, 0.000000000000000e+00, -2.397185519760986e+03, -2.851349682129038e+03, -4.286704497946303e+01, -5.658547006345285e+03, -6.246764635206789e+01, 9.283416597751157e+02, 3.458933998763348e+03
2240, 5.233652335789364e-01, 1.917711815556655e-02, 7.057415589867518e-02, 0.000000000000000e+00, 0.000000000000000e+00, 0.000000000000000e+00, 8.414424952112067e+02, 9.706088625481661e+02, -7.612748315105756e+01, 1.340927813392964e+03, 1.673970475167833e+02, -2.924948140072375e+02, 7.481737590497358e+02
2241, 1.683138185576658e-01, 3.824993133257262e-02, 6.533883818236146e-02, 0.000000000000000e+00, 0.000000000000000e+00, 0.000000000000000e+00, 3.447482647236824e+03, 3.449039868546015e+03, 1.643435355138983e+02, 6.563114559414978e+03, -2.558382241593605e+02, -9.765546438796335e+02, 3.583388872280424e+03
2242, 1.573726483237041e-01, 5.421687561932182e-02, 6.188076048639486e-02, 0.000000000000000e+00, 0.000000000000000e+00, 0.000000000000000e+00, 4.217247675884709e+03, 4.088511684467023e+03, 2.174852989796709e+02, 8.340365635911741e+03, -3.009666816636797e+02, -9.262381372014351e+02, 4.531540797868959e+03
2243, 1.499233952329692e-01, 3.693431120794783e-02, 6.235022580115150e-02, 0.000000000000000e+00, 0.000000000000000e+00, 0.000000000000000e+00, 3.202097089101571e+03, 3.313699250518628e+03, 1.449860181895423e+02, 6.321466082817390e+03, -3.520709451810781e+02, -1.034242145805094e+03, 3.610911903611691e+03
2244, 1.163922951937177e+00, 1.532315476863713e+00, 6.043826686824327e-03, 0.000000000000000e+00, 0.000000000000000e+00, 0.000000000000000e+00, -2.719471371594094e+03, -2.983378024544674e+03, -1.340928484116264e+02, -5.887028696974985e+03, -8.035605232526315e+02, -1.157478827951120e+03, 3.908640378739929e+03
2245, 3.586046037237862e-01, 1.847415362380115e-01, 7.295441299086272e-02, 0.000000000000000e+00, 0.000000000000000e+00, 0.000000000000000e+00, 4.271236296164026e+03, 4.300903952482036e+03, 4.212101390896214e+01, 8.129635235200616e+03, 8.584475323044977e+02, -5.109971140275443e+02, 4.215818553633400e+03
2246, 1.092946636389593e+00, 1.013618276002278e+00, 7.564443523394903e-03, 0.000000000000000e+00, 0.000000000000000e+00, 0.000000000000000e+00, -1.666522046250476e+03, -1.777173772110472e+03, 2.533696556849992e+01, -3.643886233103281e+03, -4.052280753650808e+02, -2.652803674658783e+02, 2.099783430906210e+03
2247, 1.101130513393860e+00, 9.934319224048905e-01, 5.483483021171310e-03, 0.000000000000000e+00, 0.000000000000000e+00, 0.000000000000000e+00, 1.080772767304832e+02, 7.355040290654637e+01, 2.546953003120248e+01, 1.335682571700556e+00, 3.685759619405941e+02, 1.923504603611928e+02, 7.275900825541456e+02
2248, 1.091728471499409e+00, 9.771674737865381e-01, 6.939750261524658e-03, 0.000000000000000e+00, 0.000000000000000e+00, 0.000000000000000e+00, 3.675507518242733e+02, 1.523320078512877e+02, 1.788362200915354e+01, 3.772395297425662e+02, 6.479390124712356e+01, 8.047975341185246e+01, 2.854529377002981e+02
2249, 3.877368754441055e-01, 2.033076826773096e-01, 7.296347758888012e-02, 0.000000000000000e+00, 0.000000000000000e+00, 0.000000000000000e+00, 4.102896062957780e+03, 4.088358016573680e+03, 2.927975235573518e+01, 7.753090682153032e+03, 8.953314711103931e+02, -4.836716672685288e+02, 4.060349849189178e+03
2250, 4.752987494984455e-01, 2.251073170722222e-01, 7.156636753799327e-02, 0.000000000000000e+00, 0.000000000000000e+00, 0.000000000000000e+00, 3.326315365706581e+03, 3.237888493070069e+03, -1.272226582739308e+01, 5.944446566898622e+03, 8.780737238429771e+02, -3.422251094989753e+02, 3.123911569027133e+03
2251, 7.957624391491139e-01, 1.568070154245095e+00, 1.333350940605980e-02, 0.000000000000000e+00, 0.000000000000000e+00, 0.000000000000000e+00, 1.906791563522725e+03, 7.679754596760536e+02, 9.006283097411176e+02, 4.251178361899833e+03, -1.032324535401376e+03, -7.169969972743504e+02, 4.078677113577453e+03
2252, 8.142200183223499e-01, 1.568917942840829e+00, 2.011712112284664e-02, 0.000000000000000e+00, 0.000000000000000e+00, 0.000000000000000e+00, 4.401710377837053e+03, 4.077124582952627e+03, 9.345789644395296e+02, 1.002255285365643e+04, -1.567458557721013e+03, -1.577977779350199e+03, 7.140364544500237e+03
2253, 7.440288973756867e-01, 1.426688197087624e+00, 2.181521887359697e-02, 0.000000000000000e+00, 0.000000000000000e+00, 0.000000000000000e+00, 5.032142210295960e+03, 5.093633302641880e+03, -1.258261270910746e+02, 1.023675899333115e+04, -6.902754443582154e+02, 3.131902205593694e+02, 5.342563148363231e+03
2254, 7.264194999637121e-01, 1.391562703080859e+00, 2.213682526447946e-02, 0.000000000000000e+00, 0.000000000000000e+00, 0.000000000000000e+00, 3.311262783351292e+03, 3.070133213642288e+03, -5.165237725166711e+01, 5.735680341438760e+03, -6.689756418470120e+02, 5.757277720280923e+01, 2.807325370229301e+03
2255, 7.083511035919644e-01, 1.356184044556463e+00, 2.234244857860928e-02, 0.000000000000000e+00, 0.000000000000000e+00, 0.000000000000000e+00, 3.192269245378073e+03, 3.039759962056849e+03, 2.768900630456491e+00, 5.496099851138656e+03, -6.072791258872143e+02, 3.982582559322136e+02, 2.695267300662033e+03
2256, 1.142908140695200e+00, 1.565479710825114e+00, 1.058587766667180e-02, 0.000000000000000e+00, 0.000000000000000e+00, 0.000000000000000e+00, -2.541953942156330e+03, -2.376356086053165e+03, -1.244846344238879e+02, -5.102112439889626e+03, 9.901196733357116e+02, -5.913886127103397e+02, 3.323027624155942e+03
2257, 6.902785667730164e-01, 1.320771638222264e+00, 2.253998383968514e-02, 0.000000000000000e+00, 0.000000000000000e+00, 0.000000000000000e+00, 3.441721563634997e+03, 3.693555890290574e+03, 7.782361888092682e+01, 5.655430588933271e+03, -6.384428569074277e+02, 4.076942401439360e+02, 2.479129167043720e+03
2258, 6.724699316596739e-01, 1.285483527906536e+00, 2.279641435787059e-02, 0.000000000000000e+00, 0.000000000000000e+00, 0.000000000000000e+00, 3.467656433529181e+03, 3.232046077219992e+03, -2.011762799887053e+02, 6.255977415389702e+03, -7.860803046036009e+02, 3.591565934744823e+02, 3.293837615393365e+03
2259, 9.667360730150221e-01, 1.554902873229186e+00, 3.145837133240992e-02, 0.000000000000000e+00, 0.000000000000000e+00, 0.000000000000000e+00, 4.092039172440470e+03, 4.027226846695545e+03, -4.015610347053591e+02, 5.892556614716073e+03, 9.274296238088557e+02, -8.480416356260944e+02, 2.929917094882908e+03
2260, 6.544979407451020e-01, 1.249829496383696e+00, 2.305951609495814e-02, 0.000000000000000e+00, 0.000000000000000e+00, 0.000000000000000e+00, 4.253850838193827e+03, 4.256615677484777e+03, 1.239999681068472e+01, 8.011404493048951e+03, -8.214245068711019e+02, 7.304497294391646e+01, 4.018645384568506e+03
2261, 9.580320441931588e-01, 1.538575429196281e+00, 3.210763785882408e-02, 0.000000000000000e+00, 0.000000000000000e+00, 0.000000000000000e+00, 2.869979532502186e+03, 2.796222441284755e+03, -2.621404702687742e+02, 4.355740205501501e+03, 8.200390159989865e+02, -9.103466895072057e+02, 2.651838682584607e+03
2262, 9.563807556629031e-01, 1.573180462256341e+00, 3.176733853109989e-02, 0.000000000000000e+00, 0.000000000000000e+00, 0.000000000000000e+00, 2.735141520358419e+03, 3.200839295908585e+03, -2.131180716440300e+02, 4.950878083343953e+03, 1.238171403990072e+03, -1.396986709955236e+03, 3.832059258916869e+03
2263, 6.360668485097034e-01, 1.214079671595571e+00, 2.317149997748407e-02, 0.000000000000000e+00, 0.000000000000000e+00, 0.000000000000000e+00, 3.503564803621172e+03, 3.607683699308284e+03, -8.115815513294658e+01, 6.461760428644195e+03, -5.387869504602677e+02, 5.154609431200530e+02, 3.184570938553548e+03
2264, 5.237935390119192e-01, 2.447600887849326e-01, 6.913833776672430e-02, 0.000000000000000e+00, 0.000000000000000e+00, 0.000000000000000e+00, 3.066755644644556e+03, 2.974970402389456e+03, -1.253407390053910e+01, 5.484851706932301e+03, 7.994818691832758e+02, -3.492271780772133e+02, 2.891612453671448e+03
2265, 5.996698976592232e-01, 1.176441205874242e+00, 1.549144738428726e-02, 0.000000000000000e+00, 0.000000000000000e+00, 0.000000000000000e+00, 1.615545305861847e+03, 1.694968573288484e+03, -7.903490137526450e+01, 2.839548538154832e+03, -5.521833033202363e+02, 1.781408226384543e+02, 1.560749447668324e+03
2266, 6.081083473922143e-01, 1.160265939774336e+00, 2.324186597351784e-02, 0.000000000000000e+00, 0.000000000000000e+00, 0.000000000000000e+00, 2.057281894885455e+03, 2.345377971668957e+03, 6.220376279701919e+01, 4.556805222082128e+03, -1.055645088220451e+03, 1.956021248962583e+02, 3.013314039927829e+03
2267, 5.991798822833382e-01, 1.144120602722727e+00, 2.304794641688614e-02, 0.000000000000000e+00, 0.000000000000000e+00, 0.000000000000000e+00, 2.997103004678048e+03, 3.001072829148699e+03, -1.609396418112038e+02, 4.563048151228430e+03, -6.920439490330225e+02, 5.670065542744962e+02, 2.219223269303448e+03
2268, 6.283024008321804e-01, 1.161184583920935e+00, 2.956531801247295e-02, 0.000000000000000e+00, 0.000000000000000e+00, 0.000000000000000e+00, 4.307222522508298e+03, 4.093784383143742e+03, 1.512526705174278e+02, 7.690130793765378e+03, 1.304629909747327e+01, 2.414396889593550e+02, 3.529261673087418e+03
2269, 9.488876864343491e-01, 1.521393510126550e+00, 3.278019336687688e-02, 0.000000000000000e+00, 0.000000000000000e+00, 0.000000000000000e+00, 2.643455430657096e+03, 2.450904694692651e+03, -1.128057683581486e+01, 4.462847495204031e+03, 1.084260151276822e+03, -6.219096438849549e+02, 2.895711544361124e+03
2270, 1.008478169827004e+00, 1.301859007970052e+00, 2.659292602638270e-02, 0.000000000000000e+00, 0.000000000000000e+00, 0.000000000000000e+00, 5.260918338558503e+02, 4.389733203333157e+02, -4.376921548603612e+01, 6.068220568114995e+02, 5.575068201607712e+02, -1.540234771694321e+02, 1.015134765499283e+03
2271, 9.994533081477672e-01, 1.284241142979306e+00, 2.755820567514589e-02, 0.000000000000000e+00, 0.000000000000000e+00, 0.000000000000000e+00, 6.681352338535313e+02, 6.268848823120616e+02, -8.757576754922005e+01, 9.093206584078847e+02, 5.835078702536571e+02, -2.253393150256911e+02, 1.125436472612927e+03
2272, 3.057884458689559e-01, 2.340309633018603e-01, 6.687413047140862e-02, 0.000000000000000e+00, 0.000000000000000e+00, 0.000000000000000e+00, 5.076122950907991e+03, 5.199484504339146e+03, 1.542783187795059e+02, 1.003859937902076e+04, 7.361524478367058e+02, -5.231280009240971e+02, 5.152413702892949e+03
2273, 3.224968882627237e-01, 3.033832079625529e-01, 6.365139282558281e-02, 0.000000000000000e+00, 0.000000000000000e+00, 0.000000000000000e+00, 5.389108604855242e+03, 5.537840970821072e+03, 1.153291907419857e+02, 1.085535117448226e+04, 7.876810536565392e+02, -3.796739567398286e+02, 5.605587006748189e+03
2274, 4.089611188020969e-01, 3.594798602623909e-01, 6.706463066003931e-02, 0.000000000000000e+00, 0.000000000000000e+00, 0.000000000000000e+00, 4.605560471855068e+03, 4.672236519835947e+03, 4.909666137757409e+01, 8.849207228074161e+03, 1.015279797781030e+03, -4.106323368021416e+02, 4.619036835760949e+03
2275, 1.151984761365842e+00, 1.583056509967001e+00, 9.358017122356479e-03, 0.000000000000000e+00, 0.000000000000000e+00, 0.000000000000000e+00, 4.758158967354392e+02, 4.083950372817711e+02, -1.965290630497136e+02, -1.486760690502751e+02, 5.173860235984125e+02, -4.896126753767841e+02, 1.410861307268917e+03
2276, 9.399214970816741e-01, 1.503909932294065e+00, 3.343762783492526e-02, 0.000000000000000e+00, 0.000000000000000e+00, 0.000000000000000e+00, 3.400075689079912e+03, 3.327080456929472e+03, -9.367420118437464e+01, 6.000108103358250e+03, 8.689932081588872e+02, -7.087520134333849e+02, 3.279336401455744e+03
2277, 8.484497300076611e-01, 5.366252589324232e-02, 3.070590816796562e-02, 0.000000000000000e+00, 0.000000000000000e+00, 0.000000000000000e+00, -1.284757193812445e+03, -1.322867133605838e+03, -1.563168179705600e+01, -2.550568981791026e+03, 3.638609807297720e+02, 1.265988793772577e+02, 1.414740667460294e+03
2278, 8.393510162183424e-01, 3.615427553707988e-02, 3.187185843098320e-02, 0.000000000000000e+00, 0.000000000000000e+00, 0.000000000000000e+00, -5.520762682980071e+02, -6.340565022455953e+02, -3.846591357987536e+01, -1.270447638977563e+03, 2.023789904112141e+02, 2.813382676928165e+02, 9.103022802058337e+02
2279, 5.854767450621393e-01, 2.127630752794623e-01, 6.518320251430727e-02, 0.000000000000000e+00, 0.000000000000000e+00, 0.000000000000000e+00, 2.204938624115030e+03, 2.059145777771780e+03, -3.682037218971288e+01, 3.703908890640907e+03, 7.842272936160285e+02, -2.716589037788535e+02, 2.134761532186381e+03
2280, 4.269957386604362e-01, 3.948767239584474e-01, 6.621827164312964e-02, 0.000000000000000e+00, 0.000000000000000e+00, 0.000000000000000e+00, 4.533452349198483e+03, 4.586020160143666e+03, 7.237442457124091e+01, 8.726889584890267e+03, 1.061167040994791e+03, -4.129991330434105e+02, 4.612253776515163e+03
2281, 9.687968900754370e-01, 1.522588781904364e+00, 3.157013816717688e-02, 0.000000000000000e+00, 0.000000000000000e+00, 0.000000000000000e+00, 2.591907702176581e+03, 2.226319529669125e+03, -1.276522893425395e+02, 4.077918222425383e+03, 4.821086021191794e+02, -6.653879334596692e+02, 2.227003499819513e+03
2282, 6.312327228253243e-01, 7.758640979543244e-02, 6.061620697992639e-02, 0.000000000000000e+00, 0.000000000000000e+00, 0.000000000000000e+00, 1.462328615020907e+03, 1.345808119771626e+03, -6.340171108451133e+01, 2.517722613229756e+03, 5.048942030461218e+02, -2.948880755932782e+02, 1.512646449015169e+03
2283, 6.419482844909169e-01, 6.094037395968039e-02, 5.934889309277681e-02, 0.000000000000000e+00, 0.000000000000000e+00, 0.000000000000000e+00, 1.274207680857473e+03, 1.221391858944067e+03, -6.279246922329243e+01, 2.156499109774844e+03, 4.418070686653578e+02, -3.034794434711353e+02, 1.304429025183441e+03
2284, 6.522531799665275e-01, 4.517658593326673e-02, 5.807230171054600e-02, 0.000000000000000e+00, 0.000000000000000e+00, 0.000000000000000e+00, 1.019591415448084e+03, 9.924000060246699e+02, -6.663950449900831e+01, 1.692582142758071e+03, 3.777039322095430e+02, -2.566570133490294e+02, 1.053981583140383e+03
2285, 4.542824500933600e-01, 4.478069867735802e-01, 6.493982832687079e-02, 0.000000000000000e+00, 0.000000000000000e+00, 0.000000000000000e+00, 4.265814058941173e+03, 4.319254606176688e+03, 6.691488069361451e+01, 8.093511307888457e+03, 9.910807353085072e+02, -4.581690492238434e+02, 4.247290947713087e+03
2286, 4.741418530542825e-01, 4.488180225855202e-01, 6.553025907334815e-02, 0.000000000000000e+00, 0.000000000000000e+00, 0.000000000000000e+00, 4.112244570385215e+03, 4.091442478963544e+03, 4.205647401992334e+01, 7.747263840826923e+03, 9.996941155647555e+02, -4.166943027579532e+02, 4.100461860282512e+03
2287, 4.633838672229624e-01, 4.654868097294720e-01, 6.450466406383520e-02, 0.000000000000000e+00, 0.000000000000000e+00, 0.000000000000000e+00, 4.303556008029986e+03, 4.289646709194170e+03, 4.243197230963870e+01, 8.037061514560028e+03, 9.850051000779779e+02, -4.608372431105921e+02, 4.188604389525727e+03
2288, 6.722602914928139e-01, 4.656837529344437e-02, 5.573287792658786e-02, 0.000000000000000e+00, 0.000000000000000e+00, 0.000000000000000e+00, 8.989639224252531e+02, 8.291293558941793e+02, -2.683356017576148e+01, 1.455962277209716e+03, 3.435989539778516e+02, -2.030994333291731e+02, 9.132966415218604e+02
2289, 6.845808244573580e-01, 3.023637106816522e-02, 5.406950098965244e-02, 0.000000000000000e+00, 0.000000000000000e+00, 0.000000000000000e+00, 7.011952010300471e+02, 6.577356829527571e+02, -4.302897921133351e+01, 1.060879230228361e+03, 2.853018777953197e+02, -1.827100604486991e+02, 7.048318148926855e+02
2290, 3.603012224252735e-01, 3.397873729661736e-01, 6.487651168478431e-02, 0.000000000000000e+00, 0.000000000000000e+00, 0.000000000000000e+00, 4.977311826384243e+03, 5.119483840408995e+03, 1.110599364165715e+02, 9.841985242487543e+03, 9.161929423866115e+02, -3.695224368951766e+02, 5.094949642081699e+03
2291, 9.989921701082546e-01, 1.507230460698324e+00, 2.914251692436967e-02, 0.000000000000000e+00, 0.000000000000000e+00, 0.000000000000000e+00, 1.887877722174435e+03, 1.777188334823962e+03, -1.122062627163321e+02, 2.988863621553285e+03, 6.993353697450536e+02, -5.775716718858801e+02, 1.962660762482818e+03
2292, 8.053004386952521e-01, 1.429126728892191e+00, 3.347355551274635e-02, 0.000000000000000e+00, 0.000000000000000e+00, 0.000000000000000e+00, 7.428743689412615e+03, 6.906131155502939e+03, 1.826206754254936e+02, 1.418987608273883e+04, 5.814179788005913e+02, -4.142659018964766e+02, 7.151819899632414e+03
2293, 6.394479371854687e-01, 3.186445245812369e-01, 6.054343490527138e-02, 0.000000000000000e+00, 0.000000000000000e+00, 0.000000000000000e+00, 1.875518732568057e+03, 1.765714732033108e+03, -3.023753426410228e+01, 3.097431172099255e+03, 7.863603143668925e+02, -2.205083300170938e+02, 1.908664488816199e+03
2294, 6.592096702052410e-01, 3.195795139588513e-01, 5.874057775054858e-02, 0.000000000000000e+00, 0.000000000000000e+00, 0.000000000000000e+00, 1.597007880918079e+03, 1.466272552097948e+03, -1.231235971655354e+01, 2.578065660336223e+03, 7.665640800281171e+02, -1.844151466321628e+02, 1.724287705702811e+03
2295, 5.513245398151498e-01, 2.972106254387562e-01, 6.708605025542373e-02, 0.000000000000000e+00, 0.000000000000000e+00, 0.000000000000000e+00, 2.888066865139489e+03, 2.793038723633570e+03, -4.092984884394850e+01, 5.078497928549473e+03, 9.258070835719986e+02, -2.624893235550926e+02, 2.792535612087841e+03
2296, 5.710062120957320e-01, 2.981603296865501e-01, 6.586863716354852e-02, 0.000000000000000e+00, 0.000000000000000e+00, 0.000000000000000e+00, 2.556808059671683e+03, 2.467225690430482e+03, -2.639516558559428e+01, 4.468858375917320e+03, 9.143526738024292e+02, -2.246169953261886e+02, 2.548885706442621e+03
2297, 5.314434117873528e-01, 2.963599355075438e-01, 6.815898008294656e-02, 0.000000000000000e+00, 0.000000000000000e+00, 0.000000000000000e+00, 3.078396473380616e+03, 3.025173316993718e+03, -1.620177026950988e+01, 5.565845052275663e+03, 8.656688726695786e+02, -2.983959841204087e+02, 2.972991553160871e+03
2298, 5.673986379014857e-01, 1.775474564628736e-01, 6.669975323261707e-02, 0.000000000000000e+00, 0.000000000000000e+00, 0.000000000000000e+00, 2.295480276672235e+03, 2.168881879594403e+03, -3.746487953448726e+01, 3.836544026820322e+03, 7.378398636865439e+02, -2.186781431815260e+02, 2.089711719968368e+03
2299, 4.344286651017618e-01, 4.469206880172498e-01, 6.401140995177784e-02, 0.000000000000000e+00, 0.000000000000000e+00, 0.000000000000000e+00, 4.514120247035737e+03, 4.590084988872214e+03, 1.062983592298155e+02, 8.746974698726706e+03, 1.017710961099913e+03, -4.408080647134718e+02, 4.617934584838891e+03
2300, 7.042568073932842e-01, 3.100039860816145e-02, 5.157943670456576e-02, 0.000000000000000e+00, 0.000000000000000e+00, 0.000000000000000e+00, 4.995487916040947e+02, 4.572026687788483e+02, -6.050564725954433e+01, 7.654383395643758e+02, 3.021649277748882e+02, -1.397445515030526e+02, 6.536277129189032e+02
2301, 8.560108979786272e-01, 1.054322846213075e-01, 3.043429854370546e-02, 0.000000000000000e+00, 0.000000000000000e+00, 0.000000000000000e+00, -9.420291885904654e+02, -1.112969602585736e+03, 1.854815252958296e+01, -2.313127307635035e+03, 4.504557018457596e+02, -1.467243545618615e+02, 1.532677991495425e+03
2302, 6.195634546385195e-01, 3.178253796257517e-01, 6.222547114129035e-02, 0.000000000000000e+00, 0.000000000000000e+00, 0.000000000000000e+00, 2.123974725435060e+03, 1.981348263772672e+03, -2.895366562952760e+01, 3.470367839837322e+03, 8.132435631163979e+02, -2.249122673954714e+02, 2.040469264452615e+03
2303, 8.898700567302325e-01, 1.518919218467587e+00, 3.393898014921517e-02, 0.000000000000000e+00, 0.000000000000000e+00, 0.000000000000000e+00, 3.790272875218528e+03, 3.968156937648956e+03, -9.321760982866272e+01, 6.527530001859939e+03, 1.202997657435679e+03, -1.158001667500406e+03, 3.927834918240225e+03
2304, 7.308583380999860e-01, 1.098841155273843e+00, 4.642682813219558e-02, 0.000000000000000e+00, 0.000000000000000e+00, 0.000000000000000e+00, 3.969344629240606e+03, 3.906340116873430e+03, 7.747705942279156e+01, 7.247072877838323e+03, 1.033151711369731e+03, -5.024101785521955e+02, 3.864123074266226e+03
2305, 7.203201950145827e-01, 1.115526387789119e+00, 4.545659385174784e-02, 0.000000000000000e+00, 0.000000000000000e+00, 0.000000000000000e+00, 4.016899696576867e+03, 4.077643825012874e+03, 1.105762379045150e+02, 7.580746487459966e+03, 9.077767873007790e+02, -4.711099527013417e+02, 3.957638461670300e+03
2306, 1.188725887162528e-01, 2.183436054534805e-01, 1.486520692889251e-02, 0.000000000000000e+00, 0.000000000000000e+00, 0.000000000000000e+00, 1.979523232443912e+03, 1.614852287132751e+03, 1.820123984692628e+02, 3.057592395121790e+03, -8.636512859959355e+02, 3.820402339545544e+02, 2.112649736850082e+03
2307, 1.334558814358065e-01, 2.221606171800304e-01, 2.781306120196331e-02, 0.000000000000000e+00, 0.000000000000000e+00, 0.000000000000000e+00, 3.794603044803556e+03, 3.185908949994116e+03, 1.259909857707838e+02, 5.435183084465565e+03, -1.121604126189333e+03, 1.650294868124480e+02, 2.822044573973241e+03
2308, 7.091857041333339e-01, 3.048641340400932e-01, 5.351308470001641e-02, 0.000000000000000e+00, 0.000000000000000e+00, 0.000000000000000e+00, 1.005567469159498e+03, 8.749308994415167e+02, -3.353287969842932e+01, 1.463381693002299e+03, 6.867063965941309e+02, -1.210667964383597e+02, 1.322311972154615e+03
2309, 1.123475980138896e+00, 1.565354967662835e+00, 1.383805797513531e-02, 0.000000000000000e+00, 0.000000000000000e+00, 0.000000000000000e+00, -1.085163442851792e+03, -9.459628492334251e+02, -8.460039679297975e+01, -2.273918139184049e+03, 4.959586225307795e+02, -9.984572679959750e+01, 1.545087035539638e+03
2310, 1.113294226505546e+00, 1.582383108775868e+00, 1.573766259453230e-02, 0.000000000000000e+00, 0.000000000000000e+00, 0.000000000000000e+00, -1.583641251533179e+03, -1.332790753445063e+03, 2.486222967299468e+01, -3.767012433407229e+03, 4.159869051095768e+02, 3.086638591842487e+02, 2.486874600713494e+03
2311, 1.093957756845782e+00, 1.581486394483281e+00, 1.857510125102314e-02, 0.000000000000000e+00, 0.000000000000000e+00, 0.000000000000000e+00, -7.413448294918743e+01, 2.903623586962688e+02, -4.751810677736343e+01, -5.805980463544660e+02, 6.026038827581458e+02, 3.466955332691539e+02, 1.425036584170194e+03
2312, 1.064411532485883e+00, 1.563584186937557e+00, 2.230757720447172e-02, 0.000000000000000e+00, 0.000000000000000e+00, 0.000000000000000e+00, 2.089581114174238e+03, 2.025524607135503e+03, -1.160974572669822e+02, 3.541342806057090e+03, 9.554969855150455e+02, 6.017877113471363e+02, 2.463841452786500e+03
2313, 1.072478287486164e+00, 1.546079917393707e+00, 2.106123688469686e-02, 0.000000000000000e+00, 0.000000000000000e+00, 0.000000000000000e+00, 1.105514424512249e+03, 1.197365314749212e+03, -4.745468048879655e+01, 1.716735915257283e+03, 1.223181984768632e+03, -4.345393655719319e+02, 2.321128773487687e+03
2314, 1.054932790816698e+00, 1.581753738848550e+00, 2.363124627855000e-02, 0.000000000000000e+00, 0.000000000000000e+00, 0.000000000000000e+00, -5.165895990508998e+02, -2.578491042730639e+02, -3.325985588989667e+02, -1.574824108543845e+03, 5.681629652569301e+02, -4.295876309310388e+01, 1.663263141144527e+03
2315, 1.035945921497622e+00, 1.579907174088252e+00, 2.572721093295364e-02, 0.000000000000000e+00, 0.000000000000000e+00, 0.000000000000000e+00, -7.315351096069971e+01, 2.892951065134249e+02, -2.788420520566428e+02, -9.474863735048427e+02, 5.301547379517331e+02, -5.705619886809640e+02, 1.807152857220738e+03
2316, 1.006171472265277e+00, 1.565142431803125e+00, 2.854600880002993e-02, 0.000000000000000e+00, 0.000000000000000e+00, 0.000000000000000e+00, 1.933745252188610e+03, 1.891703873737323e+03, -2.156671183621972e+02, 3.174643838735510e+03, 8.800702129602189e+02, -3.615312559243200e+02, 2.109262447105862e+03
2317, 7.872141264419827e-01, 1.393768563980154e+00, 3.409491034144133e-02, 0.000000000000000e+00, 0.000000000000000e+00, 0.000000000000000e+00, 5.935294831558488e+03, 6.507890590382165e+03, 3.223051313936097e+02, 1.332303683285857e+04, -4.048714098252690e+02, 8.040216615909979e+01, 7.176294722012685e+03
2318, 9.540617941882055e-01, 1.092715228807016e-01, 1.311825596653722e-02, 0.000000000000000e+00, 0.000000000000000e+00, 0.000000000000000e+00, -5.251557743516203e+02, -3.872264979041555e+02, -1.406268121760946e+02, -5.013972588407122e+02, 4.131530426270688e+02, 5.494588058607916e+01, 7.725173898957240e+02
2319, 7.288979423626086e-01, 3.057833412880395e-01, 5.126058575761805e-02, 0.000000000000000e+00, 0.000000000000000e+00, 0.000000000000000e+00, 8.460455807280887e+02, 6.774459817343512e+02, -3.773861957379875e+01, 1.064319611597233e+03, 6.589339981350440e+02, -9.300659590973477e+01, 1.202362517701237e+03
2320, 1.876235452477837e-01, 3.276476251120728e-01, 2.785296943072270e-02, 0.000000000000000e+00, 0.000000000000000e+00, 0.000000000000000e+00, 3.322531558854216e+03, 3.139165721198355e+03, -7.962590961242071e+00, 6.007213622331235e+03, -1.004528295413618e+03, 3.107504648966185e+02, 3.324235075849511e+03
2321, 1.722161420782894e-01, 3.250045654490900e-01, 1.485873264518869e-02, 0.000000000000000e+00, 0.000000000000000e+00, 0.000000000000000e+00, 2.507474434184746e+03, 2.408457421802155e+03, 1.218666027911150e+02, 4.074229071544976e+03, -1.136778037410098e+03, 4.047658609779316e+02, 2.651888639826334e+03
2322, 9.795064807397627e-01, 1.506358995460107e+00, 3.083812363306491e-02, 0.000000000000000e+00, 0.000000000000000e+00, 0.000000000000000e+00, 1.666212756756828e+03, 1.560313008548253e+03, -4.165471351362099e+01, 3.149269821428503e+03, 5.615854367617336e+02, -7.014422270424815e+02, 2.189778968509867e+03
2323, 3.123292484360304e-01, 1.307969327208325e-01, 7.345557693664619e-02, 0.000000000000000e+00, 0.000000000000000e+00, 0.000000000000000e+00, 4.633784789913165e+03, 4.632036408321522e+03, 7.364467035081366e+01, 8.961281457353514e+03, 7.961135185375272e+02, -5.996928129273822e+02, 4.661689801380491e+03
2324, 3.012380452890397e-01, 1.474604276067120e-01, 7.189636056493223e-02, 0.000000000000000e+00, 0.000000000000000e+00, 0.000000000000000e+00, 4.833692921166843e+03, 4.807587374991164e+03, 5.422040087640498e+01, 9.461617093159595e+03, 7.620028450424034e+02, -5.464862748334563e+02, 4.917914643254925e+03
2325, 1.019220698259597e+00, 1.285031960229891e+00, 2.495156962354057e-02, 0.000000000000000e+00, 0.000000000000000e+00, 0.000000000000000e+00, 2.866766009253673e+02, 1.416628005685715e+02, -1.470095298769896e+01, 1.123966047225113e+02, 5.323453474970507e+02, -5.603828743208983e+01, 9.414740808069627e+02
2326, 1.010186599491292e+00, 1.267386372571689e+00, 2.595280363289430e-02, 0.000000000000000e+00, 0.000000000000000e+00, 0.000000000000000e+00, 4.271502488349424e+02, 2.678910724462533e+02, -8.861598155639891e+01, 4.000592242726621e+02, 3.832769919759249e+02, -4.977941201985102e+01, 7.024806178789569e+02
2327, 1.021163245889925e+00, 1.251002032102920e+00, 2.421705134324093e-02, 0.000000000000000e+00, 0.000000000000000e+00, 0.000000000000000e+00, 2.894489826915918e+02, 1.006093604996208e+02, -2.443217910140929e+01, 1.250059487275521e+02, 3.387090082019378e+02, -1.618125180920626e+02, 6.753966225820701e+02
2328, 7.469859674124558e-01, 3.412059674229574e-01, 4.941914327496192e-02, 0.000000000000000e+00, 0.000000000000000e+00, 0.000000000000000e+00, 6.401415246348746e+02, 4.709365034718840e+02, -1.813071706075353e+01, 7.161178884048703e+02, 6.180209538790892e+02, -1.297106214729306e+02, 1.115602407782907e+03
2329, 1.003941435197841e+00, 2.845722214516320e-01, 7.572213381860507e-03, 0.000000000000000e+00, 0.000000000000000e+00, 0.000000000000000e+00, 3.011162220276250e+02, 1.765502423587335e+02, -6.216956735110047e+01, 5.074786062906409e+02, -5.659898086024336e+00, -8.338678922760327e+01, 3.411146258929481e+02
2330, 9.958851326806419e-01, 2.670846620651260e-01, 8.740960014901988e-03, 0.000000000000000e+00, 0.000000000000000e+00, 0.000000000000000e+00, -2.851751491600055e+03, -3.370111276107872e+03, -1.682041780367387e+01, -7.131909532274041e+03, -1.116551172884367e+03, 9.300361888432908e+02, 4.765039160570046e+03
2331, 9.763731103248403e-01, 2.661206173189545e-01, 1.249490227632996e-02, 0.000000000000000e+00, 0.000000000000000e+00, 0.000000000000000e+00, -6.708391999687232e+03, -6.010954639664755e+03, -2.301212045983276e+02, -1.250832121972954e+04, 3.007510078197922e+03, 2.293141303069629e+03, 9.013345337749710e+03
2332, 9.869079246852498e-01, 2.503916401202810e-01, 1.009803086432581e-02, 0.000000000000000e+00, 0.000000000000000e+00, 0.000000000000000e+00, 6.006740884119183e+02, 7.812935668649320e+01, 1.105131863380568e+02, 7.585919201759209e+02, -2.241644762777321e+01, 2.559439933375748e+02, 7.843335622616769e+02
2333, 1.005796709212607e+00, 2.500779663734757e-01, 6.361292693100791e-03, 0.000000000000000e+00, 0.000000000000000e+00, 0.000000000000000e+00, 7.514910221696671e+02, 9.510036513829644e+02, -9.593130136348373e+01, 1.439694943963057e+03, 1.262920588865827e+02, -8.202733268126396e+01, 6.868533317916002e+02
2334, 9.922172923297974e-01, 1.232297288597977e+00, 2.790978748906085e-02, 0.000000000000000e+00, 0.000000000000000e+00, 0.000000000000000e+00, 3.989330094565649e+02, 1.937819255545748e+02, -1.294301253195674e+01, 3.705979554200782e+02, 4.976531216718674e+02, -8.198123378816580e+01, 8.948285292698068e+02
2335, 7.379442839183715e-01, 3.234575528091318e-01, 5.034237033340794e-02, 0.000000000000000e+00, 0.000000000000000e+00, 0.000000000000000e+00, 6.977231043751958e+02, 5.740871212125203e+02, -2.642224741673244e+01, 8.581599047179257e+02, 6.280230871233887e+02, -1.248401024644435e+02, 1.137079653185425e+03
2336, 7.691142128710571e-01, 1.358535911619632e+00, 3.468622482169770e-02, 0.000000000000000e+00, 0.000000000000000e+00, 0.000000000000000e+00, 4.981179595935037e+03, 5.292947687673003e+03, 1.555082077252346e+02, 1.073846056087660e+04, -4.466389539119734e+02, -8.374069373013865e+02, 5.850068851018014e+03
2337, 1.026586614658511e+00, 1.337042194941926e+00, 2.461857956475282e-02, 0.000000000000000e+00, 0.000000000000000e+00, 0.000000000000000e+00, 3.860736242990661e+02, 3.046024818418962e+02, -1.940508728690546e+01, 4.730846866919253e+02, 3.243362477642891e+02, -1.157954105803668e+02, 6.150079439367335e+02
2338, 1.046695269839163e+00, 1.338271664272968e+00, 2.182356587449664e-02, 0.000000000000000e+00, 0.000000000000000e+00, 0.000000000000000e+00, 1.477673168841314e+02, 8.426914874740930e+01, -2.650624650641037e+01, 7.950397702715338e+01, 4.196924699692509e+02, -8.882049685180762e+01, 7.473671100835181e+02
2339, 1.017526495441486e+00, 1.319420212795590e+00, 2.561222719682268e-02, 0.000000000000000e+00, 0.000000000000000e+00, 0.000000000000000e+00, 4.471411243823313e+02, 2.931264543172275e+02, -5.344872349820287e+00, 3.812808320783366e+02, 4.010329369058445e+02, -1.305083469084886e+02, 7.426842423114196e+02
2340, 7.667295599232029e-01, 3.420395569449493e-01, 4.699570249410244e-02, 0.000000000000000e+00, 0.000000000000000e+00, 0.000000000000000e+00, 4.350318517953272e+02, 2.974683749670227e+02, -3.063350236746988e+01, 3.646251086329884e+02, 5.767344020841557e+02, -1.176431646930219e+02, 1.027812294098109e+03
2341, 9.430872649975409e-01, 1.435799414079091e+00, 3.383097472241164e-02, 0.000000000000000e+00, 0.000000000000000e+00, 0.000000000000000e+00, 2.391128695938328e+03, 2.218972089461749e+03, -1.144325506632026e+02, 4.145002033674557e+03, 4.005939017830292e+02, -2.841095526750782e+02, 2.042184131302754e+03
2342, 5.352817907356847e-01, 4.174047896250937e-01, 6.617512213980653e-02, 0.000000000000000e+00, 0.000000000000000e+00, 0.000000000000000e+00, 3.212788249727283e+03, 3.137173130158994e+03, 1.213020447393565e+01, 5.801403363579942e+03, 9.074785391044709e+02, -3.299351197886268e+02, 3.114474139806123e+03
2343, 6.205771142786513e-01, 9.421098509017282e-02, 6.181151373072832e-02, 0.000000000000000e+00, 0.000000000000000e+00, 0.000000000000000e+00, 1.633055452433078e+03, 1.517076287062019e+03, -6.290521528673831e+01, 2.816032282428913e+03, 5.375954248407706e+02, -2.811330163274392e+02, 1.632816907026465e+03
2344, 4.939917490260236e-01, 3.604490027683646e-02, 7.266863569258139e-02, 0.000000000000000e+00, 0.000000000000000e+00, 0.000000000000000e+00, 1.881329815829182e+03, 1.905624786608183e+03, -7.972207389270268e+01, 3.329385962823975e+03, 4.138551688407983e+02, -5.969470301711069e+02, 1.914212310244942e+03
2345, 8.359953023593151e-01, 1.190323943546145e+00, 4.234661906572285e-02, 0.000000000000000e+00, 0.000000000000000e+00, 0.000000000000000e+00, 2.729404233246808e+03, 2.609846715851517e+03, -2.143911364916206e+01, 4.770787743929910e+03, 9.102096909186803e+02, -3.056646862895974e+02, 2.681924688481413e+03
2346, 3.692586297827830e-01, 3.575143577215782e-01, 6.451611560373731e-02, 0.000000000000000e+00, 0.000000000000000e+00, 0.000000000000000e+00, 5.144343810043023e+03, 5.262045107388520e+03, 1.206446556421289e+02, 1.012313739484316e+04, 8.814366071059711e+02, -4.339478630101694e+02, 5.211105238869697e+03
2347, 4.251300648500728e-01, 5.066466939237635e-02, 7.626210846911637e-02, 0.000000000000000e+00, 0.000000000000000e+00, 0.000000000000000e+00, 2.431843595020916e+03, 2.417265494674589e+03, -9.451435963128378e+01, 4.339708789549181e+03, 4.392994305869092e+02, -7.509221125334288e+02, 2.442412350669245e+03
2348, 4.151642402922617e-01, 3.342130746481282e-02, 7.692003127185078e-02, 0.000000000000000e+00, 0.000000000000000e+00, 0.000000000000000e+00, 2.055662563473591e+03, 2.079101888925348e+03, -8.432344112101308e+01, 3.590467675765902e+03, 3.429963347223915e+02, -7.021129474663427e+02, 2.042880294150953e+03
2349, 4.341635410308716e-01, 6.823238195133995e-02, 7.563157703053970e-02, 0.000000000000000e+00, 0.000000000000000e+00, 0.000000000000000e+00, 2.642462824412641e+03, 2.572968673250820e+03, -4.874132447128804e+01, 4.811315311254461e+03, 5.005079827241135e+02, -6.940226811165080e+02, 2.657654497381421e+03
2350, 4.358653042728360e-01, 3.407413891190104e-02, 7.603001656997005e-02, 0.000000000000000e+00, 0.000000000000000e+00, 0.000000000000000e+00, 1.903303390518719e+03, 1.972589322192256e+03, -5.650387195899945e+01, 3.463284307139151e+03, 3.322527085390371e+02, -6.567389773764600e+02, 1.991212739060520e+03
2351, 1.085821660754786e+00, 1.528350832863957e+00, 1.897324134426843e-02, 0.000000000000000e+00, 0.000000000000000e+00, 0.000000000000000e+00, 3.157408999258112e+02, 2.917308918776004e+02, -4.248166732353334e+01, 3.359419476554573e+02, 2.417886005281430e+02, -1.218788819878147e+02, 4.762690772767601e+02
2352, 6.403249035798610e-01, 9.514549537197187e-02, 5.974056634946848e-02, 0.000000000000000e+00, 0.000000000000000e+00, 0.000000000000000e+00, 1.531153638273988e+03, 1.416448585879294e+03, -6.022682045522944e+01, 2.612892244403004e+03, 6.017312138728336e+02, -2.106545990247728e+02, 1.592998994272166e+03
2353, 6.894367356547914e-01, 3.040146633432426e-01, 5.565457761845242e-02, 0.000000000000000e+00, 0.000000000000000e+00, 0.000000000000000e+00, 1.324254020614363e+03, 1.165920506129391e+03, -3.389133601836465e+01, 1.970906537583009e+03, 7.350419753979432e+02, -1.546767987912198e+02, 1.497229597018509e+03
2354, 6.681215988738312e-01, 3.373895448763659e-01, 5.793348023546298e-02, 0.000000000000000e+00, 0.000000000000000e+00, 0.000000000000000e+00, 1.459888502588432e+03, 1.382808422897312e+03, -3.483074369640033e+01, 2.402567238049663e+03, 7.625856187917217e+02, -2.104883802726363e+02, 1.687724024774500e+03
2355, 8.250733140987506e-01, 1.430001929430925e+00, 3.518164715814813e-02, 0.000000000000000e+00, 0.000000000000000e+00, 0.000000000000000e+00, 6.361688670112035e+03, 6.306509182938656e+03, -2.716507893181314e+01, 1.250834539054703e+04, 3.842525699723295e+02, -4.823452882339561e+02, 6.266317726441381e+03
2356, 5.148861320242463e-01, 2.269863137128351e-01, 6.980256014525674e-02, 0.000000000000000e+00, 0.000000000000000e+00, 0.000000000000000e+00, 3.067655439622043e+03, 2.964229774422049e+03, -3.553878213176307e+00, 5.429082126162793e+03, 8.225971012519788e+02, -3.289156271901691e+02, 2.861093728375675e+03
2357, 3.229156423703494e-01, 1.139751305406788e-01, 7.474550500737817e-02, 0.000000000000000e+00, 0.000000000000000e+00, 0.000000000000000e+00, 4.241126345238619e+03, 4.143895171106327e+03, 1.983988600902223e+01, 8.185321102667290e+03, 7.210517164879574e+02, -7.285465062481233e+02, 4.370685587536863e+03
2358, 3.314505493177996e-01, 3.210831079640388e-01, 6.332755061730874e-02, 0.000000000000000e+00, 0.000000000000000e+00, 0.000000000000000e+00, 5.243919534190306e+03, 5.406983719817786e+03, 1.497643780121185e+02, 1.054105803208227e+04, 7.694719737256993e+02, -3.380907554683096e+02, 5.423002688343442e+03
2359, 7.510044362141071e-01, 1.323265773837082e+00, 3.526055347365932e-02, 0.000000000000000e+00, 0.000000000000000e+00, 0.000000000000000e+00, 4.232705236301115e+03, 4.348045113529489e+03, 9.645646372503980e+01, 8.097402495127954e+03, -1.547816922330304e+02, -2.627134693510042e+02, 3.848411782563649e+03
2360, 1.699447623694584e-01, 2.920742093163757e-01, 2.815493693501640e-02, 0.000000000000000e+00, 0.000000000000000e+00, 0.000000000000000e+00, 4.878608519835013e+03, 4.897934042273834e+03, -1.718950135729083e+02, 8.213082244867908e+03, -1.209119602281184e+03, 9.109256653237277e+02, 4.244827332192612e+03
2361, 1.544345188796417e-01, 2.894510726047722e-01, 1.486119854306047e-02, 0.000000000000000e+00, 0.000000000000000e+00, 0.000000000000000e+00, 2.531315724833737e+03, 2.145494815333174e+03, -2.149252567824504e+02, 4.391930258114514e+03, -1.434474915351408e+03, 5.203422113291372e+02, 3.384170460263907e+03
2362, 6.493694896953752e-01, 1.127242374357291e-01, 5.886477813457666e-02, 0.000000000000000e+00, 0.000000000000000e+00, 0.000000000000000e+00, 1.489183088389195e+03, 1.353856017910964e+03, -2.691834427161364e+01, 2.439487639003074e+03, 6.275533336236024e+02, -1.730709721727201e+02, 1.524302503260449e+03
2363, 9.202889604457277e-01, 1.503189070690844e+00, 3.423738388877634e-02, 0.000000000000000e+00, 0.000000000000000e+00, 0.000000000000000e+00, 2.637672583702094e+03, 2.737421142131039e+03, -8.749932833210742e+01, 4.749231063918819e+03, 8.352392829999509e+02, -8.406321913222515e+02, 2.914418277474952e+03
2364, 9.956047158479930e-01, 1.163620058716995e+00, 2.659406641419679e-02, 0.000000000000000e+00, 0.000000000000000e+00, 0.000000000000000e+00, 2.343047923713799e+01, -1.028827943759468e+02, 1.303047236687035e+00, -3.622024167749919e+02, 3.934685751898992e+02, -6.015120571704871e+01, 7.689404238946117e+02
2365, 9.864776638960372e-01, 1.145947946830041e+00, 2.761697407324832e-02, 0.000000000000000e+00, 0.000000000000000e+00, 0.000000000000000e+00, -4.738391081569651e+00, -1.290352974748772e+02, -7.865976457223379e+00, -2.619467660362842e+02, 4.801029702855661e+02, -6.533602266387085e+01, 8.684032809363508e+02
2366, 9.849702615534164e-01, 1.180344884810554e+00, 2.825029646334187e-02, 0.000000000000000e+00, 0.000000000000000e+00, 0.000000000000000e+00, 1.306076640059352e+02, 3.536357811676400e+01, -1.165942112980282e+01, -2.446433532566144e+02, 4.237568587890091e+02, -1.075976320285956e+02, 8.294537512153424e+02
2367, 1.006182849913956e+00, 1.146874312761958e+00, 2.485387423225320e-02, 0.000000000000000e+00, 0.000000000000000e+00, 0.000000000000000e+00, -2.255355659530978e+02, -3.905352650808063e+02, 2.675422492045969e+01, -8.152351299517416e+02, 4.647624083814065e+02, -6.638123468970538e+01, 9.700769480821800e+02
2368, 9.774297410296233e-01, 1.128296380180465e+00, 2.861808177175209e-02, 0.000000000000000e+00, 0.000000000000000e+00, 0.000000000000000e+00, 1.990686313679280e+02, 4.628138383719259e+01, -3.310232886724304e+01, -1.554460956157331e+01, 4.650619845011021e+02, -1.299649768224708e+02, 8.598956600890742e+02
2369, 9.880867731229205e-01, 1.111556075838083e+00, 2.693096465770091e-02, 0.000000000000000e+00, 0.000000000000000e+00, 0.000000000000000e+00, 5.645059391538291e+00, -1.369279710419512e+02, -3.752442108641682e+01, -3.204148559177830e+02, 4.227846064920695e+02, -9.618658840493922e+01, 8.052174138147358e+02
2370, 9.684347321696565e-01, 1.110613673016088e+00, 2.960107647784178e-02, 0.000000000000000e+00, 0.000000000000000e+00, 0.000000000000000e+00, 2.399598040613530e+02, 9.576835605147886e+01, -3.209484709632174e+01, -2.345407532800553e+01, 5.020401469124554e+02, -1.517806285081053e+02, 9.383662714399322e+02
2371, 8.143565849327004e-01, 1.446811465495299e+00, 3.315694208705326e-02, 0.000000000000000e+00, 0.000000000000000e+00, 0.000000000000000e+00, 6.723882568477066e+03, 6.688435585568991e+03, 3.317726570710907e+02, 1.287136973642061e+04, 6.426422282439436e+02, -1.968018694336021e+02, 6.300487612648903e+03
2372, 9.364242145441284e-01, 1.160763680066544e+00, 3.400257016350904e-02, 0.000000000000000e+00, 0.000000000000000e+00, 0.000000000000000e+00, 9.419627172274380e+02, 8.559344678072700e+02, -3.653855965370442e+00, 1.431179288021272e+03, 5.894971915347558e+02, -6.687548190823657e+01, 1.159654266031055e+03
2373, 8.069853645652264e-01, 1.394820999009085e+00, 3.591394734522205e-02, 0.000000000000000e+00, 0.000000000000000e+00, 0.000000000000000e+00, 6.989987159733361e+03, 7.602652689311136e+03, 4.290424370749327e+02, 1.457437994127414e+04, 6.704575253390618e+02, -1.765957651564430e+02, 7.432765784476907e+03
2374, 7.962775787172592e-01, 1.411431350278424e+00, 3.379002435980348e-02, 0.000000000000000e+00, 0.000000000000000e+00, 0.000000000000000e+00, 6.082292685702098e+03, 6.923786338145704e+03, 9.381156393728534e+01, 1.343197043634667e+04, 6.626822707216968e+01, -8.146396660248429e+02, 7.111375186943485e+03
2375, 9.017737395793427e-01, 1.585269532028099e+00, 3.151455047595292e-02, 0.000000000000000e+00, 0.000000000000000e+00, 0.000000000000000e+00, 4.596840965277007e+03, 4.730432076598615e+03, -2.953787160383434e+02, 9.420583399253364e+03, 1.846085350690865e+03, -1.832840546244847e+03, 6.573102849456498e+03
2376, 1.075309258166441e+00, 1.356883806761879e+00, 1.780311518122804e-02, 0.000000000000000e+00, 0.000000000000000e+00, 0.000000000000000e+00, -8.209306133624104e+02, -8.250599431435209e+02, 4.557978371024576e+01, -1.598245488433868e+03, 2.415103261792349e+02, 2.814486294092256e+02, 1.009891050015139e+03
2377, 8.088668013828175e-01, 4.992491028425912e-01, 4.333380930858009e-02, 0.000000000000000e+00, 0.000000000000000e+00, 0.000000000000000e+00, 3.238058997516932e+02, 1.774211150210091e+02, -2.108857614942333e+01, 1.782724765919690e+02, 5.704331355060700e+02, -1.316337605989597e+02, 1.025086832813222e+03
2378, 8.285682002260286e-01, 5.001754499374951e-01, 4.077751474775691e-02, 0.000000000000000e+00, 0.000000000000000e+00, 0.000000000000000e+00, 1.643597206521893e+02, 1.622607291678935e+01, -2.310201533234847e+01, -2.001366345860254e+02, 5.678205460272732e+02, -1.187789833853729e+02, 1.054511243836315e+03
2379, 7.997923771273243e-01, 4.815831367658727e-01, 4.429416478566891e-02, 0.000000000000000e+00, 0.000000000000000e+00, 0.000000000000000e+00, 4.482263528301869e+02, 3.041154117579829e+02, -2.575440233383364e+01, 3.902163969364070e+02, 6.132683390220755e+02, -1.347988740934912e+02, 1.095705020986090e+03
2380, 8.104577562198432e-01, 4.647790946065772e-01, 4.274400030948928e-02, 0.000000000000000e+00, 0.000000000000000e+00, 0.000000000000000e+00, 2.919960175676927e+02, 1.389268095970426e+02, -2.786161668299129e+01, 6.222266388053068e+01, 5.727527922964899e+02, -1.070253548904360e+02, 1.030477619020847e+03
2381, 7.560546262589426e-01, 3.588344399624034e-01, 4.848521656637160e-02, 0.000000000000000e+00, 0.000000000000000e+00, 0.000000000000000e+00, 6.070102812986230e+02, 4.781104630437087e+02, -4.002788240605359e+01, 6.947111696740350e+02, 6.156511282032715e+02, -1.482589073639052e+02, 1.115095949890506e+03
2382, 7.652161415382523e-01, 3.764482588406143e-01, 4.753322945055542e-02, 0.000000000000000e+00, 0.000000000000000e+00, 0.000000000000000e+00, 5.217681711653520e+02, 3.848041150510334e+02, -4.430549513922946e+01, 4.983571945114053e+02, 5.741838406073355e+02, -1.563128872190712e+02, 1.041322284141518e+03
2383, 7.454102884398051e-01, 3.755487078284217e-01, 4.990409825685721e-02, 0.000000000000000e+00, 0.000000000000000e+00, 0.000000000000000e+00, 7.551930033512162e+02, 5.904718685740836e+02, -3.949273641165757e+01, 8.969002591564001e+02, 6.526276829131348e+02, -1.654081854106303e+02, 1.197949701855859e+03
2384, 7.545064478817640e-01, 3.931831462165473e-01, 4.898140441199050e-02, 0.000000000000000e+00, 0.000000000000000e+00, 0.000000000000000e+00, 7.272963352604953e+02, 5.624038543332466e+02, -4.282582106845105e+01, 8.298168141287392e+02, 6.424986270622705e+02, -1.714126695011123e+02, 1.177568407752990e+03
2385, 9.273832421821500e-01, 1.143086162149438e+00, 3.488882576772770e-02, 0.000000000000000e+00, 0.000000000000000e+00, 0.000000000000000e+00, 1.283210962780599e+03, 1.052220828450007e+03, -6.375444881859681e+01, 2.103366990709395e+03, 6.263580143150729e+02, -9.070758751847701e+01, 1.459215843592798e+03
2386, 6.993268690143414e-01, 9.802071306676070e-02, 5.291947496641230e-02, 0.000000000000000e+00, 0.000000000000000e+00, 0.000000000000000e+00, 8.404594629147304e+02, 7.127531058273294e+02, -3.889826554282431e+01, 1.174781159964492e+03, 5.348279166728928e+02, -1.001911409989985e+02, 1.031286399373634e+03
2387, 5.442717489897626e-01, 4.351151577640413e-01, 6.557142085524109e-02, 0.000000000000000e+00, 0.000000000000000e+00, 0.000000000000000e+00, 3.316413684875077e+03, 3.232329028345413e+03, -2.896438472775688e+01, 5.882342952828409e+03, 9.211539284313837e+02, -3.701965935059051e+02, 3.125067288659608e+03
2388, 5.641055360329559e-01, 4.360611730109659e-01, 6.481425976973278e-02, 0.000000000000000e+00, 0.000000000000000e+00, 0.000000000000000e+00, 3.058037839186092e+03, 3.002570344219644e+03, -4.315149099644388e+01, 5.499692278441002e+03, 9.618116620760294e+02, -3.428705528574943e+02, 3.038699939207993e+03
2389, 5.839867603083138e-01, 4.369661160780737e-01, 6.386448502292313e-02, 0.000000000000000e+00, 0.000000000000000e+00, 0.000000000000000e+00, 2.832053664162158e+03, 2.746227796371287e+03, -1.629063253731561e+01, 5.036732632256216e+03, 9.608085719854145e+02, -3.097782059107795e+02, 2.848743059363997e+03
2390, 5.731831799447720e-01, 4.537307154406015e-01, 6.417157301611064e-02, 0.000000000000000e+00, 0.000000000000000e+00, 0.000000000000000e+00, 2.924638000583098e+03, 2.858563692399005e+03, -1.913883932839399e+01, 5.225811330360333e+03, 9.793327155644051e+02, -3.293557045022029e+02, 2.942042670111698e+03
2391, 5.823017318637218e-01, 4.713615766636167e-01, 6.352294161461178e-02, 0.000000000000000e+00, 0.000000000000000e+00, 0.000000000000000e+00, 2.875440283919478e+03, 2.767438421887604e+03, -1.898946939080355e+00, 5.065125632425873e+03, 9.948365516250308e+02, -3.439144920886062e+02, 2.892545257644243e+03
2392, 7.888720968659502e-01, 1.359570874210055e+00, 3.662571422537898e-02, 0.000000000000000e+00, 0.000000000000000e+00, 0.000000000000000e+00, 6.265932423039297e+03, 6.445861146594544e+03, 1.956407684146363e+02, 1.288713035027302e+04, 5.990610009574846e+02, -9.631629208243510e+02, 6.830504319687188e+03
2393, 7.781836157743008e-01, 1.376130855139223e+00, 3.439694385678167e-02, 0.000000000000000e+00, 0.000000000000000e+00, 0.000000000000000e+00, 6.284398780020507e+03, 6.965503777429902e+03, 2.670325183449519e+02, 1.428836463494715e+04, -1.769937389533432e+02, -3.898144659475731e+02, 7.735605838166517e+03
2394, 9.887622227152443e-01, 5.158759761203715e-02, 4.891323241230663e-03, 0.000000000000000e+00, 0.000000000000000e+00, 0.000000000000000e+00, 7.529510921638264e+02, 5.964174388533667e+02, -2.218016066152218e+02, 4.225601036210663e+02, 3.062670229533934e+02, -1.715646842000364e+02, 7.741016278260804e+02
2395, 9.706027005365755e-01, 4.129713413211854e-02, 8.285851978911789e-03, 0.000000000000000e+00, 0.000000000000000e+00, 0.000000000000000e+00, -4.177755853282026e+03, -5.298839439681786e+03, 2.442453998889462e+02, -1.063514112769004e+04, -1.078481090298138e+03, -1.591315551064017e+03, 6.854237501670429e+03
2396, 9.539189466057725e-01, 3.040126362584364e-02, 1.129885623221616e-02, 0.000000000000000e+00, 0.000000000000000e+00, 0.000000000000000e+00, -5.617452925980922e+03, -4.966594434457825e+03, -7.062743043103092e+01, -8.970702443868637e+03, 2.354883247528304e+03, 6.138154657095131e+02, 5.624241134251238e+03
2397, 9.536754735372353e-01, 5.158664077216937e-02, 1.184556102062127e-02, 0.000000000000000e+00, 0.000000000000000e+00, 0.000000000000000e+00, -3.080556257802810e+03, -2.934037931556566e+03, 1.417125367670508e+02, -5.373323279460273e+03, 1.091755502095695e+03, -4.505091758274118e+02, 3.139919383172994e+03
2398, 9.709104833239733e-01, 6.200686677340565e-02, 8.726145673035085e-03, 0.000000000000000e+00, 0.000000000000000e+00, 0.000000000000000e+00, -3.411484903451551e+03, -2.940383183336941e+03, -1.466499327629161e+02, -7.255017684486660e+03, -4.065436377682771e+02, 7.432122215097129e+02, 4.361515904960208e+03
2399, 7.328845028497211e-01, 1.287940955084852e+00, 3.582197610751084e-02, 0.000000000000000e+00, 0.000000000000000e+00, 0.000000000000000e+00, 5.399094143221732e+03, 5.671597468772451e+03, 2.339059479401166e+01, 9.844772824307420e+03, -5.058639783606598e+01, 4.038573650798297e+01, 4.317530093331442e+03
2400, 8.465362210677188e-01, 1.173629577458667e+00, 4.191739668986708e-02, 0.000000000000000e+00, 0.000000000000000e+00, 0.000000000000000e+00, 2.506928558093056e+03, 2.312465702794217e+03, -4.483697483799320e+01, 3.910757970057964e+03, 7.461733718314345e+02, -2.541037936484918e+02, 2.037549232548827e+03
2401, 3.348556807343092e-01, 2.525671997116812e-01, 6.821371277005139e-02, 0.000000000000000e+00, 0.000000000000000e+00, 0.000000000000000e+00, 4.928813668552713e+03, 4.968045803532370e+03, 9.267756094658799e+01, 9.687680929512180e+03, 8.021321323798994e+02, -5.240930807166868e+02, 5.024111083682169e+03
2402, 3.546674547266356e-01, 2.535947323047593e-01, 6.950032827277651e-02, 0.000000000000000e+00, 0.000000000000000e+00, 0.000000000000000e+00, 4.719051807290638e+03, 4.787271837745757e+03, 7.379723946958015e+01, 9.290525026653198e+03, 8.955231804596151e+02, -5.360382483088837e+02, 4.886244952362335e+03
2403, 9.824727546462004e-01, 1.437694109152796e+00, 3.055551425285589e-02, 0.000000000000000e+00, 0.000000000000000e+00, 0.000000000000000e+00, 1.835285279660839e+03, 1.722484231848647e+03, 1.233016812738646e+02, 2.911163221880270e+03, 7.543221804419511e+02, -1.834000757958119e+02, 1.773448650252647e+03
2404, 9.627441818611969e-01, 1.436718575285945e+00, 3.232331586203750e-02, 0.000000000000000e+00, 0.000000000000000e+00, 0.000000000000000e+00, 2.379292402023908e+03, 2.135374768023037e+03, -6.161827836649823e+01, 4.615287607457921e+03, 8.335859473920344e+02, -7.373190315048416e+01, 2.777924628824330e+03
2405, 7.792556162678413e-01, 6.757180487979612e-02, 4.171625468166392e-02, 0.000000000000000e+00, 0.000000000000000e+00, 0.000000000000000e+00, 4.774018723376216e+01, -3.852258380113308e+01, -3.837610023381073e+01, -2.105189494291138e+02, 4.092328950912145e+02, -2.424017205741123e+01, 7.486364397146651e+02
2406, 7.897735157778992e-01, 5.092476153705709e-02, 3.989740233396579e-02, 0.000000000000000e+00, 0.000000000000000e+00, 0.000000000000000e+00, -7.200706858031272e+01, -1.812508155283119e+02, -1.371803853270159e+01, -4.566510942527223e+02, 3.402170681909638e+02, -4.320184016331119e+00, 6.824432388893769e+02
2407, 1.019992921698511e+00, 1.473715379150012e+00, 2.681426814241493e-02, 0.000000000000000e+00, 0.000000000000000e+00, 0.000000000000000e+00, 1.263339521223545e+03, 1.192233073220099e+03, -1.289893006557332e+02, 2.380709401336367e+03, 5.038410355471736e+02, -1.633209461722226e+02, 1.491484850725058e+03
2408, 1.028949285927248e+00, 1.491283392471170e+00, 2.592375194217197e-02, 0.000000000000000e+00, 0.000000000000000e+00, 0.000000000000000e+00, 1.092765732524039e+03, 1.114523346677981e+03, -5.757449042632597e+00, 1.672193368290376e+03, 4.907755024217648e+02, -5.438224138928661e+01, 1.027208024920130e+03
2409, 1.018592419019948e+00, 1.508022773854801e+00, 2.718425254076894e-02, 0.000000000000000e+00, 0.000000000000000e+00, 0.000000000000000e+00, 1.565155372672870e+03, 1.582834180569348e+03, -1.511496370350303e+02, 2.260521437483791e+03, 6.689072110241812e+02, -4.752697744605874e+02, 1.600014545564229e+03
2410, 1.048493574445158e+00, 1.492220278443916e+00, 2.356363990738597e-02, 0.000000000000000e+00, 0.000000000000000e+00, 0.000000000000000e+00, 9.011591640545809e+02, 8.141897230808772e+02, 3.344920939804322e+01, 9.330374559373786e+02, 4.643879080085783e+02, -6.445294196873425e+01, 8.210601851922768e+02
2411, 1.039537487861061e+00, 1.474693350807377e+00, 2.450589357607505e-02, 0.000000000000000e+00, 0.000000000000000e+00, 0.000000000000000e+00, 1.659297419095439e+03, 1.517667605309611e+03, -6.514096650229110e+00, 2.676398220735894e+03, 6.430274589342234e+02, -1.224337392899723e+01, 1.561933027309312e+03
2412, 8.702273659292645e-01, 1.517887625363806e+00, 3.324521799626887e-02, 0.000000000000000e+00, 0.000000000000000e+00, 0.000000000000000e+00, 6.003482590446783e+03, 6.130166985993587e+03, 2.426304022120752e+02, 1.142973335446261e+04, 1.664722365793228e+03, -1.278057257392596e+03, 6.493352466423159e+03
2413, 8.808464151672536e-01, 1.501352834029038e+00, 3.440562567746067e-02, 0.000000000000000e+00, 0.000000000000000e+00, 0.000000000000000e+00, 4.778665694282387e+03, 4.984222797406130e+03, 5.429010109036196e+01, 8.367955317062353e+03, 1.195832995464686e+03, -8.033585159637418e+02, 4.292143562554676e+03
2414, 8.861804313166269e-01, 8.969431197167700e-02, 2.503693493556899e-02, 0.000000000000000e+00, 0.000000000000000e+00, 0.000000000000000e+00, -1.277120430273908e+03, -1.390857186428111e+03, -8.907803022982637e+01, -2.629816429932042e+03, 4.306370482158495e+02, 1.830043108546699e+00, 1.506330241878623e+03
2415, 8.666722517047376e-01, 8.876178160064098e-02, 2.834474768088703e-02, 0.000000000000000e+00, 0.000000000000000e+00, 0.000000000000000e+00, -7.462994641774324e+02, -7.684976499313198e+02, 1.104162995673344e+01, -2.143764827515219e+03, 3.328361502392714e+02, 4.785699006509476e+01, 1.503980499025321e+03
2416, 8.651027795853191e-01, 1.230751700030192e-01, 2.926629012656055e-02, 0.000000000000000e+00, 0.000000000000000e+00, 0.000000000000000e+00, -1.323219973618887e+03, -1.367190277187827e+03, -6.113599202306023e+01, -2.597105755136945e+03, 6.060504208669665e+02, -1.843685262418270e+02, 1.668467756443341e+03
2417, 4.432433368659485e-01, 8.580522503772589e-02, 7.499480280517698e-02, 0.000000000000000e+00, 0.000000000000000e+00, 0.000000000000000e+00, 2.918574046531402e+03, 2.837397515291214e+03, -5.480339640107859e+01, 5.306206807579948e+03, 6.108521579743287e+02, -6.518203098727984e+02, 2.881707833705357e+03
2418, 4.629758650106831e-01, 8.676398111576125e-02, 7.406435394923105e-02, 0.000000000000000e+00, 0.000000000000000e+00, 0.000000000000000e+00, 2.894921917987319e+03, 2.751689070830864e+03, -8.915310129065783e+01, 5.219997768071327e+03, 6.141747569895343e+02, -5.761474687634774e+02, 2.812620669602824e+03
2419, 9.278394940677398e-01, 9.189091348365681e-01, 3.266737959327896e-02, 0.000000000000000e+00, 0.000000000000000e+00, 0.000000000000000e+00, 2.709939761878417e+02, 1.113399348172384e+02, -3.404632528540643e+01, 4.018452458204614e+01, 4.936658536571580e+02, -1.052627424089104e+02, 8.998604730495396e+02
2420, 7.707485146371009e-01, 1.324289127119819e+00, 3.731738137792970e-02, 0.000000000000000e+00, 0.000000000000000e+00, 0.000000000000000e+00, 4.040450376425007e+03, 4.014292463984757e+03, 5.499067545919784e+01, 7.646057240251828e+03, -7.938167769064631e+01, -3.349921296873222e+02, 3.668792130630316e+03
2421, 7.601016912495309e-01, 1.340858279933441e+00, 3.498421217393616e-02, 0.000000000000000e+00, 0.000000000000000e+00, 0.000000000000000e+00, 4.409412828117289e+03, 4.559731070417460e+03, 1.255707352574900e+02, 8.421750305690526e+03, -1.773320441971078e+02, -3.886198534004490e+02, 4.014105162111566e+03
2422, 7.357919239584654e-01, 9.959190444277399e-01, 4.928541797522166e-02, 0.000000000000000e+00, 0.000000000000000e+00, 0.000000000000000e+00, 3.305508983669304e+03, 3.202322554008843e+03, 1.525129846920061e+01, 5.768736892183322e+03, 9.843378527564138e+02, -3.469697724065625e+02, 3.098537681258997e+03
2423, 9.420906927274260e-01, 1.247113414949338e+00, 3.389580786794620e-02, 0.000000000000000e+00, 0.000000000000000e+00, 0.000000000000000e+00, 1.279838219170135e+03, 1.226714688457582e+03, -3.202575483092411e+01, 2.540768658308048e+03, 7.665661703464422e+02, -2.681500057742265e+02, 1.908248952059529e+03
2424, 3.966134748511406e-01, 2.212093600836968e-01, 7.246655437289221e-02, 0.000000000000000e+00, 0.000000000000000e+00, 0.000000000000000e+00, 4.121607567073560e+03, 4.130288244897590e+03, 2.934188692766302e+01, 7.818176421033064e+03, 9.292489846704150e+02, -4.527285571852944e+02, 4.103728941821944e+03
2425, 4.163600657107547e-01, 2.224297826302591e-01, 7.260563183280384e-02, 0.000000000000000e+00, 0.000000000000000e+00, 0.000000000000000e+00, 3.902235733281128e+03, 3.897553995206709e+03, 1.002946119419049e+00, 7.310032312516159e+03, 1.027743630461606e+03, -4.274745030211463e+02, 3.917401068933043e+03
2426, 9.765653538023437e-01, 1.351783356958956e+00, 3.080581772102590e-02, 0.000000000000000e+00, 0.000000000000000e+00, 0.000000000000000e+00, 1.573574279669486e+03, 1.386550638298744e+03, -7.800769236591159e+01, 2.657780064608522e+03, 7.114857812131621e+02, -3.229798457128372e+02, 1.806402982017496e+03
2427, 8.440107132983869e-01, 1.564268909656848e-01, 3.330077301189807e-02, 0.000000000000000e+00, 0.000000000000000e+00, 0.000000000000000e+00, -5.631060834687135e+02, -7.753426199736505e+02, -5.395361190680561e+01, -1.534903571938672e+03, 4.113119846082697e+02, 1.119293867069079e+02, 1.156301845745035e+03
2428, 8.349953228970821e-01, 1.387996926665626e-01, 3.441551716060108e-02, 0.000000000000000e+00, 0.000000000000000e+00, 0.000000000000000e+00, -4.861239293539165e+02, -6.482050654699212e+02, 3.932948579778693e+01, -1.171939496753431e+03, 4.182215741068890e+02, -8.731899174334045e+01, 9.683478818606073e+02
2429, 8.454919256386725e-01, 1.221266765210270e-01, 3.245153359729153e-02, 0.000000000000000e+00, 0.000000000000000e+00, 0.000000000000000e+00, -6.150739019072242e+02, -6.722914756043854e+02, 2.957375222389295e+01, -1.615673031365348e+03, 4.709498889592871e+02, -1.172206640171056e+02, 1.287030644776180e+03
2430, 1.084081476963555e+00, 1.374470183969561e+00, 1.672218884955953e-02, 0.000000000000000e+00, 0.000000000000000e+00, 0.000000000000000e+00, -1.753849417338947e+03, -1.612478139995176e+03, 2.913369392015418e+01, -3.104624012576887e+03, 7.673536558117860e+01, -1.698231523904730e+02, 1.463649394407957e+03
2431, 9.182803432624385e-01, 1.125419186477752e+00, 3.577290877614067e-02, 0.000000000000000e+00, 0.000000000000000e+00, 0.000000000000000e+00, 1.364332678214669e+03, 1.279883298368534e+03, -4.848789656855935e+01, 2.200395218435936e+03, 5.498642880994032e+02, -3.625999241088298e+02, 1.444049438615317e+03
2432, 9.092425849812287e-01, 1.107738750860388e+00, 3.664099528064121e-02, 0.000000000000000e+00, 0.000000000000000e+00, 0.000000000000000e+00, 1.095119839924783e+03, 9.759326352632490e+02, 4.970279667090495e+01, 1.614297439839825e+03, 6.290535260227432e+02, -1.934063120674715e+02, 1.285451057529465e+03
2433, 9.001128312410031e-01, 1.090051321386666e+00, 3.751025371364591e-02, 0.000000000000000e+00, 0.000000000000000e+00, 0.000000000000000e+00, 1.448914913941148e+03, 1.301175585071562e+03, -1.502731086150079e+00, 2.439990564008435e+03, 8.014545214817562e+02, -1.365737672988760e+02, 1.770149912071429e+03
2434, 8.244226190471149e-01, 1.554692041157523e-01, 3.634112579656808e-02, 0.000000000000000e+00, 0.000000000000000e+00, 0.000000000000000e+00, -5.456982359571564e+02, -6.950439137585411e+02, -8.139783603869458e+01, -1.295812296066029e+03, 4.394790675375480e+02, 1.016074438721942e+02, 1.050344484163530e+03
2435, 8.047418837446609e-01, 1.545741756432301e-01, 3.929681566045814e-02, 0.000000000000000e+00, 0.000000000000000e+00, 0.000000000000000e+00, -1.088549123389660e+02, -2.729098614644164e+02, -2.891260964431272e+01, -7.106513522283824e+02, 4.552471020362931e+02, -5.850705293039444e+01, 9.617027147308345e+02
2436, 7.851570121330402e-01, 1.536368861943275e-01, 4.213797711963772e-02, 0.000000000000000e+00, 0.000000000000000e+00, 0.000000000000000e+00, 7.926367971017713e+01, -6.500910982907209e+01, -2.639851134381934e+01, -2.869914938242360e+02, 4.881689509949502e+02, -6.247868973324891e+01, 9.115070009251483e+02
2437, 8.137987377300282e-01, 1.721838724066692e-01, 3.822368966774958e-02, 0.000000000000000e+00, 0.000000000000000e+00, 0.000000000000000e+00, -3.434090782629816e+02, -4.078444663981338e+02, -3.748424968666411e+01, -9.860432892150709e+02, 5.389009068402929e+02, -4.348104374986072e+01, 1.121094035359584e+03
2438, 8.228589813867435e-01, 1.898071604831278e-01, 3.714256413993811e-02, 0.000000000000000e+00, 0.000000000000000e+00, 0.000000000000000e+00, -3.623926646100630e+02, -6.616673596335334e+02, -1.504230007537623e+01, -1.323352605776085e+03, 5.512424588126752e+02, -1.362122043112774e+02, 1.301292899259493e+03
2439, 1.663141422892084e-01, 7.176061514273907e-02, 6.165472164573248e-02, 0.000000000000000e+00, 0.000000000000000e+00, 0.000000000000000e+00, 4.719397132197853e+03, 4.586182467633405e+03, 2.032394476778568e+02, 9.886556936916910e+03, -2.879254513902736e+02, -8.735388184276966e+02, 5.483380369110654e+03
2440, 4.234706989585974e-01, 8.485632578423900e-02, 7.576419011306233e-02, 0.000000000000000e+00, 0.000000000000000e+00, 0.000000000000000e+00, 3.052030717422881e+03, 2.947985447845487e+03, -6.689831373887296e+01, 5.492547115752854e+03, 6.393176504938826e+02, -7.016841930766136e+02, 2.989575110863470e+03
2441, 9.790722689588256e-01, 1.093870530306243e+00, 2.794744684284575e-02, 0.000000000000000e+00, 0.000000000000000e+00, 0.000000000000000e+00, 9.147978422374771e+01, -4.136052066751711e+01, -3.998617580540316e+01, -3.027954502325728e+02, 4.199414348401340e+02, -1.202303870310781e+02, 8.354274423929704e+02
2442, 9.939895791494324e-01, 1.197940606314209e+00, 2.726229218772766e-02, 0.000000000000000e+00, 0.000000000000000e+00, 0.000000000000000e+00, 6.495598748624727e+01, -4.504537088965713e+01, -5.186200881975569e+01, -1.839800110610965e+02, 4.361134302901638e+02, -2.043077455863370e+02, 8.663514720152402e+02
2443, 4.093725449245479e-01, 1.699810705844630e-01, 7.414038407473884e-02, 0.000000000000000e+00, 0.000000000000000e+00, 0.000000000000000e+00, 3.834758543635274e+03, 3.734783853686330e+03, -2.182925619777732e+01, 7.021905600702309e+03, 9.087765607178790e+02, -4.814454694155400e+02, 3.696073405943767e+03
2444, 9.101146613401179e-01, 1.297092776392913e+00, 3.683756265706102e-02, 0.000000000000000e+00, 0.000000000000000e+00, 0.000000000000000e+00, 1.917685461219268e+03, 2.016415998633590e+03, -9.157561014158219e+01, 3.147935243574583e+03, 5.792852878596494e+02, -4.053522138298795e+02, 1.710731681742727e+03
2445, 5.799621871955747e-01, 3.159187038654501e-01, 6.516109374505928e-02, 0.000000000000000e+00, 0.000000000000000e+00, 0.000000000000000e+00, 2.579345334564819e+03, 2.412256471836791e+03, -1.948411110618530e+01, 4.299749764816745e+03, 9.119585768852005e+02, -1.913861249014427e+02, 2.425118695527265e+03
2446, 9.356506542495143e-01, 1.384126411382985e+00, 3.460023538556529e-02, 0.000000000000000e+00, 0.000000000000000e+00, 0.000000000000000e+00, 2.533301321243702e+03, 2.476630634778318e+03, -1.708341898192587e+02, 4.108349248080990e+03, 8.105260251059649e+02, -3.043933370122000e+02, 2.215766858217883e+03
2447, 4.522535910054487e-01, 1.033954903346306e-01, 7.435659568280292e-02, 0.000000000000000e+00, 0.000000000000000e+00, 0.000000000000000e+00, 3.190350543681608e+03, 3.040659280148852e+03, -6.842635939990409e+01, 5.671472173485744e+03, 6.940599680302217e+02, -5.528739238377183e+02, 2.987639066659735e+03
2448, 2.844296752155424e-01, 2.671303695872039e-01, 6.181826302474774e-02, 0.000000000000000e+00, 0.000000000000000e+00, 0.000000000000000e+00, 5.458320219418501e+03, 5.628977905198973e+03, 1.951170281744098e+02, 1.112844555590933e+04, 4.802494288951202e+02, -4.633125730990815e+02, 5.715059145477724e+03
2449, 8.754481479155192e-01, 1.192260969651635e+00, 3.983004922278013e-02, 0.000000000000000e+00, 0.000000000000000e+00, 0.000000000000000e+00, 2.057525294059859e+03, 2.034650947093047e+03, -3.685774731415789e+01, 3.534978480027939e+03, 6.708302529044965e+02, -3.005490500430064e+02, 1.960176341294747e+03
2450, 8.556542968694264e-01, 1.191309357272506e+00, 4.121161326209429e-02, 0.000000000000000e+00, 0.000000000000000e+00, 0.000000000000000e+00, 2.631562483180723e+03, 2.545171853651092e+03, -4.496617058106895e+01, 4.316925757763438e+03, 7.045557368269467e+02, -3.995523669519340e+02, 2.228833958070489e+03
2451, 8.648714519684392e-01, 1.208954652640453e+00, 4.049227087271863e-02, 0.000000000000000e+00, 0.000000000000000e+00, 0.000000000000000e+00, 2.556212553067991e+03, 2.343218430021892e+03, -2.935705802079189e+01, 4.432351620086612e+03, 7.954380901684749e+02, -2.802244217039508e+02, 2.470060494509253e+03
2452, 5.154622181693163e-01, 4.164864806245728e-01, 6.665276999358723e-02, 0.000000000000000e+00, 0.000000000000000e+00, 0.000000000000000e+00, 3.358460778210278e+03, 3.331169022165338e+03, 1.681751547188772e+01, 6.117506603566383e+03, 9.225290621330195e+02, -3.501114724976895e+02, 3.257321006500423e+03
2453, 3.026897726875693e-01, 3.023649399545358e-01, 6.129986058929752e-02, 0.000000000000000e+00, 0.000000000000000e+00, 0.000000000000000e+00, 5.693619339137924e+03, 5.817858868545234e+03, 1.621748049626009e+02, 1.150741664106749e+04, 5.792379662724352e+02, -3.948045459695689e+02, 5.886122224613810e+03
2454, 3.134805122322449e-01, 2.857367930437971e-01, 6.396199843276738e-02, 0.000000000000000e+00, 0.000000000000000e+00, 0.000000000000000e+00, 5.479804342508972e+03, 5.579051604733023e+03, 1.441835123719592e+02, 1.101863664716839e+04, 6.806107162223849e+02, -4.862065184537674e+02, 5.683313224575334e+03
2455, 1.153665281379497e+00, 1.372198305767450e+00, 4.247832541547006e-03, 0.000000000000000e+00, 0.000000000000000e+00, 0.000000000000000e+00, 7.459791635998670e+02, 6.820791720106306e+02, 3.097161146444467e+02, 1.720299563703897e+03, -5.594900663599225e+02, 6.453251953053663e+02, 1.868645487384171e+03
2456, 4.956513978050811e-01, 4.154766350536296e-01, 6.686987446829383e-02, 0.000000000000000e+00, 0.000000000000000e+00, 0.000000000000000e+00, 3.638870644594443e+03, 3.577894073415975e+03, 2.293879635315108e+01, 6.550000163872265e+03, 9.777407732768152e+02, -3.905749637469723e+02, 3.461655665692569e+03
2457, 4.865869774686782e-01, 3.977875184343812e-01, 6.739979063003892e-02, 0.000000000000000e+00, 0.000000000000000e+00, 0.000000000000000e+00, 3.708541886764096e+03, 3.676091647384622e+03, 9.845926480677718e+00, 6.798620891393286e+03, 1.043011651211261e+03, -3.393136647366160e+02, 3.641322164545553e+03
2458, 8.574457325735172e-01, 7.124458850060231e-02, 2.954963966352172e-02, 0.000000000000000e+00, 0.000000000000000e+00, 0.000000000000000e+00, -7.899857464572469e+02, -9.565571565247294e+02, -3.278629479357946e+00, -1.986145132571018e+03, 3.668579156548133e+02, 1.890277469451673e+02, 1.330518042885773e+03
2459, 7.147641632480536e-01, 1.252573817194868e+00, 3.637109272078350e-02, 0.000000000000000e+00, 0.000000000000000e+00, 0.000000000000000e+00, 5.508500909040751e+03, 5.910237819429499e+03, 3.489834694653176e+02, 1.121749043210410e+04, 2.662607678621360e+02, 6.942531261492063e+02, 5.699513759266680e+03
2460, 6.573695444365339e-01, 3.541757236957127e-01, 5.896488438138702e-02, 0.000000000000000e+00, 0.000000000000000e+00, 0.000000000000000e+00, 1.767286503094201e+03, 1.683528450850964e+03, -4.250539222737218e+01, 2.939026134494867e+03, 7.651427411519073e+02, -2.567624120025191e+02, 1.854093573998493e+03
2461, 6.466751408578713e-01, 3.709832350448607e-01, 5.990690516909241e-02, 0.000000000000000e+00, 0.000000000000000e+00, 0.000000000000000e+00, 2.030623143937225e+03, 1.895920092509655e+03, -1.566907743213985e+01, 3.397152589712374e+03, 7.691337473809881e+02, -2.711002475588545e+02, 2.016319935220866e+03
2462, 9.733666260646532e-01, 1.420115547123557e+00, 3.137934852154408e-02, 0.000000000000000e+00, 0.000000000000000e+00, 0.000000000000000e+00, 1.989731175301107e+03, 1.811703562532188e+03, -9.950319412546979e+01, 3.820456057881248e+03, 9.177353768503256e+02, -2.476070113732784e+02, 2.539588948240174e+03
2463, 9.511761356195731e-01, 1.264782675111507e+00, 3.303330741383192e-02, 0.000000000000000e+00, 0.000000000000000e+00, 0.000000000000000e+00, 1.282686687509627e+03, 1.160865210426904e+03, 6.817019380092994e+01, 2.072741426346308e+03, 7.664586164524328e+02, -1.427975143767483e+02, 1.603983773735207e+03
2464, 9.708700296427105e-01, 1.265735290814235e+00, 3.086021283926813e-02, 0.000000000000000e+00, 0.000000000000000e+00, 0.000000000000000e+00, 9.498121045726574e+02, 8.182720056316671e+02, -3.751785677097907e+01, 1.265802619837103e+03, 5.370850533337609e+02, -2.528379745354683e+02, 1.104582809654414e+03
2465, 1.063453672273659e+00, 1.184201598841808e+00, 1.655466532017379e-02, 0.000000000000000e+00, 0.000000000000000e+00, 0.000000000000000e+00, -6.227149375823712e+02, -5.971210792446689e+02, 1.994589345632368e+01, -1.114178196399729e+03, 4.328825116629992e+02, -7.839730058459013e+01, 9.146383735124551e+02
2466, 1.100235427408117e-01, 2.007532838251183e-01, 1.478852060687318e-02, 0.000000000000000e+00, 0.000000000000000e+00, 0.000000000000000e+00, 1.782112733154541e+03, 1.478862675166788e+03, 1.974764476545783e+02, 3.588361827340656e+03, -1.081831852270031e+03, 6.280032876592117e+02, 2.951859961159263e+03
2467, 1.033744078264162e+00, 1.388684576480317e+00, 2.429792061932482e-02, 0.000000000000000e+00, 0.000000000000000e+00, 0.000000000000000e+00, 7.183397561338796e+02, 5.191916526360034e+02, -1.851135184253954e+01, 9.479410585436950e+02, 4.210841111859141e+02, -1.394427126396621e+02, 8.540478300284899e+02
2468, 1.380568079522909e-01, 5.295150812101579e-02, 5.821748314714652e-02, 0.000000000000000e+00, 0.000000000000000e+00, 0.000000000000000e+00, 4.121532339100104e+03, 4.058584365939819e+03, 2.084061848469851e+02, 7.987371022067243e+03, -6.880423428486426e+02, -9.640018368829880e+02, 4.419323784760990e+03
2469, 1.287108597647841e-01, 3.459590187480845e-02, 5.842388586623596e-02, 0.000000000000000e+00, 0.000000000000000e+00, 0.000000000000000e+00, 3.064230937734080e+03, 2.922897088269140e+03, 1.782124176497443e+02, 5.607024607905015e+03, -5.565643480600720e+02, -8.435465519003181e+02, 3.162979718168193e+03
2470, 1.072531736662373e+00, 1.201858837306638e+00, 1.536874198884105e-02, 0.000000000000000e+00, 0.000000000000000e+00, 0.000000000000000e+00, -4.526056010255567e+02, -5.087420746827800e+02, -2.302564568310049e+01, -9.878971961455010e+02, 4.372171394628517e+02, -2.116227997949860e+02, 9.844077728914740e+02
2471, 1.150629569228780e+00, 1.335178772514273e+00, 3.951968686800851e-03, 0.000000000000000e+00, 0.000000000000000e+00, 0.000000000000000e+00, -5.654845055157857e+01, -7.949282592573208e+01, -7.740939389843659e+00, -1.764769798225255e+02, 5.183378526165249e+01, -3.011675963133676e+01, 1.520482135520830e+02
2472, 3.834999529058665e-01, 2.722672716731774e-01, 7.002706655850791e-02, 0.000000000000000e+00, 0.000000000000000e+00, 0.000000000000000e+00, 4.643829675333475e+03, 4.657885330536102e+03, 5.576717750610405e+01, 8.938521237905481e+03, 9.998274808885394e+02, -4.334437559640133e+02, 4.685736212474892e+03
2473, 1.039193318609646e+00, 1.286191773680183e+00, 2.213490173822964e-02, 0.000000000000000e+00, 0.000000000000000e+00, 0.000000000000000e+00, -8.223091287357255e+02, -9.999828404871682e+02, -5.059829391543939e+00, -2.067650563588275e+03, 3.731955222009597e+02, 2.717607326765287e+01, 1.334651983832385e+03
2474, 1.162368862581803e+00, 1.434140842632799e+00, 4.023553264743067e-03, 0.000000000000000e+00, 0.000000000000000e+00, 0.000000000000000e+00, -8.100482182760091e+01, 2.990997358039150e+01, -9.971563353000839e+01, 3.850612474194356e+02, -3.739799904203514e+02, -3.093221654413422e+02, 9.561795744220290e+02
2475, 1.146306867002487e+00, 1.445452832134555e+00, 7.383041797726801e-03, 0.000000000000000e+00, 0.000000000000000e+00, 0.000000000000000e+00, -2.013322535135486e+03, -2.838705827713407e+03, 1.745634830543761e+02, -5.301056839595974e+03, -3.455049443629651e+01, -6.988848799948055e+02, 3.215141075654029e+03
2476, 1.144645515821879e+00, 1.426792861111570e+00, 7.271278275203185e-03, 0.000000000000000e+00, 0.000000000000000e+00, 0.000000000000000e+00, -7.022985109315866e+03, -8.279417989090014e+03, -1.755793703437370e+02, -1.718437140013598e+04, -2.468653427448415e+02, -2.113375010460713e+02, 9.616371329614591e+03
2477, 1.127986957246809e+00, 1.436560449453990e+00, 1.053101754913961e-02, 0.000000000000000e+00, 0.000000000000000e+00, 0.000000000000000e+00, -4.110437562417295e+03, -4.140323191594401e+03, 2.673337233561102e+02, -7.028325246162448e+03, 1.503234840980518e+03, -8.454585373738444e+02, 4.191146157327918e+03
2478, 1.128593917332242e+00, 1.418450453366090e+00, 1.003762624170653e-02, 0.000000000000000e+00, 0.000000000000000e+00, 0.000000000000000e+00, -3.948829548637923e+03, -3.583492952443446e+03, -1.305371504399516e+02, -6.014892170847073e+03, 1.770511544236396e+03, 2.673695294333488e+02, 3.850533274352717e+03
2479, 8.092905931971606e-01, 5.194025297598587e-02, 3.693729629512972e-02, 0.000000000000000e+00, 0.000000000000000e+00, 0.000000000000000e+00, -1.877634390458169e+02, -2.737196113544093e+02, -1.250171248701634e+01, -7.069954543528773e+02, 3.296874407972605e+02, 5.176799179064685e+01, 7.529603123191018e+02
2480, 8.002970928341450e-01, 3.429429887971269e-02, 3.802849140609559e-02, 0.000000000000000e+00, 0.000000000000000e+00, 0.000000000000000e+00, -7.038372083233943e+01, -1.408205513482022e+02, -5.942387764219578e+01, -4.324214160895675e+02, 2.647871902295880e+02, 6.732422477540642e+01, 5.874179652130766e+02
2481, 7.824542135089974e-01, 3.351839669925173e-02, 4.071678395941909e-02, 0.000000000000000e+00, 0.000000000000000e+00, 0.000000000000000e+00, -4.955594716850884e+01, -9.111223971863519e+01, -4.905635058521309e+01, -3.235869959161039e+02, 2.687129136186294e+02, 4.171057805636129e+01, 5.426702590878645e+02
2482, 7.704553493698278e-01, 5.057072157680732e-02, 4.274408891268302e-02, 0.000000000000000e+00, 0.000000000000000e+00, 0.000000000000000e+00, 8.059306980326848e+01, 1.150056722757656e+01, -4.713110611817994e+01, -1.029955678657948e+02, 3.747884696315178e+02, -1.712264945393116e+01, 6.743417035474512e+02
2483, 7.506850223912853e-01, 4.956490649383290e-02, 4.555137459272265e-02, 0.000000000000000e+00, 0.000000000000000e+00, 0.000000000000000e+00, 3.233928826858059e+02, 2.208067845658233e+02, -2.127595468172057e+01, 3.320120635020332e+02, 3.721512710380282e+02, -4.922990763462415e+01, 6.600006528027146e+02
2484, 7.431675067717090e-01, 3.281236707770389e-02, 4.637236089210449e-02, 0.000000000000000e+00, 0.000000000000000e+00, 0.000000000000000e+00, 3.479245830813819e+02, 2.735113920504241e+02, -6.632933689159273e+01, 4.168099787287605e+02, 3.026119761797606e+02, -8.529424144011959e+01, 5.702232833607277e+02
2485, 6.837118225135175e-01, 2.175468829606105e-01, 5.575859327914948e-02, 0.000000000000000e+00, 0.000000000000000e+00, 0.000000000000000e+00, 1.160984901441594e+03, 1.045125327209048e+03, -1.962721157057045e+01, 1.774034396567724e+03, 6.785992498985120e+02, -9.324590828401566e+01, 1.367118021361086e+03
2486, 6.943489818492448e-01, 2.008489265977775e-01, 5.443372031822421e-02, 0.000000000000000e+00, 0.000000000000000e+00, 0.000000000000000e+00, 1.091675808590913e+03, 9.388394116173829e+02, -2.725846686706462e+01, 1.580646959830717e+03, 6.525610036841014e+02, -8.087545110528649e+01, 1.279274606319537e+03
2487, 6.853466495735472e-01, 1.832039906493246e-01, 5.533141055300817e-02, 0.000000000000000e+00, 0.000000000000000e+00, 0.000000000000000e+00, 1.261076866951956e+03, 1.121835402617204e+03, -1.441223956501354e+01, 1.945388589679929e+03, 6.395376283900013e+02, -9.004669715190835e+01, 1.354595430716845e+03
2488, 1.004315085557355e+00, 1.699906859235502e-01, 4.679704536332014e-03, 0.000000000000000e+00, 0.000000000000000e+00, 0.000000000000000e+00, -2.122395125029748e+02, -6.798400460230820e+02, 1.173040356674479e+02, -1.328605725458676e+03, 2.449717803238133e+02, 3.128610707422242e+02, 1.207423174438032e+03
2489, 7.686817523947657e-01, 8.416785997996304e-02, 4.349191092210198e-02, 0.000000000000000e+00, 0.000000000000000e+00, 0.000000000000000e+00, 2.203101860552926e+02, 9.777122003224778e+01, -1.897405265021989e+01, 3.672911184363025e+01, 4.508823941795387e+02, -3.859735573270579e+01, 8.010343848807100e+02
2490, 7.419687713561546e-01, 1.305586092806187e+00, 3.554783515129532e-02, 0.000000000000000e+00, 0.000000000000000e+00, 0.000000000000000e+00, 4.821201854597785e+03, 4.606670535612058e+03, 1.424014860325929e+02, 8.947648959150061e+03, 7.042035065949798e+01, -1.048259645876545e+02, 4.250590383599335e+03
2491, 1.159926578158143e+00, 1.414428583245789e+00, 4.030065541408247e-03, 0.000000000000000e+00, 0.000000000000000e+00, 0.000000000000000e+00, 2.078743467766085e+02, 3.492053703208566e+02, 1.525568168536996e+02, 4.906881476828946e+02, -2.307992231430833e+02, 2.804743469168700e+02, 7.249902822768639e+02
2492, 4.127733761161967e-01, 1.014841872071418e-01, 7.574703896650396e-02, 0.000000000000000e+00, 0.000000000000000e+00, 0.000000000000000e+00, 3.381132325910116e+03, 3.252133763051730e+03, -4.655458443184082e+01, 6.196639782657852e+03, 7.409602117287396e+02, -6.381510627275527e+02, 3.343979323280907e+03
2493, 1.009953860870943e+00, 2.099037123689964e-01, 4.527618374323946e-03, 0.000000000000000e+00, 0.000000000000000e+00, 0.000000000000000e+00, 9.972460482217113e+01, 8.073355884463676e+02, 1.293596084357991e+02, 1.519187808591663e+03, -1.192387866157005e+03, 5.483098526954527e+02, 2.593966194037916e+03
2494, 9.958997279752815e-01, 2.205091140560236e-01, 7.613780360122737e-03, 0.000000000000000e+00, 0.000000000000000e+00, 0.000000000000000e+00, -6.892093133127865e+03, -8.107058623023175e+03, -7.321682412452651e+02, -1.872957676118019e+04, -7.358303196583489e+02, 8.817826324131570e+02, 1.152324595336251e+04
2495, 2.065551046766965e-01, 4.042719100316226e-02, 7.034144209163813e-02, 0.000000000000000e+00, 0.000000000000000e+00, 0.000000000000000e+00, 3.022618234859412e+03, 3.158484843203703e+03, 1.713928177907486e+02, 5.923803275778303e+03, 5.351737580416620e+01, -9.832925956835596e+02, 3.322419602325039e+03
2496, 1.972208384845155e-01, 2.312132596736435e-02, 7.058369572768403e-02, 0.000000000000000e+00, 0.000000000000000e+00, 0.000000000000000e+00, 2.206017912825144e+03, 2.582215161355965e+03, 3.898832292381041e+01, 4.067760467059423e+03, 2.099763125416113e+01, -8.545866781373657e+02, 2.259217878503736e+03
2497, 8.796378853893355e-01, 3.622911956266001e-02, 2.508212414224094e-02, 0.000000000000000e+00, 0.000000000000000e+00, 0.000000000000000e+00, -9.438594231676886e+02, -1.425723903787264e+03, -9.331168509742932e+01, -2.567033127341957e+03, 3.171662648223605e+02, 3.943421724506110e+02, 1.696808261106356e+03
2498, 8.598518188233623e-01, 3.637093796620582e-02, 2.847251902148539e-02, 0.000000000000000e+00, 0.000000000000000e+00, 0.000000000000000e+00, -1.300375852790957e+03, -1.331012925588749e+03, -6.356182236563801e+01, -2.424169050125036e+03, 4.378659422724303e+02, 3.532765212975279e+02, 1.480247619184548e+03
2499, 8.539826392997306e-01, 1.762254920357567e-02, 2.909531925535040e-02, 0.000000000000000e+00, 0.000000000000000e+00, 0.000000000000000e+00, -7.496212888669869e+01, -1.847552023255231e+02, -2.483157027630905e+01, -1.996554150168534e+02, 9.416673271625920e+01, 9.673097725003527e+01, 2.653960486469832e+02
2500, 2.808534866443442e-01, 1.466806004226280e-01, 7.037380259118411e-02, 0.000000000000000e+00, 0.000000000000000e+00, 0.000000000000000e+00, 5.074810508525134e+03, 5.137819809550974e+03, 8.952265342176088e+01, 9.973841770977575e+03, 7.105758302917945e+02, -5.414450633605126e+02, 5.110193554560855e+03
2501, 9.107617016921670e-01, 1.073306905231498e+00, 3.626878513741848e-02, 0.000000000000000e+00, 0.000000000000000e+00, 0.000000000000000e+00, 1.087107566999826e+03, 9.292942405780447e+02, -3.801907606897937e+01, 1.585579650477895e+03, 6.933325922339048e+02, -1.851225458807229e+02, 1.378884575808360e+03
2502, 9.417960754449742e-01, 1.611078507367194e-01, 1.660350439260595e-02, 0.000000000000000e+00, 0.000000000000000e+00, 0.000000000000000e+00, -2.101563586576315e+03, -2.576501740929121e+03, -2.346312048138187e+01, -4.919124076921066e+03, -9.606008779571339e+02, -3.706319484732147e+02, 3.163552466152799e+03
2503, 9.327877901778324e-01, 1.434671886290420e-01, 1.787222667879380e-02, 0.000000000000000e+00, 0.000000000000000e+00, 0.000000000000000e+00, -1.844669764800308e+03, -2.179697424065143e+03, -1.538232138290197e+02, -3.874163467725575e+03, 2.566803231660875e+02, 8.364455986119003e+02, 2.432840834180008e+03
2504, 9.433056203276153e-01, 1.266686315336596e-01, 1.554918572161411e-02, 0.000000000000000e+00, 0.000000000000000e+00, 0.000000000000000e+00, -1.292311588537191e+03, -1.203960776464492e+03, 1.385976682620919e+01, -2.482121539743077e+03, -3.789973211833161e+02, -2.492090944928594e+02, 1.465053912837118e+03
2505, 8.197819504930834e-01, 1.533029440241078e+00, 2.624035678222648e-02, 0.000000000000000e+00, 0.000000000000000e+00, 0.000000000000000e+00, 4.997023895529591e+03, 5.214238365757556e+03, 3.444780763292009e+02, 1.042065518999494e+04, -9.677353740190371e+02, -1.797799473320181e+02, 5.616703706982143e+03
2506, 9.207546182049804e-01, 1.945521617216862e-01, 2.114600819514208e-02, 0.000000000000000e+00, 0.000000000000000e+00, 0.000000000000000e+00, -1.551894192249574e+03, -1.728886087398621e+03, -6.342522738279868e+01, -3.329350639678060e+03, 4.569573387889022e+02, -2.139976821946101e+01, 1.875087818034827e+03
2507, 9.117606393436790e-01, 1.769004567748247e-01, 2.236626668992348e-02, 0.000000000000000e+00, 0.000000000000000e+00, 0.000000000000000e+00, -1.884086291894075e+03, -2.071887234006391e+03, -4.896975364252560e+01, -4.558149336556020e+03, -5.767853015348395e+01, 2.671720976631952e+02, 2.629640306159082e+03
2508, 9.222760512109931e-01, 1.601485139907974e-01, 2.014272739679032e-02, 0.000000000000000e+00, 0.000000000000000e+00, 0.000000000000000e+00, -2.927361358838146e+03, -3.008571993162594e+03, 2.764853385209598e+01, -5.599799080621131e+03, 1.295260284907593e+03, 1.086204855091364e+02, 3.464429874051914e+03
2509, 9.026749249691184e-01, 1.592461593686325e-01, 2.359251471752119e-02, 0.000000000000000e+00, 0.000000000000000e+00, 0.000000000000000e+00, -7.645206074320121e+02, -1.130342986111921e+03, -4.943970164092880e+01, -1.985919450464414e+03, 4.659126505198983e+02, 7.781752562259460e+01, 1.362185546961003e+03
2510, 2.659976597334940e-01, 4.395499003187691e-02, 7.531728894168252e-02, 0.000000000000000e+00, 0.000000000000000e+00, 0.000000000000000e+00, 3.264145318097299e+03, 3.192263885331279e+03, 7.615059681034727e+01, 6.309641147106766e+03, 4.011323225538408e+02, -9.721337071094746e+02, 3.582509788239797e+03
2511, 2.857465057033718e-01, 4.473099006147412e-02, 7.635233121169031e-02, 0.000000000000000e+00, 0.000000000000000e+00, 0.000000000000000e+00, 2.942073424373213e+03, 2.886313490811001e+03, 6.816959068388209e+01, 5.677403817143052e+03, 3.721856654870089e+02, -9.410013021439156e+02, 3.274694109187374e+03
2512, 2.954195106580798e-01, 6.199741722317813e-02, 7.597645102163630e-02, 0.000000000000000e+00, 0.000000000000000e+00, 0.000000000000000e+00, 3.486140393527018e+03, 3.442306885386151e+03, -7.285497831963600e+00, 6.687963196898008e+03, 4.751534479810049e+02, -1.072209157243186e+03, 3.810552037433514e+03
2513, 2.848492156900778e-01, 7.823981264929752e-02, 7.462699226352879e-02, 0.000000000000000e+00, 0.000000000000000e+00, 0.000000000000000e+00, 3.949772579707469e+03, 3.918238140948535e+03, 5.686870609209819e+01, 7.694444146739401e+03, 5.193305456495598e+02, -1.027300223109958e+03, 4.257522486529601e+03
2514, 8.600688613348171e-01, 6.741571126504606e-01, 3.869369850654279e-02, 0.000000000000000e+00, 0.000000000000000e+00, 0.000000000000000e+00, 2.376652419377491e+02, 1.052509881230735e+02, -2.758322352927432e+01, 5.342273667784872e+01, 5.369201702009415e+02, -1.416543323441176e+02, 9.769404594370121e+02
2515, 8.797797341772439e-01, 6.750856712556269e-01, 3.607241662948509e-02, 0.000000000000000e+00, 0.000000000000000e+00, 0.000000000000000e+00, -1.075445245736358e+02, -2.302233014739214e+02, -7.223983355873877e+01, -5.750291620810638e+02, 5.381402973368647e+02, -6.339500473386912e+01, 1.035731154520781e+03
2516, 9.261344602374825e-01, 5.736592797338780e-02, 1.718912498456463e-02, 0.000000000000000e+00, 0.000000000000000e+00, 0.000000000000000e+00, -6.104794212214651e+02, -7.645401850219475e+02, -2.832873137728674e+01, -1.532258118811030e+03, 2.133189502481424e+02, 1.416439430722177e+01, 9.332336904198004e+02
2517, 8.573242757862714e-01, 1.156989240501877e+00, 4.130874022877869e-02, 0.000000000000000e+00, 0.000000000000000e+00, 0.000000000000000e+00, 2.229692048116260e+03, 2.106332371904333e+03, -6.286822986735783e+00, 3.741674096302503e+03, 6.382560222083049e+02, -1.667876111160871e+02, 1.947693529127675e+03
2518, 8.936582810371873e-01, 1.227544487350693e+00, 3.831437843012905e-02, 0.000000000000000e+00, 0.000000000000000e+00, 0.000000000000000e+00, 2.112240183225999e+03, 1.911973306688849e+03, -6.319458293858840e+01, 3.527298571731924e+03, 7.256463176397316e+02, -2.408899166814714e+02, 2.022779929955253e+03
2519, 8.738677192462753e-01, 1.226585921940060e+00, 3.977995977422115e-02, 0.000000000000000e+00, 0.000000000000000e+00, 0.000000000000000e+00, 2.496650850645025e+03, 2.438495275231175e+03, -9.476150592860427e+01, 4.389799292014289e+03, 7.683010460263649e+02, -2.885981992998171e+02, 2.396905444916994e+03
2520, 6.554366168687564e-02, 1.117442339880941e-01, 1.483891485238381e-02, 0.000000000000000e+00, 0.000000000000000e+00, 0.000000000000000e+00, 2.285370999617856e+03, 1.732393570574391e+03, -1.092523082892417e+02, 3.198337503272744e+03, -8.646631707286175e+02, 5.384971456127505e+02, 2.189249795789292e+03
2521, 7.082108759270347e-02, 9.799372566752237e-02, 2.819642833906843e-02, 0.000000000000000e+00, 0.000000000000000e+00, 0.000000000000000e+00, 3.372361322887387e+03, 2.780072296981125e+03, -1.209060162382433e+02, 4.945270688191213e+03, -1.017135735262354e+03, 5.151184389476815e+02, 2.774897879570827e+03
2522, 6.183320112944035e-02, 8.009845579428325e-02, 2.826628865050247e-02, 0.000000000000000e+00, 0.000000000000000e+00, 0.000000000000000e+00, 3.253244736785749e+03, 2.365068621359342e+03, -1.357938837211225e+02, 4.586186713058719e+03, -1.162671851236349e+03, 2.485900638285301e+00, 2.803610944361857e+03
2523, 6.730723663713813e-01, 2.342264746668775e-01, 5.701686173575111e-02, 0.000000000000000e+00, 0.000000000000000e+00, 0.000000000000000e+00, 1.361566793580638e+03, 1.264433685388862e+03, -3.771397038812687e+01, 2.147029388802276e+03, 7.074071874225687e+02, -1.266701150918962e+02, 1.502118012591681e+03
2524, 5.925742495088797e-01, 4.231670976509573e-02, 6.442562501070052e-02, 0.000000000000000e+00, 0.000000000000000e+00, 0.000000000000000e+00, 1.178220807650995e+03, 1.151986080761374e+03, -5.397637048472014e+01, 2.061552972074475e+03, 3.192106473265826e+02, -3.863952724417617e+02, 1.251586405005511e+03
2525, 7.624745225655675e-01, 2.212927773576294e-01, 4.617544913756656e-02, 0.000000000000000e+00, 0.000000000000000e+00, 0.000000000000000e+00, 3.008235389315961e+02, 1.869938391996851e+02, -6.988169406394396e+00, 1.823875997244596e+02, 5.294020261962751e+02, -7.931026778340097e+01, 9.345154467017999e+02
2526, 7.518340570891935e-01, 2.379606108336740e-01, 4.776441424503348e-02, 0.000000000000000e+00, 0.000000000000000e+00, 0.000000000000000e+00, 5.354029767622700e+02, 3.738231447196666e+02, -2.720944993586697e+01, 4.807626375167821e+02, 5.460673508210981e+02, -9.934679797093823e+01, 9.729665503781363e+02
2527, 7.427467932877875e-01, 2.203504360083712e-01, 4.873567560065918e-02, 0.000000000000000e+00, 0.000000000000000e+00, 0.000000000000000e+00, 5.648436994251147e+02, 4.210725440309675e+02, -1.564598632353140e+01, 5.830572564432568e+02, 5.792828222985270e+02, -7.898317267240306e+01, 1.024585595696963e+03
2528, 7.230809038954281e-01, 2.194067578675470e-01, 5.118248178139094e-02, 0.000000000000000e+00, 0.000000000000000e+00, 0.000000000000000e+00, 7.576690804164070e+02, 6.305974593775538e+02, -2.102846477141964e+01, 1.000871623909519e+03, 5.871548378510630e+02, -8.411309171586495e+01, 1.078426099414819e+03
2529, 7.336964106642078e-01, 2.026883063515737e-01, 4.969525916442451e-02, 0.000000000000000e+00, 0.000000000000000e+00, 0.000000000000000e+00, 6.016852167752000e+02, 4.815446684909460e+02, -1.902484776256055e+01, 7.283073181239296e+02, 6.092358452708771e+02, -7.902062785205764e+01, 1.085819006758160e+03
2530, 7.534181727738719e-01, 2.036508346433253e-01, 4.716212333769872e-02, 0.000000000000000e+00, 0.000000000000000e+00, 0.000000000000000e+00, 4.114510963236823e+02, 2.629875890171259e+02, -9.238304538329958e+00, 3.237336425997145e+02, 5.493699710098948e+02, -6.025729058104143e+01, 9.660661887348562e+02
2531, 7.247351488844548e-01, 1.850517517169682e-01, 5.063769917167718e-02, 0.000000000000000e+00, 0.000000000000000e+00, 0.000000000000000e+00, 6.820373496181704e+02, 5.483694705623304e+02, -2.336396511394113e+01, 8.765288633625362e+02, 5.963102974029339e+02, -5.562903883202662e+01, 1.076740742144746e+03
2532, 7.140742092916661e-01, 2.017092477585036e-01, 5.211096068027627e-02, 0.000000000000000e+00, 0.000000000000000e+00, 0.000000000000000e+00, 8.699178232300856e+02, 7.341420971676032e+02, -3.318223573861563e+01, 1.187626579865293e+03, 6.158470815242275e+02, -8.785158105493682e+01, 1.151855375293339e+03
2533, 7.033861306778388e-01, 2.184876480742476e-01, 5.352626329529882e-02, 0.000000000000000e+00, 0.000000000000000e+00, 0.000000000000000e+00, 9.669948890379241e+02, 8.189568907433820e+02, -1.930624516043389e+01, 1.355627177966575e+03, 6.536574382963095e+02, -8.803899554586295e+01, 1.239619933084185e+03
2534, 7.124711120193077e-01, 2.361030108033461e-01, 5.260717382719537e-02, 0.000000000000000e+00, 0.000000000000000e+00, 0.000000000000000e+00, 9.118215134652546e+02, 7.704992444877392e+02, -2.529825912413645e+01, 1.245783358165158e+03, 6.400023680275044e+02, -1.104059275661077e+02, 1.202495841398628e+03
2535, 3.642402960259308e-01, 8.197777044052043e-02, 7.677896808413448e-02, 0.000000000000000e+00, 0.000000000000000e+00, 0.000000000000000e+00, 3.420957308391788e+03, 3.370889359863868e+03, 2.089468113824822e+01, 6.413455629399047e+03, 6.217719100947656e+02, -8.179561252385631e+02, 3.503662171029233e+03
2536, 3.749369794255175e-01, 6.537721578362114e-02, 7.721558939220224e-02, 0.000000000000000e+00, 0.000000000000000e+00, 0.000000000000000e+00, 3.161347100404206e+03, 3.106721686488640e+03, -4.962835054400313e+01, 5.810451867070225e+03, 6.177275337795571e+02, -8.936361320110240e+02, 3.273126317729130e+03
2537, 3.658899380499619e-01, 4.810462398257818e-02, 7.774918080846141e-02, 0.000000000000000e+00, 0.000000000000000e+00, 0.000000000000000e+00, 2.826738882029146e+03, 2.800610346782187e+03, -5.891248855939837e+01, 5.262268048168480e+03, 5.649900827212822e+02, -9.203005510739035e+02, 3.083023607872272e+03
2538, 3.461638578625265e-01, 4.735420867538885e-02, 7.778895990798441e-02, 0.000000000000000e+00, 0.000000000000000e+00, 0.000000000000000e+00, 2.672163369929739e+03, 2.618138536823581e+03, 1.881799221257894e+01, 5.034867938303160e+03, 4.264928415958664e+02, -8.862301977231195e+02, 2.935285156905488e+03
2539, 3.367049470582026e-01, 3.139752495373506e-02, 7.824056532378211e-02, 0.000000000000000e+00, 0.000000000000000e+00, 0.000000000000000e+00, 2.112645427193088e+03, 2.207495565362140e+03, 6.924987519730731e+00, 3.961922393089597e+03, 2.803630138280316e+02, -8.006612341278712e+02, 2.326488132359182e+03
2540, 1.145691647275972e+00, 1.295890654633429e+00, 3.978313215644248e-03, 0.000000000000000e+00, 0.000000000000000e+00, 0.000000000000000e+00, -9.892846560533681e+01, -2.324733510940022e+02, -6.850595259834095e+01, -6.624261315773924e+02, 2.028758964012937e+02, -1.012250112571470e+02, 6.545274769472243e+02
2541, 1.129383904872449e+00, 1.307157900589956e+00, 7.416776861615998e-03, 0.000000000000000e+00, 0.000000000000000e+00, 0.000000000000000e+00, -2.905863510860648e+03, -2.914882651229431e+03, 8.231160553522032e+01, -6.193713877331617e+03, -8.063914977631296e+02, -5.466933318574506e+02, 3.694338362242023e+03
2542, 5.008053680614913e-01, 1.228690646394073e-01, 7.160851805603070e-02, 0.000000000000000e+00, 0.000000000000000e+00, 0.000000000000000e+00, 2.776920295956935e+03, 2.728970169208881e+03, -6.703440014431852e+01, 5.055082165187670e+03, 7.051122712588552e+02, -3.701707111225024e+02, 2.686571925562507e+03
2543, 5.205125150785600e-01, 1.238195149309133e-01, 7.034434641665076e-02, 0.000000000000000e+00, 0.000000000000000e+00, 0.000000000000000e+00, 2.718165165498217e+03, 2.629321610693473e+03, -4.279298785378048e+01, 4.777037359796679e+03, 7.343671381843740e+02, -3.482191148439384e+02, 2.533162859057348e+03
2544, 5.312084665449048e-01, 1.071819553148324e-01, 6.968147365019838e-02, 0.000000000000000e+00, 0.000000000000000e+00, 0.000000000000000e+00, 2.450760846429306e+03, 2.283389051862437e+03, -5.561541651263492e+01, 4.320917361171759e+03, 6.714629679865640e+02, -3.735227407552102e+02, 2.370429211898341e+03
2545, 5.509159496912157e-01, 1.080941848302153e-01, 6.817628355554753e-02, 0.000000000000000e+00, 0.000000000000000e+00, 0.000000000000000e+00, 2.282241636325564e+03, 2.131154138659917e+03, -5.158435140552115e+01, 3.999961067193265e+03, 6.472582839055456e+02, -3.354751341843553e+02, 2.198944473328888e+03
2546, 5.599851643623314e-01, 1.256990751063579e-01, 6.741194235688526e-02, 0.000000000000000e+00, 0.000000000000000e+00, 0.000000000000000e+00, 2.250831576032268e+03, 2.106514781987480e+03, -4.710607496408195e+01, 3.901876611823484e+03, 6.826730018113238e+02, -2.524249386976001e+02, 2.140324707088720e+03
2547, 5.114776746879794e-01, 1.062216210546010e-01, 7.105871541161621e-02, 0.000000000000000e+00, 0.000000000000000e+00, 0.000000000000000e+00, 2.616051205979854e+03, 2.509884472370741e+03, -5.110213507973265e+01, 4.719148117685342e+03, 6.860758762156640e+02, -3.885039950772908e+02, 2.555446652917454e+03
2548, 5.418501736959508e-01, 9.053511955744718e-02, 6.893567950168572e-02, 0.000000000000000e+00, 0.000000000000000e+00, 0.000000000000000e+00, 2.162832761035478e+03, 2.069637740763217e+03, -7.289861889938778e+01, 3.817511648722505e+03, 6.103288071478117e+02, -4.289442738803461e+02, 2.141560487201503e+03
2549, 5.796599935564472e-01, 1.266498882623018e-01, 6.576087226997175e-02, 0.000000000000000e+00, 0.000000000000000e+00, 0.000000000000000e+00, 2.093144196186303e+03, 1.978865306646604e+03, -4.129391979386932e+01, 3.669397802565574e+03, 6.456641171237284e+02, -2.377855807445503e+02, 2.025624736982998e+03
2550, 5.903257188094155e-01, 1.099959127043949e-01, 6.479590099427447e-02, 0.000000000000000e+00, 0.000000000000000e+00, 0.000000000000000e+00, 2.039248616237797e+03, 1.877537932864916e+03, -5.436561797305821e+01, 3.490908458864446e+03, 6.256984378307815e+02, -2.885279395234669e+02, 1.949698215419316e+03
2551, 5.706301509641257e-01, 1.090393211857964e-01, 6.654556839581097e-02, 0.000000000000000e+00, 0.000000000000000e+00, 0.000000000000000e+00, 2.121381675138320e+03, 1.974990587188184e+03, -4.920627597998200e+01, 3.696039266407622e+03, 6.142928514801656e+02, -3.314611902059000e+02, 2.049493394737491e+03
2552, 6.878426489719554e-01, 3.383564912503859e-01, 5.598402067101775e-02, 0.000000000000000e+00, 0.000000000000000e+00, 0.000000000000000e+00, 1.297696383280299e+03, 1.173769080517064e+03, -2.755233365560352e+01, 2.001846348029752e+03, 7.568330872065070e+02, -1.793968776624571e+02, 1.554240854303275e+03
2553, 2.256099835932346e-01, 3.874865867447889e-02, 7.246545502127677e-02, 0.000000000000000e+00, 0.000000000000000e+00, 0.000000000000000e+00, 2.978946763486518e+03, 3.052306853745290e+03, 4.268666506360935e+01, 5.608089575503805e+03, 1.957263427608738e+02, -9.883652932773391e+02, 3.126641999265691e+03
2554, 7.526170829249327e-01, 1.288978931022134e+00, 3.799086773124077e-02, 0.000000000000000e+00, 0.000000000000000e+00, 0.000000000000000e+00, 4.732388600866644e+03, 5.141710744285814e+03, 2.688869544824191e+01, 9.094290643620334e+03, 2.543332147107249e+02, -7.913508127409861e+01, 4.198014196683528e+03
2555, 2.771461324467480e-01, 2.152754156341629e-01, 6.513838454344684e-02, 0.000000000000000e+00, 0.000000000000000e+00, 0.000000000000000e+00, 5.169017472578006e+03, 5.322810520620317e+03, 1.500652915067591e+02, 1.035310244566591e+04, 6.034241893927056e+02, -3.687106445489854e+02, 5.260121360851795e+03
2556, 3.925527913324718e-01, 2.899102712215371e-01, 6.959384825549703e-02, 0.000000000000000e+00, 0.000000000000000e+00, 0.000000000000000e+00, 4.611126256011044e+03, 4.692088751816239e+03, 6.314230601885041e+01, 8.970257751330806e+03, 1.023729601912592e+03, -4.069462938878304e+02, 4.723187457434141e+03
2557, 8.332491414386509e-02, 1.472993864458350e-01, 1.483949079438629e-02, 0.000000000000000e+00, 0.000000000000000e+00, 0.000000000000000e+00, 2.147912319392880e+03, 1.938999484484733e+03, 2.479676610534984e+02, 4.366996457328104e+03, -1.521190069138069e+03, 5.457075543118298e+02, 3.667626740631835e+03
2558, 5.038630475333326e-01, 5.419846618253849e-02, 7.188745811473773e-02, 0.000000000000000e+00, 0.000000000000000e+00, 0.000000000000000e+00, 2.133407128882769e+03, 2.066679610815427e+03, -3.779748792812758e+01, 3.796253262680264e+03, 4.950399285179412e+02, -5.761121566632286e+02, 2.148409322200156e+03
2559, 8.920698924887416e-01, 1.261884962264797e+00, 3.831858345677237e-02, 0.000000000000000e+00, 0.000000000000000e+00, 0.000000000000000e+00, 2.193193298258337e+03, 1.914967204308862e+03, -4.546262660106738e+01, 3.388780806350974e+03, 5.975239585964151e+02, -2.215922240526434e+02, 1.750456348223894e+03
2560, 4.952041777542312e-01, 2.260122203223591e-01, 7.076431501595487e-02, 0.000000000000000e+00, 0.000000000000000e+00, 0.000000000000000e+00, 3.199934808801203e+03, 3.104452999259197e+03, -2.660423629474099e+00, 5.712587544535127e+03, 8.603552172488766e+02, -3.368604583860210e+02, 3.020518600286879e+03
2561, 4.525326512604358e-01, 4.822164393752997e-01, 6.320707414627683e-02, 0.000000000000000e+00, 0.000000000000000e+00, 0.000000000000000e+00, 4.498052206584429e+03, 4.608222682078783e+03, 7.591668163909961e+01, 8.675408334774027e+03, 9.951927006621255e+02, -5.176062590509849e+02, 4.560097008252676e+03
2562, 4.724334027094552e-01, 4.832156600500209e-01, 6.406167553206850e-02, 0.000000000000000e+00, 0.000000000000000e+00, 0.000000000000000e+00, 4.243868107760856e+03, 4.248113290419325e+03, 4.824708210973304e+01, 7.934665454133739e+03, 9.596462835209138e+02, -5.039486214995610e+02, 4.139803608292899e+03
2563, 4.814639398754111e-01, 5.009830391232589e-01, 6.361282742991339e-02, 0.000000000000000e+00, 0.000000000000000e+00, 0.000000000000000e+00, 4.363714930088066e+03, 4.368488124481634e+03, 1.890081055227883e+01, 8.216633823083344e+03, 1.006217835820790e+03, -5.930352389887059e+02, 4.349733687694358e+03
2564, 4.706678169925476e-01, 5.176721783305519e-01, 6.238272429096760e-02, 0.000000000000000e+00, 0.000000000000000e+00, 0.000000000000000e+00, 4.515599437992544e+03, 4.517932167251054e+03, 8.095932295374912e+01, 8.729117211372086e+03, 1.019384418354937e+03, -5.610862841791954e+02, 4.671772569376190e+03
2565, 4.905018514681323e-01, 5.186502998154188e-01, 6.316476247489236e-02, 0.000000000000000e+00, 0.000000000000000e+00, 0.000000000000000e+00, 4.325776188400925e+03, 4.293158189318126e+03, 3.243565019172173e+01, 8.184172802472021e+03, 1.018797220118109e+03, -5.164146527778543e+02, 4.350999122585589e+03
2566, 5.534742695538351e-01, 3.890349748519597e-02, 6.804563838243086e-02, 0.000000000000000e+00, 0.000000000000000e+00, 0.000000000000000e+00, 1.514116712131687e+03, 1.468008688420357e+03, -8.775255981002192e+01, 2.525116081391828e+03, 4.277468238304253e+02, -4.528393209544067e+02, 1.502682528128607e+03
2567, 5.846475361378185e-01, 2.131791953436721e-02, 6.513728541780804e-02, 0.000000000000000e+00, 0.000000000000000e+00, 0.000000000000000e+00, 7.142966287138299e+02, 8.618560343405924e+02, -6.450584963555445e+01, 1.147115824091005e+03, 1.288136075650836e+02, -2.664580155066373e+02, 6.484606104758975e+02
2568, 8.997072491714333e-01, 2.279266127524663e-01, 2.548872083603003e-02, 0.000000000000000e+00, 0.000000000000000e+00, 0.000000000000000e+00, -1.701957614879019e+03, -1.947037922113122e+03, 3.861095051102880e+01, -4.270049415489159e+03, 8.647106692070017e+02, -2.856701182921983e+02, 2.918602305236305e+03
2569, 8.906664081302270e-01, 2.102797167975631e-01, 2.667273396161592e-02, 0.000000000000000e+00, 0.000000000000000e+00, 0.000000000000000e+00, -8.614820983523281e+02, -9.856376145859131e+02, -1.149597641814711e+02, -1.874972488650454e+03, 5.604957287650398e+02, 2.451333663207874e+01, 1.378645451116669e+03
2570, 8.710761841550868e-01, 2.093417489908207e-01, 2.990371594682223e-02, 0.000000000000000e+00, 0.000000000000000e+00, 0.000000000000000e+00, -9.629783831381715e+02, -9.540902050578404e+02, -7.503231109468771e+01, -1.818817533314162e+03, 4.264363460714065e+02, -7.514719714973513e+01, 1.148704148183353e+03
2571, 9.012226705586996e-01, 1.935693157938418e-01, 2.454257694453913e-02, 0.000000000000000e+00, 0.000000000000000e+00, 0.000000000000000e+00, -1.688762173160034e+03, -1.706986835419048e+03, 1.251351578412255e+01, -3.445259724766443e+03, 6.756556750223713e+02, -4.143390036591883e+02, 2.222304250128335e+03
2572, 9.175885844417130e-01, 4.874016807366062e-01, 2.746028616965652e-02, 0.000000000000000e+00, 0.000000000000000e+00, 0.000000000000000e+00, -1.416744453750124e+03, -1.647127467194870e+03, -2.679626798645945e+01, -3.080331955220446e+03, 5.736046983972820e+02, 2.983115394118969e+02, 1.921855327504546e+03
2573, 7.238797946105713e-01, 1.270283905900489e+00, 3.610379168979484e-02, 0.000000000000000e+00, 0.000000000000000e+00, 0.000000000000000e+00, 4.679612062109559e+03, 4.749575979779109e+03, 1.483760652499338e+02, 9.185086310092194e+03, 1.421166730718620e+02, 2.053519772145980e+02, 4.499124208088978e+03
2574, 7.345366482856743e-01, 1.253659778801311e+00, 3.865079858524159e-02, 0.000000000000000e+00, 0.000000000000000e+00, 0.000000000000000e+00, 5.727997444652600e+03, 5.733771321097504e+03, 2.653604656312342e+02, 1.061560366314143e+04, 7.775510450805326e+02, 2.550700012385411e+02, 5.106926177272978e+03
2575, 5.023315196781774e-01, 2.780681793007876e-01, 6.970160221148264e-02, 0.000000000000000e+00, 0.000000000000000e+00, 0.000000000000000e+00, 3.301432166229702e+03, 3.214009576255055e+03, -4.549303518286083e+01, 5.847452323237066e+03, 8.442926265637935e+02, -3.037325748018530e+02, 3.022234342820991e+03
2576, 7.279248790107636e-01, 1.165572781045540e-01, 4.948320203251522e-02, 0.000000000000000e+00, 0.000000000000000e+00, 0.000000000000000e+00, 6.142289297326379e+02, 4.948102949094750e+02, -3.151310009931582e+01, 7.662774684210171e+02, 5.041188400599534e+02, -8.749309504128115e+01, 9.186341837536951e+02
2577, 6.229581425637156e-01, 2.490388765516429e-01, 6.197649454476310e-02, 0.000000000000000e+00, 0.000000000000000e+00, 0.000000000000000e+00, 2.019851478970989e+03, 1.862236219407389e+03, -3.058497998405314e+01, 3.357546599438700e+03, 7.891985016938586e+02, -1.783031971549746e+02, 1.997948249474028e+03
2578, 6.139601655705303e-01, 2.313857755543690e-01, 6.276707982901289e-02, 0.000000000000000e+00, 0.000000000000000e+00, 0.000000000000000e+00, 2.068318553339755e+03, 1.943461605605108e+03, -3.331184376517371e+01, 3.441818872482486e+03, 7.756370483197554e+02, -2.339107766029135e+02, 2.011440708760790e+03
2579, 8.032590011618633e-01, 1.888736428579903e-01, 4.004077620409199e-02, 0.000000000000000e+00, 0.000000000000000e+00, 0.000000000000000e+00, -9.348098792669700e+01, -1.919722342999245e+02, -4.713171691134898e+01, -4.753141504836124e+02, 5.366364372128254e+02, -4.337725958764882e+01, 9.970630967757093e+02
2580, 5.436073341464494e-01, 2.454600258709178e-01, 6.799464008514992e-02, 0.000000000000000e+00, 0.000000000000000e+00, 0.000000000000000e+00, 2.817298400829651e+03, 2.729188595511892e+03, -2.676607902233471e+01, 5.056495543693826e+03, 8.511312948906142e+02, -3.167603185785833e+02, 2.774075777154130e+03
2581, 2.323983279014292e-01, 1.270152875402313e-01, 6.665077905603231e-02, 0.000000000000000e+00, 0.000000000000000e+00, 0.000000000000000e+00, 5.335080535095143e+03, 5.348622951862080e+03, 1.761682366137326e+02, 1.075085082947738e+04, 3.081028658985675e+02, -4.881692357566751e+02, 5.509103750978164e+03
2582, 2.429993503394654e-01, 1.104753701923172e-01, 6.917796407903823e-02, 0.000000000000000e+00, 0.000000000000000e+00, 0.000000000000000e+00, 4.997648315065771e+03, 4.956919619618566e+03, 1.441468394606032e+02, 1.009012212544512e+04, 4.709915898348887e+02, -7.194271451835491e+02, 5.331314900629500e+03
2583, 2.233794564704112e-01, 1.094177733896273e-01, 6.693426926104860e-02, 0.000000000000000e+00, 0.000000000000000e+00, 0.000000000000000e+00, 5.362493271251094e+03, 5.357449506204101e+03, 1.183032011329975e+02, 1.077449739574077e+04, 2.794718610489645e+02, -6.684845839222870e+02, 5.561836601579653e+03
2584, 2.340048481458246e-01, 9.287161268891744e-02, 6.949241823918602e-02, 0.000000000000000e+00, 0.000000000000000e+00, 0.000000000000000e+00, 4.915623510393825e+03, 4.795247540675083e+03, 1.183620935457448e+02, 9.855364975708293e+03, 3.391466386191245e+02, -8.923751646036362e+02, 5.271266704835718e+03
2585, 9.166174551612100e-01, 1.159830411602222e+00, 3.612595855122382e-02, 0.000000000000000e+00, 0.000000000000000e+00, 0.000000000000000e+00, 1.389224384571324e+03, 1.284913753482867e+03, -4.141428911487868e+01, 2.223186524147686e+03, 5.723961118730537e+02, -1.775117772503022e+02, 1.369654454585706e+03
2586, 7.895732386316053e-01, 2.742398262895397e-01, 4.318471674885694e-02, 0.000000000000000e+00, 0.000000000000000e+00, 0.000000000000000e+00, 1.534406514820620e+02, 4.904621928777057e+00, -1.892989817350149e+01, -1.333079738818099e+02, 5.221070063074006e+02, -9.012859779313928e+01, 9.512764674861828e+02
2587, 4.537061563309471e-01, 2.585117314709781e-01, 7.139754271082091e-02, 0.000000000000000e+00, 0.000000000000000e+00, 0.000000000000000e+00, 3.677291786168034e+03, 3.576154695254252e+03, -4.169015077157659e+00, 6.607635175138354e+03, 9.997068166370256e+02, -3.776356464437699e+02, 3.509932597405000e+03
2588, 4.446298096166817e-01, 2.409376575298006e-01, 7.195267578160762e-02, 0.000000000000000e+00, 0.000000000000000e+00, 0.000000000000000e+00, 3.763776274693956e+03, 3.678356676478974e+03, -1.725510150379400e+01, 6.774205415363800e+03, 1.026407258980788e+03, -4.125394171879001e+02, 3.605429915842818e+03
2589, 4.922309089857831e-01, 4.842721128904077e-01, 6.457838462329057e-02, 0.000000000000000e+00, 0.000000000000000e+00, 0.000000000000000e+00, 3.981036400511879e+03, 3.999286417906346e+03, 2.237014118794484e+01, 7.511577182050009e+03, 8.922385036678359e+02, -5.145834824441777e+02, 3.947755974691131e+03
2590, 8.725858083233163e-01, 3.988400517901581e-01, 3.299662111675823e-02, 0.000000000000000e+00, 0.000000000000000e+00, 0.000000000000000e+00, -7.393999263878104e+02, -9.282139749654688e+02, -3.308959919824228e+01, -1.742554783423579e+03, 3.876065598659257e+02, 4.789657573306894e+01, 1.146055944798040e+03
2591, 4.291431899728279e-01, 1.709028103735562e-01, 7.387621145412444e-02, 0.000000000000000e+00, 0.000000000000000e+00, 0.000000000000000e+00, 3.644498057561891e+03, 3.592653524895488e+03, -1.310967644818854e+01, 6.696604174320926e+03, 8.483682395412472e+02, -4.298561928005314e+02, 3.491461765321300e+03
2592, 4.399048747871959e-01, 1.542773973323767e-01, 7.397498648802264e-02, 0.000000000000000e+00, 0.000000000000000e+00, 0.000000000000000e+00, 3.440811064902398e+03, 3.331945236627194e+03, -2.390610237449294e+01, 6.290779660469469e+03, 8.321974361106628e+02, -4.509347787331621e+02, 3.336740281054610e+03
2593, 8.257871874942062e-01, 3.448622457652693e-01, 3.908643249367239e-02, 0.000000000000000e+00, 0.000000000000000e+00, 0.000000000000000e+00, -1.493864878552489e+02, -3.110312986312239e+02, -1.944739487828247e+01, -7.247002999523081e+02, 4.598147184915411e+02, -7.833654571924124e+01, 9.580979634984653e+02
2594, 8.363785998239794e-01, 3.281491325704272e-01, 3.730311353662325e-02, 0.000000000000000e+00, 0.000000000000000e+00, 0.000000000000000e+00, -1.777450326102796e+02, -3.555682298503885e+02, -1.731508834820074e+01, -7.964627639102695e+02, 4.432719540138335e+02, -9.415472305876931e+01, 9.598829113255716e+02
2595, 8.273295232857985e-01, 3.104703808696782e-01, 3.835892562101173e-02, 0.000000000000000e+00, 0.000000000000000e+00, 0.000000000000000e+00, -1.891148998773711e+02, -3.378790227669226e+02, -1.153479083782157e+01, -8.326908101285512e+02, 4.717431266315785e+02, -1.009002975481733e+02, 1.019385210615070e+03
2596, 8.378967022486499e-01, 2.937608873101216e-01, 3.654372720947525e-02, 0.000000000000000e+00, 0.000000000000000e+00, 0.000000000000000e+00, -3.305720579565098e+02, -5.023026719210785e+02, -2.796381201879732e+01, -1.122331425276867e+03, 4.731165487292878e+02, -6.796851518566430e+01, 1.099148700045674e+03
2597, 6.104434973810222e-01, 3.000094429469308e-01, 6.299561625249424e-02, 0.000000000000000e+00, 0.000000000000000e+00, 0.000000000000000e+00, 2.091473015170302e+03, 1.978768940081956e+03, -1.028805356712023e+01, 3.518492262870238e+03, 8.269420844983150e+02, -2.034833897220940e+02, 2.094266139117265e+03
2598, 8.781877149633210e-01, 7.095244319249114e-01, 3.672453693264924e-02, 0.000000000000000e+00, 0.000000000000000e+00, 0.000000000000000e+00, 1.487004455697521e+02, -8.346587168587781e+00, -3.333247509491937e+00, -1.896407189072787e+02, 5.341484145372174e+02, -1.811170140682929e+02, 1.019995134482037e+03
2599, 8.978957470961106e-01, 7.104598091870914e-01, 3.403780539405528e-02, 0.000000000000000e+00, 0.000000000000000e+00, 0.000000000000000e+00, -4.260943142404900e+02, -5.541678244325543e+02, -3.523136853156849e+01, -1.173224677801789e+03, 4.964764979806001e+02, -1.496962755026914e+02, 1.135489501387390e+03
2600, 7.907768536391515e-01, 4.638930667985584e-01, 4.523983752677371e-02, 0.000000000000000e+00, 0.000000000000000e+00, 0.000000000000000e+00, 4.582231681757643e+02, 3.009633696946350e+02, -2.649239849388787e+01, 3.963263023096636e+02, 6.057397793618131e+02, -1.293329351504933e+02, 1.082532486510844e+03
2601, 8.013970141935138e-01, 4.471134329227867e-01, 4.371733713458018e-02, 0.000000000000000e+00, 0.000000000000000e+00, 0.000000000000000e+00, 3.324663767040881e+02, 1.760737045151865e+02, -3.010852903884432e+01, 1.741096898605444e+02, 5.844690845733878e+02, -1.191698181424437e+02, 1.046377523872300e+03
2602, 7.816880132781057e-01, 4.461603113095371e-01, 4.618731548175545e-02, 0.000000000000000e+00, 0.000000000000000e+00, 0.000000000000000e+00, 5.026931375779914e+02, 3.618185404157039e+02, -3.542568009985679e+01, 4.977139856798710e+02, 6.085283036699606e+02, -1.357064799081730e+02, 1.090459893651544e+03
2603, 7.726633971422272e-01, 4.285095324895275e-01, 4.712102948477315e-02, 0.000000000000000e+00, 0.000000000000000e+00, 0.000000000000000e+00, 5.692376796204027e+02, 4.272236672169863e+02, -4.970257164873458e+01, 5.963104376800939e+02, 6.100674092083391e+02, -1.589367421862803e+02, 1.106564981018802e+03
2604, 3.151286724773237e-01, 2.515340452075495e-01, 6.658114178981692e-02, 0.000000000000000e+00, 0.000000000000000e+00, 0.000000000000000e+00, 5.126123713223334e+03, 5.242832146827013e+03, 1.240256331836099e+02, 1.017629480394492e+04, 7.363184442200426e+02, -5.567968101864286e+02, 5.247014487979104e+03
2605, 3.258746249643616e-01, 2.349218676279889e-01, 6.858192170701237e-02, 0.000000000000000e+00, 0.000000000000000e+00, 0.000000000000000e+00, 4.863078304669421e+03, 4.951613939172488e+03, 1.131043654150030e+02, 9.552751768171400e+03, 8.073548792997549e+02, -5.680064915192536e+02, 4.954534302655231e+03
2606, 9.146953526120144e-01, 3.320493824022745e-01, 2.499855548068278e-02, 0.000000000000000e+00, 0.000000000000000e+00, 0.000000000000000e+00, -1.290573973787084e+03, -1.395788968265689e+03, -9.304622100083775e+01, -2.332686727788013e+03, -8.658484562854703e+01, -5.202109824967463e+02, 1.359317954928905e+03
2607, 8.092282697246060e-01, 2.751731214072692e-01, 4.044872949113219e-02, 0.000000000000000e+00, 0.000000000000000e+00, 0.000000000000000e+00, -5.122718176977951e+01, -2.065362751997839e+02, -2.429334225115264e+01, -5.551077888515019e+02, 5.302319446776906e+02, -7.335544304099102e+01, 1.030102251423005e+03
2608, 8.182694613253361e-01, 2.928096512108934e-01, 3.940880942306805e-02, 0.000000000000000e+00, 0.000000000000000e+00, 0.000000000000000e+00, -1.659740504529065e+02, -3.210234608072279e+02, -2.926241366393885e+01, -7.764510080280069e+02, 4.920059667907540e+02, -8.494035852917111e+01, 1.025910043439033e+03
2609, 8.076693393297097e-01, 3.095167433203043e-01, 4.115141320624825e-02, 0.000000000000000e+00, 0.000000000000000e+00, 0.000000000000000e+00, 1.513503092087134e+01, -1.676138591382854e+02, -1.010578262691302e+01, -4.941321119097864e+02, 5.387296094312559e+02, -9.630551812611424e+01, 1.048094265662607e+03
2610, 8.984965209781166e-01, 1.124482607555025e+00, 3.781344238171275e-02, 0.000000000000000e+00, 0.000000000000000e+00, 0.000000000000000e+00, 1.580224236932848e+03, 1.440195380436144e+03, 3.992932479409380e+01, 2.465924921496277e+03, 6.348056069056481e+02, -1.954409199896515e+02, 1.502133957267777e+03
2611, 1.013675244754206e+00, 1.198934478302194e+00, 2.453843849853062e-02, 0.000000000000000e+00, 0.000000000000000e+00, 0.000000000000000e+00, -4.451608571533686e+02, -6.270861744083948e+02, -1.516787370307776e+02, -1.345149872945258e+03, 5.255402843393809e+02, 2.351343647881849e+02, 1.320154483416905e+03
2612, 2.363673525011228e-01, 2.470233051055396e-01, 5.584460245729374e-02, 0.000000000000000e+00, 0.000000000000000e+00, 0.000000000000000e+00, 5.594436331644732e+03, 5.802571498221446e+03, 2.258976796456804e+02, 1.153486522227407e+04, 1.070141371577150e+01, -1.285631609638001e+02, 5.856502522866945e+03
2613, 3.494308307963026e-01, 3.565297707034727e-01, 6.267786292418023e-02, 0.000000000000000e+00, 0.000000000000000e+00, 0.000000000000000e+00, 5.223785529509398e+03, 5.415021739902088e+03, 1.476532919050269e+02, 1.055450722345255e+04, 8.066482429464777e+02, -3.843795121013053e+02, 5.467579860082569e+03
2614, 3.584515974879470e-01, 3.742142277257249e-01, 6.235572889762995e-02, 0.000000000000000e+00, 0.000000000000000e+00, 0.000000000000000e+00, 5.454607428962806e+03, 5.596757260280318e+03, 1.310595601497481e+02, 1.083255095193374e+04, 7.675346832005896e+02, -3.479145940620634e+02, 5.509991046738163e+03
2615, 1.363795247457524e-01, 2.536106819574681e-01, 1.467054028797799e-02, 0.000000000000000e+00, 0.000000000000000e+00, 0.000000000000000e+00, 1.876157597104006e+03, 2.088510160852497e+03, 1.428881064161623e+02, 4.386677098001586e+03, -1.369681680801890e+03, 6.661682798384555e+02, 3.582647318337189e+03
2616, 1.424023602870842e-01, 2.399092501888824e-01, 2.774353524581431e-02, 0.000000000000000e+00, 0.000000000000000e+00, 0.000000000000000e+00, 3.325040815844962e+03, 2.963314197618445e+03, -2.722817581432566e+02, 6.294026971933359e+03, -1.031736102667595e+03, 1.273082564896127e+02, 3.672078248592822e+03
2617, 1.532005245202577e-01, 1.560216769734609e-01, 4.809391821443773e-02, 0.000000000000000e+00, 0.000000000000000e+00, 0.000000000000000e+00, 5.031008106432057e+03, 4.921461874563647e+03, -2.905422027198792e+01, 9.180510238167109e+03, -1.174654920193829e+03, 4.447205951361562e+02, 4.735001040318803e+03
2618, 1.634174097057084e-01, 1.397299412509749e-01, 5.305263864843898e-02, 0.000000000000000e+00, 0.000000000000000e+00, 0.000000000000000e+00, 5.323267322095731e+03, 5.491446664486512e+03, 1.024082173951784e+02, 1.078337159105344e+04, -8.931179277381478e+02, 2.871121177966673e+02, 5.620897393284091e+03
2619, 1.442705254704471e-01, 1.383664451542663e-01, 4.825241146529863e-02, 0.000000000000000e+00, 0.000000000000000e+00, 0.000000000000000e+00, 5.370356435231301e+03, 5.131802910595540e+03, -6.436897927920165e+00, 9.655785568795025e+03, -1.206138844443760e+03, 4.228136524858089e+02, 4.934051687880827e+03
2620, 9.221982827457091e-01, 3.841367568443488e-01, 2.475102723305065e-02, 0.000000000000000e+00, 0.000000000000000e+00, 0.000000000000000e+00, -9.710475473670202e+02, -1.022442524185966e+03, -6.093048891145322e+01, -2.178882873029774e+03, 4.940985021070344e+02, 1.691884508435905e+02, 1.492930911825562e+03
2621, 7.486773434194607e-01, 3.066672611792493e-01, 4.888651802951870e-02, 0.000000000000000e+00, 0.000000000000000e+00, 0.000000000000000e+00, 6.569733687136678e+02, 4.858045712601639e+02, -4.172429151250366e+01, 6.643170747098671e+02, 5.843970388531183e+02, -8.739464460527647e+01, 1.040819686039924e+03
2622, 6.966422843386476e-01, 1.217201932200957e+00, 3.690460365790262e-02, 0.000000000000000e+00, 0.000000000000000e+00, 0.000000000000000e+00, 7.088312959059165e+03, 7.353173422676064e+03, 1.393884719623726e+02, 1.414490455746282e+04, -6.739805515476572e+02, 3.899445889345815e+02, 7.062140685854368e+03
2623, 7.057546382078083e-01, 1.234915125404875e+00, 3.664473208312349e-02, 0.000000000000000e+00, 0.000000000000000e+00, 0.000000000000000e+00, 5.403920552105476e+03, 6.244327701995772e+03, -6.110758966539251e+01, 1.243620653289609e+04, -1.217555605313465e+02, 5.225333534894341e+02, 6.717450844889973e+03
2624, 7.164034648242560e-01, 1.218302079810293e+00, 3.928994093971748e-02, 0.000000000000000e+00, 0.000000000000000e+00, 0.000000000000000e+00, 6.384250680089909e+03, 6.677618197224201e+03, -3.376191881301421e+01, 1.299279827289140e+04, 5.281294126031412e+02, 3.783489825760190e+02, 6.564286562603153e+03
2625, 1.054536670162742e+00, 1.166501218723040e+00, 1.769755183949080e-02, 0.000000000000000e+00, 0.000000000000000e+00, 0.000000000000000e+00, -1.350150869291149e+03, -1.305952031638071e+03, -2.295994892402840e+00, -2.648383949984791e+03, -3.363122822987763e+02, -3.684319391760897e+02, 1.578386204987378e+03
2626, 1.139595706503375e+00, 1.255613975412834e+00, 4.211246785458200e-03, 0.000000000000000e+00, 0.000000000000000e+00, 0.000000000000000e+00, 1.405170716725343e+01, -7.543981797283399e+01, 1.023495661762344e+01, -2.537680569512656e+02, 9.859988849203435e+01, -5.342751379837559e+01, 3.062876665907704e+02
2627, 1.024549884296547e+00, 3.279910488181022e-01, 4.503075483867060e-03, 0.000000000000000e+00, 0.000000000000000e+00, 0.000000000000000e+00, 2.512153424746221e+02, 3.800194989417898e+01, 4.762268747721797e+01, -3.240985943050381e+00, 1.824930952329165e+02, 1.045959484645602e+02, 4.421429232932506e+02
2628, 1.005510543217383e+00, 3.185265787704826e-01, 8.082631709694942e-03, 0.000000000000000e+00, 0.000000000000000e+00, 0.000000000000000e+00, -3.381262471184396e+03, -3.400156019909498e+03, -7.178859273148291e-01, -6.630158384855220e+03, -1.126436369908428e+03, -4.646729960205667e+02, 3.866347069642470e+03
2629, 1.026527962068676e+00, 3.477693995225201e-01, 4.593741457922317e-03, 0.000000000000000e+00, 0.000000000000000e+00, 0.000000000000000e+00, -3.692088822165526e+02, -2.302892955913917e+02, 1.079072598952235e+02, -2.229609830986747e+02, -1.975549077581408e+02, 2.559326191534451e+02, 6.073637077128831e+02
2630, 1.010997321077505e+00, 3.597455598516664e-01, 7.993577851744439e-03, 0.000000000000000e+00, 0.000000000000000e+00, 0.000000000000000e+00, -7.488620734743947e+02, -5.143115037616770e+02, 1.342852796529656e+02, -8.228562081375893e+02, -3.735653438025586e+02, 4.931599717943044e+02, 1.131466105883708e+03
2631, 5.188049941159046e-01, 3.476663457010677e-01, 6.795869786851845e-02, 0.000000000000000e+00, 0.000000000000000e+00, 0.000000000000000e+00, 3.348114292000151e+03, 3.248113745157782e+03, -2.038455164606205e+01, 5.985003414039134e+03, 9.309107226920989e+02, -3.015717311229055e+02, 3.178166475061854e+03
2632, 9.431710787073341e-01, 5.748852838096996e-01, 2.491000956675452e-02, 0.000000000000000e+00, 0.000000000000000e+00, 0.000000000000000e+00, -5.054922693579421e+02, -7.064177989400478e+02, -2.665421582215336e+01, -1.277295971994911e+03, 3.321510589303423e+02, -8.027466936554747e+01, 9.129147513817437e+02
2633, 4.071009766853154e-01, 3.939370837598001e-01, 6.518357364862554e-02, 0.000000000000000e+00, 0.000000000000000e+00, 0.000000000000000e+00, 4.769466436674157e+03, 4.845161146153504e+03, 7.038231312866033e+01, 9.262727255601892e+03, 1.059365918717937e+03, -4.060862637952927e+02, 4.871483759986029e+03
2634, 1.900091458074248e-01, 3.606213658702973e-01, 1.482559372629897e-02, 0.000000000000000e+00, 0.000000000000000e+00, 0.000000000000000e+00, 2.346793062791910e+03, 2.508282082423322e+03, 5.024615127915833e+02, 5.459872012648189e+03, -2.033405539379938e+03, 3.320787290220613e+02, 4.765192232104861e+03
2635, 2.049180665451434e-01, 3.641005129375624e-01, 2.714727933033321e-02, 0.000000000000000e+00, 0.000000000000000e+00, 0.000000000000000e+00, 5.203061755409887e+03, 4.959977783678932e+03, 3.187558370799879e+02, 1.055163649693710e+04, -1.571591461956165e+03, 5.820960868497314e+02, 6.220732831279704e+03
2636, 1.959497758339221e-01, 3.463212748353922e-01, 2.722966899834892e-02, 0.000000000000000e+00, 0.000000000000000e+00, 0.000000000000000e+00, 4.328964362428660e+03, 4.387594766768504e+03, 3.303197028786916e+02, 8.141780348691004e+03, -1.488165980835826e+03, -1.520289693327442e+02, 4.621476174004650e+03
2637, 2.141472352622240e-01, 3.475526427837698e-01, 3.473894883684230e-02, 0.000000000000000e+00, 0.000000000000000e+00, 0.000000000000000e+00, 5.392909483539365e+03, 5.387670693343673e+03, 3.134443339760131e+01, 1.042425020373005e+04, -8.717098560336146e+02, -8.122194831700907e+01, 5.257675121240040e+03
2638, 1.087425152785298e+00, 1.305883331280493e+00, 1.489067350385325e-02, 0.000000000000000e+00, 0.000000000000000e+00, 0.000000000000000e+00, -8.831952773983612e+02, -6.617679262023576e+02, 1.064458391091742e+02, -1.791103654353070e+03, 3.573983695914411e+02, 6.890043545291280e+01, 1.227109686868940e+03
2639, 1.106978830201331e+00, 1.306867646321908e+00, 1.152719742454844e-02, 0.000000000000000e+00, 0.000000000000000e+00, 0.000000000000000e+00, -6.941199529255660e+03, -6.464077561167020e+03, -1.271194814106256e+01, -1.391600462042872e+04, 2.140058067848580e+03, -1.977876331844440e+03, 8.813591713870166e+03
2640, 1.117571252988333e+00, 1.323707291441861e+00, 9.982587061969897e-03, 0.000000000000000e+00, 0.000000000000000e+00, 0.000000000000000e+00, -2.870700149663963e+03, -3.387248073318470e+03, -2.969301912128795e+02, -5.727050149531188e+03, 4.283110790109565e+02, 9.039617604363913e+02, 3.196311900781404e+03
2641, 6.664699073394222e-01, 3.717951156812923e-01, 5.815526156269565e-02, 0.000000000000000e+00, 0.000000000000000e+00, 0.000000000000000e+00, 1.766902729426124e+03, 1.656366729665171e+03, -2.163370499767215e+01, 2.982099186368307e+03, 7.926534982892180e+02, -2.429783799250009e+02, 1.920068183018816e+03
2642, 7.480778383906054e-01, 5.307962496302027e-01, 5.064515890319713e-02, 0.000000000000000e+00, 0.000000000000000e+00, 0.000000000000000e+00, 1.249039334334639e+03, 1.107777569446807e+03, -4.265098045502950e+01, 1.825565997212443e+03, 7.006592010787775e+02, -2.060245170130979e+02, 1.428056239975538e+03
2643, 7.283452450474571e-01, 5.298719198069024e-01, 5.263778297111749e-02, 0.000000000000000e+00, 0.000000000000000e+00, 0.000000000000000e+00, 1.473465232208309e+03, 1.296899553854361e+03, -4.209493224773979e+01, 2.215784249170367e+03, 7.871454044480624e+02, -2.423537005169286e+02, 1.659396451773274e+03
2644, 7.192434228431714e-01, 5.122128924055727e-01, 5.347061135390176e-02, 0.000000000000000e+00, 0.000000000000000e+00, 0.000000000000000e+00, 1.499986395606988e+03, 1.395099910777987e+03, -3.849105402146715e+01, 2.416356586855521e+03, 7.705409372762414e+02, -2.415990983247164e+02, 1.705170201176246e+03
2645, 7.299309620017118e-01, 4.954789038592997e-01, 5.235598499582456e-02, 0.000000000000000e+00, 0.000000000000000e+00, 0.000000000000000e+00, 1.378504295757008e+03, 1.229808482414898e+03, -3.915653183225177e+01, 2.092818603137496e+03, 7.651249911197852e+02, -2.031194871456277e+02, 1.588455840679948e+03
2646, 7.101597879319504e-01, 4.945681743356407e-01, 5.429576738429612e-02, 0.000000000000000e+00, 0.000000000000000e+00, 0.000000000000000e+00, 1.520541144599452e+03, 1.426221565093329e+03, -3.113933293606374e+01, 2.470268869580975e+03, 7.566173898492675e+02, -2.331952115414704e+02, 1.698209490149561e+03
2647, 7.010778377395261e-01, 4.769115954441182e-01, 5.511505881957649e-02, 0.000000000000000e+00, 0.000000000000000e+00, 0.000000000000000e+00, 1.542619794474705e+03, 1.426234198396248e+03, -1.868909610058682e+01, 2.509131650814192e+03, 7.672969358307962e+02, -2.104152632378785e+02, 1.720547643365873e+03
2648, 6.903817475905003e-01, 4.936439805632820e-01, 5.609978010110306e-02, 0.000000000000000e+00, 0.000000000000000e+00, 0.000000000000000e+00, 1.728605308155617e+03, 1.610944715341329e+03, -3.206160878663183e+01, 2.794305779047263e+03, 7.548403708397066e+02, -2.360504893033010e+02, 1.776104657685150e+03
2649, 7.117885221517188e-01, 4.601344854901965e-01, 5.404237132038122e-02, 0.000000000000000e+00, 0.000000000000000e+00, 0.000000000000000e+00, 1.495118665306302e+03, 1.378849077442183e+03, -3.190129265830500e+01, 2.412641277690593e+03, 7.748000107077112e+02, -1.657854998378326e+02, 1.687749709039755e+03
2650, 7.176273663697967e-01, 5.466035004358968e-01, 5.369224272256365e-02, 0.000000000000000e+00, 0.000000000000000e+00, 0.000000000000000e+00, 1.663375843693932e+03, 1.518379959889466e+03, -1.774084011652876e+01, 2.683034845184970e+03, 8.203216512707131e+02, -2.774363486581942e+02, 1.859896360894158e+03
2651, 6.920289351838701e-01, 4.592410999160975e-01, 5.592562866122182e-02, 0.000000000000000e+00, 0.000000000000000e+00, 0.000000000000000e+00, 1.787792021366865e+03, 1.681547451871339e+03, -3.093771004290398e+01, 2.954206112539078e+03, 7.181001360142260e+02, -1.682779791537552e+02, 1.769339475664791e+03
2652, 6.829396536666059e-01, 4.415523774186789e-01, 5.673428643857181e-02, 0.000000000000000e+00, 0.000000000000000e+00, 0.000000000000000e+00, 1.819521788602001e+03, 1.688078442975587e+03, -5.644754863300970e+00, 3.003352384336478e+03, 7.180864797997059e+02, -1.891233677269147e+02, 1.796853360325119e+03
2653, 6.936480797006040e-01, 4.247957907820253e-01, 5.570540441730360e-02, 0.000000000000000e+00, 0.000000000000000e+00, 0.000000000000000e+00, 1.598250943304865e+03, 1.445127796594104e+03, -1.170021145430591e+01, 2.581415465582809e+03, 7.669666690719316e+02, -2.106494528817757e+02, 1.743229272515376e+03
2654, 6.738646346369045e-01, 4.238905666978671e-01, 5.753610765470633e-02, 0.000000000000000e+00, 0.000000000000000e+00, 0.000000000000000e+00, 1.905415375438278e+03, 1.766954278380481e+03, -3.191668442814099e+01, 3.138379075156392e+03, 7.735237973330497e+02, -1.695803234117760e+02, 1.895899296992867e+03
2655, 6.722499638218338e-01, 4.582982178297393e-01, 5.767440874040499e-02, 0.000000000000000e+00, 0.000000000000000e+00, 0.000000000000000e+00, 1.809101407760813e+03, 1.715442708888978e+03, -3.840991353071025e+01, 2.988874745419922e+03, 7.048684254506470e+02, -1.866192999284705e+02, 1.763677368788300e+03
2656, 6.845872905241505e-01, 4.070905564528157e-01, 5.652745415341540e-02, 0.000000000000000e+00, 0.000000000000000e+00, 0.000000000000000e+00, 1.651881895433035e+03, 1.547656954439675e+03, -1.018517578631691e+01, 2.797005722068065e+03, 7.990403912429838e+02, -1.987180992633630e+02, 1.864321963280108e+03
2657, 6.994721442377063e-01, 5.112887975457725e-01, 5.530212333137373e-02, 0.000000000000000e+00, 0.000000000000000e+00, 0.000000000000000e+00, 1.634753163713793e+03, 1.530343557060393e+03, -2.539962900768566e+01, 2.660136414618905e+03, 7.638938693552250e+02, -2.494131359152895e+02, 1.763102302922951e+03
2658, 6.648398144000716e-01, 4.062308607046186e-01, 5.832824134831344e-02, 0.000000000000000e+00, 0.000000000000000e+00, 0.000000000000000e+00, 2.055507555785723e+03, 1.862927436672700e+03, -3.710492558461612e+01, 3.333785232729059e+03, 7.583675704428799e+02, -2.095256790965987e+02, 1.943823361765005e+03
2659, 6.540950490610253e-01, 4.229159389816024e-01, 5.922956046660221e-02, 0.000000000000000e+00, 0.000000000000000e+00, 0.000000000000000e+00, 2.020595347944862e+03, 1.884585350799248e+03, -1.172323395982049e+01, 3.420033095535910e+03, 7.924820321277358e+02, -2.047192013258285e+02, 2.043890340335161e+03
2660, 6.450498374896374e-01, 4.052733189880524e-01, 5.999678811619753e-02, 0.000000000000000e+00, 0.000000000000000e+00, 0.000000000000000e+00, 2.108804212434094e+03, 1.964381579185048e+03, -2.085829635950968e+01, 3.586293673959922e+03, 8.173745252856695e+02, -2.245821117432672e+02, 2.138722948076708e+03
2661, 6.343200274747529e-01, 4.220473374435812e-01, 6.078196554707065e-02, 0.000000000000000e+00, 0.000000000000000e+00, 0.000000000000000e+00, 2.301088220417175e+03, 2.145646200057430e+03, -2.348327346293407e+01, 3.829332825307278e+03, 8.311164515231130e+02, -2.191780097330005e+02, 2.194375146433148e+03
2662, 6.813270914434181e-01, 4.759524915698041e-01, 5.688884484586922e-02, 0.000000000000000e+00, 0.000000000000000e+00, 0.000000000000000e+00, 1.703977196714938e+03, 1.608556787279242e+03, -2.418338795749408e+01, 2.839867561566852e+03, 7.526667472766369e+02, -2.222554812832421e+02, 1.804773615220797e+03
2663, 7.085870988068464e-01, 5.289386159338232e-01, 5.449669346983262e-02, 0.000000000000000e+00, 0.000000000000000e+00, 0.000000000000000e+00, 1.634399628954682e+03, 1.527151369381753e+03, -3.597988655387406e+01, 2.742410322419064e+03, 8.047534003035205e+02, -3.078888091659938e+02, 1.894512186161276e+03
2664, 9.371896670905501e-01, 4.883316524362523e-01, 2.425554794763743e-02, 0.000000000000000e+00, 0.000000000000000e+00, 0.000000000000000e+00, -1.427287765808624e+03, -1.721864743799854e+03, -8.289815974558455e+01, -3.263357092295095e+03, 4.011318483772842e+02, 5.219654107617806e+02, 2.058577829026301e+03
2665, 8.269942022815414e-01, 5.345720575232766e-01, 4.139398026568648e-02, 0.000000000000000e+00, 0.000000000000000e+00, 0.000000000000000e+00, 2.543995647499835e+02, 1.099628065485197e+02, -3.959204260187862e+01, -8.756851882034931e+00, 5.927980941054350e+02, -1.363896138383376e+02, 1.080204391743664e+03
2666, 9.658827370764903e-01, 2.828040404777109e-01, 1.485463434698656e-02, 0.000000000000000e+00, 0.000000000000000e+00, 0.000000000000000e+00, -4.802243082032786e+03, -4.505935484099432e+03, -1.690632484557791e+01, -9.075733420273562e+03, 1.079182283689803e+03, 3.604128310490710e+02, 4.847807589276766e+03
2667, 9.568691957351473e-01, 2.651773124226455e-01, 1.613388565286409e-02, 0.000000000000000e+00, 0.000000000000000e+00, 0.000000000000000e+00, -3.520761876945104e+03, -3.501262253741107e+03, -2.915172243801232e+02, -7.059187959988107e+03, -1.365928889511092e+03, -6.615385012710640e+02, 4.444656228747558e+03
2668, 9.673818188566854e-01, 2.484813190572343e-01, 1.379436020005625e-02, 0.000000000000000e+00, 0.000000000000000e+00, 0.000000000000000e+00, -6.538222917823219e+02, -9.456212981699773e+02, -7.273194379877958e+01, -9.699519257974052e+02, 1.567779445046823e+02, 2.552673496414948e+02, 6.147603846301457e+02
2669, 9.478124910833330e-01, 2.475249748703350e-01, 1.740876973034757e-02, 0.000000000000000e+00, 0.000000000000000e+00, 0.000000000000000e+00, -3.313655671703523e+03, -3.603342424455111e+03, -1.815532363405631e+02, -7.578320881169821e+03, 4.381882737618731e+02, 1.919934172343722e+03, 5.363694999579392e+03
2670, 2.077563503378699e-01, 3.960840005447200e-01, 1.483675759477482e-02, 0.000000000000000e+00, 0.000000000000000e+00, 0.000000000000000e+00, 2.263948245065033e+03, 2.594384707468126e+03, 2.648717062752372e+01, 4.791580574326702e+03, -1.262133549231447e+03, 6.791734501158107e+02, 3.439152408285249e+03
2671, 2.138538594896172e-01, 3.818263723403675e-01, 2.706010864373399e-02, 0.000000000000000e+00, 0.000000000000000e+00, 0.000000000000000e+00, 3.612373498151901e+03, 3.385431561799272e+03, 1.291656284459710e+02, 7.543284331497978e+03, -1.384374882045786e+03, 1.021910949589842e+03, 5.032702040241438e+03
2672, 7.832777090255514e-01, 4.117579516448527e-01, 4.564230320105755e-02, 0.000000000000000e+00, 0.000000000000000e+00, 0.000000000000000e+00, 3.383425566824901e+02, 2.007348709901800e+02, -1.211820678147917e+01, 2.386231471249741e+02, 5.482015037380089e+02, -1.151629042926852e+02, 9.782435183124379e+02
2673, 2.255747611192839e-01, 4.317266663798299e-01, 1.481927013919293e-02, 0.000000000000000e+00, 0.000000000000000e+00, 0.000000000000000e+00, 2.004066889982837e+03, 1.994625038089818e+03, -8.183383568978466e+01, 3.641861820005137e+03, -7.435442981820607e+02, 7.025740985851422e+02, 2.420210939280040e+03
2674, 2.409322163670131e-01, 4.350894169723938e-01, 2.688966611453954e-02, 0.000000000000000e+00, 0.000000000000000e+00, 0.000000000000000e+00, 3.164484095754873e+03, 3.180811762114185e+03, -5.570945235535645e+01, 5.328763687881670e+03, -9.673219679521226e+02, 7.768994299681450e+02, 3.045685354997255e+03
2675, 2.499358570063457e-01, 4.527907131073846e-01, 2.682852640329246e-02, 0.000000000000000e+00, 0.000000000000000e+00, 0.000000000000000e+00, 3.248764473088294e+03, 3.030200000600734e+03, -9.590434392397393e+01, 4.824957409908730e+03, -9.558701329620467e+02, 5.666515114515594e+02, 2.570718236135436e+03
2676, 2.592013459824331e-01, 4.364165195364372e-01, 3.424870297494178e-02, 0.000000000000000e+00, 0.000000000000000e+00, 0.000000000000000e+00, 5.087756659390513e+03, 4.889538818495310e+03, -1.351907274340971e+02, 8.618272148489576e+03, -1.072049256129414e+03, 5.493039231728606e+02, 4.196611002917532e+03
2677, 2.686802217892784e-01, 4.541480927647529e-01, 3.433138136371323e-02, 0.000000000000000e+00, 0.000000000000000e+00, 0.000000000000000e+00, 4.585979481362939e+03, 4.569737446675361e+03, -4.119806352441095e+01, 7.696447252996209e+03, -1.478791748599529e+03, 4.979377189133390e+02, 4.127370440334134e+03
2678, 2.591322601005177e-01, 4.694736201427385e-01, 2.707333927849522e-02, 0.000000000000000e+00, 0.000000000000000e+00, 0.000000000000000e+00, 3.237624837432886e+03, 2.882778516934407e+03, 3.782979912765945e+01, 4.774594667178546e+03, -1.204019555576957e+03, 2.619356924196190e+02, 2.755484300473056e+03
2679, 2.777633744654042e-01, 4.714338258841462e-01, 3.434897321557468e-02, 0.000000000000000e+00, 0.000000000000000e+00, 0.000000000000000e+00, 4.860347612294298e+03, 4.719863932762518e+03, -8.998320310303822e+01, 8.507220494937619e+03, -1.347013470246018e+03, 3.829826565896369e+02, 4.442904179818925e+03
2680, 2.873528952101144e-01, 4.551201838626346e-01, 4.047887297225001e-02, 0.000000000000000e+00, 0.000000000000000e+00, 0.000000000000000e+00, 5.811972803687849e+03, 5.819237340195679e+03, 1.038096857384952e+02, 1.096715252869917e+04, -1.035101939763504e+03, 4.054449897315762e+02, 5.502569865808425e+03
2681, 7.256811435553948e-01, 3.746184270480807e-01, 5.214853450456416e-02, 0.000000000000000e+00, 0.000000000000000e+00, 0.000000000000000e+00, 9.860658268175864e+02, 8.257604585398008e+02, -1.797782305226844e+01, 1.345735614633893e+03, 7.096928181713918e+02, -1.787581561451813e+02, 1.349274581092862e+03
2682, 9.627654577506777e-01, 5.757289245240735e-01, 2.164642965510676e-02, 0.000000000000000e+00, 0.000000000000000e+00, 0.000000000000000e+00, -2.235837729831044e+03, -2.380509351025065e+03, 5.687987927124364e+01, -4.435024529834865e+03, 7.077633690310740e+02, -9.099848472123022e+02, 2.921626726280631e+03
2683, 9.341329533596532e-01, 5.571706328943860e-01, 2.605749969117797e-02, 0.000000000000000e+00, 0.000000000000000e+00, 0.000000000000000e+00, -9.373787241971272e+02, -1.132872716276361e+03, -1.044564626462726e+01, -1.909903792363230e+03, 3.523007098344049e+02, -2.889424644021059e+02, 1.190394073157733e+03
2684, 9.447189177719857e-01, 5.404610891146366e-01, 2.400103902633051e-02, 0.000000000000000e+00, 0.000000000000000e+00, 0.000000000000000e+00, -1.226663955213563e+03, -1.438796630274036e+03, -1.275701998497845e+02, -2.690816332353200e+03, 2.746067415836883e+00, -3.949199319717460e+02, 1.547539415713469e+03
2685, 9.145194846439009e-01, 5.561874900626701e-01, 2.916535347810868e-02, 0.000000000000000e+00, 0.000000000000000e+00, 0.000000000000000e+00, -7.464908424883350e+02, -9.963575842337057e+02, -4.968761547188102e+01, -1.598699638421757e+03, 3.747486495024459e+02, -3.140991982577792e+01, 1.003708405298104e+03
2686, 9.235058721650837e-01, 5.739375846073040e-01, 2.806138889311569e-02, 0.000000000000000e+00, 0.000000000000000e+00, 0.000000000000000e+00, -8.318994973460516e+02, -8.390695804470154e+02, 7.337437238702016e+01, -1.942118209881028e+03, 2.424848079317551e+02, -2.960056267024609e+01, 1.191575956898773e+03
2687, 1.184922746417536e-01, 5.174594659593543e-02, 5.387408329943090e-02, 0.000000000000000e+00, 0.000000000000000e+00, 0.000000000000000e+00, 4.461327200123976e+03, 4.126534470159018e+03, 2.243044906676074e+02, 8.156180826122652e+03, -9.628772270759312e+02, -5.415826094160180e+02, 4.337431263685089e+03
2688, 7.555322707836214e-01, 5.829071051804666e-01, 5.011490773253623e-02, 0.000000000000000e+00, 0.000000000000000e+00, 0.000000000000000e+00, 1.343539192881819e+03, 1.190554313602283e+03, -2.188606555576402e+01, 2.049421749264376e+03, 7.256202225707958e+02, -2.257447356657449e+02, 1.537386448885596e+03
2689, 7.357645376286109e-01, 5.819608693738880e-01, 5.206074603145819e-02, 0.000000000000000e+00, 0.000000000000000e+00, 0.000000000000000e+00, 1.612114398224945e+03, 1.464206440646319e+03, -5.992785074625370e+00, 2.566127848271392e+03, 7.697395934767979e+02, -2.570058168555393e+02, 1.746105793785873e+03
2690, 7.736779536388649e-01, 6.182637288803767e-01, 4.839988983541356e-02, 0.000000000000000e+00, 0.000000000000000e+00, 0.000000000000000e+00, 1.151247771209187e+03, 1.032635314453067e+03, -1.970278822295835e+01, 1.815662954981011e+03, 6.460069592818503e+02, -2.053692829875538e+02, 1.383471564462025e+03
2691, 7.539223103257364e-01, 6.173013770999705e-01, 5.040346378176350e-02, 0.000000000000000e+00, 0.000000000000000e+00, 0.000000000000000e+00, 1.517336158954647e+03, 1.330974199671522e+03, -2.603252665973520e+01, 2.334311943489722e+03, 7.140806320292739e+02, -2.166280205569471e+02, 1.589648716729418e+03
2692, 7.969378738725191e-01, 9.643656141905078e-01, 4.655455618181449e-02, 0.000000000000000e+00, 0.000000000000000e+00, 0.000000000000000e+00, 2.672154672854916e+03, 2.464612227257488e+03, -3.882070954689570e+01, 4.630302673173995e+03, 8.740548469765877e+02, -2.098848265662237e+02, 2.590831521541545e+03
2693, 8.077323420018037e-01, 9.476674279116051e-01, 4.579903058218945e-02, 0.000000000000000e+00, 0.000000000000000e+00, 0.000000000000000e+00, 2.247170215731519e+03, 2.023540348137185e+03, -2.046742892775548e+01, 3.842177245936001e+03, 8.600028755290675e+02, -2.863876765615801e+02, 2.327417934882601e+03
2694, 7.879133928856616e-01, 9.466639038190303e-01, 4.728161660656149e-02, 0.000000000000000e+00, 0.000000000000000e+00, 0.000000000000000e+00, 2.510729594368726e+03, 2.319019715120091e+03, -5.924545477598041e+00, 4.513863504795631e+03, 8.483504711880524e+02, -3.161142401115038e+02, 2.625319829279214e+03
2695, 8.498254527223775e-01, 1.104888202002465e+00, 4.207576068980069e-02, 0.000000000000000e+00, 0.000000000000000e+00, 0.000000000000000e+00, 2.219585775515904e+03, 2.098986446715640e+03, -5.010966237713788e+01, 3.983741345415840e+03, 5.421179757957038e+02, -2.539341667733699e+02, 2.102903080872494e+03
2696, 8.300081931437525e-01, 1.103896306127853e+00, 4.348261008450415e-02, 0.000000000000000e+00, 0.000000000000000e+00, 0.000000000000000e+00, 2.598692242120465e+03, 2.351877716724278e+03, -6.170380998223389e+01, 4.462940224827304e+03, 6.967419846877647e+02, -3.092564793005370e+02, 2.398155625098723e+03
2697, 8.408099594305654e-01, 1.087250016358409e+00, 4.281855657938181e-02, 0.000000000000000e+00, 0.000000000000000e+00, 0.000000000000000e+00, 2.207108964214591e+03, 2.072877726357464e+03, -2.710030288710312e+01, 3.812238710762966e+03, 5.375780544512741e+02, -3.217545932406546e+02, 1.997415807792293e+03
2698, 8.209217103144938e-01, 1.086255982582116e+00, 4.419160683250759e-02, 0.000000000000000e+00, 0.000000000000000e+00, 0.000000000000000e+00, 2.699637255657775e+03, 2.480233213671168e+03, -5.501403529638569e+01, 4.503072263698090e+03, 7.195383838459846e+02, -4.684130036725558e+02, 2.432429897826475e+03
2699, 8.101800875952132e-01, 1.102902143981544e+00, 4.466508762047017e-02, 0.000000000000000e+00, 0.000000000000000e+00, 0.000000000000000e+00, 3.178458417421537e+03, 2.990885749154282e+03, -3.847772116606451e+01, 5.649097446591212e+03, 7.063905494825289e+02, -3.072491554962488e+02, 2.896079355662843e+03
2700, 7.904038587557034e-01, 1.101858413913293e+00, 4.560446397152654e-02, 0.000000000000000e+00, 0.000000000000000e+00, 0.000000000000000e+00, 3.088727191647820e+03, 2.918354131409704e+03, -1.304770639681450e+01, 5.441481243462945e+03, 7.742694613664797e+02, -4.186729120189191e+02, 2.879266549296683e+03
2701, 8.192702187293701e-01, 1.120677787123604e+00, 4.398708711701833e-02, 0.000000000000000e+00, 0.000000000000000e+00, 0.000000000000000e+00, 2.912296168610686e+03, 2.831886430005922e+03, -4.559758337960894e+00, 5.195335104713036e+03, 7.563447186304336e+02, -1.985973616966953e+02, 2.690142781434796e+03
2702, 7.812676403817091e-01, 1.084114323456512e+00, 4.623788514231141e-02, 0.000000000000000e+00, 0.000000000000000e+00, 0.000000000000000e+00, 3.220715035849363e+03, 3.108509360588772e+03, 1.025003619027377e+01, 5.664400429805779e+03, 9.401033868544174e+02, -3.973174234536632e+02, 3.063276924559817e+03
2703, 7.918228033589234e-01, 6.536231947854185e-01, 4.665905100002252e-02, 0.000000000000000e+00, 0.000000000000000e+00, 0.000000000000000e+00, 1.108215261191594e+03, 9.741881092856786e+02, -2.440566822500691e+01, 1.587721757324177e+03, 6.780516137046690e+02, -1.725762738825430e+02, 1.335122930919466e+03
2704, 7.720634570833295e-01, 6.526764352420475e-01, 4.872293277827325e-02, 0.000000000000000e+00, 0.000000000000000e+00, 0.000000000000000e+00, 1.365136160669842e+03, 1.215827580186933e+03, -4.391407545645318e+01, 2.113883805303103e+03, 7.407053362830563e+02, -2.010961678360150e+02, 1.570906765320258e+03
2705, 4.596631861330731e-01, 1.552256676558175e-01, 7.328356946700135e-02, 0.000000000000000e+00, 0.000000000000000e+00, 0.000000000000000e+00, 3.351166961067003e+03, 3.226049941766604e+03, -4.317034760504055e+01, 5.973287562930487e+03, 8.214846914595304e+02, -4.102756774753757e+02, 3.123191214033268e+03
2706, 8.068459359503460e-01, 1.171790189264069e+00, 4.385674901491687e-02, 0.000000000000000e+00, 0.000000000000000e+00, 0.000000000000000e+00, 2.874244876533273e+03, 2.947092389529702e+03, -7.604239068866600e+01, 5.160944643243306e+03, 1.038836141003539e+03, -4.507263778752100e+02, 2.988657543863964e+03
2707, 7.871861504882444e-01, 1.170548537817917e+00, 4.435254484084994e-02, 0.000000000000000e+00, 0.000000000000000e+00, 0.000000000000000e+00, 3.483819189121258e+03, 3.423235826033036e+03, 5.385268374104446e+01, 6.308120331266083e+03, 1.028580038418141e+03, -3.580297021940619e+02, 3.423249884373520e+03
2708, 7.962044685883461e-01, 1.188345830202307e+00, 4.378623160004135e-02, 0.000000000000000e+00, 0.000000000000000e+00, 0.000000000000000e+00, 3.642800433562390e+03, 3.463201808852261e+03, 8.668420287293463e+00, 6.158630470929975e+03, 9.459688342979855e+02, -4.406254756559282e+02, 3.175018900407609e+03
2709, 8.161592889796845e-01, 1.189368664424587e+00, 4.323090737640303e-02, 0.000000000000000e+00, 0.000000000000000e+00, 0.000000000000000e+00, 3.228386517120758e+03, 3.166393047913473e+03, 2.195917460887680e+01, 5.779031642445896e+03, 8.548159612265838e+02, -4.299701226867165e+02, 3.068543238014772e+03
2710, 5.624251951719674e-01, 4.704373298200988e-01, 6.434329149249357e-02, 0.000000000000000e+00, 0.000000000000000e+00, 0.000000000000000e+00, 3.229300310388272e+03, 3.179238678316875e+03, -3.044566608619631e+01, 5.776298726453200e+03, 1.057073688126330e+03, -4.023982050096550e+02, 3.233880347872608e+03
2711, 5.913704437926866e-01, 4.890469981207958e-01, 6.287141918533817e-02, 0.000000000000000e+00, 0.000000000000000e+00, 0.000000000000000e+00, 2.921773588087089e+03, 2.839294972195766e+03, -4.350991476782277e+00, 5.179309540250967e+03, 1.001622505924179e+03, -3.967002608222946e+02, 2.961652031445053e+03
2712, 8.099663261902519e-01, 6.889853575161258e-01, 4.489122661580328e-02, 0.000000000000000e+00, 0.000000000000000e+00, 0.000000000000000e+00, 8.979022291968594e+02, 7.679537175693979e+02, -2.881909378810710e+01, 1.275960277348304e+03, 6.451716233618707e+02, -2.303560622672226e+02, 1.272542817219364e+03
2713, 7.902169586448737e-01, 6.880228289419379e-01, 4.701550017780374e-02, 0.000000000000000e+00, 0.000000000000000e+00, 0.000000000000000e+00, 1.189747709306383e+03, 1.006150431283439e+03, -5.439386876001677e+01, 1.644935940454048e+03, 6.941264582729360e+02, -2.296764698318689e+02, 1.391775897184057e+03
2714, 8.281081311692552e-01, 7.243496026772157e-01, 4.309568723111171e-02, 0.000000000000000e+00, 0.000000000000000e+00, 0.000000000000000e+00, 7.891991208860586e+02, 6.702169048916101e+02, -3.321882138660350e+01, 1.090212672711401e+03, 5.959503708217601e+02, -2.084442837372983e+02, 1.157458097533119e+03
2715, 8.083593807828753e-01, 7.234021240998973e-01, 4.528257869045986e-02, 0.000000000000000e+00, 0.000000000000000e+00, 0.000000000000000e+00, 1.168155776315486e+03, 1.039722659206641e+03, -3.952657752874977e+01, 1.722312565301734e+03, 6.584255675482858e+02, -2.332464935237343e+02, 1.365001249577077e+03
2716, 8.360954928442625e-01, 5.522245022799516e-01, 4.040774780762516e-02, 0.000000000000000e+00, 0.000000000000000e+00, 0.000000000000000e+00, 2.414459814991037e+02, 6.518421914876275e+01, -3.856410505328303e+01, -1.400847670936820e+02, 5.685875950074046e+02, -1.630850494043791e+02, 1.078662119967644e+03
2717, 8.163480332772295e-01, 5.513223193024905e-01, 4.293989507096559e-02, 0.000000000000000e+00, 0.000000000000000e+00, 0.000000000000000e+00, 4.102329041416658e+02, 2.544057339727489e+02, -2.411294638322285e+01, 3.024388792706835e+02, 6.273068556871698e+02, -1.511653191553080e+02, 1.126917591563893e+03
2718, 7.848978881359387e-01, 3.773409036812956e-01, 4.506294061586512e-02, 0.000000000000000e+00, 0.000000000000000e+00, 0.000000000000000e+00, 3.796632594733126e+02, 2.615370037809461e+02, -5.684611882653317e+01, 2.612983045887440e+02, 5.432415059054758e+02, -1.450001944712248e+02, 9.859440552005788e+02
2719, 8.617002598122885e-01, 6.396942952790013e-01, 3.806798465983942e-02, 0.000000000000000e+00, 0.000000000000000e+00, 0.000000000000000e+00, 2.028711113072222e+02, 6.371473592321573e+01, -3.248558401162175e+01, -9.186250416997595e+01, 5.184505319611467e+02, -1.284010351716280e+02, 9.613623762901263e+02
2720, 8.526320923382709e-01, 6.220520472996993e-01, 3.905804967277530e-02, 0.000000000000000e+00, 0.000000000000000e+00, 0.000000000000000e+00, 1.466658969120534e+02, 2.464769345739231e+00, -1.162847344807041e+01, -1.217726104806189e+02, 5.408984385555754e+02, -1.262236762721498e+02, 9.899799684989116e+02
2721, 8.328897085913984e-01, 6.211085559334975e-01, 4.158778855992681e-02, 0.000000000000000e+00, 0.000000000000000e+00, 0.000000000000000e+00, 4.646196532942623e+02, 3.217122650041407e+02, -2.375502899564815e+01, 4.534712421630818e+02, 5.902330916774887e+02, -1.400966474177053e+02, 1.060496601585600e+03
2722, 8.435185505802775e-01, 6.043577892689352e-01, 4.004545254519926e-02, 0.000000000000000e+00, 0.000000000000000e+00, 0.000000000000000e+00, 1.910663762109274e+02, 5.895789807678140e+01, -1.543316430383785e+01, -3.776491689198716e+01, 5.731845710877327e+02, -1.353632750790246e+02, 1.039659420588064e+03
2723, 8.541763125052544e-01, 5.875886746723913e-01, 3.842892768596146e-02, 0.000000000000000e+00, 0.000000000000000e+00, 0.000000000000000e+00, 5.914503377014800e+01, -1.341988906395784e+02, -2.564538899674696e+01, -2.936382012085741e+02, 5.607983417709883e+02, -1.658770199340403e+02, 1.059071453881989e+03
2724, 8.344848549750302e-01, 5.866548107152720e-01, 4.101451412460914e-02, 0.000000000000000e+00, 0.000000000000000e+00, 0.000000000000000e+00, 1.667290339862432e+02, 2.089937577026658e+01, -2.364596070306619e+01, -2.713163169847159e+01, 5.837497433047115e+02, -1.616682963471181e+02, 1.064404156899900e+03
2725, 8.632344444448490e-01, 6.052947048243137e-01, 3.742557768440605e-02, 0.000000000000000e+00, 0.000000000000000e+00, 0.000000000000000e+00, 4.154692957137185e+01, -1.216742451633702e+02, -1.422762927000140e+01, -3.661982801416758e+02, 5.399422448888442e+02, -9.329981176584435e+01, 1.013745224492462e+03
2726, 9.553455204151211e-01, 2.995316510363065e-01, 1.717251515306593e-02, 0.000000000000000e+00, 0.000000000000000e+00, 0.000000000000000e+00, -4.128771538985003e+03, -4.063517025346488e+03, 3.631837911147498e+02, -9.167464202354397e+03, -3.609633774075020e+02, -1.986134266285745e+03, 6.192112595518743e+03
2727, 9.069511575727829e-01, 7.281470280121269e-01, 3.300759887874326e-02, 0.000000000000000e+00, 0.000000000000000e+00, 0.000000000000000e+00, -4.617788029547295e+02, -6.068472978978799e+02, 2.170585471187419e+00, -1.114441995773268e+03, 4.354558927596920e+02, -2.590824401113455e+02, 1.059520653249201e+03
2728, 3.538793169321056e-01, 5.107006739134592e-01, 4.935870176793854e-02, 0.000000000000000e+00, 0.000000000000000e+00, 0.000000000000000e+00, 5.235986180226417e+03, 5.805798876373825e+03, 3.354770336748128e+02, 1.099984707857135e+04, -3.695367033547608e+01, -2.537482159779750e+02, 5.549536337246155e+03
2729, 3.641780594662430e-01, 4.941873086624120e-01, 5.299340391696411e-02, 0.000000000000000e+00, 0.000000000000000e+00, 0.000000000000000e+00, 5.374881166731791e+03, 5.710467797264793e+03, 2.012445624270357e+02, 1.082329923742060e+04, 3.981634318175692e+02, -2.051715927876272e+02, 5.356570565391062e+03
2730, 3.732071274839912e-01, 5.118703739913893e-01, 5.275219895826593e-02, 0.000000000000000e+00, 0.000000000000000e+00, 0.000000000000000e+00, 5.448661371569601e+03, 5.723352240867755e+03, 1.597135859748519e+02, 1.086003824121386e+04, 3.345560495830011e+02, -4.743200388050130e+02, 5.381379555446979e+03
2731, 3.549245876910725e-01, 4.765448499888574e-01, 5.319010887341911e-02, 0.000000000000000e+00, 0.000000000000000e+00, 0.000000000000000e+00, 5.451402715225038e+03, 5.730968720898423e+03, 1.985439879354580e+02, 1.124453706578193e+04, 4.007754318832461e+02, 8.734707970802445e+00, 5.711335237545204e+03
2732, 3.629177518402263e-01, 5.283738326270010e-01, 4.915440495656567e-02, 0.000000000000000e+00, 0.000000000000000e+00, 0.000000000000000e+00, 5.541056647155190e+03, 5.430312678137126e+03, 3.503234937678196e+02, 1.140296930176405e+04, -1.548698517398538e+02, -4.464706413511691e+02, 6.005130925708642e+03
2733, 3.824764204789793e-01, 5.295883827212855e-01, 5.254458592365670e-02, 0.000000000000000e+00, 0.000000000000000e+00, 0.000000000000000e+00, 5.731108505985485e+03, 5.926905549664511e+03, 2.646748907772596e+02, 1.154750455959316e+04, 2.155221892583788e+02, -6.289414530925706e+02, 5.853731824438172e+03
2734, 3.914185278982115e-01, 5.471765813020824e-01, 5.229346891924244e-02, 0.000000000000000e+00, 0.000000000000000e+00, 0.000000000000000e+00, 6.025317926667067e+03, 6.222297486028347e+03, 1.878224850432694e+02, 1.231297512698383e+04, 2.249399466709619e+02, -5.681522227367522e+02, 6.289746474370714e+03
2735, 4.018842824391501e-01, 5.306690701827885e-01, 5.533646791381520e-02, 0.000000000000000e+00, 0.000000000000000e+00, 0.000000000000000e+00, 5.570952139966142e+03, 5.851768096909292e+03, 2.205296187344645e+02, 1.154142978664152e+04, 3.993662687917578e+02, -7.047721824335763e+02, 6.013596861523509e+03
2736, 7.415038652813000e-01, 1.082431692397506e+00, 4.706197045107950e-02, 0.000000000000000e+00, 0.000000000000000e+00, 0.000000000000000e+00, 3.647826194040289e+03, 3.569824615552933e+03, 1.821929090915949e+01, 6.675808585742177e+03, 9.818530066419244e+02, -4.846550232833650e+02, 3.606760637928213e+03
2737, 7.438194401246008e-01, 4.099700278608854e-01, 5.035829815560659e-02, 0.000000000000000e+00, 0.000000000000000e+00, 0.000000000000000e+00, 7.798705483872493e+02, 6.386023029974286e+02, 4.515050598561161e-01, 1.081231370123646e+03, 6.533952493082116e+02, -1.898793786413980e+02, 1.241888472800556e+03
2738, 6.472942440103622e-01, 9.743512254824366e-01, 4.875969324522048e-02, 0.000000000000000e+00, 0.000000000000000e+00, 0.000000000000000e+00, 4.837882646351495e+03, 4.997439625893073e+03, 1.662001554943248e+02, 9.526283706354337e+03, 1.023271121921929e+03, -5.662813963438825e+02, 5.044267887277128e+03
2739, 6.365656234682460e-01, 9.910050449236119e-01, 4.705400373012116e-02, 0.000000000000000e+00, 0.000000000000000e+00, 0.000000000000000e+00, 5.513121301892252e+03, 5.715259166379830e+03, 1.549048893348572e+02, 1.097671311854864e+04, 5.959743295856734e+02, -6.756522786923429e+02, 5.594135970544941e+03
2740, 6.456595396668152e-01, 1.008541776691456e+00, 4.670683786055588e-02, 0.000000000000000e+00, 0.000000000000000e+00, 0.000000000000000e+00, 5.643672409036999e+03, 5.718249042395932e+03, 7.181136301186096e+01, 1.157591393475157e+04, 7.445367031915404e+02, -6.208412341673837e+02, 6.131023685266102e+03
2741, 6.258720110211807e-01, 1.007630573908647e+00, 4.491935962797765e-02, 0.000000000000000e+00, 0.000000000000000e+00, 0.000000000000000e+00, 6.485789868406972e+03, 6.641297485628162e+03, 1.937869527484321e+02, 1.279481252347583e+04, 2.442592799646832e+02, -5.960594395574119e+02, 6.340690569982994e+03
2742, 6.276158056395786e-01, 9.732344353201581e-01, 4.742334864514810e-02, 0.000000000000000e+00, 0.000000000000000e+00, 0.000000000000000e+00, 5.113791211530338e+03, 5.266390634992529e+03, 2.204067068279217e+02, 1.017408535815275e+04, 7.893310828937376e+02, -5.120381050289526e+02, 5.259190294386963e+03
2743, 6.184841344104792e-01, 9.555877287681341e-01, 4.776574158994810e-02, 0.000000000000000e+00, 0.000000000000000e+00, 0.000000000000000e+00, 5.097326921974687e+03, 5.244352932482677e+03, 1.164302317836324e+02, 1.008125144991393e+04, 9.276546594583810e+02, -3.999079146906453e+02, 5.218278483073253e+03
2744, 7.027887560494983e-01, 8.563801686368202e-01, 5.285463070789419e-02, 0.000000000000000e+00, 0.000000000000000e+00, 0.000000000000000e+00, 3.455082490184497e+03, 3.260679758798336e+03, -3.662206448141436e+01, 6.190278383162398e+03, 9.130881027560242e+02, -4.305639216496493e+02, 3.333494802199052e+03
2745, 6.920264438696144e-01, 8.731201354825564e-01, 5.290395149032745e-02, 0.000000000000000e+00, 0.000000000000000e+00, 0.000000000000000e+00, 3.589440001920625e+03, 3.469373270551046e+03, -5.137192182709354e+01, 6.563644426411143e+03, 9.897538180046146e+02, -3.197477192929605e+02, 3.531413580722906e+03
2746, 7.011143918775139e-01, 8.907985498059894e-01, 5.230859662749676e-02, 0.000000000000000e+00, 0.000000000000000e+00, 0.000000000000000e+00, 3.360017479801950e+03, 3.280752836572402e+03, -1.707222332372836e+00, 6.041294055373610e+03, 1.009843767996314e+03, -3.083230144576673e+02, 3.279117058657418e+03
2747, 6.812557973289461e-01, 8.898358828027018e-01, 5.271757756847448e-02, 0.000000000000000e+00, 0.000000000000000e+00, 0.000000000000000e+00, 3.610437223600502e+03, 3.571289299295765e+03, -2.192375703640866e+01, 6.754766519165025e+03, 9.657470917274778e+02, -3.256635232361139e+02, 3.623402782493588e+03
2748, 6.903441898382687e-01, 9.075146288154101e-01, 5.216146871802728e-02, 0.000000000000000e+00, 0.000000000000000e+00, 0.000000000000000e+00, 3.568986459554741e+03, 3.607446792027109e+03, -1.028578477917074e+01, 6.556658910233690e+03, 1.022240412343899e+03, -3.602527220805355e+02, 3.512456240188645e+03
2749, 6.704951527659215e-01, 9.065380930370237e-01, 5.227534961695426e-02, 0.000000000000000e+00, 0.000000000000000e+00, 0.000000000000000e+00, 3.801398670638536e+03, 3.782721787576737e+03, 1.257493363058482e+01, 7.033971470047775e+03, 9.745725191600727e+02, -3.867998887804287e+02, 3.716038448086865e+03
2750, 6.994576476108822e-01, 9.251933550622925e-01, 5.159883508967638e-02, 0.000000000000000e+00, 0.000000000000000e+00, 0.000000000000000e+00, 3.425566818949510e+03, 3.376394678953370e+03, -2.363852738481319e+00, 6.320735520763012e+03, 1.034932660188710e+03, -3.833226006278883e+02, 3.490109396173969e+03
2751, 6.886777609759562e-01, 9.418831751044301e-01, 5.123721304187261e-02, 0.000000000000000e+00, 0.000000000000000e+00, 0.000000000000000e+00, 3.725654076287502e+03, 3.656547136595766e+03, -1.336888845516270e+01, 6.815342210859973e+03, 1.039792996012037e+03, -4.073549911883450e+02, 3.675095413911653e+03
2752, 7.102052129014514e-01, 9.084590592300263e-01, 5.170718788012318e-02, 0.000000000000000e+00, 0.000000000000000e+00, 0.000000000000000e+00, 3.350701052244772e+03, 3.269337541379849e+03, 1.630909448367583e+00, 5.894777221837126e+03, 1.038196506796450e+03, -3.316136256175552e+02, 3.201469237164304e+03
2753, 3.810174533926795e-01, 5.637309519361564e-01, 4.874238620083133e-02, 0.000000000000000e+00, 0.000000000000000e+00, 0.000000000000000e+00, 6.199640357312999e+03, 6.506936007577838e+03, 3.183674007066181e+02, 1.361512579915740e+04, -2.271792006006345e+02, -4.536930412988009e+02, 7.340403615212207e+03
2754, 4.004016488490353e-01, 5.648010317360654e-01, 5.204332375885579e-02, 0.000000000000000e+00, 0.000000000000000e+00, 0.000000000000000e+00, 6.168802848569288e+03, 6.282081034672303e+03, 1.640184077386909e+02, 1.305009715207602e+04, 4.898702320625418e+02, -4.850355405579458e+02, 6.934835670439945e+03
2755, 4.094295069307143e-01, 5.825473261574730e-01, 5.178649293559437e-02, 0.000000000000000e+00, 0.000000000000000e+00, 0.000000000000000e+00, 6.470083536961782e+03, 6.649106336892191e+03, 2.370717089905611e+02, 1.319877327833745e+04, 5.418540184242996e+02, -3.192603211054354e+02, 6.742249898704497e+03
2756, 3.991204399033092e-01, 5.991053503628795e-01, 4.832014936652790e-02, 0.000000000000000e+00, 0.000000000000000e+00, 0.000000000000000e+00, 5.866053978830080e+03, 6.419211320685414e+03, 3.338825504489849e+02, 1.355474374806739e+04, 4.720611160320333e+01, 1.910979399315441e+02, 7.457851661749560e+03
2757, 4.185632531644596e-01, 6.003019161080548e-01, 5.154322580260744e-02, 0.000000000000000e+00, 0.000000000000000e+00, 0.000000000000000e+00, 6.674543202137147e+03, 6.915105101056966e+03, 1.398624300746736e+02, 1.346046588332880e+04, 5.100625367727361e+02, -1.269220743061803e+02, 6.735108442137181e+03
2758, 6.846121307099913e-01, 8.210261814620742e-01, 5.410276978512197e-02, 0.000000000000000e+00, 0.000000000000000e+00, 0.000000000000000e+00, 3.115197685128308e+03, 3.014243126487601e+03, -5.112124188187332e+01, 5.448183483441806e+03, 8.634880239719978e+02, -5.226790512704188e+02, 2.958512316736445e+03
2759, 6.738484671689121e-01, 8.377617650818465e-01, 5.407581768314036e-02, 0.000000000000000e+00, 0.000000000000000e+00, 0.000000000000000e+00, 3.208879907226858e+03, 3.149289822483079e+03, 9.298694797989448e+00, 5.875181599163063e+03, 9.242917549764302e+02, -4.752130227901347e+02, 3.242265909454633e+03
2760, 6.829363052934196e-01, 8.554398384708991e-01, 5.349309653923275e-02, 0.000000000000000e+00, 0.000000000000000e+00, 0.000000000000000e+00, 3.523532249381941e+03, 3.398324463334501e+03, -3.331106010017889e+01, 6.291799317358804e+03, 8.758184954432153e+02, -5.365816358313193e+02, 3.345721250626243e+03
2761, 6.630768509722884e-01, 8.544750154789225e-01, 5.381160988365789e-02, 0.000000000000000e+00, 0.000000000000000e+00, 0.000000000000000e+00, 3.571365478774735e+03, 3.484410963471815e+03, 2.908495564676104e+01, 6.525427298828635e+03, 9.593499209690933e+02, -5.072552436257727e+02, 3.539269642348833e+03
2762, 6.721649780745628e-01, 8.721535339014186e-01, 5.326769560994250e-02, 0.000000000000000e+00, 0.000000000000000e+00, 0.000000000000000e+00, 3.690151035629548e+03, 3.601511500549004e+03, 3.659553309482463e+01, 6.899678037864639e+03, 8.860339449313374e+02, -4.185283978909150e+02, 3.671252611837640e+03
2763, 5.805922891353130e-01, 5.057815707481126e-01, 6.309404102285979e-02, 0.000000000000000e+00, 0.000000000000000e+00, 0.000000000000000e+00, 3.362595873302459e+03, 3.275747472242397e+03, -1.257144131248201e+01, 5.979563790009397e+03, 1.020872626897605e+03, -4.328523890303896e+02, 3.282140103279571e+03
2764, 9.294559481751656e-01, 8.844577103038639e-01, 3.200645008085883e-02, 0.000000000000000e+00, 0.000000000000000e+00, 0.000000000000000e+00, 6.455577466343453e+01, -7.795690892737154e+01, -2.927848264566300e+01, -2.842451989707163e+02, 5.272923312319990e+02, -1.241207008333940e+02, 9.875042090508477e+02
2765, 6.664385845735616e-01, 7.856866804540052e-01, 5.532546087387265e-02, 0.000000000000000e+00, 0.000000000000000e+00, 0.000000000000000e+00, 3.010086731568224e+03, 2.928334843368786e+03, 2.097018498686161e+01, 5.421103867747479e+03, 9.431859031072635e+02, -2.955344563427405e+02, 2.991476598543165e+03
2766, 6.556708861818031e-01, 8.024042230844062e-01, 5.522246343650305e-02, 0.000000000000000e+00, 0.000000000000000e+00, 0.000000000000000e+00, 3.315689958902490e+03, 3.221086367976474e+03, -1.238918796976797e+01, 5.764041809723204e+03, 1.021778519320068e+03, -4.092864080539046e+02, 3.141671545020532e+03
2767, 6.647585368393023e-01, 8.200819046534891e-01, 5.465227956748447e-02, 0.000000000000000e+00, 0.000000000000000e+00, 0.000000000000000e+00, 3.210236867660507e+03, 3.081895747196475e+03, -1.085288040766246e+00, 5.649957173912760e+03, 9.592292498423590e+02, -4.858061249523643e+02, 3.122532885591169e+03
2768, 6.448987288752495e-01, 8.191148472393219e-01, 5.488226671319583e-02, 0.000000000000000e+00, 0.000000000000000e+00, 0.000000000000000e+00, 3.617357693669576e+03, 3.515003274975466e+03, 1.256845760636832e+01, 6.550441170351470e+03, 1.112712300705651e+03, -5.291916302471381e+02, 3.669967356506499e+03
2769, 6.539865162137228e-01, 8.367930620830211e-01, 5.434974497237826e-02, 0.000000000000000e+00, 0.000000000000000e+00, 0.000000000000000e+00, 3.561397969083006e+03, 3.443851453914393e+03, 2.744258224617098e+01, 6.396222700002907e+03, 1.056827866980921e+03, -4.914436744291115e+02, 3.529976992722377e+03
2770, 6.432153046086697e-01, 8.534993899453278e-01, 5.379034228888010e-02, 0.000000000000000e+00, 0.000000000000000e+00, 0.000000000000000e+00, 3.955408713669412e+03, 3.849759895596047e+03, 7.379820756168068e+01, 7.281388726306564e+03, 1.050799547472212e+03, -4.684155694602953e+02, 3.925787513971265e+03
2771, 5.582088179585538e-01, 1.020008402906190e+00, 3.122531300004607e-02, 0.000000000000000e+00, 0.000000000000000e+00, 0.000000000000000e+00, 5.151962179264314e+03, 5.072977674465640e+03, 7.389145208649161e+01, 1.002707645609285e+04, -9.631557905004103e+02, 3.083308845256136e+02, 5.219447013293912e+03
2772, 5.372764042910959e-01, 1.019110268733865e+00, 2.429563105783311e-02, 0.000000000000000e+00, 0.000000000000000e+00, 0.000000000000000e+00, 4.255598485740053e+03, 4.010689336420771e+03, -5.355037780983069e+01, 7.049464496258074e+03, -1.542072308437229e+03, 5.912394398860314e+01, 3.962696302846335e+03
2773, 5.296500321508647e-01, 1.000711486705949e+00, 2.507056726091520e-02, 0.000000000000000e+00, 0.000000000000000e+00, 0.000000000000000e+00, 3.803321131938360e+03, 3.648913641258476e+03, 4.676480445520468e+01, 6.439255319123662e+03, -6.113257001358721e+02, 8.604275958174205e+02, 3.275320414016067e+03
2774, 5.198185200383674e-01, 1.017859866744491e+00, 1.555858570927668e-02, 0.000000000000000e+00, 0.000000000000000e+00, 0.000000000000000e+00, 1.857665627752920e+03, 1.757753411577438e+03, -1.833040294229924e+02, 2.674504681460737e+03, -6.346227914489557e+02, 3.927657321908199e+02, 1.590803198310744e+03
2775, 5.465109091590005e-01, 1.037929233142513e+00, 2.407541578695014e-02, 0.000000000000000e+00, 0.000000000000000e+00, 0.000000000000000e+00, 4.116330876161999e+03, 3.900289591939340e+03, -1.138384430647421e+02, 6.736345958153474e+03, -9.940055310264672e+02, 1.034129797689689e+03, 3.699794070654277e+03
2776, 5.559264025766120e-01, 1.055652791251063e+00, 2.415399560598504e-02, 0.000000000000000e+00, 0.000000000000000e+00, 0.000000000000000e+00, 2.436751741631259e+03, 2.211258905233578e+03, -1.499285497363682e+02, 3.233074766460635e+03, -7.848549019029062e+02, 2.950912802902895e+02, 1.743905521812732e+03
2777, 5.371028039144247e-01, 1.053498639160159e+00, 1.491360699058043e-02, 0.000000000000000e+00, 0.000000000000000e+00, 0.000000000000000e+00, 1.937932746776455e+03, 1.603012021173260e+03, -2.599451508340197e+02, 2.078525140147891e+03, -5.384803162904090e+02, 2.755791995166762e+02, 1.216328369707994e+03
2778, 5.643246512506928e-01, 1.074465487476064e+00, 2.360121527715231e-02, 0.000000000000000e+00, 0.000000000000000e+00, 0.000000000000000e+00, 2.272051474798161e+03, 1.903704506670926e+03, -1.582412160698455e+02, 2.981558935229003e+03, -8.455176265530813e+02, 2.252324659440767e+02, 1.808987356567290e+03
2779, 5.104434398774931e-01, 9.990207320172686e-01, 1.565535283899576e-02, 0.000000000000000e+00, 0.000000000000000e+00, 0.000000000000000e+00, 2.491140423440037e+03, 2.749991978417880e+03, -3.077413113878801e+01, 4.720676839409309e+03, -8.474995776634792e+02, 8.867924861915326e+02, 2.996252371555645e+03
2780, 5.184217188768689e-01, 9.829340471147140e-01, 2.426091532051652e-02, 0.000000000000000e+00, 0.000000000000000e+00, 0.000000000000000e+00, 3.776764029563787e+03, 3.703426950575818e+03, -1.051603071810768e+02, 6.948816652251198e+03, -8.387142083733604e+02, 3.181316013275226e+02, 3.570300971891242e+03
2781, 5.093301463141813e-01, 9.666773653368570e-01, 2.396986305406251e-02, 0.000000000000000e+00, 0.000000000000000e+00, 0.000000000000000e+00, 3.143731400681075e+03, 2.971888923949933e+03, -1.885540910786602e+02, 5.127223241409331e+03, -7.290101205552774e+02, 4.671761494632918e+02, 2.580775801346761e+03
2782, 5.382874505591742e-01, 9.841669397806898e-01, 3.100983700790796e-02, 0.000000000000000e+00, 0.000000000000000e+00, 0.000000000000000e+00, 4.663469436345178e+03, 4.353060163392258e+03, -8.912328385497450e+01, 8.312527224687246e+03, -8.613903242785224e+02, 3.672929477750105e+02, 4.147191714202581e+03
2783, 5.749142222730939e-01, 1.057696146470744e+00, 3.020985074329052e-02, 0.000000000000000e+00, 0.000000000000000e+00, 0.000000000000000e+00, 4.032281878598650e+03, 4.024121462777272e+03, -1.146763930220626e+02, 6.670579648831215e+03, -1.140693207584774e+03, 7.417102905108233e+02, 3.546210483834108e+03
2784, 9.325513418875865e-01, 8.156347529198797e-01, 3.060782018295999e-02, 0.000000000000000e+00, 0.000000000000000e+00, 0.000000000000000e+00, -2.897435506277785e+02, -4.069495581958880e+02, -1.327071003880573e+01, -8.498927320527932e+02, 4.248881689296790e+02, -6.533934032238922e+01, 9.037573768269572e+02
2785, 9.219400274466820e-01, 8.323843610240026e-01, 3.234875190928572e-02, 0.000000000000000e+00, 0.000000000000000e+00, 0.000000000000000e+00, 7.751401478499760e+01, -5.119227784845710e+01, -2.566236020481341e+01, -2.692176983152359e+02, 3.885810985260346e+02, -7.406003572128338e+01, 7.507181791880032e+02
2786, 9.128686837299562e-01, 8.146808109395041e-01, 3.336604873017422e-02, 0.000000000000000e+00, 0.000000000000000e+00, 0.000000000000000e+00, 9.294019186818235e+01, -4.111282890164162e+01, -2.556564097520952e+01, -1.273975518193771e+02, 4.332904967933189e+02, -1.134852307098921e+02, 8.005007533646490e+02
2787, 9.038372775581668e-01, 7.970121174204943e-01, 3.436919328634729e-02, 0.000000000000000e+00, 0.000000000000000e+00, 0.000000000000000e+00, 1.290983541591920e+02, 2.665169022538697e+01, -1.407829504694321e+01, -4.268418809077022e+01, 4.607302696695949e+02, -1.712841978400545e+02, 8.647731384763993e+02
2788, 8.931759691816121e-01, 8.137246806025333e-01, 3.598898670953077e-02, 0.000000000000000e+00, 0.000000000000000e+00, 0.000000000000000e+00, 3.853528042503820e+02, 2.641263390863713e+02, -2.832255473350405e+01, 3.533733813683507e+02, 4.326457277372438e+02, -1.464284948689224e+02, 8.000744826493057e+02
2789, 8.840700814969193e-01, 7.960583208530865e-01, 3.696718278620070e-02, 0.000000000000000e+00, 0.000000000000000e+00, 0.000000000000000e+00, 4.253829524925010e+02, 2.702546185470860e+02, -1.708223403310300e+01, 3.811224883360683e+02, 4.674515548993324e+02, -1.584753350162531e+02, 8.665502343969573e+02
2790, 8.750545703866697e-01, 7.783956645109831e-01, 3.792540560869474e-02, 0.000000000000000e+00, 0.000000000000000e+00, 0.000000000000000e+00, 4.042151397472624e+02, 2.791800570135331e+02, -2.465012843968146e+01, 3.966321151216879e+02, 4.722186904487231e+02, -1.477283105651395e+02, 8.666074385880623e+02
2791, 8.643563434252912e-01, 7.950817914279376e-01, 3.941982486603748e-02, 0.000000000000000e+00, 0.000000000000000e+00, 0.000000000000000e+00, 6.410981854508389e+02, 4.916590767632044e+02, -4.117024849705469e+01, 8.156483699026828e+02, 5.273436069113434e+02, -1.892570222905008e+02, 1.012767449554338e+03
2792, 8.552649953144844e-01, 7.774134781141199e-01, 4.035394620650712e-02, 0.000000000000000e+00, 0.000000000000000e+00, 0.000000000000000e+00, 5.442047448501656e+02, 4.410643649971167e+02, -2.747987779867765e+01, 7.076723182564413e+02, 4.958419647721229e+02, -1.693945415004823e+02, 9.381611899538110e+02
2793, 8.462707195352177e-01, 7.597468087965900e-01, 4.126866924927242e-02, 0.000000000000000e+00, 0.000000000000000e+00, 0.000000000000000e+00, 7.714815215913156e+02, 6.213831853568774e+02, -1.847299744286934e+01, 9.340281794462079e+02, 5.635583427779263e+02, -1.810016608103966e+02, 1.060872982557467e+03
2794, 8.355775883498842e-01, 7.764429996881916e-01, 4.263001197993550e-02, 0.000000000000000e+00, 0.000000000000000e+00, 0.000000000000000e+00, 1.044560007798703e+03, 8.468715998494248e+02, -3.771934764344545e+01, 1.341678140827126e+03, 5.996910884413951e+02, -2.133180209235710e+02, 1.185650407448726e+03
2795, 8.440264232487606e-01, 1.018374899737539e+00, 4.269382840469053e-02, 0.000000000000000e+00, 0.000000000000000e+00, 0.000000000000000e+00, 1.891859891273727e+03, 1.741579014746199e+03, -5.309320593013005e+01, 3.028342546599454e+03, 6.675769505477168e+02, -2.024241137362427e+02, 1.718525229092688e+03
2796, 8.242237976881961e-01, 1.017426884891256e+00, 4.431903277439088e-02, 0.000000000000000e+00, 0.000000000000000e+00, 0.000000000000000e+00, 2.002928573304144e+03, 1.885547719104780e+03, -5.211598811452298e+01, 3.430667384451860e+03, 7.234842854198330e+02, -2.131688023885220e+02, 1.983573834358388e+03
2797, 8.151430205657191e-01, 9.997272603652010e-01, 4.506981031258982e-02, 0.000000000000000e+00, 0.000000000000000e+00, 0.000000000000000e+00, 2.111728801452274e+03, 1.945982368087427e+03, -6.931595941064101e-01, 3.478267260131837e+03, 6.975763329410181e+02, -2.988946737937241e+02, 1.961951032804149e+03
2798, 8.044690785679458e-01, 1.016446046967940e+00, 4.574290694892763e-02, 0.000000000000000e+00, 0.000000000000000e+00, 0.000000000000000e+00, 2.462026963315932e+03, 2.267796564151482e+03, -4.050706129259499e+01, 4.028967924701195e+03, 7.990455125226376e+02, -3.106862665374226e+02, 2.237699381230600e+03
2799, 7.936690189151001e-01, 1.033132447025754e+00, 4.628084348232007e-02, 0.000000000000000e+00, 0.000000000000000e+00, 0.000000000000000e+00, 2.634804480119143e+03, 2.600925014449647e+03, 2.822644114531215e+01, 4.636830354630613e+03, 8.147842445478552e+02, -2.367033106999931e+02, 2.497834792497470e+03
2800, 7.845323011939898e-01, 1.015468388885626e+00, 4.696698005810244e-02, 0.000000000000000e+00, 0.000000000000000e+00, 0.000000000000000e+00, 2.725071578123950e+03, 2.580347371513335e+03, 2.678100221386578e+00, 4.728704488243174e+03, 9.258928295186483e+02, -3.035027354447176e+02, 2.678368899337736e+03
2801, 7.646961437053081e-01, 1.014564461784454e+00, 4.795790379954543e-02, 0.000000000000000e+00, 0.000000000000000e+00, 0.000000000000000e+00, 3.096953416746214e+03, 2.983693383323278e+03, -3.749327728404375e+01, 5.538106305311686e+03, 9.551100382005940e+02, -3.329085700481300e+02, 3.053186443544763e+03
2802, 7.953697203139500e-01, 9.987934628820934e-01, 4.645810398636895e-02, 0.000000000000000e+00, 0.000000000000000e+00, 0.000000000000000e+00, 2.345124987922298e+03, 2.190446446350255e+03, -2.163788495582696e+01, 3.919658711474037e+03, 9.130125123490488e+02, -2.745405267758384e+02, 2.339856003620833e+03
2803, 7.754832264513896e-01, 9.977968389862891e-01, 4.764232266391193e-02, 0.000000000000000e+00, 0.000000000000000e+00, 0.000000000000000e+00, 2.740238958471834e+03, 2.641356165434274e+03, -3.656335119749222e+01, 4.826799914119881e+03, 9.145679750947326e+02, -2.878132630990972e+02, 2.707704416279159e+03
2804, 8.333047295365149e-01, 1.035087695791298e+00, 4.356158074275604e-02, 0.000000000000000e+00, 0.000000000000000e+00, 0.000000000000000e+00, 1.979768094969708e+03, 1.921845078401840e+03, -4.469439823082475e+01, 3.295595070270479e+03, 7.717953344107228e+02, -3.124033914563162e+02, 1.974020489205378e+03
2805, 8.060368831589025e-01, 9.820468365102446e-01, 4.581579186890991e-02, 0.000000000000000e+00, 0.000000000000000e+00, 0.000000000000000e+00, 2.440131869776486e+03, 2.282204047897681e+03, 1.772088260735640e+01, 3.910964058796548e+03, 9.202886517064599e+02, -1.452701827294887e+02, 2.241789424440466e+03
2806, 8.258499317062185e-01, 9.829970935885346e-01, 4.426267633523864e-02, 0.000000000000000e+00, 0.000000000000000e+00, 0.000000000000000e+00, 1.971856376747931e+03, 1.828662274515227e+03, 3.655728828092460e+00, 3.161692787443019e+03, 6.967303821601937e+02, -2.737012206552901e+02, 1.813193215204303e+03
2807, 4.938826073195510e-01, 4.498515827221773e-01, 6.580815348785364e-02, 0.000000000000000e+00, 0.000000000000000e+00, 0.000000000000000e+00, 3.892895466328096e+03, 3.853579419861131e+03, 1.989004955263034e+01, 7.102045212073709e+03, 9.763826488675679e+02, -4.629411869003549e+02, 3.732352960731447e+03
2808, 4.849006906124909e-01, 4.321424245841208e-01, 6.631287362057521e-02, 0.000000000000000e+00, 0.000000000000000e+00, 0.000000000000000e+00, 3.782785603848137e+03, 3.775138410439939e+03, 2.652333785534292e+01, 7.084055475194673e+03, 9.815788590967566e+02, -4.630628055168271e+02, 3.802574103159020e+03
2809, 4.978356880294799e-01, 5.707087918323536e-01, 6.112441148460291e-02, 0.000000000000000e+00, 0.000000000000000e+00, 0.000000000000000e+00, 4.392912054254813e+03, 4.441702266674406e+03, 7.980106638935619e+01, 8.507010825548574e+03, 1.049056094279302e+03, -4.800394095024176e+02, 4.554057052044114e+03
2810, 5.085930584242268e-01, 5.540543099834100e-01, 6.225407576724835e-02, 0.000000000000000e+00, 0.000000000000000e+00, 0.000000000000000e+00, 4.322848793455112e+03, 4.348162694129805e+03, 4.316249225081427e+01, 8.202170733656443e+03, 1.048060929596745e+03, -4.869133853218411e+02, 4.354734987583698e+03
2811, 4.995368841206282e-01, 5.363136374149154e-01, 6.271272137756853e-02, 0.000000000000000e+00, 0.000000000000000e+00, 0.000000000000000e+00, 4.311964089525062e+03, 4.279602521303103e+03, 3.885798386862801e+01, 8.200461972967172e+03, 1.026172675587988e+03, -4.676415880556937e+02, 4.366576212996460e+03
2812, 5.193592473660171e-01, 5.373279034204848e-01, 6.312415035492992e-02, 0.000000000000000e+00, 0.000000000000000e+00, 0.000000000000000e+00, 4.187508735580860e+03, 4.191821556296189e+03, 2.755827488060683e+01, 7.837042648195918e+03, 1.041157160878289e+03, -4.615026661374805e+02, 4.146882419762331e+03
2813, 5.301458900446042e-01, 5.205769157544631e-01, 6.375228749859299e-02, 0.000000000000000e+00, 0.000000000000000e+00, 0.000000000000000e+00, 3.876676735803629e+03, 3.822629554900050e+03, 2.641927952752313e+01, 7.220222170915137e+03, 1.008576362972945e+03, -4.640940986897691e+02, 3.881088655462653e+03
2814, 5.284535193146055e-01, 5.550039220430090e-01, 6.263175355234113e-02, 0.000000000000000e+00, 0.000000000000000e+00, 0.000000000000000e+00, 4.116855513412046e+03, 4.045339683314414e+03, 2.090485290682251e+01, 7.622881878797202e+03, 1.047295206652563e+03, -4.138578396907605e+02, 4.043970758706483e+03
2815, 5.392282473300389e-01, 5.382457355559629e-01, 6.322708770643592e-02, 0.000000000000000e+00, 0.000000000000000e+00, 0.000000000000000e+00, 3.964535351707605e+03, 3.869883236765478e+03, 1.081383325676216e+01, 7.214205410533043e+03, 1.025791070561354e+03, -4.407447700201248e+02, 3.823187582792806e+03
2816, 5.376136281911535e-01, 5.726482524323403e-01, 6.213658448970043e-02, 0.000000000000000e+00, 0.000000000000000e+00, 0.000000000000000e+00, 3.954309022141275e+03, 3.919963676232864e+03, 2.214678617315078e+01, 7.357843534630565e+03, 1.039368592483182e+03, -4.134583296490022e+02, 3.931577084992379e+03
2817, 5.176932559355784e-01, 5.717077305431868e-01, 6.179608507619954e-02, 0.000000000000000e+00, 0.000000000000000e+00, 0.000000000000000e+00, 4.378759834248125e+03, 4.363950789004638e+03, 3.493079565894873e+01, 8.197047391475373e+03, 1.079996258133482e+03, -4.682615916006944e+02, 4.335519272174140e+03
2818, 5.268575409549082e-01, 5.893803793778744e-01, 6.133460052439565e-02, 0.000000000000000e+00, 0.000000000000000e+00, 0.000000000000000e+00, 4.325941223838205e+03, 4.317046585394290e+03, 6.230718069391468e+00, 8.114628338144730e+03, 1.062908833821154e+03, -4.566474180496178e+02, 4.289866057651043e+03
2819, 5.160772261438753e-01, 6.060762431432765e-01, 6.027094076407517e-02, 0.000000000000000e+00, 0.000000000000000e+00, 0.000000000000000e+00, 4.661570242895094e+03, 4.635155597989537e+03, 3.164189220089427e+01, 8.816977526001552e+03, 1.064005495215786e+03, -4.536920886575369e+02, 4.625441305787648e+03
2820, 5.359309603109412e-01, 6.070679317197826e-01, 6.086584518726895e-02, 0.000000000000000e+00, 0.000000000000000e+00, 0.000000000000000e+00, 4.312319778708293e+03, 4.341238652609930e+03, 1.679786349620663e+01, 8.155891270532949e+03, 1.139100889430120e+03, -4.531984384485966e+02, 4.378628991148173e+03
2821, 7.374698217991219e-01, 9.614982116610692e-01, 4.985905013618204e-02, 0.000000000000000e+00, 0.000000000000000e+00, 0.000000000000000e+00, 3.128497839381333e+03, 2.954999380814459e+03, -1.938698666717519e+01, 5.496735081114651e+03, 7.814844175145423e+02, -3.962185062927273e+02, 2.890291235086157e+03
2822, 7.176139531040210e-01, 9.605582057061800e-01, 5.045569901452051e-02, 0.000000000000000e+00, 0.000000000000000e+00, 0.000000000000000e+00, 3.236796348572719e+03, 3.146295606289775e+03, 2.371153533490615e+01, 5.764668204387321e+03, 9.393324654368877e+02, -3.705634817471299e+02, 3.112519207608110e+03
2823, 7.267313460514641e-01, 9.782061980088624e-01, 4.987399117228702e-02, 0.000000000000000e+00, 0.000000000000000e+00, 0.000000000000000e+00, 3.299376988603710e+03, 3.162559850586581e+03, -5.935934437918828e+01, 5.869467892679903e+03, 9.099840266170335e+02, -3.719994983590242e+02, 3.144145818523351e+03
2824, 7.787692806916467e-01, 9.290055766968708e-01, 4.801058221819487e-02, 0.000000000000000e+00, 0.000000000000000e+00, 0.000000000000000e+00, 2.483825441123430e+03, 2.384652548574446e+03, -2.265847757023622e+01, 4.393856856806861e+03, 8.315606525934867e+02, -3.815658391409261e+02, 2.521958694607709e+03
2825, 7.895639169515428e-01, 9.123024611490895e-01, 4.731283682896834e-02, 0.000000000000000e+00, 0.000000000000000e+00, 0.000000000000000e+00, 2.256144629340994e+03, 2.140976339072958e+03, -6.088351802487472e+01, 3.692985100040286e+03, 8.072038309431053e+02, -3.612355437763764e+02, 2.144896400843676e+03
2826, 7.697220404164155e-01, 9.113169868087878e-01, 4.872697353377244e-02, 0.000000000000000e+00, 0.000000000000000e+00, 0.000000000000000e+00, 2.452811298234516e+03, 2.355867964822208e+03, -8.773680046206970e+00, 4.277986813597298e+03, 7.864432176807999e+02, -3.845897530825043e+02, 2.411854025664886e+03
2827, 9.143962616351042e-01, 7.802826918424368e-01, 3.268829199790930e-02, 0.000000000000000e+00, 0.000000000000000e+00, 0.000000000000000e+00, -9.652804424838276e+01, -2.068916998748780e+02, -4.536269015839766e+01, -5.146448175469645e+02, 3.840210068009050e+02, -1.619700079728238e+02, 8.174040918868633e+02
2828, 5.127379696222494e-01, 9.312469630428711e-01, 3.182265680192516e-02, 0.000000000000000e+00, 0.000000000000000e+00, 0.000000000000000e+00, 4.361643064991630e+03, 4.980123579843092e+03, -1.392029502065723e+02, 9.825770952752086e+03, -9.083208141890130e+02, 8.171432518521005e+02, 5.603230930674198e+03
2829, 4.928998155256124e-01, 9.302473813078875e-01, 2.501079287924533e-02, 0.000000000000000e+00, 0.000000000000000e+00, 0.000000000000000e+00, 5.094830110025176e+03, 4.776682820762725e+03, 2.459411613377635e+01, 8.600944283809547e+03, -1.359231278991558e+03, 7.395319593226409e+02, 4.549129718429878e+03
2830, 4.846449630538525e-01, 9.121825349832871e-01, 2.547560737822833e-02, 0.000000000000000e+00, 0.000000000000000e+00, 0.000000000000000e+00, 4.562133842925019e+03, 4.777256698210989e+03, 9.048184207271325e+01, 8.470333694521474e+03, -1.485596194673539e+03, 7.677341063951667e+02, 4.784700287193397e+03
2831, 4.749528361726982e-01, 9.290778091561650e-01, 1.525211206465035e-02, 0.000000000000000e+00, 0.000000000000000e+00, 0.000000000000000e+00, 2.859093967664332e+03, 2.860586354167146e+03, -7.859926885719645e+00, 4.651248215695254e+03, -1.035648731083205e+03, 5.629372845379071e+02, 2.716197685376650e+03
2832, 4.657890363773037e-01, 9.102709366912491e-01, 1.556174758709801e-02, 0.000000000000000e+00, 0.000000000000000e+00, 0.000000000000000e+00, 2.930098416182307e+03, 3.049126678141173e+03, -3.216006077972837e+02, 4.636636842956201e+03, -1.006776970527012e+03, 7.006031040816928e+02, 2.747167525397760e+03
2833, 4.735950203275218e-01, 8.944301559254870e-01, 2.467169822916455e-02, 0.000000000000000e+00, 0.000000000000000e+00, 0.000000000000000e+00, 5.577138266229796e+03, 5.098547232130251e+03, 3.579721929435097e+01, 1.059316883262610e+04, -1.283732135808612e+03, 1.238689993903825e+03, 6.110732107696444e+03
2834, 4.650305968615034e-01, 8.782742247129919e-01, 2.456756715023702e-02, 0.000000000000000e+00, 0.000000000000000e+00, 0.000000000000000e+00, 7.064382393420065e+03, 7.241871063633333e+03, 3.815377332029604e+02, 1.367126730277992e+04, -1.268485568471957e+03, 2.974399720258637e+02, 6.931022642112836e+03
2835, 4.933210423341023e-01, 8.956769029830666e-01, 3.168059511549566e-02, 0.000000000000000e+00, 0.000000000000000e+00, 0.000000000000000e+00, 5.824612896994649e+03, 5.829059174750094e+03, 4.608292645195228e+01, 1.239965410475639e+04, -9.071503763977771e+02, 7.470456483921564e+02, 6.881229550055691e+03
2836, 1.012638095153722e+00, 7.848395844654869e-01, 1.726671177786849e-02, 0.000000000000000e+00, 0.000000000000000e+00, 0.000000000000000e+00, -2.316143078290287e+03, -2.086497004179210e+03, 4.639498567412371e+01, -4.414197189043713e+03, -2.069569096968862e+02, -4.810161450306014e+02, 2.401136986440460e+03
2837, 6.028193981525800e-01, 6.619269186428867e-01, 5.941173886054375e-02, 0.000000000000000e+00, 0.000000000000000e+00, 0.000000000000000e+00, 3.541799427883408e+03, 3.433947156368261e+03, 4.995224753298486e+01, 6.243063368765689e+03, 1.058462917456863e+03, -4.291201195137011e+02, 3.394222384829402e+03
2838, 5.920183329660376e-01, 6.785824816638798e-01, 5.905768621717865e-02, 0.000000000000000e+00, 0.000000000000000e+00, 0.000000000000000e+00, 3.731531833528063e+03, 3.745447523836071e+03, 7.372671919566304e+01, 6.961832841159994e+03, 1.064107849792123e+03, -4.225041097113984e+02, 3.786673867845968e+03
2839, 6.011419358393261e-01, 6.963375213885692e-01, 5.852409636453922e-02, 0.000000000000000e+00, 0.000000000000000e+00, 0.000000000000000e+00, 3.634856074441325e+03, 3.613429557986065e+03, 3.205912460617960e+01, 6.790515535404318e+03, 9.436420336820919e+02, -4.706011719913637e+02, 3.655833849258700e+03
2840, 5.812537857015314e-01, 6.952873226059563e-01, 5.846234543788518e-02, 0.000000000000000e+00, 0.000000000000000e+00, 0.000000000000000e+00, 3.961230645933209e+03, 3.936822601643361e+03, 6.351094088506270e+01, 7.404356256509099e+03, 9.630905750171046e+02, -4.040203369483153e+02, 3.901817303402126e+03
2841, 5.903704801781791e-01, 7.130384958407534e-01, 5.796433036403982e-02, 0.000000000000000e+00, 0.000000000000000e+00, 0.000000000000000e+00, 3.990864121910376e+03, 3.977417389088414e+03, 5.920861659529067e+01, 7.489290984503397e+03, 8.999560533582987e+02, -4.455155239814226e+02, 3.914325696712774e+03
2842, 6.102278851374328e-01, 7.140130625614711e-01, 5.798778334631594e-02, 0.000000000000000e+00, 0.000000000000000e+00, 0.000000000000000e+00, 3.836127680328625e+03, 3.718489617702774e+03, -7.703989277311554e-01, 7.108267569631687e+03, 8.957581237926526e+02, -4.175381019588368e+02, 3.746442338471565e+03
2843, 5.705171092647576e-01, 7.120526695472655e-01, 5.760527282253588e-02, 0.000000000000000e+00, 0.000000000000000e+00, 0.000000000000000e+00, 4.092244110587828e+03, 4.109581529437782e+03, 6.775522999348222e+01, 7.731185826336420e+03, 8.449817256683727e+02, -3.786816950044902e+02, 3.970524106729553e+03
2844, 6.034036154716509e-01, 1.108533818225086e+00, 3.053375468230749e-02, 0.000000000000000e+00, 0.000000000000000e+00, 0.000000000000000e+00, 4.471810204742643e+03, 4.318966406984489e+03, -2.623718051730473e+02, 9.259542825480528e+03, -1.079710797674903e+03, 5.861137565276996e+02, 5.330286223990662e+03
2845, 5.828456552301158e-01, 1.108992896750210e+00, 2.381277125096953e-02, 0.000000000000000e+00, 0.000000000000000e+00, 0.000000000000000e+00, 5.482953836252593e+03, 5.046779504094938e+03, 1.635314928405444e+02, 9.017765275122800e+03, -1.290804676976404e+03, -6.926026118061057e+01, 4.395461604445448e+03
2846, 5.637058677462398e-01, 1.107035955014158e+00, 1.460348623713694e-02, 0.000000000000000e+00, 0.000000000000000e+00, 0.000000000000000e+00, 2.292253143301073e+03, 2.079018115347853e+03, 7.064183662293006e+01, 3.709608266231371e+03, -8.548908640832227e+02, 1.225126808157159e+02, 2.146883445254043e+03
2847, 2.037381215183977e-01, 1.082593888985359e-01, 6.427820437543294e-02, 0.000000000000000e+00, 0.000000000000000e+00, 0.000000000000000e+00, 5.300777754331903e+03, 5.161772325431974e+03, 1.769772350672500e+02, 1.087603758738531e+04, 8.085862587105512e+01, -5.581911821192815e+02, 5.738130833674070e+03
2848, 1.947665941517423e-01, 9.059682997603302e-02, 6.454279269246178e-02, 0.000000000000000e+00, 0.000000000000000e+00, 0.000000000000000e+00, 5.398949903384360e+03, 5.438707745867830e+03, 1.635982788648219e+02, 1.078776646913462e+04, 3.668057428965206e+01, -6.871361216192015e+02, 5.507038648691769e+03
2849, 6.482985380549754e-01, 7.503572537528789e-01, 5.652077105658949e-02, 0.000000000000000e+00, 0.000000000000000e+00, 0.000000000000000e+00, 3.166538830879967e+03, 3.155201755343835e+03, 1.758986590129761e+00, 5.793136879123143e+03, 9.651994594440405e+02, -3.027076072288798e+02, 3.162065580415741e+03
2850, 6.375036681878610e-01, 7.670441611119645e-01, 5.634563114233753e-02, 0.000000000000000e+00, 0.000000000000000e+00, 0.000000000000000e+00, 3.213749041528918e+03, 3.238058076255539e+03, -2.883098387414607e+01, 5.914346288168815e+03, 9.452683867989415e+02, -3.569408705273206e+02, 3.208345135233026e+03
2851, 6.465826682284488e-01, 7.847229648258558e-01, 5.578699059310921e-02, 0.000000000000000e+00, 0.000000000000000e+00, 0.000000000000000e+00, 3.293594618003460e+03, 3.250361802538273e+03, -3.300636908468173e+00, 5.902877597825585e+03, 1.001262025189403e+03, -3.802585434478914e+02, 3.219383898535879e+03
2852, 6.267239664864895e-01, 7.837465158680247e-01, 5.593128283363391e-02, 0.000000000000000e+00, 0.000000000000000e+00, 0.000000000000000e+00, 3.618593999616993e+03, 3.560029028725294e+03, -2.520750823008278e+01, 6.489903235208894e+03, 1.112936941155492e+03, -4.844628843507563e+02, 3.583002894686788e+03
2853, 6.358046804126420e-01, 8.014276116503767e-01, 5.540958580249811e-02, 0.000000000000000e+00, 0.000000000000000e+00, 0.000000000000000e+00, 3.446062256384821e+03, 3.444498999098922e+03, 6.073123193817114e+00, 6.344305301528589e+03, 1.047586367765369e+03, -4.953029441806362e+02, 3.526009522655279e+03
2854, 6.250365898033468e-01, 8.181345479651323e-01, 5.477417906475680e-02, 0.000000000000000e+00, 0.000000000000000e+00, 0.000000000000000e+00, 4.116506545502423e+03, 4.003344709014981e+03, -6.428394863216635e+00, 7.521917010641995e+03, 1.207048921982668e+03, -5.874557623683875e+02, 4.171489737579090e+03
2855, 6.746374054411653e-01, 1.027356880175920e+00, 4.755487124714031e-02, 0.000000000000000e+00, 0.000000000000000e+00, 0.000000000000000e+00, 5.090052520184242e+03, 5.181023394646192e+03, 2.754979401419519e+01, 1.015964144469314e+04, 1.122235819531830e+03, -4.035054470285598e+02, 5.432935600630213e+03
2856, 6.639212579391012e-01, 1.043935766453954e+00, 4.598477995022301e-02, 0.000000000000000e+00, 0.000000000000000e+00, 0.000000000000000e+00, 5.252142269321874e+03, 5.663833447395294e+03, 1.539447734200984e+02, 1.088829839046621e+04, 9.445519018270950e+02, -3.736372339174403e+02, 5.725542411678628e+03
2857, 6.730270797749057e-01, 1.061548034982311e+00, 4.561992960756207e-02, 0.000000000000000e+00, 0.000000000000000e+00, 0.000000000000000e+00, 5.114814554871691e+03, 5.145095914282894e+03, 9.734158735177593e+01, 1.020052840440539e+04, 1.180469419083771e+03, -3.925195762932715e+02, 5.512038202562387e+03
2858, 9.246456657741788e-01, 9.877656280973299e-01, 3.387492365836146e-02, 0.000000000000000e+00, 0.000000000000000e+00, 0.000000000000000e+00, 4.856967354630166e+02, 3.526479004135067e+02, -3.083800455552464e+01, 5.684427364406073e+02, 4.865167792711857e+02, -9.164040129001673e+01, 8.796025913893146e+02
2859, 7.837414501102089e-01, 8.257806092704059e-01, 4.795069306029620e-02, 0.000000000000000e+00, 0.000000000000000e+00, 0.000000000000000e+00, 1.935543301347476e+03, 1.762745111835271e+03, -3.673462443018116e+01, 3.038422666452534e+03, 7.328855560915570e+02, -2.531034633661349e+02, 1.801214525867623e+03
2860, 7.639394048410642e-01, 8.248333857476935e-01, 4.955837401197006e-02, 0.000000000000000e+00, 0.000000000000000e+00, 0.000000000000000e+00, 2.273694187038202e+03, 2.149639666645109e+03, -6.599329026045608e+01, 3.809730118096549e+03, 8.808467296641212e+02, -3.128057404178462e+02, 2.280269419726417e+03
2861, 9.674489011279358e-01, 6.965749349292799e-01, 2.320090909019260e-02, 0.000000000000000e+00, 0.000000000000000e+00, 0.000000000000000e+00, -1.969441326875428e+03, -2.121736184071684e+03, -1.070957820465015e+02, -4.941127737459501e+03, 4.568039399260842e+02, -8.271680807267121e+02, 3.333853690304704e+03
2862, 9.478595125397010e-01, 6.956638325242156e-01, 2.634765718895293e-02, 0.000000000000000e+00, 0.000000000000000e+00, 0.000000000000000e+00, -1.231488552895245e+03, -1.314262485258618e+03, 1.294016109690041e+01, -2.430628748824528e+03, 5.764048733833073e+02, -1.471859343830694e+02, 1.551693384412183e+03
2863, 9.388081912747346e-01, 6.779677894880887e-01, 2.746336138391456e-02, 0.000000000000000e+00, 0.000000000000000e+00, 0.000000000000000e+00, -5.757228352346878e+02, -6.279096621891990e+02, -2.366424875279977e+00, -1.565717226820689e+03, 5.318904907893110e+02, -1.272100820730117e+02, 1.352196062595621e+03
2864, 9.493483098025157e-01, 6.612032628484505e-01, 2.549538561101350e-02, 0.000000000000000e+00, 0.000000000000000e+00, 0.000000000000000e+00, -8.736910156447706e+02, -1.045171505451157e+03, 2.099416368094619e+01, -2.262395071704808e+03, 4.993685086358585e+02, -1.558360040258043e+01, 1.571599947427672e+03
2865, 6.301499961093052e-01, 7.149486095906832e-01, 5.769463922596432e-02, 0.000000000000000e+00, 0.000000000000000e+00, 0.000000000000000e+00, 3.488553038837239e+03, 3.423029727087106e+03, 8.146356362374675e+00, 6.574919728802212e+03, 1.014422770704885e+03, -3.452852171642309e+02, 3.630042289316472e+03
2866, 6.209766713312528e-01, 6.972943273151289e-01, 5.827361278893479e-02, 0.000000000000000e+00, 0.000000000000000e+00, 0.000000000000000e+00, 3.661910390864867e+03, 3.593497656775565e+03, 5.647052334471026e+00, 6.689889887323145e+03, 9.427107110949160e+02, -4.154543693950163e+02, 3.544644638107471e+03
2867, 5.564644186122341e-01, 7.975189631585617e-01, 5.251614490225839e-02, 0.000000000000000e+00, 0.000000000000000e+00, 0.000000000000000e+00, 5.083456050337208e+03, 5.241594146965632e+03, 1.195284302102361e+02, 1.028116148708839e+04, 1.026071772933173e+03, -6.767591182987366e+02, 5.549282288670556e+03
2868, 5.457689861207629e-01, 8.141459866420308e-01, 5.041387649160499e-02, 0.000000000000000e+00, 0.000000000000000e+00, 0.000000000000000e+00, 5.386947077329385e+03, 5.748514411825192e+03, 1.037168625053480e+02, 1.122131027884593e+04, 7.320456371051012e+02, -6.512066619118477e+02, 5.913811301521618e+03
2869, 5.548571134287640e-01, 8.316872427466759e-01, 5.010573280782432e-02, 0.000000000000000e+00, 0.000000000000000e+00, 0.000000000000000e+00, 5.620484557132573e+03, 5.836164542147439e+03, 1.140051249266639e+02, 1.140463754138736e+04, 9.359483885357969e+02, -5.973939912320512e+02, 5.999420470182868e+03
2870, 5.354136237518159e-01, 8.303307592116844e-01, 4.795172905957987e-02, 0.000000000000000e+00, 0.000000000000000e+00, 0.000000000000000e+00, 6.205075239449480e+03, 6.362508033858348e+03, 1.246124000607837e+02, 1.257214388679607e+04, 6.506111738275823e+02, -8.760258404095074e+02, 6.571202028845606e+03
2871, 4.675270250815881e-01, 8.426923108072198e-01, 3.242099156902489e-02, 0.000000000000000e+00, 0.000000000000000e+00, 0.000000000000000e+00, 5.017578726344317e+03, 4.850422158991643e+03, 1.812435403716105e+02, 9.158511976079062e+03, -8.103444457891396e+02, -3.961857330861390e+02, 4.517395833328793e+03
2872, 4.478424623210299e-01, 8.418123983042419e-01, 2.530232226106814e-02, 0.000000000000000e+00, 0.000000000000000e+00, 0.000000000000000e+00, 3.991049052868605e+03, 4.072396823018873e+03, 2.401565502144116e+02, 7.045705619929829e+03, -1.189041318845112e+03, -2.190498651974756e+02, 3.694250466876591e+03
2873, 4.392930583948264e-01, 8.238907879012575e-01, 2.561683832078133e-02, 0.000000000000000e+00, 0.000000000000000e+00, 0.000000000000000e+00, 3.372085356835186e+03, 2.995639812122986e+03, -3.013386053010024e+01, 5.397186508573040e+03, -9.027118246415134e+02, 1.872987439098923e+02, 2.749130544585279e+03
2874, 4.301429583104435e-01, 8.401514125422644e-01, 1.497990186477968e-02, 0.000000000000000e+00, 0.000000000000000e+00, 0.000000000000000e+00, 2.315978217815507e+03, 1.779404276592765e+03, -2.556451358661192e+00, 3.193388805102752e+03, -8.734466107096827e+02, 2.113508273487843e+02, 1.987790395954444e+03
2875, 4.295137376362982e-01, 8.068986131368604e-01, 2.515113363122642e-02, 0.000000000000000e+00, 0.000000000000000e+00, 0.000000000000000e+00, 3.663149647829946e+03, 3.325527420122688e+03, -3.263344434978444e+01, 5.928872093500990e+03, -9.358138662023341e+02, 2.832167613432703e+02, 2.980523113859506e+03
2876, 4.493800935955939e-01, 8.075971343572492e-01, 3.257104856404416e-02, 0.000000000000000e+00, 0.000000000000000e+00, 0.000000000000000e+00, 3.954118212288804e+03, 4.156309530120093e+03, 1.378452503504997e+02, 7.451191235006729e+03, -1.022021785690878e+03, 3.102816043517725e+02, 3.878496719686955e+03
2877, 4.211101151978983e-01, 7.879485766228979e-01, 2.577838922752718e-02, 0.000000000000000e+00, 0.000000000000000e+00, 0.000000000000000e+00, 3.852525161389990e+03, 4.013360979915503e+03, -5.496271619420968e+01, 6.335341512309376e+03, -1.072733804777379e+03, 5.455874445210884e+02, 3.185161302033654e+03
2878, 4.123040667144056e-01, 8.046784293022171e-01, 1.489532475323584e-02, 0.000000000000000e+00, 0.000000000000000e+00, 0.000000000000000e+00, 2.129751241408170e+03, 2.216923554579517e+03, -8.896097857241838e+01, 3.195688537211021e+03, -7.662106003310724e+02, 4.574393544582526e+02, 1.861083453078538e+03
2879, 4.115526619988117e-01, 7.713712810361399e-01, 2.532439653129234e-02, 0.000000000000000e+00, 0.000000000000000e+00, 0.000000000000000e+00, 3.417822315176374e+03, 3.255766021990168e+03, -1.317113750807320e+02, 6.452621433357437e+03, -1.361629921845344e+03, 7.974933829447029e+02, 4.153337826883746e+03
2880, 4.312521625734435e-01, 7.719878459286476e-01, 3.280555046948372e-02, 0.000000000000000e+00, 0.000000000000000e+00, 0.000000000000000e+00, 4.754997390944714e+03, 4.709432969221372e+03, 8.638257655390211e+00, 9.007164305477876e+03, -8.501973007262892e+02, 9.658484265914274e+02, 4.821210104375193e+03
2881, 4.032212074490967e-01, 7.522113026064225e-01, 2.602078703433085e-02, 0.000000000000000e+00, 0.000000000000000e+00, 0.000000000000000e+00, 4.708012233612621e+03, 4.331601276878645e+03, -1.861320314026125e+00, 7.401557239557628e+03, -1.145983687952504e+03, 4.281930524734751e+02, 3.591746631285915e+03
2882, 3.944604998878419e-01, 7.689871757689795e-01, 1.493811142609432e-02, 0.000000000000000e+00, 0.000000000000000e+00, 0.000000000000000e+00, 2.748699898425050e+03, 2.238866404266596e+03, -2.123294487709134e+02, 4.072864901826141e+03, -1.019483655329593e+03, 5.497790974016077e+02, 2.616965827297364e+03
2883, 3.928749600342660e-01, 7.356250424493569e-01, 2.526079801373262e-02, 0.000000000000000e+00, 0.000000000000000e+00, 0.000000000000000e+00, 4.210331166094962e+03, 4.070181473868774e+03, -9.282040888096385e+01, 7.240626965986976e+03, -1.015955498657334e+03, 5.174742179980976e+02, 3.681400807346625e+03
2884, 5.846789819895830e-01, 6.265307370997050e-01, 6.052910831214441e-02, 0.000000000000000e+00, 0.000000000000000e+00, 0.000000000000000e+00, 3.661205463018794e+03, 3.616168451979893e+03, 5.545662251861573e+00, 6.668920162993106e+03, 1.122498014812507e+03, -3.860165273683203e+02, 3.662097547859351e+03
2885, 5.738840448897959e-01, 6.432139115859443e-01, 6.010547652756396e-02, 0.000000000000000e+00, 0.000000000000000e+00, 0.000000000000000e+00, 3.837695316723839e+03, 3.797635725521585e+03, 2.082124892342184e+01, 7.172510865525773e+03, 1.120767836833189e+03, -4.097691255751774e+02, 3.940759479755358e+03
2886, 5.648201885602646e-01, 6.255479917527559e-01, 6.062135236929482e-02, 0.000000000000000e+00, 0.000000000000000e+00, 0.000000000000000e+00, 3.918707848244090e+03, 3.914223824945618e+03, 3.706835756541266e+01, 7.328012626883971e+03, 1.073209465558585e+03, -4.417027306160927e+02, 3.960230845439852e+03
2887, 5.829152059330392e-01, 6.609101481250160e-01, 5.958369330838342e-02, 0.000000000000000e+00, 0.000000000000000e+00, 0.000000000000000e+00, 3.732032110835728e+03, 3.737841290156036e+03, 3.159099868060973e+01, 7.021565249827878e+03, 1.121348641100307e+03, -4.154084314115987e+02, 3.885216509302459e+03
2888, 5.630787058629438e-01, 6.599066218668695e-01, 5.944044906547412e-02, 0.000000000000000e+00, 0.000000000000000e+00, 0.000000000000000e+00, 4.150810992255940e+03, 4.149565819365636e+03, 7.104352225317673e+01, 7.908736154444323e+03, 1.021621820234432e+03, -3.789644302758343e+02, 4.207588315976562e+03
2889, 5.721608044251318e-01, 6.775938009320539e-01, 5.895383125255148e-02, 0.000000000000000e+00, 0.000000000000000e+00, 0.000000000000000e+00, 4.158799266301072e+03, 4.125388531606442e+03, 8.141234080294578e+01, 7.766441739601039e+03, 9.752524760693695e+02, -3.629086637118293e+02, 4.050318340134997e+03
2890, 9.025951912524165e-01, 3.831782347975855e-01, 2.798093747074621e-02, 0.000000000000000e+00, 0.000000000000000e+00, 0.000000000000000e+00, -7.014641846900539e+02, -8.974255647311320e+02, -6.626033461299023e+01, -1.739251096393036e+03, 2.597178970720707e+02, -1.146810016643129e+02, 1.080288402048089e+03
2891, 5.574583574730365e-01, 5.735571878054653e-01, 6.216283062938828e-02, 0.000000000000000e+00, 0.000000000000000e+00, 0.000000000000000e+00, 3.681459168808962e+03, 3.646154329271516e+03, 1.128564639814799e+01, 6.869567946902895e+03, 1.022639115885336e+03, -3.650801488167029e+02, 3.716913317274571e+03
2892, 6.109666689807558e-01, 9.035092571093388e-01, 5.031806835187361e-02, 0.000000000000000e+00, 0.000000000000000e+00, 0.000000000000000e+00, 4.614458921431754e+03, 4.697391528525190e+03, 1.081222001014216e+02, 9.049656252932840e+03, 9.452144899570162e+02, -4.983008567738189e+02, 4.771824018875950e+03
2893, 6.003751005596492e-01, 9.200965792351055e-01, 4.846550482703334e-02, 0.000000000000000e+00, 0.000000000000000e+00, 0.000000000000000e+00, 4.844646488481716e+03, 4.969867143624445e+03, 1.260812334936623e+02, 9.818957880730592e+03, 9.757003450217208e+02, -3.727076249423180e+02, 5.239939250728464e+03
2894, 5.912988162718337e-01, 9.024438997998196e-01, 4.880187576850419e-02, 0.000000000000000e+00, 0.000000000000000e+00, 0.000000000000000e+00, 5.037111975722826e+03, 5.099138835342413e+03, 1.536615996190795e+02, 9.941489295646550e+03, 9.374486231221684e+02, -4.436588331656737e+02, 5.200992790733641e+03
2895, 6.094647668281248e-01, 9.377793238450203e-01, 4.812457681992533e-02, 0.000000000000000e+00, 0.000000000000000e+00, 0.000000000000000e+00, 4.850279917420939e+03, 5.023411819020890e+03, 1.366180101806758e+02, 9.576433425149877e+03, 8.945640508239067e+02, -3.946226623022092e+02, 4.946934686442488e+03
2896, 1.132671138847942e+00, 1.197156973205157e+00, 4.166150618033005e-03, 0.000000000000000e+00, 0.000000000000000e+00, 0.000000000000000e+00, 9.561094686462000e+02, 7.217763419839082e+02, -3.897357807584661e+02, 1.492311654102260e+03, -1.023949594602518e+03, -5.235723278894386e+02, 2.211686897697133e+03
2897, 7.474208664464956e-01, 7.550636650615066e-01, 5.104309099611515e-02, 0.000000000000000e+00, 0.000000000000000e+00, 0.000000000000000e+00, 2.202969128938419e+03, 2.077953277871984e+03, -3.073819245880991e+01, 3.685072030619178e+03, 8.055956382971517e+02, -2.757585222357862e+02, 2.139032520632664e+03
2898, 7.276109079279889e-01, 7.541161325200649e-01, 5.252191605252220e-02, 0.000000000000000e+00, 0.000000000000000e+00, 0.000000000000000e+00, 2.221638991425581e+03, 2.132709429682403e+03, 3.337717215245945e+00, 3.911327841303213e+03, 7.515435269920373e+02, -2.437668968930930e+02, 2.210423829331552e+03
2899, 7.185771366676288e-01, 7.364706675263905e-01, 5.324480708747827e-02, 0.000000000000000e+00, 0.000000000000000e+00, 0.000000000000000e+00, 2.386994945785230e+03, 2.280678671010765e+03, -2.058088775182726e+01, 4.143598738865957e+03, 7.352781717628311e+02, -2.218900953759662e+02, 2.248242411172570e+03
2900, 7.078084185131313e-01, 7.531383350516944e-01, 5.382216790446383e-02, 0.000000000000000e+00, 0.000000000000000e+00, 0.000000000000000e+00, 2.557190711358825e+03, 2.382159004429330e+03, -2.795118335455718e+01, 4.267536266702077e+03, 8.401559308419538e+02, -2.529545540748941e+02, 2.359485221128806e+03
2901, 7.094681936320806e-01, 7.188479860606174e-01, 5.396719668442432e-02, 0.000000000000000e+00, 0.000000000000000e+00, 0.000000000000000e+00, 2.427197437487606e+03, 2.268906331762210e+03, 1.563559445645039e+01, 4.135112243500418e+03, 7.415801426342605e+02, -2.669277380499148e+02, 2.253149966866341e+03
2902, 7.292674221004665e-01, 7.196920357007445e-01, 5.255248775576699e-02, 0.000000000000000e+00, 0.000000000000000e+00, 0.000000000000000e+00, 2.130418081213500e+03, 2.057027813006459e+03, 2.834317325128333e+00, 3.753669840156521e+03, 8.213705563227705e+02, -3.139972642444012e+02, 2.253712271928346e+03
2903, 7.003896513279092e-01, 7.011524108619369e-01, 5.468244842702565e-02, 0.000000000000000e+00, 0.000000000000000e+00, 0.000000000000000e+00, 2.450277444438826e+03, 2.320621355342042e+03, -3.485780206487539e+01, 4.202270333121423e+03, 8.704760173817667e+02, -2.595023897485773e+02, 2.406720068883530e+03
2904, 7.110971427722030e-01, 6.843557852895256e-01, 5.404028283213784e-02, 0.000000000000000e+00, 0.000000000000000e+00, 0.000000000000000e+00, 2.157601926100470e+03, 2.102348838341006e+03, -2.302450643735657e+01, 3.822808389689696e+03, 7.978178615048532e+02, -2.328918970902162e+02, 2.223020373331301e+03
2905, 6.912809333873373e-01, 6.834063273455970e-01, 5.539449957960375e-02, 0.000000000000000e+00, 0.000000000000000e+00, 0.000000000000000e+00, 2.627556335593796e+03, 2.429315346146803e+03, -5.957823686493419e+01, 4.474436824158457e+03, 8.495977095236224e+02, -3.494076355594566e+02, 2.521656010392789e+03
2906, 6.822437012342910e-01, 6.657597739172139e-01, 5.609601093687246e-02, 0.000000000000000e+00, 0.000000000000000e+00, 0.000000000000000e+00, 2.422156768739379e+03, 2.330809739794015e+03, -3.584864771670260e+01, 4.236280589438463e+03, 8.707642148289665e+02, -4.183393924415951e+02, 2.503732056271105e+03
2907, 6.714746435316774e-01, 6.824380416643299e-01, 5.656943737276444e-02, 0.000000000000000e+00, 0.000000000000000e+00, 0.000000000000000e+00, 2.884897868731395e+03, 2.696415393474663e+03, -2.700033538113799e+01, 5.011002723433046e+03, 9.133067807339443e+02, -3.855302055241525e+02, 2.811948879689089e+03
2908, 6.731257265405240e-01, 6.480947068121763e-01, 5.679759312976390e-02, 0.000000000000000e+00, 0.000000000000000e+00, 0.000000000000000e+00, 2.319731613412813e+03, 2.279287045785262e+03, -1.635276709551214e+01, 4.054926241387605e+03, 8.342829836000025e+02, -3.465558592743909e+02, 2.352000165055711e+03
2909, 6.533319877238497e-01, 6.471624864693646e-01, 5.791046124404607e-02, 0.000000000000000e+00, 0.000000000000000e+00, 0.000000000000000e+00, 2.697753183385656e+03, 2.575601602634577e+03, -4.296733797787616e+01, 4.593295779317728e+03, 8.574221955316242e+02, -4.054005790798275e+02, 2.558056331528158e+03
2910, 6.442213683164789e-01, 6.294973490257503e-01, 5.857577554384873e-02, 0.000000000000000e+00, 0.000000000000000e+00, 0.000000000000000e+00, 2.858333174820414e+03, 2.709048533608787e+03, -1.073672616085823e+01, 4.741571101358993e+03, 9.202984253622644e+02, -3.617574074879163e+02, 2.604574468678201e+03
2911, 6.549530635617533e-01, 6.127461537378878e-01, 5.818163669941347e-02, 0.000000000000000e+00, 0.000000000000000e+00, 0.000000000000000e+00, 2.604305801722704e+03, 2.494292329361772e+03, -9.486216816781461e-01, 4.413024913158003e+03, 8.517859808698548e+02, -2.967406659211105e+02, 2.433790684888338e+03
2912, 6.656950643161548e-01, 5.959835306363106e-01, 5.766210525933446e-02, 0.000000000000000e+00, 0.000000000000000e+00, 0.000000000000000e+00, 2.458994348467612e+03, 2.343984540785624e+03, -5.409405788595717e+01, 4.130178622635987e+03, 8.054970147570507e+02, -2.525611067520403e+02, 2.268237835333568e+03
2913, 6.458737317959210e-01, 5.950344922446147e-01, 5.886595372349897e-02, 0.000000000000000e+00, 0.000000000000000e+00, 0.000000000000000e+00, 2.499074612192839e+03, 2.403668731977471e+03, -7.847322168236575e+00, 4.390323308726664e+03, 8.603908147956629e+02, -2.743939127051507e+02, 2.492636761074172e+03
2914, 6.368161508078829e-01, 5.773699300144425e-01, 5.954383662648499e-02, 0.000000000000000e+00, 0.000000000000000e+00, 0.000000000000000e+00, 2.611357573259433e+03, 2.467254266318197e+03, -2.566315414514075e+00, 4.515015410745037e+03, 9.246691985836330e+02, -2.985823572616573e+02, 2.598367896490823e+03
2915, 6.260661261334207e-01, 5.940713196230369e-01, 5.989006938694495e-02, 0.000000000000000e+00, 0.000000000000000e+00, 0.000000000000000e+00, 2.831560972091389e+03, 2.688614513150996e+03, -3.249460438503168e+00, 4.892980287650345e+03, 9.705854643159618e+02, -2.567012058770935e+02, 2.754701891518139e+03
2916, 6.276837389174640e-01, 5.597632743088425e-01, 6.022042007314425e-02, 0.000000000000000e+00, 0.000000000000000e+00, 0.000000000000000e+00, 2.706130181524538e+03, 2.569441816521107e+03, 9.651701872508628e+00, 4.644354033795968e+03, 9.785478408325714e+02, -2.819585608818874e+02, 2.674280659658587e+03
2917, 6.475353683282867e-01, 5.606408388240277e-01, 5.907417846817130e-02, 0.000000000000000e+00, 0.000000000000000e+00, 0.000000000000000e+00, 2.543649195517012e+03, 2.358242582119735e+03, -8.024584196893299e+00, 4.250428812552595e+03, 8.751634363816556e+02, -3.145592130595612e+02, 2.420472949773296e+03
2918, 6.186099566271626e-01, 5.420681646837947e-01, 6.089007738673007e-02, 0.000000000000000e+00, 0.000000000000000e+00, 0.000000000000000e+00, 2.847309260110324e+03, 2.711877265447565e+03, -4.616314573406129e+01, 4.983469985726578e+03, 1.049687691091500e+03, -3.201922012014778e+02, 2.913816049534373e+03
2919, 6.293802258708587e-01, 5.252926168433586e-01, 6.046656092022994e-02, 0.000000000000000e+00, 0.000000000000000e+00, 0.000000000000000e+00, 2.551765064571330e+03, 2.407249014708103e+03, -1.734963718550188e+01, 4.368754408129479e+03, 9.602160876792171e+02, -3.059370952899244e+02, 2.575395045330950e+03
2920, 6.095801887522618e-01, 5.244040444482979e-01, 6.155249686276455e-02, 0.000000000000000e+00, 0.000000000000000e+00, 0.000000000000000e+00, 2.947419050941211e+03, 2.821547722801289e+03, -3.060875666058313e+01, 5.154100892550179e+03, 9.855578728725260e+02, -3.507750973747372e+02, 2.906709389091171e+03
2921, 6.203173050855872e-01, 5.076237820548415e-01, 6.115459622746264e-02, 0.000000000000000e+00, 0.000000000000000e+00, 0.000000000000000e+00, 2.538638033864535e+03, 2.467074701174579e+03, -2.119774126442616e+01, 4.545070320347974e+03, 9.466339626547015e+02, -3.351287334343246e+02, 2.683488070859342e+03
2922, 6.004792822715085e-01, 5.066861863307944e-01, 6.221443699595789e-02, 0.000000000000000e+00, 0.000000000000000e+00, 0.000000000000000e+00, 3.010850255619189e+03, 2.861955124203096e+03, -2.314624658432371e+01, 5.220676679371190e+03, 9.938646072787154e+02, -3.789021850880034e+02, 2.937710570432923e+03
2923, 6.078854162154768e-01, 5.587541809486626e-01, 6.118611827499991e-02, 0.000000000000000e+00, 0.000000000000000e+00, 0.000000000000000e+00, 3.012394061795891e+03, 2.913362233223081e+03, -1.246993293234398e+01, 5.352510032972878e+03, 1.079747311032202e+03, -2.809008167681287e+02, 3.074482248547715e+03
2924, 6.640720988647257e-01, 6.304279099889269e-01, 5.749018422226648e-02, 0.000000000000000e+00, 0.000000000000000e+00, 0.000000000000000e+00, 2.424210410359238e+03, 2.357187757269851e+03, -2.951230396206790e+01, 4.244460993823503e+03, 8.245832095814811e+02, -3.232849608860828e+02, 2.407439943311630e+03
2925, 5.987683735326350e-01, 5.411092754931857e-01, 6.182767318305792e-02, 0.000000000000000e+00, 0.000000000000000e+00, 0.000000000000000e+00, 3.204340078779809e+03, 3.107091631353770e+03, -6.863970077700256e+00, 5.748638603049092e+03, 9.848364245651176e+02, -3.352408142672955e+02, 3.158694386096457e+03
2926, 7.366961477762464e-01, 7.717969239952555e-01, 5.178970085689089e-02, 0.000000000000000e+00, 0.000000000000000e+00, 0.000000000000000e+00, 2.400372549359950e+03, 2.324562011824937e+03, 2.197621218261567e+00, 4.110622814281660e+03, 7.441624203974480e+02, -3.336071605876593e+02, 2.248463258176069e+03
2927, 7.457781973263053e-01, 7.894739334944836e-01, 5.105179758092152e-02, 0.000000000000000e+00, 0.000000000000000e+00, 0.000000000000000e+00, 2.199771486675938e+03, 2.153748808117799e+03, -4.845506580371099e+01, 3.932600863592183e+03, 7.862397086573785e+02, -3.104215472255769e+02, 2.288058590905472e+03
2928, 6.929246981933250e-01, 6.490196083738765e-01, 5.550563731937218e-02, 0.000000000000000e+00, 0.000000000000000e+00, 0.000000000000000e+00, 2.084974738286360e+03, 1.986693568130334e+03, -1.828851670707079e+01, 3.538155181739346e+03, 8.198697223348224e+02, -3.282511831813796e+02, 2.145931470524155e+03
2929, 6.747880557111634e-01, 6.136654143698106e-01, 5.694739592438843e-02, 0.000000000000000e+00, 0.000000000000000e+00, 0.000000000000000e+00, 2.330667308523076e+03, 2.240752720558563e+03, -1.435710080220766e+01, 4.051274796087141e+03, 8.479490312911037e+02, -2.959435677955493e+02, 2.354506597288465e+03
2930, 1.127136861439310e+00, 1.157797561005809e+00, 4.309612614738801e-03, 0.000000000000000e+00, 0.000000000000000e+00, 0.000000000000000e+00, 8.823478168565906e+01, -1.274988674769635e+02, 1.340186974062150e+02, 2.820354495076112e+02, -7.931949253136744e+01, 1.245530552837002e+02, 4.951840079201158e+02
2931, 1.105511160260070e+00, 1.130324048897573e+00, 7.876270989021912e-03, 0.000000000000000e+00, 0.000000000000000e+00, 0.000000000000000e+00, 5.124371828551093e+02, 3.016570328196058e+02, 1.172210160439259e+02, 4.971930533067642e+02, 3.295042224515249e+02, 2.163645267685627e+01, 6.401509986885061e+02
2932, 1.121633094051177e+00, 1.118488045165304e+00, 4.448194767149079e-03, 0.000000000000000e+00, 0.000000000000000e+00, 0.000000000000000e+00, 2.322907213616154e+01, 5.461345261411265e+01, -4.098108776872867e+01, 3.968368772004925e+01, -3.179734853882241e+01, -3.414249638015318e+01, 1.109414654650112e+02
2933, 9.387500705691779e-01, 4.538821777861838e-01, 2.331983588740503e-02, 0.000000000000000e+00, 0.000000000000000e+00, 0.000000000000000e+00, -9.513541087676009e+02, -7.734532260976434e+02, -8.332717110952541e+01, -1.663184972383802e+03, 1.613025491105792e+02, 4.386879063108671e+01, 8.772949579011272e+02
2934, 9.296776516212997e-01, 4.362211457939544e-01, 2.450634507684896e-02, 0.000000000000000e+00, 0.000000000000000e+00, 0.000000000000000e+00, -4.725276533580903e+02, -8.238525870971667e+02, -4.548476374199952e+00, -1.493592266475403e+03, 1.910960137602776e+02, 2.296935382558632e+02, 1.036903652981845e+03
2935, 8.920535928100954e-01, 3.999380373848295e-01, 2.997908822315257e-02, 0.000000000000000e+00, 0.000000000000000e+00, 0.000000000000000e+00, -8.548406661138797e+02, -9.745248982944327e+02, 2.146293328809826e+01, -1.853696100563716e+03, 2.456512938608263e+02, 6.932361653844119e+01, 1.043705986906039e+03
2936, 1.116796617087719e+00, 1.076539233153031e+00, 4.389087894364137e-03, 0.000000000000000e+00, 0.000000000000000e+00, 0.000000000000000e+00, 3.753182167389350e+02, 2.738339773388969e+02, 2.858589204132574e+01, 3.739947099544235e+02, 2.342356629280263e+02, 6.582793412564034e+01, 4.361386651107485e+02
2937, 4.081878467271267e-01, 6.168266886425313e-01, 4.810500362499212e-02, 0.000000000000000e+00, 0.000000000000000e+00, 0.000000000000000e+00, 6.294818896891127e+03, 6.618715410794263e+03, 2.776515136253306e+02, 1.331743399666425e+04, 2.404308595979939e+02, 1.104561961375256e+02, 6.898458163935765e+03
2938, 4.277867195036805e-01, 6.180287555543698e-01, 5.131379553432033e-02, 0.000000000000000e+00, 0.000000000000000e+00, 0.000000000000000e+00, 6.101583912421904e+03, 6.314182666000746e+03, 2.319666995914873e+02, 1.266229256703145e+04, 6.226722064511000e+02, -1.298698296648498e+02, 6.562658302495844e+03
2939, 4.367325045147196e-01, 6.356211868732906e-01, 5.105171579556925e-02, 0.000000000000000e+00, 0.000000000000000e+00, 0.000000000000000e+00, 6.015929178946694e+03, 6.218189836976525e+03, 2.755202832291350e+02, 1.260172020030084e+04, 4.072893187269981e+02, 8.673242103804546e+01, 6.544422198372150e+03
2940, 4.472262876080558e-01, 6.191018014488870e-01, 5.392743575743877e-02, 0.000000000000000e+00, 0.000000000000000e+00, 0.000000000000000e+00, 5.837602574219482e+03, 5.905494638664552e+03, 1.935774860667228e+02, 1.180289421741645e+04, 8.751077996756604e+02, -3.428302778016015e+02, 6.160095231955794e+03
2941, 5.837898300203910e-01, 8.505279614687652e-01, 5.143976381071691e-02, 0.000000000000000e+00, 0.000000000000000e+00, 0.000000000000000e+00, 5.098750275636193e+03, 5.163512445800545e+03, 8.458901776595668e+01, 1.018537170398087e+04, 1.088091594616907e+03, -3.249608728682421e+02, 5.425733647975097e+03
2942, 5.730772327753384e-01, 8.671355534822434e-01, 4.945668068972213e-02, 0.000000000000000e+00, 0.000000000000000e+00, 0.000000000000000e+00, 5.342094836265130e+03, 5.420785524336615e+03, 9.641698893490974e+01, 1.056860545627666e+04, 1.107471203676788e+03, -2.636296944655189e+02, 5.552224394256641e+03
2943, 5.821750816201025e-01, 8.847406842073069e-01, 4.913334740383267e-02, 0.000000000000000e+00, 0.000000000000000e+00, 0.000000000000000e+00, 5.237120148949931e+03, 5.437422656582053e+03, 1.389029943373089e+02, 1.026765603678283e+04, 1.030626152401489e+03, -3.039494461631564e+02, 5.278294438669566e+03
2944, 5.627115025107902e-01, 8.837225964112314e-01, 4.707887824309703e-02, 0.000000000000000e+00, 0.000000000000000e+00, 0.000000000000000e+00, 5.840725162215711e+03, 6.041558525218056e+03, 1.970609830120852e+02, 1.181512070343282e+04, 8.905701329158051e+02, -6.158454922409247e+01, 6.086140051154946e+03
2945, 1.112924242026950e+00, 1.039132138247336e+00, 4.247819205999225e-03, 0.000000000000000e+00, 0.000000000000000e+00, 0.000000000000000e+00, 5.672933691652266e+02, 1.071253343403543e+03, 1.273187491636097e+02, 1.638458323840620e+03, -6.527800065156179e+02, 2.237866061789456e+02, 1.529307846869440e+03
2946, 8.777370909148918e-01, 9.337784879850564e-01, 3.899972963938655e-02, 0.000000000000000e+00, 0.000000000000000e+00, 0.000000000000000e+00, 9.894913361786470e+02, 8.000515790828923e+02, -3.339018110249214e+01, 1.278582459645782e+03, 5.286027283920558e+02, -1.772322769153061e+02, 1.053597426609728e+03
2947, 1.100744637248841e+00, 9.390265861199114e-01, 4.232594278553471e-03, 0.000000000000000e+00, 0.000000000000000e+00, 0.000000000000000e+00, -2.086100063508802e+02, -1.262083728568211e+00, 1.139505828708781e+02, 4.561091685813444e+01, -7.833312014398454e+01, 2.072943950109860e+02, 4.911054838339142e+02
2948, 7.821026822810258e-01, 8.601944638776600e-01, 4.804051025200832e-02, 0.000000000000000e+00, 0.000000000000000e+00, 0.000000000000000e+00, 1.977503711502978e+03, 1.823650527348369e+03, -1.431825461136838e+01, 3.236670721474411e+03, 8.294232802862132e+02, -2.619937768465869e+02, 2.018233238094162e+03
2949, 7.548842995816420e-01, 8.071532331136505e-01, 5.030613659574901e-02, 0.000000000000000e+00, 0.000000000000000e+00, 0.000000000000000e+00, 2.051284297384783e+03, 1.920055041485303e+03, -3.539549249252055e+01, 3.526532453030349e+03, 8.296970535861485e+02, -2.472200734875081e+02, 2.153944608185759e+03
2950, 7.441501789390996e-01, 8.238418034700923e-01, 5.098757176921599e-02, 0.000000000000000e+00, 0.000000000000000e+00, 0.000000000000000e+00, 2.552623601727842e+03, 2.472157199871645e+03, -7.272821078268798e+01, 4.472382079015239e+03, 8.746068796339708e+02, -4.084980098119329e+02, 2.580254859843471e+03
2951, 5.368527265829447e-01, 7.963563259610406e-01, 5.075496505240730e-02, 0.000000000000000e+00, 0.000000000000000e+00, 0.000000000000000e+00, 5.589707649660114e+03, 5.805177186127905e+03, 1.611561481136672e+02, 1.136317587677029e+04, 6.092175544127773e+02, -5.794073681296143e+02, 5.859509080175285e+03
2952, 5.277093331132980e-01, 7.787345531152913e-01, 5.105674238993498e-02, 0.000000000000000e+00, 0.000000000000000e+00, 0.000000000000000e+00, 5.138107218420210e+03, 5.509831386003331e+03, 1.548261954223179e+02, 1.060671498672411e+04, 5.513552790343141e+02, -6.204175347215396e+02, 5.490872539542459e+03
2953, 2.611323487525232e-01, 5.027671589555223e-01, 1.484134408995884e-02, 0.000000000000000e+00, 0.000000000000000e+00, 0.000000000000000e+00, 2.336926592046521e+03, 1.900734723905812e+03, -2.172300367537418e+01, 3.973391990840844e+03, -1.126829152227370e+03, 6.011242636461741e+01, 2.720952634599801e+03
2954, 2.675583148024394e-01, 4.881115204014264e-01, 2.654930449724702e-02, 0.000000000000000e+00, 0.000000000000000e+00, 0.000000000000000e+00, 3.459422643946444e+03, 3.043471022269528e+03, -7.307089637766516e+01, 5.924797343437410e+03, -1.368605230132785e+03, 1.997842159701096e+02, 3.609925880007158e+03
2955, 2.768516233387423e-01, 5.060153337937134e-01, 2.656132599959006e-02, 0.000000000000000e+00, 0.000000000000000e+00, 0.000000000000000e+00, 4.030197443531912e+03, 3.752415925297439e+03, -2.201781172821621e+01, 7.063200716460883e+03, -1.356654921100946e+03, 3.352259408084566e+02, 3.997362261610738e+03
2956, 8.376643311534713e-01, 5.178037536852662e-01, 3.977668926775545e-02, 0.000000000000000e+00, 0.000000000000000e+00, 0.000000000000000e+00, 3.769124444533220e+01, -1.406097236757685e+02, -2.016064580214574e+01, -4.159483784387271e+02, 5.465899564416779e+02, -1.153122535304769e+02, 1.045986425606972e+03
2957, 1.088363869818288e+00, 8.430325582993028e-01, 4.358582145409538e-03, 0.000000000000000e+00, 0.000000000000000e+00, 0.000000000000000e+00, -3.832011626872974e+01, 1.307881020515091e+02, 5.506479832972720e+01, 3.521511535827863e+02, -1.403549739893747e+02, 8.628370226722720e+01, 4.533906542705123e+02
2958, 1.075898178636784e+00, 7.428356352340576e-01, 4.397795108303676e-03, 0.000000000000000e+00, 0.000000000000000e+00, 0.000000000000000e+00, 8.167622854013198e+02, 8.877607269718660e+02, 3.925608566527068e+01, 9.802859535064723e+02, 2.999212509547273e+02, -5.121404109701946e+02, 1.039959439543114e+03
2959, 1.061613511354441e+00, 7.546131048707931e-01, 7.520054609364590e-03, 0.000000000000000e+00, 0.000000000000000e+00, 0.000000000000000e+00, -3.329523064487912e+03, -3.366284708712176e+03, 7.114158825888461e+01, -7.888392227068065e+03, -8.604911896803487e+02, -1.158806133232719e+03, 5.184791368641209e+03
2960, 8.521572931924029e-01, 8.462996193694279e-01, 4.125791627319705e-02, 0.000000000000000e+00, 0.000000000000000e+00, 0.000000000000000e+00, 1.031488226807771e+03, 8.989661359857076e+02, -4.560924392414336e+01, 1.464791948242157e+03, 5.935236756642392e+02, -1.966135151202739e+02, 1.200732621273370e+03
2961, 8.323777025900763e-01, 8.453573043716942e-01, 4.338371443463437e-02, 0.000000000000000e+00, 0.000000000000000e+00, 0.000000000000000e+00, 1.169855614948082e+03, 1.092602717547105e+03, -1.484962777746804e+01, 1.840545599001222e+03, 5.907320615897303e+02, -2.191596942384493e+02, 1.303554127849544e+03
2962, 8.414485275144242e-01, 8.630496480528081e-01, 4.252215799681287e-02, 0.000000000000000e+00, 0.000000000000000e+00, 0.000000000000000e+00, 1.279012843551586e+03, 1.133362658158761e+03, -3.588875333979798e+01, 1.953689122320940e+03, 6.306786982710191e+02, -2.232044631697677e+02, 1.386095360740369e+03
2963, 1.064002572033008e+00, 6.431357865516522e-01, 4.333694286918654e-03, 0.000000000000000e+00, 0.000000000000000e+00, 0.000000000000000e+00, -1.483490938158458e+01, -3.978915608923046e-01, 2.022043498638102e+00, -9.428926486206376e+01, 3.261725595673941e+01, 8.068461168236658e+01, 1.743629773190198e+02
2964, 5.201690456102646e-01, 7.267019338623577e-01, 5.391805235445432e-02, 0.000000000000000e+00, 0.000000000000000e+00, 0.000000000000000e+00, 4.736340192803740e+03, 4.896726528943567e+03, 1.507148839178344e+02, 9.157747676907482e+03, 8.636507777537074e+02, -2.719902360021501e+02, 4.625277674068951e+03
2965, 5.096120890601010e-01, 7.432518731548816e-01, 5.168907054422205e-02, 0.000000000000000e+00, 0.000000000000000e+00, 0.000000000000000e+00, 4.959607804736260e+03, 5.197987266707465e+03, 1.574944895949458e+02, 9.815084629915164e+03, 7.255035624613082e+02, -3.843954175799526e+02, 4.956994384291670e+03
2966, 5.005413639974003e-01, 7.255934703527733e-01, 5.199197875134726e-02, 0.000000000000000e+00, 0.000000000000000e+00, 0.000000000000000e+00, 5.052328873884828e+03, 5.327997804944169e+03, 1.280489330189638e+02, 1.014386444163976e+04, 7.347628662971647e+02, -2.298586200619080e+02, 5.140376793807157e+03
2967, 5.187053409850507e-01, 7.609483606102727e-01, 5.138264580442974e-02, 0.000000000000000e+00, 0.000000000000000e+00, 0.000000000000000e+00, 4.881392755785280e+03, 5.040960077837331e+03, 1.503799054854158e+02, 9.727057187168113e+03, 6.640177431797175e+02, -4.764725847654427e+02, 4.980401110829326e+03
2968, 7.730230105392446e-01, 8.424932105238914e-01, 4.880252123163983e-02, 0.000000000000000e+00, 0.000000000000000e+00, 0.000000000000000e+00, 2.111922751234385e+03, 1.939052290664073e+03, -4.470402549381884e+01, 3.380634689037289e+03, 8.705429101589161e+02, -2.447869359117976e+02, 2.078010864078822e+03
2969, 7.623338621465020e-01, 8.592007394949737e-01, 4.953476848285120e-02, 0.000000000000000e+00, 0.000000000000000e+00, 0.000000000000000e+00, 2.341172420237494e+03, 2.184511234188449e+03, -2.083749392340544e+01, 3.973690711620269e+03, 9.082034559272375e+02, -2.553954599411772e+02, 2.369998866897971e+03
2970, 7.891477676461237e-01, 4.983072547747054e-01, 4.577282578385723e-02, 0.000000000000000e+00, 0.000000000000000e+00, 0.000000000000000e+00, 5.857260052411898e+02, 4.368576417404067e+02, -2.668040550503768e+01, 6.301475678894327e+02, 6.417424750406516e+02, -1.349922598425428e+02, 1.150240194826688e+03
2971, 7.209646266728578e-01, 8.917554755296648e-01, 5.158545163239554e-02, 0.000000000000000e+00, 0.000000000000000e+00, 0.000000000000000e+00, 3.082486025418634e+03, 2.985009729375491e+03, 6.204303325302741e+00, 5.324760609782725e+03, 1.002743725760668e+03, -3.137402407590306e+02, 2.927074443191008e+03
2972, 1.027572979757784e+00, 8.892992148846702e-01, 1.680894398888027e-02, 0.000000000000000e+00, 0.000000000000000e+00, 0.000000000000000e+00, -1.100214245590341e+03, -1.324956079178539e+03, 5.000391205814613e+01, -2.468290104942123e+03, 1.095042420123087e+02, 1.839118885298387e+02, 1.326507455891031e+03
2973, 1.018580901350159e+00, 8.716068445701481e-01, 1.800506789393958e-02, 0.000000000000000e+00, 0.000000000000000e+00, 0.000000000000000e+00, -1.720997630963396e+03, -1.627542866775361e+03, 5.358589222435774e+01, -3.084055706526917e+03, -1.450162502575117e+02, -3.812956451128805e+02, 1.581742068206314e+03
2974, 1.048558336833747e+00, 1.080026680679504e+00, 1.703376468433904e-02, 0.000000000000000e+00, 0.000000000000000e+00, 0.000000000000000e+00, -2.564980695883940e+03, -2.345608580866073e+03, 1.990420607271978e+01, -4.423184521767855e+03, -2.117024412805422e+02, -1.637440838455755e+02, 2.030951098615951e+03
2975, 1.028945070046208e+00, 1.079060992399973e+00, 2.024915777379533e-02, 0.000000000000000e+00, 0.000000000000000e+00, 0.000000000000000e+00, -1.729274847418592e+03, -2.064553089768162e+03, -4.171440172299445e+01, -4.564979285799736e+03, 1.463663604571881e+03, -1.578495309472799e+02, 3.702672588950236e+03
2976, 1.003586371675271e+00, 7.671765086659467e-01, 1.848069928745149e-02, 0.000000000000000e+00, 0.000000000000000e+00, 0.000000000000000e+00, -1.692385762706479e+03, -1.951513343499643e+03, 1.646338203556751e+02, -3.550845342634168e+03, 2.013556670279402e+02, 6.272984321325430e+02, 2.103068269367291e+03
2977, 9.930518002070965e-01, 7.840485854782835e-01, 2.061310745698754e-02, 0.000000000000000e+00, 0.000000000000000e+00, 0.000000000000000e+00, -1.963953805951230e+03, -2.011684952901809e+03, -7.384602049812290e+01, -4.915617371104948e+03, 9.172145754462272e+02, -5.954751398967068e+02, 3.489654587496647e+03
2978, 9.840205583872411e-01, 7.663161790805195e-01, 2.178084391670575e-02, 0.000000000000000e+00, 0.000000000000000e+00, 0.000000000000000e+00, -5.183411775423839e+02, -5.991936287932033e+02, -1.090746273816173e+02, -1.230113796413689e+03, 4.560833038238083e+02, 8.794142679872722e+00, 1.056204806281187e+03
2979, 9.643885940603913e-01, 7.653597915292765e-01, 2.495598910136659e-02, 0.000000000000000e+00, 0.000000000000000e+00, 0.000000000000000e+00, -4.078001333039119e+02, -5.410103888440273e+02, -3.980154227424317e+01, -1.289604999540328e+03, 2.747798287221135e+02, -1.390473412132295e+02, 9.834257385012397e+02
2980, 9.703393841323342e-01, 6.278193628068862e-01, 2.138943732598182e-02, 0.000000000000000e+00, 0.000000000000000e+00, 0.000000000000000e+00, -1.344606389769108e+03, -1.618156043433655e+03, -8.744080151647032e+01, -3.453028233368287e+03, 1.923546698541665e+02, -5.243911718639677e+02, 2.214138875552090e+03
2981, 4.929335158908976e-01, 6.736545517858183e-01, 5.492881798595146e-02, 0.000000000000000e+00, 0.000000000000000e+00, 0.000000000000000e+00, 5.196622623528190e+03, 5.425474488321434e+03, 1.326414602674769e+02, 1.043753562175316e+04, 9.462688262275935e+02, -1.522614574870962e+02, 5.397106217024480e+03
2982, 4.823408820467979e-01, 6.902585513971576e-01, 5.258260564544313e-02, 0.000000000000000e+00, 0.000000000000000e+00, 0.000000000000000e+00, 5.097935932073067e+03, 5.418662408676696e+03, 1.678034945906266e+02, 1.049858345177858e+04, 7.533089241970316e+02, -1.206115705588466e+02, 5.419249666844638e+03
2983, 4.735050527085464e-01, 6.725544913182552e-01, 5.290790960889069e-02, 0.000000000000000e+00, 0.000000000000000e+00, 0.000000000000000e+00, 5.596529948044969e+03, 5.917546993488250e+03, 1.649028129951443e+02, 1.151518837838021e+04, 6.876040222701481e+02, -2.053632730274753e+01, 5.893625473839853e+03
2984, 4.914290398955616e-01, 7.078975803276915e-01, 5.228971816488897e-02, 0.000000000000000e+00, 0.000000000000000e+00, 0.000000000000000e+00, 5.076234791339892e+03, 5.295520746796246e+03, 1.340319999483714e+02, 1.028358640458547e+04, 7.470883635228963e+02, -2.089785066541376e+02, 5.280343826761529e+03
2985, 4.720293975065409e-01, 7.068677250431362e-01, 4.983358403640116e-02, 0.000000000000000e+00, 0.000000000000000e+00, 0.000000000000000e+00, 5.168111347331219e+03, 5.467954578343275e+03, 1.227110506107990e+02, 1.057683158368738e+04, 5.112341976266273e+02, -9.217489680813817e+01, 5.345758717164729e+03
2986, 9.459533190252525e-01, 9.542819679073107e-01, 3.065965028274175e-02, 0.000000000000000e+00, 0.000000000000000e+00, 0.000000000000000e+00, -1.111076741044063e+01, -8.176044408592568e+01, -4.856985104259508e+01, -2.264010309549990e+02, 5.366893733760725e+02, -1.173926076354393e+02, 9.739906065451972e+02
2987, 7.656269324515572e-01, 7.904288707619578e-01, 4.950538636938642e-02, 0.000000000000000e+00, 0.000000000000000e+00, 0.000000000000000e+00, 2.038019469737850e+03, 1.850102114457126e+03, -7.158552660449480e+01, 3.311219761679004e+03, 7.992841321305243e+02, -2.273717511459110e+02, 1.995655511745729e+03
2988, 1.096142918080872e+00, 9.005396435118835e-01, 4.210245733035369e-03, 0.000000000000000e+00, 0.000000000000000e+00, 0.000000000000000e+00, -4.174573721617085e+03, -4.707647674847752e+03, -2.612724193363262e+02, -9.011159819109580e+03, -1.318087494684367e+03, 3.457554019142393e+02, 5.184010899202083e+03
2989, 1.078723846927028e+00, 9.093039021610870e-01, 7.858919364554731e-03, 0.000000000000000e+00, 0.000000000000000e+00, 0.000000000000000e+00, -5.577045903635293e+03, -6.503064965976236e+03, 1.388623843318526e+02, -1.156532918933493e+04, 4.157459461952785e+02, -2.305529873332747e+03, 6.906125534011275e+03
2990, 1.093818480776849e+00, 8.812218739541321e-01, 4.201934221685473e-03, 0.000000000000000e+00, 0.000000000000000e+00, 0.000000000000000e+00, -3.166660833857080e+02, -1.654284877657854e+02, -4.393617037467494e+01, -3.195755229570026e+00, 1.436718316719663e+02, 1.220603398770138e+02, 4.314395494120548e+02
2991, 6.291250412208794e-01, 9.389849364425331e-01, 4.954448414118468e-02, 0.000000000000000e+00, 0.000000000000000e+00, 0.000000000000000e+00, 4.635527597184205e+03, 4.693096992031351e+03, 1.160971900117257e+02, 8.947566088785101e+03, 1.048573711212388e+03, -5.351444976648742e+02, 4.748351692747465e+03
2992, 1.000555672545276e+00, 8.362042755175704e-01, 2.036473954511559e-02, 0.000000000000000e+00, 0.000000000000000e+00, 0.000000000000000e+00, -1.638348233357838e+03, -1.564191695752466e+03, -3.176590448663158e+01, -3.021772550017814e+03, 8.491541969934138e+02, -1.739441860791715e+02, 2.068559280719000e+03
2993, 9.808876470209941e-01, 8.352006734583424e-01, 2.356857068976566e-02, 0.000000000000000e+00, 0.000000000000000e+00, 0.000000000000000e+00, -3.766292640064233e+02, -5.131789511088574e+02, -3.732417184508849e+01, -1.204113583594358e+03, 2.809444769408906e+02, -5.278984831555611e+01, 9.163582128883070e+02
2994, 9.899376153324918e-01, 8.529267820023035e-01, 2.243083297211951e-02, 0.000000000000000e+00, 0.000000000000000e+00, 0.000000000000000e+00, -1.440631626535657e+03, -1.523091109744485e+03, -2.148480645456755e+01, -2.949930160507898e+03, 9.019376027439107e+02, 1.620489017500059e+02, 2.163553628185178e+03
2995, 9.915242169738687e-01, 8.185161865072683e-01, 2.152909270057749e-02, 0.000000000000000e+00, 0.000000000000000e+00, 0.000000000000000e+00, -4.797935485192215e+02, -6.569829357004708e+02, -2.625525678537299e+00, -9.722472420886105e+02, 3.333774806158439e+02, -5.465125737085021e+01, 7.273594329891588e+02
2996, 9.824887219671231e-01, 8.007881504634633e-01, 2.268127395250328e-02, 0.000000000000000e+00, 0.000000000000000e+00, 0.000000000000000e+00, -2.494772068267260e+02, -3.997678544589589e+02, 3.202844811253757e+01, -8.216068670676947e+02, 3.260579561877632e+02, -1.195493069186060e+02, 7.929872867364340e+02
2997, 9.989557026901108e-01, 8.706323587876228e-01, 2.128595901691722e-02, 0.000000000000000e+00, 0.000000000000000e+00, 0.000000000000000e+00, -1.836791335713316e+03, -1.834615537457198e+03, 1.817696824750213e+01, -3.645256550849356e+03, 1.010604880068200e+03, -7.750470095860791e+02, 2.853337957988574e+03
2998, 7.193298682233042e-01, 9.261100545209364e-01, 5.109750630513861e-02, 0.000000000000000e+00, 0.000000000000000e+00, 0.000000000000000e+00, 3.299761305222995e+03, 3.182424078381895e+03, 1.108732795141424e+00, 5.777421405288274e+03, 9.832713031875342e+02, -3.822106014676103e+02, 3.127621340245494e+03
2999, 4.775138112198855e-01, 3.801426328874590e-01, 6.792400094184391e-02, 0.000000000000000e+00, 0.000000000000000e+00, 0.000000000000000e+00, 3.923607294750726e+03, 3.840299727974974e+03, -5.836529575202762e-01, 7.143176905655508e+03, 1.043936744539389e+03, -3.616882958852041e+02, 3.781884611193887e+03
3000, 5.432524654169055e-01, 6.590244704286324e-01, 5.895743587411056e-02, 0.000000000000000e+00, 0.000000000000000e+00, 0.000000000000000e+00, 4.543657479533785e+03, 4.513569390497204e+03, 6.529365030892906e+01, 8.599277212876328e+03, 9.973740652974597e+02, -2.889104483255857e+02, 4.451791230995188e+03
3001, 1.051299724839193e+00, 5.450751658368878e-01, 4.473094126818442e-03, 0.000000000000000e+00, 0.000000000000000e+00, 0.000000000000000e+00, 6.121686405183907e+01, 9.419985531599778e+00, 4.686783361251743e+00, 5.667331757305193e+02, -1.891422522271126e+02, -2.726598615337719e+02, 7.841137020904455e+02
3002, 1.035700682835516e+00, 5.572207761471830e-01, 7.877652478853522e-03, 0.000000000000000e+00, 0.000000000000000e+00, 0.000000000000000e+00, -6.733264210562751e+02, -1.016149651888093e+03, -8.479605896257520e+01, -1.613672273774333e+03, -1.586563013481218e+01, 6.460095712788188e+02, 1.397754289941877e+03
3003, 1.033936669004136e+00, 5.381905259394213e-01, 7.767851480808755e-03, 0.000000000000000e+00, 0.000000000000000e+00, 0.000000000000000e+00, 7.385678120518368e+02, 1.145443128975991e+02, 1.642574068680576e+02, 3.874423402875499e+02, -8.688780002399672e+01, -2.379272900857409e+02, 7.529953661879852e+02
3004, 1.038365608804478e+00, 5.776912206688914e-01, 7.845020703093739e-03, 0.000000000000000e+00, 0.000000000000000e+00, 0.000000000000000e+00, -2.321132355410618e+03, -3.268413381027810e+03, -2.145148288348860e+01, -6.942104343997158e+03, -8.210509418764219e+02, -2.693922177072270e+02, 4.484956557515921e+03
3005, 1.020537777132790e+00, 5.680993285539774e-01, 1.106393701091977e-02, 0.000000000000000e+00, 0.000000000000000e+00, 0.000000000000000e+00, -1.012397097772507e+04, -1.037111654827086e+04, -1.357073448247555e+03, -2.403021989827303e+04, -1.079052496994085e+03, 2.437407391042495e+03, 1.472578841437734e+04
3006, 6.927302392216500e-01, 1.062681940426208e+00, 4.672133183233806e-02, 0.000000000000000e+00, 0.000000000000000e+00, 0.000000000000000e+00, 4.607528045973949e+03, 4.576240347927762e+03, 1.279204663359424e+01, 8.729339902046724e+03, 1.321037228203664e+03, -4.068865751231421e+02, 4.780361172650528e+03
3007, 1.043838716337139e+00, 4.852141624991930e-01, 4.498738026111664e-03, 0.000000000000000e+00, 0.000000000000000e+00, 0.000000000000000e+00, 5.669085303887547e+02, 3.593631213801984e+02, -3.832051577546297e+01, 6.331024293694476e+02, 3.394353342749187e+02, 5.616451706434584e+01, 6.486237369096953e+02
3008, 3.953332728954272e-01, 7.010079106317616e-01, 3.332323039429017e-02, 0.000000000000000e+00, 0.000000000000000e+00, 0.000000000000000e+00, 4.600545323599749e+03, 4.946967924768591e+03, 9.231128504314132e+01, 8.258140007573707e+03, -1.025283243670980e+03, 2.553574710475654e+02, 3.950409807823410e+03
3009, 3.757696480734409e-01, 6.999921165543405e-01, 2.582878163064500e-02, 0.000000000000000e+00, 0.000000000000000e+00, 0.000000000000000e+00, 2.962447535674939e+03, 3.090995736451783e+03, -1.671730675013636e+02, 4.619207440556199e+03, -7.374234838557928e+02, 5.493355162207613e+02, 2.273528916182397e+03
3010, 3.680481035777292e-01, 6.818239176358478e-01, 2.654123461124156e-02, 0.000000000000000e+00, 0.000000000000000e+00, 0.000000000000000e+00, 3.695980005443704e+03, 3.945808195226311e+03, -3.200330156114659e+02, 5.932674992554579e+03, -9.370311242007825e+02, 8.458667749305664e+02, 3.097458039950275e+03
3011, 3.590944998252469e-01, 6.980673006888729e-01, 1.513250733703656e-02, 0.000000000000000e+00, 0.000000000000000e+00, 0.000000000000000e+00, 2.374949131325074e+03, 2.492665132630298e+03, -1.354167825216649e+02, 3.287563802294295e+03, -6.975813572985752e+02, 5.837400440643061e+02, 1.810089204178151e+03
3012, 3.499700151247820e-01, 6.795814508208281e-01, 1.530618642363271e-02, 0.000000000000000e+00, 0.000000000000000e+00, 0.000000000000000e+00, 2.204500843080660e+03, 2.065646969187560e+03, -3.994205443735883e+02, 3.488534340449448e+03, -8.593041026345841e+02, 4.403547555359412e+02, 2.263155609843195e+03
3013, 3.573859135050237e-01, 6.641488486669173e-01, 2.592136783538837e-02, 0.000000000000000e+00, 0.000000000000000e+00, 0.000000000000000e+00, 3.431627633556156e+03, 3.075748584876841e+03, -3.707034494302259e+02, 5.368227973738429e+03, -1.041710835247321e+03, 5.196780046810802e+02, 3.007359220701850e+03
3014, 3.480691132499724e-01, 6.474981150764666e-01, 2.565646956719951e-02, 0.000000000000000e+00, 0.000000000000000e+00, 0.000000000000000e+00, 4.366748325338381e+03, 4.124463978769176e+03, -9.810126166085645e+01, 6.724669667377375e+03, -1.318564950817939e+03, 8.341946105940276e+02, 3.677245748883286e+03
3015, 3.765141235300806e-01, 6.655828678917889e-01, 3.325917695860804e-02, 0.000000000000000e+00, 0.000000000000000e+00, 0.000000000000000e+00, 4.218819161688843e+03, 4.102790306903778e+03, -2.165147277677656e+02, 7.894248759417806e+03, -1.161550747477348e+03, 1.011893488329361e+03, 4.605292922731315e+03
3016, 4.385534805027412e-01, 5.675615607113161e-01, 5.687109795093558e-02, 0.000000000000000e+00, 0.000000000000000e+00, 0.000000000000000e+00, 5.457344273236394e+03, 5.657062489113724e+03, 1.251566659262898e+02, 1.111933379460780e+04, 1.009919806543438e+03, -5.071779583501676e+02, 5.903025099445262e+03
3017, 8.423319941753461e-01, 4.145967763935202e-01, 3.772631465700966e-02, 0.000000000000000e+00, 0.000000000000000e+00, 0.000000000000000e+00, -1.697695391315182e+02, -3.227186924937058e+02, -2.045005357528990e+01, -7.755008678091884e+02, 4.523767851909785e+02, -6.342245023100472e+01, 9.617244382682634e+02
3018, 9.837357691478850e-01, 9.906168422406108e-01, 2.576055210823732e-02, 0.000000000000000e+00, 0.000000000000000e+00, 0.000000000000000e+00, -6.517057051502746e+02, -7.900716370090811e+02, -5.438853598091110e+01, -1.620738546948319e+03, 6.120280020844717e+02, -1.536344739120630e+02, 1.423906059644686e+03
3019, 9.475707902165846e-01, 9.198356323694814e-01, 2.996233447620269e-02, 0.000000000000000e+00, 0.000000000000000e+00, 0.000000000000000e+00, -5.373217219178063e+01, -1.800708399798960e+02, -1.348412822947232e+01, -3.935691634705360e+02, 4.348529937037487e+02, -8.827150009329331e+01, 8.244564898188493e+02
3020, 9.310275897432377e-01, 8.500359068864990e-01, 3.131900984295820e-02, 0.000000000000000e+00, 0.000000000000000e+00, 0.000000000000000e+00, 4.461694229128995e+01, -6.980584382829704e+01, -3.405176970262006e+01, -3.296376668040380e+02, 3.860234531772203e+02, -9.212831971323618e+01, 7.657150915774558e+02
3021, 4.262851967583960e-01, 6.521803728484012e-01, 4.767071951671367e-02, 0.000000000000000e+00, 0.000000000000000e+00, 0.000000000000000e+00, 6.107029986010953e+03, 6.385017397386828e+03, 1.796452219245725e+02, 1.239673069994813e+04, -3.536987565326388e+01, 4.934399816562297e+02, 6.222553639790643e+03
3022, 4.455629286482875e-01, 6.531683041424902e-01, 5.077440219084402e-02, 0.000000000000000e+00, 0.000000000000000e+00, 0.000000000000000e+00, 5.889268434491340e+03, 6.174818221592407e+03, 2.285142419182730e+02, 1.219565008087826e+04, 3.266434411427673e+02, 1.389811279448328e+02, 6.211754467561726e+03
3023, 4.351159316348234e-01, 6.697142401330707e-01, 4.742593732082213e-02, 0.000000000000000e+00, 0.000000000000000e+00, 0.000000000000000e+00, 5.907841622637383e+03, 6.204801109757041e+03, 1.152744806795096e+02, 1.177747293201087e+04, -3.075292361285369e+01, 3.172184367288321e+02, 5.756934809095625e+03
3024, 9.321400578497354e-01, 1.039858753954900e+00, 3.347300801533661e-02, 0.000000000000000e+00, 0.000000000000000e+00, 0.000000000000000e+00, 4.302609950965513e+02, 3.138706490853874e+02, -2.658321378306496e+01, 3.594444930448167e+02, 5.211393048915693e+02, -1.344529913364992e+02, 9.388453973589319e+02
3025, 9.214749396740161e-01, 1.056591665722237e+00, 3.491700649192178e-02, 0.000000000000000e+00, 0.000000000000000e+00, 0.000000000000000e+00, 7.487348643632459e+02, 5.995839414896992e+02, -5.832424675369757e+01, 8.330723136353062e+02, 6.192787049668011e+02, -2.226319358001831e+02, 1.162478492103884e+03
3026, 9.412019028378291e-01, 1.057544267042839e+00, 3.252122334426280e-02, 0.000000000000000e+00, 0.000000000000000e+00, 0.000000000000000e+00, 3.410906190748783e+02, 2.401874518263924e+02, -3.187558583013540e+01, 2.766351265974232e+02, 4.724822626635338e+02, -1.758963438822335e+02, 8.794415229099444e+02
3027, 5.383037769691561e-01, 7.621528237781202e-01, 5.322006615927329e-02, 0.000000000000000e+00, 0.000000000000000e+00, 0.000000000000000e+00, 4.719422448883796e+03, 4.893098073672293e+03, 1.396581187147042e+02, 9.441383364122661e+03, 7.574281605093264e+02, -5.506359589232233e+02, 4.918962685226680e+03
3028, 7.619573363848990e-01, 4.452335084486629e-01, 4.854231458279811e-02, 0.000000000000000e+00, 0.000000000000000e+00, 0.000000000000000e+00, 8.223080634293254e+02, 6.488591288235384e+02, -3.903404947564290e+01, 1.066031955045733e+03, 6.962597570043109e+02, -1.464019610852177e+02, 1.286454056293761e+03
3029, 9.249966617035135e-01, 1.400761462174444e+00, 3.526306781325494e-02, 0.000000000000000e+00, 0.000000000000000e+00, 0.000000000000000e+00, 2.593068244838106e+03, 2.102332787473588e+03, 1.706048871511374e+01, 4.312737534988885e+03, 8.486710781082735e+02, -3.529907740309092e+02, 2.564643228433753e+03
3030, 9.052880998824606e-01, 1.399832171933283e+00, 3.640183873197620e-02, 0.000000000000000e+00, 0.000000000000000e+00, 0.000000000000000e+00, 2.687482304694812e+03, 2.781628242337003e+03, 4.886248610035985e+01, 4.981037242308455e+03, 7.699829055366909e+02, -3.617920552419473e+02, 2.689199314870397e+03
3031, 9.143309365112583e-01, 1.417390884185196e+00, 3.573844839239497e-02, 0.000000000000000e+00, 0.000000000000000e+00, 0.000000000000000e+00, 3.051690722886573e+03, 2.731843998811796e+03, -1.101732660241642e+02, 4.956979633645308e+03, 7.219969868708174e+02, -2.519071500398404e+02, 2.476379051437451e+03
3032, 8.962486592317512e-01, 1.382200620741832e+00, 3.705813369759441e-02, 0.000000000000000e+00, 0.000000000000000e+00, 0.000000000000000e+00, 3.136143479262647e+03, 3.058885306508939e+03, -6.770975790914525e+00, 5.637772461479214e+03, 7.888274395001234e+02, -3.278066400183395e+02, 2.940517468062670e+03
3033, 8.765048229573777e-01, 1.381258528123872e+00, 3.783982679125968e-02, 0.000000000000000e+00, 0.000000000000000e+00, 0.000000000000000e+00, 4.098026080033003e+03, 3.864808387354656e+03, -2.207911283692884e+02, 6.687651385402253e+03, 9.417195253951646e+02, -5.381548326190573e+02, 3.322661762089490e+03
3034, 8.966593889548318e-01, 2.966688073673772e-01, 2.733509711668108e-02, 0.000000000000000e+00, 0.000000000000000e+00, 0.000000000000000e+00, -1.044967114323128e+03, -1.402512061642761e+03, -6.060187216734766e+01, -2.950082854625516e+03, 3.192140444402643e+02, -4.960836856971328e+00, 1.841989216917068e+03
3035, 8.926574101648341e-01, 1.037955671038954e+00, 3.802555073189870e-02, 0.000000000000000e+00, 0.000000000000000e+00, 0.000000000000000e+00, 1.183472806517998e+03, 1.110007569276191e+03, -5.242726424279306e+01, 1.821604105092707e+03, 5.716608398241649e+02, -1.712957277799725e+02, 1.239415202055075e+03
3036, 3.932220526165225e-01, 4.791521037711358e-01, 5.840907993628440e-02, 0.000000000000000e+00, 0.000000000000000e+00, 0.000000000000000e+00, 5.093318008918534e+03, 5.402361239160045e+03, 2.116148179522758e+02, 1.031568344547459e+04, 6.504560262764813e+02, -2.593510907707318e+02, 5.230686606155979e+03
3037, 8.691343720527764e-01, 6.918311866556917e-01, 3.771229825480187e-02, 0.000000000000000e+00, 0.000000000000000e+00, 0.000000000000000e+00, 1.365636501239661e+02, 2.879581787032047e+01, -1.936132393776093e+01, -5.689550744204730e+01, 5.626663884672199e+02, -1.510970136381223e+02, 1.023517257593381e+03
3038, 8.595950767998408e-01, 8.984094929375466e-01, 4.077618422642317e-02, 0.000000000000000e+00, 0.000000000000000e+00, 0.000000000000000e+00, 1.158591118587954e+03, 1.019541799734771e+03, -2.920038076090985e+01, 1.758440712549058e+03, 6.152326755939133e+02, -1.912046188769555e+02, 1.307796722280727e+03
3039, 1.023011693376708e+00, 9.925405769688821e-01, 1.961712997085096e-02, 0.000000000000000e+00, 0.000000000000000e+00, 0.000000000000000e+00, -2.362696335847702e+03, -2.281822620643759e+03, -4.406931862745679e+01, -4.674939356549671e+03, 4.558906704633211e+02, -2.915180921776577e+02, 2.534618639384330e+03
3040, 9.912614996672755e-01, 1.042698774281824e+00, 2.545698161550407e-02, 0.000000000000000e+00, 0.000000000000000e+00, 0.000000000000000e+00, -4.269868731382605e+02, -5.661044836132023e+02, 1.907286674664871e+01, -1.407163412283088e+03, 4.612355009823028e+02, -1.503560333964217e+02, 1.245337960008396e+03
3041, 7.341131851808296e-01, 1.030430106419141e+00, 4.853161562695375e-02, 0.000000000000000e+00, 0.000000000000000e+00, 0.000000000000000e+00, 3.423812763299562e+03, 3.252975657158970e+03, 2.082023285288653e+01, 6.060807477429347e+03, 9.967025348944558e+02, -3.493906919561443e+02, 3.283472678036612e+03
3042, 3.044178086178562e-01, 2.680724236292295e-01, 6.426624955024503e-02, 0.000000000000000e+00, 0.000000000000000e+00, 0.000000000000000e+00, 5.382192436727829e+03, 5.533124631201186e+03, 1.614511374342868e+02, 1.088454336890924e+04, 6.580726736968901e+02, -5.335106392232068e+02, 5.630225888423904e+03
3043, 4.359979450749760e-01, 4.125922025572282e-01, 6.578847939461782e-02, 0.000000000000000e+00, 0.000000000000000e+00, 0.000000000000000e+00, 4.361140781377767e+03, 4.392220816077047e+03, 6.610742198915274e+01, 8.349332240301957e+03, 1.088298571350944e+03, -3.789673431286884e+02, 4.447451473493079e+03
3044, 6.896145725538537e-01, 7.178731915769760e-01, 5.520715462075019e-02, 0.000000000000000e+00, 0.000000000000000e+00, 0.000000000000000e+00, 2.541676322494120e+03, 2.379694027319675e+03, 2.286712563815845e+01, 4.426876762107726e+03, 8.768738849337467e+02, -2.264337546430058e+02, 2.519463621052752e+03
3045, 6.021706093638114e-01, 4.722641048809167e-01, 6.251785710803678e-02, 0.000000000000000e+00, 0.000000000000000e+00, 0.000000000000000e+00, 2.680414317373132e+03, 2.589681354620365e+03, -2.896935589624671e+01, 4.653963561461072e+03, 9.967927388400041e+02, -3.343483311912061e+02, 2.720453352382869e+03
3046, 5.886951461809496e-01, 7.475008705768857e-01, 5.667712138895260e-02, 0.000000000000000e+00, 0.000000000000000e+00, 0.000000000000000e+00, 4.003343070339224e+03, 4.062206542215155e+03, -2.116780888287317e+01, 7.608973511242300e+03, 9.713035231069183e+02, -4.009860433741030e+02, 4.013203347698194e+03
3047, 6.085541543632593e-01, 7.484602877150393e-01, 5.695598530833305e-02, 0.000000000000000e+00, 0.000000000000000e+00, 0.000000000000000e+00, 3.859162684737727e+03, 3.825488827745445e+03, -3.162169234753993e+00, 7.080409228652397e+03, 1.001936184125852e+03, -3.126470699856815e+02, 3.713615211760681e+03
3048, 6.193756502741153e-01, 7.316757113514687e-01, 5.744602645788716e-02, 0.000000000000000e+00, 0.000000000000000e+00, 0.000000000000000e+00, 3.812984183649690e+03, 3.763032111941202e+03, -1.698257554037099e+01, 7.038240953455078e+03, 9.709859184030227e+02, -2.739113657297863e+02, 3.690565429814484e+03
3049, 5.995196414047184e-01, 7.307225257759300e-01, 5.746397613924100e-02, 0.000000000000000e+00, 0.000000000000000e+00, 0.000000000000000e+00, 3.892734876043392e+03, 3.878809043944620e+03, -1.198780340801801e+01, 7.428296790137143e+03, 9.409190251772891e+02, -3.818259284904200e+02, 3.955176063830344e+03
3050, 6.654912684009073e-01, 1.009644068659047e+00, 4.796177130389620e-02, 0.000000000000000e+00, 0.000000000000000e+00, 0.000000000000000e+00, 5.253083934907248e+03, 5.296332459200537e+03, 1.020479678859942e+02, 1.045767783557706e+04, 1.027843380213359e+03, -5.822601989352405e+02, 5.575148905973699e+03
3051, 8.254588215618366e-01, 5.690077262792966e-01, 4.197573951125219e-02, 0.000000000000000e+00, 0.000000000000000e+00, 0.000000000000000e+00, 3.645683225973880e+02, 2.240131629920236e+02, -1.798014496847668e+01, 2.527118998386152e+02, 5.961051091393409e+02, -1.711851575542806e+02, 1.082336569471957e+03
3052, 8.147863172928531e-01, 5.857062302053943e-01, 4.347707038417065e-02, 0.000000000000000e+00, 0.000000000000000e+00, 0.000000000000000e+00, 5.357739359318772e+02, 3.826213442700753e+02, -3.296796756234711e+01, 5.442804490807328e+02, 5.843917402440748e+02, -1.944411337166073e+02, 1.079840133505187e+03
3053, 8.694917115534648e-01, 4.677063072884670e-01, 3.456724889360380e-02, 0.000000000000000e+00, 0.000000000000000e+00, 0.000000000000000e+00, -4.601248993996032e+02, -6.381218039399987e+02, -3.641523249903151e+01, -1.593086261554351e+03, 3.719690532170271e+02, -4.059752010396809e+01, 1.240010622445331e+03
3054, 6.174669831960684e-01, 1.627650334520784e-01, 6.235174011047050e-02, 0.000000000000000e+00, 0.000000000000000e+00, 0.000000000000000e+00, 1.848069156567673e+03, 1.721646129284689e+03, -3.272984421784696e+01, 3.021762159623681e+03, 6.611237003592021e+02, -1.542389171671423e+02, 1.711068721630258e+03
3055, 3.055972822920598e-01, 5.916458032965278e-01, 1.482786170416209e-02, 0.000000000000000e+00, 0.000000000000000e+00, 0.000000000000000e+00, 2.918975970452083e+03, 2.237772394414888e+03, -2.834887694749668e+02, 3.793099304147140e+03, -1.020490577518369e+03, 4.815298442728121e+02, 2.425798740986041e+03
3056, 3.127255094200234e-01, 5.769687924925273e-01, 2.617874988903068e-02, 0.000000000000000e+00, 0.000000000000000e+00, 0.000000000000000e+00, 4.853921362484775e+03, 4.218881338112621e+03, -2.018573817189921e+02, 7.079255770480589e+03, -1.499978726599745e+03, 4.930792560707423e+02, 3.790777582947206e+03
3057, 3.037574921966861e-01, 5.592308560902363e-01, 2.627647410791467e-02, 0.000000000000000e+00, 0.000000000000000e+00, 0.000000000000000e+00, 4.307559967858427e+03, 3.993669551018428e+03, 8.457968581758779e+01, 6.576747045386443e+03, -1.127244228593764e+03, 4.390188698912582e+02, 3.220516385779147e+03
3058, 3.226594276233979e-01, 5.604819988052439e-01, 3.371768847505109e-02, 0.000000000000000e+00, 0.000000000000000e+00, 0.000000000000000e+00, 5.122617776915721e+03, 4.387337944040254e+03, 1.422562656971617e+02, 8.261974189094222e+03, -1.234228879600859e+03, 2.725043072078373e+02, 4.190220720064271e+03
3059, 3.216934153599744e-01, 5.947066471176546e-01, 2.607998653517404e-02, 0.000000000000000e+00, 0.000000000000000e+00, 0.000000000000000e+00, 3.952286449290465e+03, 3.433933375804155e+03, -2.974102725535818e+02, 5.852754815801820e+03, -1.254388466143855e+03, 6.939500513378497e+02, 3.360969122685972e+03
3060, 2.948265596692368e-01, 5.411625562039990e-01, 2.645911108409499e-02, 0.000000000000000e+00, 0.000000000000000e+00, 0.000000000000000e+00, 3.002195029076034e+03, 3.003116360709892e+03, 6.034980671847207e+01, 6.267101820817536e+03, -7.460531702520099e+02, 5.285736344328641e+02, 3.629806014485861e+03
3061, 2.877067223033410e-01, 5.560097227373089e-01, 1.474777354518198e-02, 0.000000000000000e+00, 0.000000000000000e+00, 0.000000000000000e+00, 2.074439212090761e+03, 2.184201544792256e+03, -1.328080950148603e+02, 3.654865219703088e+03, -8.619994480811324e+02, 5.086043033189617e+02, 2.322584986131731e+03
3062, 2.859539501671547e-01, 5.237361598294927e-01, 2.652763624780019e-02, 0.000000000000000e+00, 0.000000000000000e+00, 0.000000000000000e+00, 2.732562718551553e+03, 2.955041670869454e+03, 5.376064365445088e+01, 5.979324639084999e+03, -9.785128188744901e+02, 3.828282658893621e+02, 3.631725311248038e+03
3063, 3.048737187418965e-01, 5.244954939832177e-01, 3.410575910628706e-02, 0.000000000000000e+00, 0.000000000000000e+00, 0.000000000000000e+00, 5.216142003477925e+03, 5.401469442320939e+03, -5.664887654261664e+01, 9.360522041591743e+03, -5.584401124668739e+02, 6.711938264175780e+02, 4.328840681174179e+03
3064, 3.749939396899286e-01, 4.437084592799660e-01, 5.899944181346699e-02, 0.000000000000000e+00, 0.000000000000000e+00, 0.000000000000000e+00, 5.239698519523775e+03, 5.526806586799080e+03, 1.861413666298578e+02, 1.077126645670905e+04, 8.417490159664384e+02, -2.016448801718575e+02, 5.607501147783732e+03
3065, 1.008123410733292e+00, 6.641499766299958e-01, 1.551692929716331e-02, 0.000000000000000e+00, 0.000000000000000e+00, 0.000000000000000e+00, -5.130388108134147e+02, -8.786593255372695e+02, 1.112049801567839e+02, -1.125585873446164e+03, 3.219158148846729e+02, -2.494977888567103e+02, 9.053557040088382e+02
3066, 4.593713041008228e-01, 3.448320190964512e-01, 6.895975846311853e-02, 0.000000000000000e+00, 0.000000000000000e+00, 0.000000000000000e+00, 3.828423012986686e+03, 3.807947704673252e+03, -7.810187203409009e+00, 7.055660037076884e+03, 9.830963580016548e+02, -4.148890318488069e+02, 3.727944982378897e+03
3067, 4.791934219568611e-01, 3.458078487092128e-01, 6.888300787337723e-02, 0.000000000000000e+00, 0.000000000000000e+00, 0.000000000000000e+00, 3.694828315852729e+03, 3.638777249632839e+03, -1.681327241848128e+01, 6.764206066116135e+03, 9.704884470153817e+02, -3.935779267136868e+02, 3.589897725606995e+03
3068, 4.503425068966266e-01, 3.272160618404752e-01, 6.947003531659252e-02, 0.000000000000000e+00, 0.000000000000000e+00, 0.000000000000000e+00, 3.968980683694312e+03, 3.908500172690854e+03, 3.117796710897133e+01, 7.296788050205465e+03, 1.054913186892780e+03, -3.780432894044526e+02, 3.879358082131116e+03
3069, 4.701516852702267e-01, 3.281954491861165e-01, 6.942722289910047e-02, 0.000000000000000e+00, 0.000000000000000e+00, 0.000000000000000e+00, 3.702962853526176e+03, 3.627310985229680e+03, 2.344152375072763e+01, 6.744351645877177e+03, 9.662539248886670e+02, -3.641768063642329e+02, 3.561785848678847e+03
3070, 4.882741865450764e-01, 3.634595004305470e-01, 6.833274287198701e-02, 0.000000000000000e+00, 0.000000000000000e+00, 0.000000000000000e+00, 3.706739593607118e+03, 3.626114367819296e+03, 1.315025981000421e+01, 6.771951742477917e+03, 9.955985108867293e+02, -3.300033665768199e+02, 3.598615567784881e+03
3071, 6.068698777145307e-01, 7.828745870496163e-01, 5.573349451407804e-02, 0.000000000000000e+00, 0.000000000000000e+00, 0.000000000000000e+00, 3.589786181424477e+03, 3.605265832196794e+03, 5.108927843928226e+01, 6.885961364347917e+03, 1.093765658282051e+03, -4.833011393924732e+02, 3.887354766191581e+03
3072, 5.548211003486305e-01, 1.089355606456668e+00, 1.460305920753605e-02, 0.000000000000000e+00, 0.000000000000000e+00, 0.000000000000000e+00, 1.290817182320422e+03, 9.275666353716208e+02, -1.740918924283042e+02, 1.712686552912266e+03, -2.762639875537088e+02, 4.274778194646705e+01, 8.879980052790972e+02
3073, 3.501527332029441e-01, 6.129051633553091e-01, 3.371783461266066e-02, 0.000000000000000e+00, 0.000000000000000e+00, 0.000000000000000e+00, 4.936678895979658e+03, 4.648725799155180e+03, -7.076558869417705e+01, 8.663036227146655e+03, -1.611952134327623e+03, 4.748434376689401e+02, 4.850597211221375e+03
3074, 4.803815573789720e-01, 7.583956037910267e-01, 4.626712579304113e-02, 0.000000000000000e+00, 0.000000000000000e+00, 0.000000000000000e+00, 5.636169313783867e+03, 5.966865301344022e+03, 3.461117996252993e+02, 1.147736927237083e+04, 3.016378277090553e+02, -6.195015336797940e+01, 5.739439444657044e+03
3075, 5.658801553823058e-01, 4.016253804277297e-01, 6.518970987173310e-02, 0.000000000000000e+00, 0.000000000000000e+00, 0.000000000000000e+00, 2.929236019803453e+03, 2.848532379732406e+03, 1.673635428515558e+00, 5.214740452584440e+03, 8.784492603027243e+02, -3.069531763577851e+02, 2.830579549541127e+03
3076, 9.883876576706132e-01, 8.873404344343836e-01, 2.330251148792202e-02, 0.000000000000000e+00, 0.000000000000000e+00, 0.000000000000000e+00, -4.321936332531032e+02, -5.459238793959039e+02, -1.118108417428163e+00, -1.032075949329531e+03, 3.200550902462124e+02, -8.895773946749655e+01, 7.972569031843938e+02
3077, 7.259497432947026e-01, 7.885324641621838e-01, 5.241774204065176e-02, 0.000000000000000e+00, 0.000000000000000e+00, 0.000000000000000e+00, 2.486567666274655e+03, 2.397522841883605e+03, -1.047706165086483e+01, 4.390805771305040e+03, 7.296935090832801e+02, -3.244082991724221e+02, 2.391029836876753e+03
3078, 8.950331855843648e-01, 5.550887729939523e-01, 3.213350346159393e-02, 0.000000000000000e+00, 0.000000000000000e+00, 0.000000000000000e+00, -4.859777498602862e+02, -6.041705417253041e+02, 2.137909767064323e+01, -1.284114833762173e+03, 3.263942902068342e+02, -1.655108749040618e+02, 9.796993085308947e+02
3079, 9.854035516807551e-01, 5.079588674050377e-01, 1.624776803876411e-02, 0.000000000000000e+00, 0.000000000000000e+00, 0.000000000000000e+00, -3.207172704193310e+02, -5.437891400744638e+02, 9.479650646095078e+01, -7.904450067340816e+02, 1.968324392514280e+02, -7.278646619089068e+01, 5.698279830303960e+02
3080, 4.987189298741975e-01, 7.937600339216087e-01, 4.583599557568139e-02, 0.000000000000000e+00, 0.000000000000000e+00, 0.000000000000000e+00, 5.839138899001337e+03, 6.051736293022212e+03, 1.619299298126692e+02, 1.159401261361984e+04, -7.346255760774895e+01, -3.154193584784121e+02, 5.686265930488244e+03
3081, 2.529831420251843e-01, 3.166252075247585e-01, 5.111602981618649e-02, 0.000000000000000e+00, 0.000000000000000e+00, 0.000000000000000e+00, 5.980982392044918e+03, 6.245551175683882e+03, 1.366009727834494e+02, 1.225651676668944e+04, -3.153038832396414e+02, -7.424854861738525e+01, 6.177603537538366e+03
3082, 2.427904093596078e-01, 3.329032801068583e-01, 4.646641562821512e-02, 0.000000000000000e+00, 0.000000000000000e+00, 0.000000000000000e+00, 5.708988580344871e+03, 5.869973535544043e+03, 1.501957528175652e+02, 1.161762901938217e+04, -7.262511674957947e+02, 1.145684419734174e+02, 5.972949198537507e+03
3083, 6.709573492699907e-01, 1.129956091086070e+00, 4.079968116847621e-02, 0.000000000000000e+00, 0.000000000000000e+00, 0.000000000000000e+00, 4.946618440726325e+03, 5.179012679513720e+03, 4.779662839349790e+02, 9.349913043750388e+03, -3.718376751752395e+01, -3.935940800421950e+01, 4.371940168649103e+03
3084, 2.800483519293100e-01, 3.696953834717661e-01, 5.054893623427473e-02, 0.000000000000000e+00, 0.000000000000000e+00, 0.000000000000000e+00, 5.748035726311123e+03, 5.929797062336113e+03, 1.812498774856436e+02, 1.171374055045876e+04, -1.704469235808702e+02, 2.077491267310723e+02, 5.903687565198297e+03
3085, 2.890868754599711e-01, 3.873625007055803e-01, 5.036297721153027e-02, 0.000000000000000e+00, 0.000000000000000e+00, 0.000000000000000e+00, 5.667464687570598e+03, 5.882724553586359e+03, 1.978400627091766e+02, 1.154358033792598e+04, -2.670367352759792e+02, 1.823488116786393e+02, 5.808724582147157e+03
3086, 2.981238431326230e-01, 4.049860249611675e-01, 5.018018700925285e-02, 0.000000000000000e+00, 0.000000000000000e+00, 0.000000000000000e+00, 5.866126685775455e+03, 6.094035676784966e+03, 1.826491533236852e+02, 1.180501924494696e+04, -2.866485081281004e+02, 1.840728090408361e+02, 5.866608301654478e+03
3087, 9.989236407006383e-01, 6.465596446050785e-01, 1.679300866363365e-02, 0.000000000000000e+00, 0.000000000000000e+00, 0.000000000000000e+00, -7.003397332159523e+02, -4.174133693079806e+02, 1.068165039483709e+02, -1.413769702914170e+03, 5.535170234728637e+02, -1.425898811823322e+02, 1.343594433340763e+03
3088, 9.869008752852408e-01, 4.734619081695651e-01, 1.521748706043544e-02, 0.000000000000000e+00, 0.000000000000000e+00, 0.000000000000000e+00, -2.606628721549082e+03, -2.453936474329268e+03, -1.328008828595366e+02, -5.360868129250721e+03, 7.903468899183504e+02, 6.591601488952319e+02, 3.355596785996709e+03
3089, 2.683526471485655e-01, 1.975024692327746e-01, 6.547349042063720e-02, 0.000000000000000e+00, 0.000000000000000e+00, 0.000000000000000e+00, 5.261954102650975e+03, 5.449790595355406e+03, 1.370011554984899e+02, 1.062318235023314e+04, 5.263116642985968e+02, -3.285637227272719e+02, 5.383511751030354e+03
3090, 2.867607205070279e-01, 4.890879483099299e-01, 3.426101257721785e-02, 0.000000000000000e+00, 0.000000000000000e+00, 0.000000000000000e+00, 5.021405097697255e+03, 4.743895484274261e+03, -8.702338418257507e+01, 8.967112932588270e+03, -1.195611153690940e+03, 1.926879288296616e+02, 4.600343136574435e+03
3091, 7.966261972847299e-01, 5.503779295969052e-01, 4.534528341257169e-02, 0.000000000000000e+00, 0.000000000000000e+00, 0.000000000000000e+00, 6.713854490490453e+02, 5.257261182452585e+02, -2.662675660345679e+01, 8.113146348437556e+02, 6.603007145938977e+02, -1.811391834442542e+02, 1.212324657081593e+03
3092, 8.819653942880183e-01, 1.054688356712496e+00, 3.921192907812177e-02, 0.000000000000000e+00, 0.000000000000000e+00, 0.000000000000000e+00, 1.511479666499432e+03, 1.457614689138640e+03, -7.190744897219743e+01, 2.530152483659195e+03, 6.928682201940766e+02, -4.161768505455938e+02, 1.752366171936844e+03
3093, 9.206671795584769e-01, 6.426067070684546e-01, 2.967064442304253e-02, 0.000000000000000e+00, 0.000000000000000e+00, 0.000000000000000e+00, -5.584567993375524e+02, -7.197550006502852e+02, -2.194116264782238e+01, -1.346959416744127e+03, 3.715441332522418e+02, -1.763043566881918e+02, 1.014592767944304e+03
3094, 3.175865339835958e-01, 4.062421428365124e-01, 5.385954535113927e-02, 0.000000000000000e+00, 0.000000000000000e+00, 0.000000000000000e+00, 5.760747983401888e+03, 5.988591385587297e+03, 2.170448265988034e+02, 1.172531688281139e+04, 6.318474795409739e+01, -4.636621983127277e+01, 5.867602482063529e+03
3095, 5.746489853040544e-01, 8.328190277668023e-01, 5.180251232248934e-02, 0.000000000000000e+00, 0.000000000000000e+00, 0.000000000000000e+00, 5.465637452224311e+03, 5.577737114107033e+03, 1.214156014797303e+02, 1.076151264388789e+04, 1.013235680759609e+03, -4.707472425560569e+02, 5.590542758961508e+03
3096, 8.752290533250802e-01, 1.415282608646169e+00, 3.711452930193949e-02, 0.000000000000000e+00, 0.000000000000000e+00, 0.000000000000000e+00, 3.952602208739314e+03, 3.669142803781013e+03, 3.603519458556733e+01, 6.934604810581832e+03, 1.275348014594263e+03, -3.928393247233131e+02, 3.894145210523035e+03
3097, 5.710019014087719e-01, 9.352789052707453e-01, 4.381779862623902e-02, 0.000000000000000e+00, 0.000000000000000e+00, 0.000000000000000e+00, 5.766162360292214e+03, 5.902914746441485e+03, 1.938120950084375e+02, 1.164677617006945e+04, 4.978807378305407e+02, -1.363857554026758e+02, 5.891373381394515e+03
3098, 7.159310196344024e-01, 9.950080589581576e-01, 4.963272505111287e-02, 0.000000000000000e+00, 0.000000000000000e+00, 0.000000000000000e+00, 3.325274064576242e+03, 3.157916591752812e+03, 2.778813062035340e+01, 6.187477148040907e+03, 1.055919709988965e+03, -3.451045800482658e+02, 3.521893446061520e+03
3099, 8.510186546410784e-01, 6.564459415569217e-01, 3.966461522406642e-02, 0.000000000000000e+00, 0.000000000000000e+00, 0.000000000000000e+00, 3.358371722347719e+02, 1.738076267718876e+02, -4.031186477372562e+01, 1.328976550824448e+02, 5.217792462171577e+02, -1.472971401166298e+02, 9.598338661650439e+02
3100, 8.872634369607891e-01, 7.271921461222730e-01, 3.572509899522100e-02, 0.000000000000000e+00, 0.000000000000000e+00, 0.000000000000000e+00, -8.760117190836863e+01, -2.505182701823198e+02, -3.685349057513078e+00, -5.160991933519438e+02, 5.145249268176243e+02, -2.187130707480878e+02, 1.038314764082931e+03
3101, 5.893228310455110e-01, 9.706616915868906e-01, 4.332233805774532e-02, 0.000000000000000e+00, 0.000000000000000e+00, 0.000000000000000e+00, 5.899144225609321e+03, 5.952837894901957e+03, 2.323076713138183e+02, 1.140157877244670e+04, 1.136408595333620e+02, 2.017463190053832e+02, 5.505176752885069e+03
3102, 1.011098494335057e+00, 5.959410164655423e-01, 1.347135698928222e-02, 0.000000000000000e+00, 0.000000000000000e+00, 0.000000000000000e+00, -2.439254186000498e+03, -2.818404255653526e+03, -7.957768304316991e+01, -4.567170890508160e+03, 9.929017028082500e+02, 4.030110450342916e+02, 2.707175172463678e+03
3103, 9.006619108757781e-01, 8.658631778232969e-01, 3.560993309001230e-02, 0.000000000000000e+00, 0.000000000000000e+00, 0.000000000000000e+00, 4.305955244017047e+02, 3.812315977237239e+02, -4.196923090469284e+01, 4.959282381104861e+02, 5.074655977829780e+02, -1.460222189863534e+02, 9.229008360424277e+02
3104, 9.553202908860374e-01, 7.477487009407453e-01, 2.608128949541568e-02, 0.000000000000000e+00, 0.000000000000000e+00, 0.000000000000000e+00, -8.123314830266016e+02, -1.009181852712851e+03, -5.522153444532707e+01, -2.147569568680303e+03, 3.698550661422478e+02, -6.545184850662653e+01, 1.411080118036263e+03
3105, 8.307586321756906e-01, 8.797695509469801e-01, 4.368887406808616e-02, 0.000000000000000e+00, 0.000000000000000e+00, 0.000000000000000e+00, 1.482467385802441e+03, 1.360086586144813e+03, -2.621010008657443e+01, 2.401147893083822e+03, 6.315095633337485e+02, -2.682230675102580e+02, 1.544566128501468e+03
3106, 8.505201147625613e-01, 8.807281816789758e-01, 4.165311491129957e-02, 0.000000000000000e+00, 0.000000000000000e+00, 0.000000000000000e+00, 1.217230565313467e+03, 1.076189552515734e+03, -2.124396482289396e+01, 1.893947251409093e+03, 6.042356301825876e+02, -2.150412387679978e+02, 1.344866929810742e+03
3107, 3.512414029389398e-01, 3.220897946784795e-01, 6.522356543550335e-02, 0.000000000000000e+00, 0.000000000000000e+00, 0.000000000000000e+00, 5.063431817390549e+03, 5.208335364123535e+03, 1.081002245834403e+02, 1.007186975389017e+04, 9.308450148966663e+02, -3.637510012731030e+02, 5.235563566107660e+03
3108, 8.300236160035536e-01, 1.327289194244858e+00, 3.978358233735807e-02, 0.000000000000000e+00, 0.000000000000000e+00, 0.000000000000000e+00, 3.668234718180442e+03, 3.591975388681426e+03, 3.886803467384364e+00, 6.448014717604578e+03, 1.018890064847023e+03, -5.593831475529422e+02, 3.463836200110962e+03
3109, 9.958932869321210e-01, 9.394636794199249e-01, 2.303272283741170e-02, 0.000000000000000e+00, 0.000000000000000e+00, 0.000000000000000e+00, -3.573854777378593e+02, -6.266960274592728e+02, -8.242847835495607e+01, -1.276380202310650e+03, 3.478173670318103e+02, -3.960190340860236e+01, 1.028398540614196e+03
3110, 8.067675400445039e-01, 7.579176325080075e-01, 4.562796637744652e-02, 0.000000000000000e+00, 0.000000000000000e+00, 0.000000000000000e+00, 1.280039878488781e+03, 1.082448247855693e+03, -1.290117651798117e+01, 1.932671653375585e+03, 6.824570793630401e+02, -2.139187798341278e+02, 1.459092633239231e+03
3111, 8.265130895880879e-01, 7.588595059294698e-01, 4.352113462717722e-02, 0.000000000000000e+00, 0.000000000000000e+00, 0.000000000000000e+00, 9.301516058524599e+02, 8.327809461183418e+02, -4.775144885197169e+01, 1.379023355526720e+03, 6.144834436450109e+02, -2.016541284934954e+02, 1.231372122550196e+03
3112, 1.049893836472460e+00, 8.213311121603992e-01, 1.131165456480920e-02, 0.000000000000000e+00, 0.000000000000000e+00, 0.000000000000000e+00, -3.700577287865832e+03, -4.647657857943364e+03, -1.013785356211966e+02, -8.192512436131488e+03, 6.492893631086751e+00, -1.633690875354540e+03, 4.985781323481738e+03
3113, 8.670479797005893e-01, 9.505045505657046e-01, 4.027511523403892e-02, 0.000000000000000e+00, 0.000000000000000e+00, 0.000000000000000e+00, 1.032502766923007e+03, 8.971343534219286e+02, -1.696356022911243e+01, 1.495814270435575e+03, 6.051338078597241e+02, -1.714363907529724e+02, 1.217906101242110e+03
3114, 8.868140155410318e-01, 9.514456652954583e-01, 3.809876834777878e-02, 0.000000000000000e+00, 0.000000000000000e+00, 0.000000000000000e+00, 7.947764214415287e+02, 7.026487706877247e+02, -6.384289837717926e+01, 1.110076706804136e+03, 5.349168217171941e+02, -1.762490896071702e+02, 1.049179030864302e+03
3115, 8.851902072665422e-01, 9.858667912816902e-01, 3.852235275817315e-02, 0.000000000000000e+00, 0.000000000000000e+00, 0.000000000000000e+00, 8.796460719371523e+02, 7.666223748722679e+02, -2.152021360145761e+01, 1.302564541318932e+03, 5.531770921203818e+02, -1.670660739535172e+02, 1.114706894447307e+03
3116, 7.704669173295011e-01, 6.871960501847640e-01, 4.899772957314359e-02, 0.000000000000000e+00, 0.000000000000000e+00, 0.000000000000000e+00, 1.305370596469919e+03, 1.152965139037027e+03, -1.852176652846581e+01, 1.990119083426517e+03, 7.374989713226506e+02, -2.173942813815443e+02, 1.539802424523966e+03
3117, 7.811397488870619e-01, 6.703474888233831e-01, 4.787257429974715e-02, 0.000000000000000e+00, 0.000000000000000e+00, 0.000000000000000e+00, 1.297630210519374e+03, 1.149823871241068e+03, -3.487274424990704e+01, 1.906299125647996e+03, 7.241065812256913e+02, -2.013150341121765e+02, 1.476655769984583e+03
3118, 6.344490420638482e-01, 1.059150106669409e+00, 4.192560185876570e-02, 0.000000000000000e+00, 0.000000000000000e+00, 0.000000000000000e+00, 5.781929359925469e+03, 6.327656318433405e+03, 1.741205321926237e+02, 1.223584051071840e+04, -1.498992033975075e+02, -6.613001004082379e+01, 6.212905639085769e+03
3119, 1.015663182006624e+00, 7.162169946033055e-01, 1.527892337822716e-02, 0.000000000000000e+00, 0.000000000000000e+00, 0.000000000000000e+00, -2.306817582412800e+03, -2.052591239540803e+03, -4.484614247177754e+01, -3.677242003712452e+03, 1.962874474297064e+02, 4.801522081438005e+02, 1.761916672606666e+03
3120, 7.341632822944795e-01, 6.164958161461686e-01, 5.226572061979442e-02, 0.000000000000000e+00, 0.000000000000000e+00, 0.000000000000000e+00, 1.713088095512523e+03, 1.590986593359159e+03, -3.038679903243500e+01, 2.808949941508159e+03, 7.678184989697198e+02, -2.706395299098885e+02, 1.827777727209161e+03
3121, 7.448414185981456e-01, 5.996314283974207e-01, 5.123539596031661e-02, 0.000000000000000e+00, 0.000000000000000e+00, 0.000000000000000e+00, 1.526015930661237e+03, 1.424548642376400e+03, -4.668476133122697e+01, 2.510444753640907e+03, 7.458243272016422e+02, -2.520773695794481e+02, 1.716162062278352e+03
3122, 1.063616530012141e+00, 9.600607052535772e-01, 1.186810596809271e-02, 0.000000000000000e+00, 0.000000000000000e+00, 0.000000000000000e+00, -3.427285290535006e+03, -3.848808647005453e+03, 2.265439772839868e+02, -7.689255126768521e+03, 4.480585909342463e+02, -1.359037953562498e+03, 4.779407651142599e+03
3123, 1.083256279068191e+00, 9.610241281206833e-01, 8.198324621384680e-03, 0.000000000000000e+00, 0.000000000000000e+00, 0.000000000000000e+00, 1.947744878876053e+02, 1.388206295866708e+01, -2.491340532982076e+02, 1.604560094415353e+02, -3.357132124561874e+02, 8.657750679202239e+01, 7.579526906158814e+02
3124, 1.072632799035991e+00, 9.774835903145646e-01, 1.058713827177467e-02, 0.000000000000000e+00, 0.000000000000000e+00, 0.000000000000000e+00, -6.246433540066643e+02, -1.136412094962656e+03, -6.506456435434474e+01, -1.327906201097877e+03, 1.720349045523582e+02, -7.524683472347662e+01, 7.176715200327440e+02
3125, 9.731196504780226e-01, 1.007346180070032e+00, 2.757333366223116e-02, 0.000000000000000e+00, 0.000000000000000e+00, 0.000000000000000e+00, -4.100243660624291e+02, -5.291438195631405e+02, 2.205343834937532e+01, -9.125281768460641e+02, 5.085192712074393e+02, -1.853499554661287e+02, 1.042660046564950e+03
3126, 9.821712933839394e-01, 1.025034696123587e+00, 2.652381312716308e-02, 0.000000000000000e+00, 0.000000000000000e+00, 0.000000000000000e+00, -3.181747616572328e+02, -4.375252455318669e+02, -5.653399955662719e+01, -8.990573530442517e+02, 5.159542990277098e+02, -2.142750561973379e+01, 1.044955843079314e+03
3127, 1.051793209728958e+00, 1.423893512784426e+00, 2.230608200238433e-02, 0.000000000000000e+00, 0.000000000000000e+00, 0.000000000000000e+00, 1.087120096656708e+03, 1.028653539116071e+03, -9.600735998278503e+01, 1.905408174088026e+03, -1.929962212104552e+02, -4.108262584014947e+02, 1.169010569017451e+03
3128, 1.070037299985541e+00, 8.545681627057209e-01, 8.249843825488205e-03, 0.000000000000000e+00, 0.000000000000000e+00, 0.000000000000000e+00, 5.550329986569577e+02, 6.082232320314367e+02, 6.903039263314739e+00, 1.025236410304723e+03, -3.036500361894563e+02, 1.081186779891461e+02, 7.146552699936925e+02
3129, 6.978590355005299e-01, 5.458104759201934e-01, 5.543873833830686e-02, 0.000000000000000e+00, 0.000000000000000e+00, 0.000000000000000e+00, 1.966803026947447e+03, 1.859812062199325e+03, -2.641757190453437e+01, 3.369197454087342e+03, 7.975307787382437e+02, -2.657137318454024e+02, 2.061618729014162e+03
3130, 8.489072760904761e-01, 9.151302267554113e-01, 4.199650550933742e-02, 0.000000000000000e+00, 0.000000000000000e+00, 0.000000000000000e+00, 1.461912129952953e+03, 1.278943988393205e+03, -2.784372435293445e+01, 2.229043499028051e+03, 6.700645429165477e+02, -1.663537084605361e+02, 1.481429864054269e+03
3131, 8.686627825228099e-01, 9.160907233625317e-01, 3.989222674462533e-02, 0.000000000000000e+00, 0.000000000000000e+00, 0.000000000000000e+00, 9.053956958593067e+02, 8.014928617139881e+02, -2.256138004653151e+01, 1.375435943109947e+03, 5.802884327307189e+02, -1.736410040402139e+02, 1.175906792554111e+03
3132, 9.749476942992417e-01, 7.487101055646570e-01, 2.294595615774361e-02, 0.000000000000000e+00, 0.000000000000000e+00, 0.000000000000000e+00, -8.389351091465747e+02, -9.073920443292070e+02, 3.418449404833228e+01, -1.698537281700207e+03, 2.520610464202338e+02, -1.588716390016006e+02, 9.770297652214824e+02
3133, 9.187835434607103e-01, 9.012267436891035e-01, 3.365691714626866e-02, 0.000000000000000e+00, 0.000000000000000e+00, 0.000000000000000e+00, 3.068088326794147e+02, 1.921321385435523e+02, -6.913186607386683e+00, 2.765865864905330e+02, 5.308690504224614e+02, -1.007638433421643e+02, 9.416302989879449e+02
3134, 8.249169233301601e-01, 7.932122630796590e-01, 4.390203124300376e-02, 0.000000000000000e+00, 0.000000000000000e+00, 0.000000000000000e+00, 1.209217938475129e+03, 1.036063968150184e+03, -3.318561776386912e+01, 1.733001708113791e+03, 6.341044828381131e+02, -2.209648451725939e+02, 1.323281037282937e+03
3135, 9.927831367082760e-01, 1.008306315364963e+00, 2.468165991938075e-02, 0.000000000000000e+00, 0.000000000000000e+00, 0.000000000000000e+00, -5.066425456646031e+02, -7.565293640640497e+02, 6.507179439679290e+01, -1.362277499502287e+03, 4.525082484593274e+02, -2.654295875198513e+02, 1.191257930825593e+03
3136, 6.524713077653925e-01, 4.574528773717393e-01, 5.928137032044582e-02, 0.000000000000000e+00, 0.000000000000000e+00, 0.000000000000000e+00, 2.122458971377217e+03, 1.962483072816442e+03, -4.358074815823118e+01, 3.432760369031111e+03, 8.069741611869470e+02, -2.125157155249238e+02, 2.011692622550630e+03
3137, 6.631661131212874e-01, 4.405999185294568e-01, 5.845511718138293e-02, 0.000000000000000e+00, 0.000000000000000e+00, 0.000000000000000e+00, 1.871954917431438e+03, 1.758085557705959e+03, -8.618471069285352e+00, 3.152373312955993e+03, 7.591760315519009e+02, -1.822331764725650e+02, 1.904503160449546e+03
3138, 6.797033675798561e-01, 5.104773106095291e-01, 5.699175082392095e-02, 0.000000000000000e+00, 0.000000000000000e+00, 0.000000000000000e+00, 1.738886162971900e+03, 1.650624153951527e+03, -2.197626570793616e+01, 2.936669887222835e+03, 7.564519639448060e+02, -2.660173353384722e+02, 1.865100020997278e+03
3139, 4.123941036693644e-01, 2.908771797729551e-01, 7.018346599672969e-02, 0.000000000000000e+00, 0.000000000000000e+00, 0.000000000000000e+00, 4.352530840842885e+03, 4.358249504147144e+03, 3.896028894943292e+01, 8.268705016496144e+03, 1.094899205149531e+03, -4.057404983791205e+02, 4.405553333276443e+03
3140, 6.982906153752033e-01, 1.182883178719055e+00, 3.991978308742795e-02, 0.000000000000000e+00, 0.000000000000000e+00, 0.000000000000000e+00, 5.734118141132026e+03, 6.152131741792164e+03, 1.695630570682071e+02, 1.296238530279770e+04, -1.136459424035422e+01, -1.135788099762363e+02, 7.037500290527199e+03
3141, 6.784996125960965e-01, 1.181758764893208e+00, 3.742631502368635e-02, 0.000000000000000e+00, 0.000000000000000e+00, 0.000000000000000e+00, 5.732792247788352e+03, 5.506428667450312e+03, 1.365049150164764e+01, 1.094582054151813e+04, -2.925907241844636e+02, -6.169229898697476e+01, 5.354974232744428e+03
3142, 6.875697674406822e-01, 1.199441656364963e+00, 3.717046164854701e-02, 0.000000000000000e+00, 0.000000000000000e+00, 0.000000000000000e+00, 5.883677273850460e+03, 5.816808020751373e+03, 1.071670946341835e+02, 1.178117212124774e+04, -7.686655703452521e+02, -3.346434039057552e+01, 6.081910248395775e+03
3143, 7.886213345468427e-01, 7.225089441772655e-01, 4.732541484298716e-02, 0.000000000000000e+00, 0.000000000000000e+00, 0.000000000000000e+00, 1.397852173879360e+03, 1.286586890938325e+03, -3.659358668559207e+01, 2.163100732903555e+03, 7.063660324301051e+02, -2.461455028694375e+02, 1.538105955562828e+03
3144, 7.992901069744895e-01, 7.056928939225693e-01, 4.615210042805712e-02, 0.000000000000000e+00, 0.000000000000000e+00, 0.000000000000000e+00, 1.209992823071070e+03, 1.060351984077198e+03, -2.994541904201607e+01, 1.811116258936438e+03, 6.773042387476111e+02, -2.225300941693766e+02, 1.414625953882330e+03
3145, 1.032047308802085e+00, 1.010234470743742e+00, 1.845318380757766e-02, 0.000000000000000e+00, 0.000000000000000e+00, 0.000000000000000e+00, -4.322049046526624e+02, -6.771941277515499e+02, -2.869610075037130e-01, -1.366463413972778e+03, 3.395702083471260e+02, -2.065600036807212e+02, 1.085311267283313e+03
3146, 1.012425937778153e+00, 1.009269746287997e+00, 2.164181789038609e-02, 0.000000000000000e+00, 0.000000000000000e+00, 0.000000000000000e+00, -1.042016127881165e+03, -1.209146704690944e+03, 8.008782849152182e+00, -2.264898675474824e+03, 3.435463239064516e+02, -5.459162031604172e+02, 1.602289438210315e+03
3147, 6.527339138486352e-01, 1.094549887810140e+00, 4.137419851910885e-02, 0.000000000000000e+00, 0.000000000000000e+00, 0.000000000000000e+00, 6.405399337693471e+03, 6.252134910968668e+03, 1.661607888223649e+02, 1.354867124641172e+04, 5.097689868852908e+02, 2.580852224182007e+02, 7.294304521316611e+03
3148, 9.703745328625424e-01, 4.037470434444544e-01, 1.671062346917743e-02, 0.000000000000000e+00, 0.000000000000000e+00, 0.000000000000000e+00, -3.322897443046790e+03, -3.517276236250520e+03, 2.257108785793486e+01, -7.038820046635034e+03, -6.262048003540718e+02, -1.483818771488031e+03, 4.572378759204325e+03
3149, 6.071026655232715e-01, 3.691693239781821e-01, 6.299435591786008e-02, 0.000000000000000e+00, 0.000000000000000e+00, 0.000000000000000e+00, 2.336609836329553e+03, 2.216820058223357e+03, -1.786433512943374e+01, 4.029609147906698e+03, 8.138307617469151e+02, -2.675763013654696e+02, 2.299154286399676e+03
3150, 7.523232705644636e-01, 6.518450033328103e-01, 5.064320295567543e-02, 0.000000000000000e+00, 0.000000000000000e+00, 0.000000000000000e+00, 1.653586734713239e+03, 1.514743927177108e+03, -2.615837149749578e+01, 2.692218789492759e+03, 7.530695109749784e+02, -2.325134453140754e+02, 1.762901532683150e+03
3151, 7.629922812031220e-01, 6.349843869920990e-01, 4.956636954249824e-02, 0.000000000000000e+00, 0.000000000000000e+00, 0.000000000000000e+00, 1.503941844818386e+03, 1.371376819454422e+03, -5.681443145087790e+01, 2.283571707679957e+03, 6.978217255156186e+02, -2.363538941879592e+02, 1.538468872652786e+03
3152, 7.160180014075730e-01, 5.811529926599697e-01, 5.386302868787854e-02, 0.000000000000000e+00, 0.000000000000000e+00, 0.000000000000000e+00, 1.869088904365202e+03, 1.741557457709733e+03, -1.528055774188752e+01, 3.161620461584598e+03, 7.853432922678306e+02, -2.802716112211653e+02, 1.984537676706726e+03
3153, 7.266924184942954e-01, 5.642799309461615e-01, 5.287973856754993e-02, 0.000000000000000e+00, 0.000000000000000e+00, 0.000000000000000e+00, 1.638020537450987e+03, 1.496752887508119e+03, -3.740758632236078e+01, 2.627084050707639e+03, 8.029544196492197e+02, -2.684465756840499e+02, 1.814530775427492e+03
3154, 9.942605195056566e-01, 5.258173617049094e-01, 1.502149930196756e-02, 0.000000000000000e+00, 0.000000000000000e+00, 0.000000000000000e+00, -1.878358078909767e+03, -1.986714603813761e+03, 3.658201737075839e+01, -3.701343443446034e+03, -3.777980651187200e+02, 5.082473344679405e+02, 2.084379845838827e+03
3155, 1.015384210783414e+00, 5.281976112544617e-01, 1.112309250694579e-02, 0.000000000000000e+00, 0.000000000000000e+00, 0.000000000000000e+00, -4.525002157262086e+03, -4.672271250079353e+03, 1.980365799892910e+02, -8.837363510771469e+03, 1.410614227874351e+03, -1.122210962228346e+03, 5.277148508089530e+03
3156, 9.831498263228673e-01, 1.214633463043013e+00, 2.888095239973593e-02, 0.000000000000000e+00, 0.000000000000000e+00, 0.000000000000000e+00, 4.699899830199586e+02, 4.512596129331285e+02, 1.607244085664381e+00, 7.024227490062223e+02, 4.805599040808912e+02, -2.517132069244334e+02, 9.703758028448307e+02
3157, 9.628585790511845e-01, 3.516526000089125e-01, 1.694222682161483e-02, 0.000000000000000e+00, 0.000000000000000e+00, 0.000000000000000e+00, -3.406957096109954e+03, -3.711004696881279e+03, -4.926999143211320e+02, -7.857735418894436e+03, -8.267390862956194e+02, 1.309775774442342e+03, 5.145280755856420e+03
3158, 8.332817259472294e-01, 3.969333173049440e-01, 3.876335019523768e-02, 0.000000000000000e+00, 0.000000000000000e+00, 0.000000000000000e+00, -1.719123886923093e+02, -3.601458579844715e+02, -6.690523032237973e+00, -7.961181073782147e+02, 5.276297565000215e+02, -1.197803597805875e+02, 1.089001369658159e+03
3159, 9.958797258347067e-01, 4.911160311802050e-01, 1.395014249650725e-02, 0.000000000000000e+00, 0.000000000000000e+00, 0.000000000000000e+00, -2.262354335649102e+03, -2.614326979320230e+03, 2.462902444060220e+02, -4.926688320840912e+03, 3.296693333895678e+02, -1.201885767018402e+03, 3.335625593893245e+03
3160, 9.017239534808027e-01, 1.055625756153215e+00, 3.714981620280674e-02, 0.000000000000000e+00, 0.000000000000000e+00, 0.000000000000000e+00, 1.196249202387466e+03, 1.068674195103414e+03, -7.011226261667193e+01, 1.727247691761377e+03, 6.818568138795581e+02, -2.974477749619165e+02, 1.428613237671280e+03
3161, 7.846870114700726e-01, 1.239115123006067e+00, 4.227163944856180e-02, 0.000000000000000e+00, 0.000000000000000e+00, 0.000000000000000e+00, 4.420818278516625e+03, 4.505747188679167e+03, 1.240380797135044e+02, 8.748893236474851e+03, 6.404009049583665e+02, -3.088980562916183e+02, 4.464819973147748e+03
3162, 1.073860723105119e-01, 1.014965882663193e-01, 4.284221682763125e-02, 0.000000000000000e+00, 0.000000000000000e+00, 0.000000000000000e+00, 4.296848559923113e+03, 3.689019260718265e+03, -4.241856560641207e+01, 6.983378081288653e+03, -1.270158374653591e+03, 3.313211912407837e+02, 3.794005109634551e+03
3163, 3.072042264793153e-01, 4.226042802985679e-01, 5.000544794933333e-02, 0.000000000000000e+00, 0.000000000000000e+00, 0.000000000000000e+00, 5.626643654678483e+03, 5.890722734066160e+03, 2.112799195112989e+02, 1.151355747464849e+04, -4.152313175609092e+02, 1.759398761815054e+02, 5.823651309652761e+03
3164, 9.281709154464857e-01, 4.706450253056305e-01, 2.541858156275165e-02, 0.000000000000000e+00, 0.000000000000000e+00, 0.000000000000000e+00, -1.092061598275361e+03, -1.296769546447497e+03, -6.971338876796165e+01, -2.357100009130561e+03, 3.120011113252189e+02, -1.178497370662605e+02, 1.315881354546679e+03
3165, 2.409927907557614e-01, 4.009327669974546e-01, 3.436382161615142e-02, 0.000000000000000e+00, 0.000000000000000e+00, 0.000000000000000e+00, 4.788458832658897e+03, 4.820456272583174e+03, -3.849874815977387e+01, 8.992650879068682e+03, -7.735563440610390e+02, 7.002351871448185e+02, 4.562053691256817e+03
3166, 8.570782970326182e-01, 1.380232266895590e+00, 3.820236870296441e-02, 0.000000000000000e+00, 0.000000000000000e+00, 0.000000000000000e+00, 4.325053966282463e+03, 4.370466548781656e+03, -1.327264457368181e+02, 7.894464749715145e+03, 1.294157359598734e+03, -8.805386852818785e+02, 4.470356065583246e+03
3167, 9.372945417018983e-01, 2.642220544320472e-01, 1.967391877047584e-02, 0.000000000000000e+00, 0.000000000000000e+00, 0.000000000000000e+00, -3.689101081782965e+03, -3.882875418027481e+03, 2.053943034027319e+02, -7.746023723982044e+03, 1.942098709932430e+03, -9.769356440946111e+02, 5.478599706226881e+03
3168, 9.203660272951029e-01, 8.668024854449184e-01, 3.301892518304150e-02, 0.000000000000000e+00, 0.000000000000000e+00, 0.000000000000000e+00, 2.117247400705744e+02, 1.295772840610842e+02, -5.785485534825703e+01, 4.301225424636515e+01, 4.653500780433070e+02, -1.642260553161251e+02, 8.729015041201631e+02
3169, 2.291845811306833e-01, 1.951308578819743e-01, 6.002090173750244e-02, 0.000000000000000e+00, 0.000000000000000e+00, 0.000000000000000e+00, 5.454326708704437e+03, 5.676116257421080e+03, 1.633251590170174e+02, 1.115471667741302e+04, 9.715440661956130e+01, -2.476246814033752e+02, 5.618865160155170e+03
3170, 7.083297076725027e-01, 1.156214533446912e-01, 5.197664384336747e-02, 0.000000000000000e+00, 0.000000000000000e+00, 0.000000000000000e+00, 7.945177368661458e+02, 6.598127595360313e+02, -3.309870669634777e+01, 1.059973839168307e+03, 5.643972575896050e+02, -1.092418493480594e+02, 1.057871137065182e+03
3171, 7.666750157506521e-01, 1.203799574329238e+00, 4.322428147583114e-02, 0.000000000000000e+00, 0.000000000000000e+00, 0.000000000000000e+00, 4.733759097487669e+03, 4.697536241493176e+03, 1.263519208667871e+02, 8.922487515039787e+03, 1.276236063895502e+03, -4.948641099457648e+02, 4.833982510890371e+03
3172, 1.352599589370983e-01, 1.206824258005843e-01, 4.839084376087785e-02, 0.000000000000000e+00, 0.000000000000000e+00, 0.000000000000000e+00, 5.204381629870221e+03, 4.922963557485543e+03, 7.997874810487717e+01, 9.813506717443190e+03, -1.349926896354001e+03, 1.905659322925484e+02, 5.311813730024855e+03
3173, 7.485302252103608e-01, 1.168453610628650e+00, 4.415147145637668e-02, 0.000000000000000e+00, 0.000000000000000e+00, 0.000000000000000e+00, 4.743100194113140e+03, 4.766569506974715e+03, 4.946642682179045e+01, 9.234734568429400e+03, 1.147597543868306e+03, -5.726498962711352e+02, 5.001197801538973e+03
3174, 1.015515204200470e+00, 9.404140577998057e-01, 1.986959459986451e-02, 0.000000000000000e+00, 0.000000000000000e+00, 0.000000000000000e+00, -1.088343878744843e+03, -1.170339995764238e+03, -8.802878111716115e+01, -2.225333011417693e+03, 2.315441038382730e+02, 4.109241192535139e+02, 1.377279952436886e+03
3175, 1.005137490051200e+00, 5.091144966471912e-01, 1.262536513595612e-02, 0.000000000000000e+00, 0.000000000000000e+00, 0.000000000000000e+00, -7.158265394735528e+02, -6.387541414464395e+02, -1.707632337021840e+02, -8.521480429353793e+02, 5.324163528631040e+02, -6.665372534091168e+01, 9.930962962699538e+02
3176, 1.034950141014782e+00, 7.171151040544772e-01, 1.175132675615058e-02, 0.000000000000000e+00, 0.000000000000000e+00, 0.000000000000000e+00, -6.850383924834789e+03, -7.253929291286701e+03, -1.869471196883854e+01, -1.418896919007381e+04, 1.353705835353473e+03, -2.344500572217798e+03, 8.546630108998181e+03
3177, 1.054257373019431e+00, 7.186216104543907e-01, 8.098704603544988e-03, 0.000000000000000e+00, 0.000000000000000e+00, 0.000000000000000e+00, -2.288834912811059e+03, -2.601943194048205e+03, -2.088548210230700e+01, -5.274982852301422e+03, -4.336094666563650e+02, -5.187959740665358e+02, 3.074562825895915e+03
3178, 5.691881502415488e-01, 3.327494278380148e-01, 6.571877459636068e-02, 0.000000000000000e+00, 0.000000000000000e+00, 0.000000000000000e+00, 2.716128448504322e+03, 2.577220760010153e+03, -1.682023295668556e+01, 4.607799748504988e+03, 9.775586750329641e+02, -2.423642490036995e+02, 2.627625597099975e+03
3179, 9.155934988504071e-01, 9.700723147084557e-01, 3.482648957403123e-02, 0.000000000000000e+00, 0.000000000000000e+00, 0.000000000000000e+00, 7.494237987692590e+02, 5.668756696122681e+02, -6.983203219013749e+00, 8.780805572815182e+02, 5.410028853040667e+02, -1.186327513203751e+02, 9.968862932654408e+02
3180, 8.958672108628825e-01, 9.691235881043008e-01, 3.719228378781515e-02, 0.000000000000000e+00, 0.000000000000000e+00, 0.000000000000000e+00, 6.948721545880456e+02, 6.157525171333066e+02, -4.054578075408508e+01, 1.074934798996125e+03, 5.760388486637061e+02, -1.728322255723169e+02, 1.127291014090962e+03
3181, 5.540231162498976e-01, 6.422605861221682e-01, 5.992128046300150e-02, 0.000000000000000e+00, 0.000000000000000e+00, 0.000000000000000e+00, 4.056475831187498e+03, 4.037130615980248e+03, 7.120065310001996e+01, 7.758767999735659e+03, 1.043360621781479e+03, -4.244361387330903e+02, 4.195284739472569e+03
3182, 2.350129282845713e-01, 2.811387989167298e-01, 5.151565802547169e-02, 0.000000000000000e+00, 0.000000000000000e+00, 0.000000000000000e+00, 5.730054846450630e+03, 5.959147615120361e+03, 2.002254462213948e+02, 1.177689802730787e+04, -3.867056568567135e+02, -2.718621864540073e+01, 5.983529030518150e+03
3183, 9.198836093433411e-01, 1.091011861875574e+00, 3.536992267864537e-02, 0.000000000000000e+00, 0.000000000000000e+00, 0.000000000000000e+00, 8.827620078875808e+02, 7.483136270593430e+02, -3.770853372764232e+01, 1.203419270330735e+03, 6.366241589788306e+02, -2.072961496785619e+02, 1.230065501406334e+03
3184, 2.229446003571036e-01, 3.652835538365570e-01, 3.456819898776767e-02, 0.000000000000000e+00, 0.000000000000000e+00, 0.000000000000000e+00, 5.538304212748194e+03, 5.398557278184453e+03, 2.772327201096370e+01, 1.082383016161726e+04, -7.605409514863568e+02, 2.446200171444951e+02, 5.532814837427636e+03
3185, 8.117933776412191e-01, 1.292163447634857e+00, 4.079389360061685e-02, 0.000000000000000e+00, 0.000000000000000e+00, 0.000000000000000e+00, 3.744464087369686e+03, 3.802388657938988e+03, 2.951130308080227e+01, 7.267354128183272e+03, 9.934273707319069e+02, -4.046416000854063e+02, 3.957847729525194e+03
3186, 5.567723340543196e-01, 3.840020023837161e-01, 6.584787369306483e-02, 0.000000000000000e+00, 0.000000000000000e+00, 0.000000000000000e+00, 2.919718326128843e+03, 2.845184468451619e+03, -6.496426983587967e+00, 5.212398428958374e+03, 8.873552863406946e+02, -2.822721256942934e+02, 2.834462404839282e+03
3187, 3.385269575587290e-01, 1.840372502472486e-01, 7.215729481329548e-02, 0.000000000000000e+00, 0.000000000000000e+00, 0.000000000000000e+00, 4.498949687220867e+03, 4.519682540209287e+03, 7.333983121982580e+01, 8.607869117736136e+03, 8.659876742230188e+02, -4.861601286501971e+02, 4.446735237843714e+03
3188, 9.793981086578103e-01, 4.214531969721940e-01, 1.544724601337704e-02, 0.000000000000000e+00, 0.000000000000000e+00, 0.000000000000000e+00, -4.847975088261047e+02, -5.973432433886209e+02, -1.455802980171941e+02, -9.215930887940602e+02, 4.145619846709971e+01, -3.053980455309750e+02, 7.091107522632691e+02
3189, 6.977553937412184e-01, 9.595939369107953e-01, 5.070820535468818e-02, 0.000000000000000e+00, 0.000000000000000e+00, 0.000000000000000e+00, 3.629767280924634e+03, 3.568803428358181e+03, -4.215574333913190e+01, 6.445410020720398e+03, 9.975151932335630e+02, -3.949859919267944e+02, 3.400249382338454e+03
3190, 7.085270995206399e-01, 9.428805093818141e-01, 5.103052806630073e-02, 0.000000000000000e+00, 0.000000000000000e+00, 0.000000000000000e+00, 3.355223773562791e+03, 3.243953961529849e+03, 4.307685408802322e+01, 6.082975915940953e+03, 9.679047180124077e+02, -3.610843892856201e+02, 3.311156969030172e+03
3191, 4.003686055465663e-01, 1.523055545494721e-01, 7.467786011128144e-02, 0.000000000000000e+00, 0.000000000000000e+00, 0.000000000000000e+00, 3.823345404893929e+03, 3.763058772416874e+03, 3.043535588601164e+00, 7.096384352070228e+03, 8.913413180390230e+02, -5.389920727745083e+02, 3.764142945276974e+03
3192, 3.896398596016942e-01, 1.689368053016782e-01, 7.416375663887129e-02, 0.000000000000000e+00, 0.000000000000000e+00, 0.000000000000000e+00, 3.971479543122703e+03, 3.965663909585542e+03, 2.656749058055279e+01, 7.496866801368694e+03, 9.045259795328101e+02, -5.116533712677564e+02, 3.961171323885493e+03
3193, 3.806187227599410e-01, 1.513485896244973e-01, 7.466755106373324e-02, 0.000000000000000e+00, 0.000000000000000e+00, 0.000000000000000e+00, 3.916708717947631e+03, 3.876958156848595e+03, 4.148944105833728e+01, 7.453257979289520e+03, 8.661122519312714e+02, -5.233827599964455e+02, 3.965695974589723e+03
3194, 4.827884914933777e-01, 1.759148759550962e-02, 7.353431709168393e-02, 0.000000000000000e+00, 0.000000000000000e+00, 0.000000000000000e+00, 1.042076235757883e+03, 1.262358191699361e+03, -6.264286522123587e+01, 1.728781195298177e+03, 1.647407089622344e+02, -4.012294913810771e+02, 9.720932740471263e+02
3195, 1.026088184172786e+00, 9.236978201820429e-01, 1.776152885620642e-02, 0.000000000000000e+00, 0.000000000000000e+00, 0.000000000000000e+00, -1.254731363388578e+03, -1.539938808661764e+03, -2.267482494679000e+01, -2.757026068573648e+03, 2.123146376697732e+02, -6.722033921063091e+02, 1.844482093541820e+03
3196, 4.016197968488675e-01, 3.075599242693545e-01, 6.915746442718966e-02, 0.000000000000000e+00, 0.000000000000000e+00, 0.000000000000000e+00, 4.547266515858477e+03, 4.558494604366781e+03, 5.383654545490754e+01, 8.633277796478342e+03, 1.083763646571428e+03, -4.042008590341346e+02, 4.546668803434043e+03
3197, 8.303551550204262e-01, 2.417964162027904e-01, 3.684820827479124e-02, 0.000000000000000e+00, 0.000000000000000e+00, 0.000000000000000e+00, -4.462055615660631e+02, -6.086217915524569e+02, -2.486660398068518e+01, -1.209764631370459e+03, 5.041667368648969e+02, -2.311814359638104e+01, 1.118658922418992e+03
3198, 6.268878925671637e-01, 3.700926451773840e-01, 6.152147663473448e-02, 0.000000000000000e+00, 0.000000000000000e+00, 0.000000000000000e+00, 2.130704767261186e+03, 2.046839199950268e+03, -3.528823515155376e+01, 3.639907646356922e+03, 7.893748034227237e+02, -2.846229915649527e+02, 2.127769061889084e+03
3199, 1.046993155124512e+00, 1.114436725252995e+00, 1.795956000667220e-02, 0.000000000000000e+00, 0.000000000000000e+00, 0.000000000000000e+00, -1.199414956913698e+03, -1.306975918591297e+03, -9.593974330356235e+01, -2.379323521980202e+03, 4.128815941010043e+02, 2.745811439395189e+02, 1.429004139792164e+03
3200, 6.284346037942005e-01, 7.493668013324131e-01, 5.689847910039541e-02, 0.000000000000000e+00, 0.000000000000000e+00, 0.000000000000000e+00, 3.538317398511912e+03, 3.484305697627550e+03, 1.707635013333400e+01, 6.402696550173037e+03, 9.800265386395172e+02, -2.589035173975783e+02, 3.383137467904557e+03
3201, 8.258402277871292e-01, 1.212705208826412e-01, 3.554560343884994e-02, 0.000000000000000e+00, 0.000000000000000e+00, 0.000000000000000e+00, -4.332760141624214e+02, -5.474889146453496e+02, -3.973763790614877e+00, -1.208866318789648e+03, 4.343437177728070e+02, -4.170615178798246e+01, 1.047488169949214e+03
3202, 3.659065225496305e-01, 4.262070019252005e-01, 5.927599911963614e-02, 0.000000000000000e+00, 0.000000000000000e+00, 0.000000000000000e+00, 5.480379630804494e+03, 5.727569530314287e+03, 1.865259267671004e+02, 1.134956125541048e+04, 7.443924996530400e+02, -2.365974185691138e+02, 5.915425997605745e+03
3203, 9.824014379058299e-01, 3.526339852256265e-01, 1.334016183533091e-02, 0.000000000000000e+00, 0.000000000000000e+00, 0.000000000000000e+00, 8.130185406773258e+01, -3.485135105522572e+02, -2.612932283864355e+02, -7.423563524913071e+02, 3.100582932957857e+02, 4.991565437637076e+02, 1.322813589056955e+03
3204, 5.763931334028458e-01, 1.950858592158144e-01, 6.594749423040003e-02, 0.000000000000000e+00, 0.000000000000000e+00, 0.000000000000000e+00, 2.113012421894724e+03, 2.011224670507535e+03, -1.777658622376875e+01, 3.630610934186609e+03, 7.478755927704415e+02, -2.399472669116986e+02, 2.078356257105949e+03
3205, 4.179650707372798e-01, 3.771453903707398e-01, 6.664411374860181e-02, 0.000000000000000e+00, 0.000000000000000e+00, 0.000000000000000e+00, 4.462393477072577e+03, 4.519305422304126e+03, 6.526574869641196e+01, 8.635859823005674e+03, 1.069402544345980e+03, -3.696313478008926e+02, 4.586618196590133e+03
3206, 8.237118376042695e-01, 1.241395249038279e+00, 4.204090724967142e-02, 0.000000000000000e+00, 0.000000000000000e+00, 0.000000000000000e+00, 3.879922993317138e+03, 3.726235084766824e+03, -8.667695549994954e+01, 6.970665129761948e+03, 1.000059875107165e+03, -4.204489168839694e+02, 3.688434145056346e+03
3207, 9.856172098087679e-01, 1.369417116445054e+00, 2.993287631075246e-02, 0.000000000000000e+00, 0.000000000000000e+00, 0.000000000000000e+00, 1.439101886387937e+03, 1.256161067123425e+03, 1.004652881631595e+01, 1.995353674884785e+03, 7.609968028277624e+02, -5.216563163708373e+01, 1.480020105539909e+03
3208, 4.667808257754278e-01, 2.070786725518989e-01, 7.216956871407358e-02, 0.000000000000000e+00, 0.000000000000000e+00, 0.000000000000000e+00, 3.419397210012397e+03, 3.288632252935965e+03, 5.652734023135927e-01, 6.088089438066409e+03, 8.952082593689855e+02, -3.204670018298101e+02, 3.193787852384930e+03
3209, 7.002364122779270e-01, 2.871357963916423e-01, 5.438834564258796e-02, 0.000000000000000e+00, 0.000000000000000e+00, 0.000000000000000e+00, 1.137519989671355e+03, 9.610167341793284e+02, -1.953264714906289e+01, 1.632234060705895e+03, 6.880775028173218e+02, -1.337716854466243e+02, 1.355874319175552e+03
3210, 4.973490043051130e-01, 3.811097410436455e-01, 6.777787130610986e-02, 0.000000000000000e+00, 0.000000000000000e+00, 0.000000000000000e+00, 3.514854771026025e+03, 3.488000461474349e+03, 7.489619331012450e+00, 6.482857355903072e+03, 9.848024137140044e+02, -3.076197763935804e+02, 3.476065247343907e+03
3211, 3.890846826601042e-01, 3.584925760209097e-01, 6.596743225020234e-02, 0.000000000000000e+00, 0.000000000000000e+00, 0.000000000000000e+00, 4.873902749048127e+03, 5.008956238586251e+03, 6.690006832319551e+01, 9.547627888851690e+03, 9.922631034486143e+02, -4.315669077192617e+02, 4.975608332910881e+03
3212, 1.697300883239145e-01, 2.587607823484592e-01, 3.544113529050763e-02, 0.000000000000000e+00, 0.000000000000000e+00, 0.000000000000000e+00, 4.613051076410267e+03, 4.348998594485367e+03, 1.113091380765875e+01, 8.226564940094771e+03, -1.082109044133693e+03, 2.866840465357998e+02, 4.223881902936628e+03
3213, 4.610458740621255e-01, 3.105187253636209e-01, 6.996898358191700e-02, 0.000000000000000e+00, 0.000000000000000e+00, 0.000000000000000e+00, 3.808307519682398e+03, 3.688129325875543e+03, 2.171023242616199e+01, 6.805032153586957e+03, 9.948771460695955e+02, -3.723373566788608e+02, 3.569538235540109e+03
3214, 6.764437268891513e-01, 1.655757405086693e-01, 5.621239916862705e-02, 0.000000000000000e+00, 0.000000000000000e+00, 0.000000000000000e+00, 1.245267601545845e+03, 1.134709179873096e+03, -3.003853866480318e+01, 2.010668005657372e+03, 6.556587101139802e+02, -9.243069002181359e+01, 1.414455610854287e+03
3215, 6.608169895139615e-01, 2.852431884335343e-01, 5.849410067250666e-02, 0.000000000000000e+00, 0.000000000000000e+00, 0.000000000000000e+00, 1.505391447747095e+03, 1.378284556902640e+03, -2.105330665212400e+01, 2.428299240332750e+03, 7.366480062463968e+02, -1.566468024557319e+02, 1.639548150561400e+03
3216, 6.698394107418736e-01, 3.029045570133859e-01, 5.766107963031374e-02, 0.000000000000000e+00, 0.000000000000000e+00, 0.000000000000000e+00, 1.526913175660549e+03, 1.405894890298912e+03, -3.365433282743288e+01, 2.409779750132654e+03, 7.628994013230837e+02, -1.774387948787027e+02, 1.656755782399220e+03
3217, 9.346999313189439e-01, 1.195130373959163e+00, 3.440775003402031e-02, 0.000000000000000e+00, 0.000000000000000e+00, 0.000000000000000e+00, 1.306151969801450e+03, 1.050278735269944e+03, -4.193941869536491e+01, 2.054140498192381e+03, 7.029331304797038e+02, -8.473579660191123e+01, 1.524962413596702e+03
3218, 8.801086692879257e-01, 2.269854915293229e-01, 2.875220258672544e-02, 0.000000000000000e+00, 0.000000000000000e+00, 0.000000000000000e+00, -8.367763950671673e+02, -8.946894558751434e+02, -2.906000304228540e-01, -1.779761278618416e+03, 5.913731834566921e+02, -6.751629791155858e+01, 1.378697067323889e+03
3219, 8.107428868576256e-01, 2.408437321856377e-01, 3.972978364560435e-02, 0.000000000000000e+00, 0.000000000000000e+00, 0.000000000000000e+00, -2.063622485262852e+02, -3.291432825815180e+02, -1.490430000576537e+01, -7.744045142901917e+02, 5.253975910761845e+02, -8.101715892939698e+01, 1.056639967995356e+03
3220, 1.802268887859644e-01, 2.089667687514523e-01, 4.767917658946521e-02, 0.000000000000000e+00, 0.000000000000000e+00, 0.000000000000000e+00, 5.202556301348583e+03, 5.133347424940940e+03, 6.857935762199017e+01, 1.003430333890493e+04, -1.048959259895705e+03, 8.831422477919249e+01, 5.198405838869916e+03
3221, 3.303146455538968e-01, 1.660199487131583e-01, 7.263162730637861e-02, 0.000000000000000e+00, 0.000000000000000e+00, 0.000000000000000e+00, 4.439190842493167e+03, 4.460695696541332e+03, 7.186848211115853e+01, 8.578067536216462e+03, 8.173315963259881e+02, -4.959191320384845e+02, 4.449623828275632e+03
3222, 9.990665020750642e-01, 4.223754318251734e-01, 1.178477915003130e-02, 0.000000000000000e+00, 0.000000000000000e+00, 0.000000000000000e+00, -3.419974816673738e+03, -2.778314106314217e+03, 8.002180519438382e+01, -5.599741221135725e+03, 1.417252144460153e+03, -4.222331826677283e+02, 3.625140614822091e+03
3223, 9.719164500661247e-01, 1.454412863686890e+00, 3.153361030926726e-02, 0.000000000000000e+00, 0.000000000000000e+00, 0.000000000000000e+00, 2.249741099465500e+03, 2.229972163371184e+03, 9.688343709382727e+01, 3.557128313343630e+03, 7.667842270426660e+02, -8.007741243138204e+01, 1.883286574514542e+03
3224, 5.817549623373438e-01, 2.813721497869448e-01, 6.523103805857208e-02, 0.000000000000000e+00, 0.000000000000000e+00, 0.000000000000000e+00, 2.391346202800059e+03, 2.281201913383428e+03, -1.725358919683595e+01, 4.141682290667492e+03, 8.661482936391679e+02, -1.942307750121876e+02, 2.373458689391656e+03
3225, 2.904591997554000e-01, 3.532459704244166e-01, 5.451938013456493e-02, 0.000000000000000e+00, 0.000000000000000e+00, 0.000000000000000e+00, 5.859822875489635e+03, 6.076529312960492e+03, 2.080439224007377e+02, 1.200192828614184e+04, 2.521157002192611e+02, 1.676249720549055e+01, 6.063230452264201e+03
3226, 2.995067179095527e-01, 3.709170167613370e-01, 5.430165697462280e-02, 0.000000000000000e+00, 0.000000000000000e+00, 0.000000000000000e+00, 5.474250350497465e+03, 5.909215311171709e+03, 1.775092077822785e+02, 1.165667762162551e+04, 1.654920626360728e+02, -5.932453951451510e+01, 5.992471265916876e+03
3227, 7.396101279984035e-01, 2.890071722057829e-01, 4.982772997117694e-02, 0.000000000000000e+00, 0.000000000000000e+00, 0.000000000000000e+00, 6.908264703174252e+02, 5.253100214847672e+02, -4.090483270889365e+01, 8.493138250271264e+02, 6.050938356345854e+02, -8.898477111526894e+01, 1.098151326015930e+03
3228, 9.369005012519431e-01, 9.365985170501748e-01, 3.166785240471562e-02, 0.000000000000000e+00, 0.000000000000000e+00, 0.000000000000000e+00, 1.266954023569205e+02, 1.995376054086840e+01, -2.876174701769756e+01, -1.387556091771766e+02, 4.791729208969882e+02, -1.172643459231834e+02, 8.866103427892890e+02
3229, 9.678572421147472e-01, 2.135266001876782e-01, 1.290107954780882e-02, 0.000000000000000e+00, 0.000000000000000e+00, 0.000000000000000e+00, -8.753486215419684e+02, -1.008798470852124e+03, -1.807536037892918e+02, -1.229074938057204e+03, 1.083816109533391e+02, -4.692582517068338e+02, 9.431816806173557e+02
3230, 7.157441139908195e-01, 1.674411489355452e-01, 5.157810336630685e-02, 0.000000000000000e+00, 0.000000000000000e+00, 0.000000000000000e+00, 7.835886478331386e+02, 6.440527737975493e+02, -1.141530027378723e+01, 1.087477463453760e+03, 5.855911843286309e+02, -8.101021761945931e+01, 1.096837300016255e+03
3231, 8.876166901836904e-01, 2.790017959899921e-01, 2.849359752399592e-02, 0.000000000000000e+00, 0.000000000000000e+00, 0.000000000000000e+00, -1.246715839194047e+03, -1.470810908934528e+03, 2.743746594841341e+01, -3.256213336773018e+03, 4.785585567162801e+02, -9.317886001285924e+00, 2.080277409487873e+03
3232, 7.800851334061596e-01, 4.806428226644743e-01, 4.670283746936671e-02, 0.000000000000000e+00, 0.000000000000000e+00, 0.000000000000000e+00, 7.410039080956320e+02, 5.658482978727975e+02, -3.672606468653530e+01, 8.705316841511641e+02, 6.520789228419172e+02, -1.456586856994682e+02, 1.188890652542711e+03
3233, 2.398093898311870e-01, 1.787555549617858e-01, 6.324453861466506e-02, 0.000000000000000e+00, 0.000000000000000e+00, 0.000000000000000e+00, 5.399297761952637e+03, 5.564217354054334e+03, 1.422084576273212e+02, 1.098279467149744e+04, 3.020924372368034e+02, -3.151323340464598e+02, 5.560052391838231e+03
3234, 5.476746891425084e-01, 1.765897486889406e-01, 6.817235105076952e-02, 0.000000000000000e+00, 0.000000000000000e+00, 0.000000000000000e+00, 2.487310449513445e+03, 2.349597399687970e+03, -2.472621058898742e+01, 4.223896991262375e+03, 7.877787633934992e+02, -2.687342448449945e+02, 2.313897774257699e+03
3235, 5.082159543493330e-01, 1.747163248151501e-01, 7.070711310289053e-02, 0.000000000000000e+00, 0.000000000000000e+00, 0.000000000000000e+00, 2.972455148778640e+03, 2.885776899065814e+03, -2.497589363811541e+01, 5.306657664307743e+03, 8.509322196643209e+02, -3.158747205100827e+02, 2.851630747720782e+03
3236, 5.172146230025855e-01, 1.922491739169991e-01, 7.002716500704871e-02, 0.000000000000000e+00, 0.000000000000000e+00, 0.000000000000000e+00, 2.924335695257902e+03, 2.823694774334729e+03, 5.302214926971605e-01, 5.143243175687383e+03, 8.449667756867578e+02, -3.296194215692066e+02, 2.761312402213608e+03
3237, 9.282336912666436e-01, 1.332283198916650e+00, 3.531837467153708e-02, 0.000000000000000e+00, 0.000000000000000e+00, 0.000000000000000e+00, 1.993956812592995e+03, 1.855224763901411e+03, -6.583622748037742e+00, 3.215213386363008e+03, 6.305308165177363e+02, -3.501012247790025e+02, 1.800192099067242e+03
3238, 9.085735721981866e-01, 1.331379748830278e+00, 3.679838894124311e-02, 0.000000000000000e+00, 0.000000000000000e+00, 0.000000000000000e+00, 2.485308235083632e+03, 2.316154501373728e+03, -6.489603525376094e+01, 4.267503888269646e+03, 6.547609467622029e+02, -3.679691571343218e+02, 2.282821381754892e+03
3239, 6.797233201062222e-01, 9.707935869303413e-02, 5.528914273285789e-02, 0.000000000000000e+00, 0.000000000000000e+00, 0.000000000000000e+00, 1.077142271877393e+03, 9.512856252724155e+02, -5.477576519441303e+01, 1.636429718510007e+03, 5.925812052061071e+02, -1.432111340956510e+02, 1.234106673028015e+03
3240, 6.690460632793009e-01, 1.136739647234002e-01, 5.667001911010074e-02, 0.000000000000000e+00, 0.000000000000000e+00, 0.000000000000000e+00, 1.251132039730736e+03, 1.113088359467922e+03, -2.655517491894780e+01, 1.987274856627407e+03, 6.227543235008833e+02, -1.487289738660320e+02, 1.376418346810411e+03
3241, 7.189213590651335e-01, 9.896938213335713e-02, 5.045072734457460e-02, 0.000000000000000e+00, 0.000000000000000e+00, 0.000000000000000e+00, 6.839224933611818e+02, 5.559880625251571e+02, -3.080805228399932e+01, 8.877833329695845e+02, 5.028742982271005e+02, -8.712072777533351e+01, 9.318113716505848e+02
3242, 6.008726533700461e-01, 9.330000206746490e-02, 6.376787801703766e-02, 0.000000000000000e+00, 0.000000000000000e+00, 0.000000000000000e+00, 1.837086772316591e+03, 1.705383477688649e+03, -7.821380062852867e+01, 3.116425068219572e+03, 5.610381132996147e+02, -2.919778911922349e+02, 1.743829710172344e+03
3243, 6.100007393508120e-01, 1.108987416624775e-01, 6.293150112776374e-02, 0.000000000000000e+00, 0.000000000000000e+00, 0.000000000000000e+00, 1.836621659142019e+03, 1.711603747154109e+03, -4.380223089047369e+01, 3.200947349711168e+03, 6.172767505609091e+02, -2.391062294397508e+02, 1.835195425801829e+03
3244, 3.715783948298195e-01, 1.337445042540115e-01, 7.516805205018831e-02, 0.000000000000000e+00, 0.000000000000000e+00, 0.000000000000000e+00, 3.885731014956958e+03, 3.838038516504791e+03, 7.637536156465012e+00, 7.397742253279442e+03, 8.106147577086635e+02, -5.796914424874177e+02, 3.934918609153181e+03
3245, 1.061950894985129e+00, 1.218554164499547e+00, 1.745444473808953e-02, 0.000000000000000e+00, 0.000000000000000e+00, 0.000000000000000e+00, -1.794885026996303e+02, -2.574939500644062e+02, 2.254451391111573e+01, -3.792203442524372e+02, 2.421848992168501e+02, -1.736050354276458e+01, 4.569321497701877e+02
3246, 1.081524723608158e+00, 1.219531289329969e+00, 1.418149048482582e-02, 0.000000000000000e+00, 0.000000000000000e+00, 0.000000000000000e+00, -2.806222944505043e+02, -3.892799971253900e+02, -3.419143105245064e+01, -6.544671919757443e+02, 4.580356413010931e+02, -9.318951430092301e+01, 8.774368015645917e+02
3247, 1.101087652847076e+00, 1.220569024498976e+00, 1.073344888940263e-02, 0.000000000000000e+00, 0.000000000000000e+00, 0.000000000000000e+00, -1.532417414655620e+03, -1.784309894048842e+03, -1.358620548388319e+00, -3.383531971203378e+03, 6.435010194441358e+01, 6.552994952306366e+02, 2.079536899674277e+03
3248, 5.614243870550508e-01, 6.944006038450534e-01, 5.805943809879083e-02, 0.000000000000000e+00, 0.000000000000000e+00, 0.000000000000000e+00, 4.193633408761811e+03, 4.208680247988643e+03, 6.945304326286333e+01, 7.907938735740350e+03, 9.211217871454598e+02, -3.251006209521123e+02, 4.076437215442594e+03
3249, 1.917839400910529e-01, 1.586900837374300e-01, 5.697874379020607e-02, 0.000000000000000e+00, 0.000000000000000e+00, 0.000000000000000e+00, 5.745060321001899e+03, 5.838649365026172e+03, 8.531046174551493e+01, 1.108377333585506e+04, -4.285591322004864e+02, -2.490775181456755e+01, 5.346555350791034e+03
3250, 6.613998061398452e-01, 8.888887223047026e-01, 5.278481524624274e-02, 0.000000000000000e+00, 0.000000000000000e+00, 0.000000000000000e+00, 3.961348678822120e+03, 3.949171269926803e+03, -2.077189553022745e+01, 7.231958774078449e+03, 9.180201056888783e+02, -3.450215075157320e+02, 3.691011097405588e+03
3251, 5.551084703044863e-01, 4.183597333132723e-01, 6.544934169722588e-02, 0.000000000000000e+00, 0.000000000000000e+00, 0.000000000000000e+00, 3.074109602025063e+03, 3.005003424687307e+03, -1.600726958263644e+01, 5.499219456080333e+03, 9.089830232963435e+02, -3.426563793616437e+02, 2.980819154281779e+03
3252, 3.847213599105515e-01, 1.677711705330914e-02, 7.819135335269355e-02, 0.000000000000000e+00, 0.000000000000000e+00, 0.000000000000000e+00, 1.063692694119598e+03, 1.299275437877261e+03, -6.355583019863396e+01, 1.714857371382011e+03, 1.409175059340809e+02, -4.241458417178637e+02, 9.682467924013597e+02
3253, 1.089271999216074e+00, 1.460057024458620e+00, 1.739001632077281e-02, 0.000000000000000e+00, 0.000000000000000e+00, 0.000000000000000e+00, -3.356188710953529e+02, -5.127330836985212e+02, -7.705058204657105e+00, -9.320044425890869e+02, 1.887732904168051e+01, -2.813506764047427e+02, 7.212063553867358e+02
3254, 8.816179751306474e-01, 1.926447230950991e-01, 2.784872459147984e-02, 0.000000000000000e+00, 0.000000000000000e+00, 0.000000000000000e+00, -6.017644679256820e+02, -7.134381911052240e+02, 1.050432229816216e+01, -1.442188117740667e+03, 4.019589946150265e+02, -3.404015564475903e+01, 1.055201408547061e+03
3255, 4.899709458632782e-01, 3.291743500522920e-01, 6.912348952033884e-02, 0.000000000000000e+00, 0.000000000000000e+00, 0.000000000000000e+00, 3.509495964546448e+03, 3.412066305987326e+03, -1.917238665582536e+01, 6.269399384162338e+03, 9.250243167113595e+02, -3.751983762523818e+02, 3.299377219595120e+03
3256, 7.761458886644002e-01, 1.360425807030039e-01, 4.317046572160983e-02, 0.000000000000000e+00, 0.000000000000000e+00, 0.000000000000000e+00, 1.951411203996484e+02, 1.691679706756089e+01, -2.141021702579018e+01, -1.453444260012175e+02, 5.026811948872714e+02, -7.227437349911342e+01, 9.285055783767018e+02
3257, 8.619506914114414e-01, 4.155256965902523e-01, 3.487280787908899e-02, 0.000000000000000e+00, 0.000000000000000e+00, 0.000000000000000e+00, -3.422309836450747e+02, -5.045906804888033e+02, -2.357369697908971e+01, -1.211266672467762e+03, 4.700632609888955e+02, -7.174259364444463e+01, 1.149118746437417e+03
3258, 1.041064727465132e+00, 1.027949815174557e+00, 1.727891125678921e-02, 0.000000000000000e+00, 0.000000000000000e+00, 0.000000000000000e+00, -1.803685540220565e+03, -2.287143384326601e+03, -5.727295477122858e+00, -4.791479282315467e+03, 1.225213809448393e+03, -2.336899582060249e+02, 3.519026661332787e+03
3259, 9.691836310367220e-01, 1.299942079586617e+00, 3.129618041698325e-02, 0.000000000000000e+00, 0.000000000000000e+00, 0.000000000000000e+00, 1.579798513323261e+03, 1.502085662376770e+03, -1.552282995460312e+01, 2.895144203553316e+03, 5.100270874840857e+02, -2.221459280414585e+02, 1.663594013052784e+03
3260, 7.353757441710148e-01, 1.683996170302084e-01, 4.910709463000639e-02, 0.000000000000000e+00, 0.000000000000000e+00, 0.000000000000000e+00, 6.327092060011904e+02, 4.908777494590127e+02, -1.463695572240338e+01, 7.641303526476424e+02, 5.653926503654578e+02, -6.679240033199977e+01, 1.014426081785496e+03
3261, 1.079943927989374e+00, 1.253771049002050e+00, 1.513443790648822e-02, 0.000000000000000e+00, 0.000000000000000e+00, 0.000000000000000e+00, -4.047005497270042e+02, -2.320542154623500e+02, 4.395103685271295e+01, -5.714533727763037e+02, 4.348928872105313e+02, -5.339481412464855e+01, 8.174020392953008e+02
3262, 8.168038452235941e-01, 1.036743981698967e-01, 3.664790345060779e-02, 0.000000000000000e+00, 0.000000000000000e+00, 0.000000000000000e+00, -5.048627746172702e+02, -6.449712740786373e+02, -4.644540913289663e+01, -1.205284048540891e+03, 4.352724325108241e+02, -2.006803682812291e+01, 9.940580248720330e+02
3263, 9.977044420138735e-01, 1.584092938642239e+00, 2.920181889990487e-02, 0.000000000000000e+00, 0.000000000000000e+00, 0.000000000000000e+00, 8.945532441221962e+02, 9.145357297309804e+02, -1.102650712446931e+02, 7.229022101213785e+02, 9.328977886194667e+02, -7.754393917454364e+02, 2.117683203922620e+03
3264, 3.637194585245590e-01, 2.712485993969134e-01, 6.910213483559507e-02, 0.000000000000000e+00, 0.000000000000000e+00, 0.000000000000000e+00, 4.774736618766376e+03, 4.886704374197462e+03, 7.558208779562116e+01, 9.427728062872318e+03, 9.450263390094522e+02, -5.150989788106442e+02, 4.963287652686428e+03
3265, 1.060649569895436e+00, 1.028919453278899e+00, 1.389434750044293e-02, 0.000000000000000e+00, 0.000000000000000e+00, 0.000000000000000e+00, -1.396134368331049e+03, -1.588461337408106e+03, 3.935670543996260e+01, -2.341450252053173e+03, -4.826786396951874e+02, -1.488248973305936e+02, 1.232408801069950e+03
3266, 9.094752788264798e-01, 1.519886669267485e+00, 3.405086123279231e-02, 0.000000000000000e+00, 0.000000000000000e+00, 0.000000000000000e+00, 2.693662871617429e+03, 2.946829637077527e+03, -8.269543891678647e+01, 4.614086752196939e+03, 9.596353280090765e+02, -1.295380356556764e+03, 3.329141043824445e+03
3267, 1.057578557715244e+00, 1.097720693592922e+00, 1.584865467694618e-02, 0.000000000000000e+00, 0.000000000000000e+00, 0.000000000000000e+00, -1.850189863087276e+02, -2.596406040174994e+02, 5.984231888783974e+00, -4.294522997441198e+02, 2.370878127359356e+02, -1.509147909518619e+02, 5.330489373385651e+02
3268, 1.077462103634288e+00, 1.099108509860283e+00, 1.238100595866921e-02, 0.000000000000000e+00, 0.000000000000000e+00, 0.000000000000000e+00, -6.233928756269272e+03, -6.247553031893072e+03, 2.748889983907917e+01, -1.224688752572702e+04, 2.829900620630688e+03, 1.645642110957749e+02, 7.757735507349885e+03
3269, 1.096709873923119e+00, 1.099669805885359e+00, 8.841580649885439e-03, 0.000000000000000e+00, 0.000000000000000e+00, 0.000000000000000e+00, -6.956411679430865e+03, -7.201534681728901e+03, -2.235321170884685e+02, -1.426135249667026e+04, -2.632530804625664e+03, 1.511507945983781e+03, 8.912135577471325e+03
3270, 1.024173082383118e+00, 5.091252582523350e-01, 8.983652842907992e-03, 0.000000000000000e+00, 0.000000000000000e+00, 0.000000000000000e+00, -7.845450344201964e+03, -7.844975206882487e+03, -3.080487044804696e+02, -1.539799137905423e+04, 1.897525770376116e+03, 2.054459036986625e+03, 8.988512934166256e+03
3271, 1.112874106574232e+00, 1.393181591467449e+00, 1.228365063890855e-02, 0.000000000000000e+00, 0.000000000000000e+00, 0.000000000000000e+00, -1.622372064717844e+02, -7.515501478247580e+01, 3.677549930400730e+01, -3.392675046190875e+02, 3.141878513897602e+02, -3.824966221350895e+02, 8.907578507618077e+02
3272, 1.131423543273128e+00, 1.396053251346808e+00, 9.037744299644686e-03, 0.000000000000000e+00, 0.000000000000000e+00, 0.000000000000000e+00, -5.308862679257923e+03, -5.128779745890197e+03, 3.720691336460086e+01, -1.006345917252694e+04, 1.633649720966801e+03, -1.528959890079102e+03, 6.206333997799933e+03
3273, 4.797067521101426e-01, 5.353777807506266e-01, 6.196502979676433e-02, 0.000000000000000e+00, 0.000000000000000e+00, 0.000000000000000e+00, 4.511686594697928e+03, 4.524011322893928e+03, 4.639384501866472e+01, 8.652894120295294e+03, 1.042318815597019e+03, -5.378313836310550e+02, 4.607845799296912e+03
3274, 7.990447652540156e-02, 8.207837191985631e-02, 3.615590114586090e-02, 0.000000000000000e+00, 0.000000000000000e+00, 0.000000000000000e+00, 4.043406140989510e+03, 3.253914707825545e+03, -2.215971848591546e+02, 6.296327839082924e+03, -1.159558761049865e+03, 1.043038178411957e+02, 3.419254105540727e+03
3275, 5.251461066328393e-01, 6.237260536403384e-01, 5.983746393739243e-02, 0.000000000000000e+00, 0.000000000000000e+00, 0.000000000000000e+00, 4.524327247015362e+03, 4.579912811628019e+03, 7.484627047779075e+01, 8.728405485168872e+03, 1.110863639496658e+03, -4.820024610271230e+02, 4.675416196613397e+03
3276, 1.080208026467769e+00, 1.029891225045799e+00, 1.035431766158695e-02, 0.000000000000000e+00, 0.000000000000000e+00, 0.000000000000000e+00, 1.690051814067243e+02, -2.713558007002937e+02, -1.667317362061234e+02, 3.477845560050704e+02, 2.279639384816733e+02, -6.990954455959215e+01, 7.473757026445143e+02
3277, 4.768599310299655e-02, 7.600637567003068e-02, 1.486010601980963e-02, 0.000000000000000e+00, 0.000000000000000e+00, 0.000000000000000e+00, 2.307210290533963e+03, 1.238263953914218e+03, -7.502622795565350e+01, 2.332521802777593e+03, -1.021897828104219e+03, -2.942578158216613e+01, 2.079099213427115e+03
3278, 8.432440149969339e-01, 1.465098686167662e+00, 3.443634081927364e-02, 0.000000000000000e+00, 0.000000000000000e+00, 0.000000000000000e+00, 6.856797153338735e+03, 6.931238772172524e+03, 9.671340880266102e+01, 1.303592690890416e+04, 1.582643430218474e+03, -7.451326708126255e+02, 6.850927739514200e+03
3279, 6.371315989921024e-01, 1.636962414629143e-01, 6.041676036497003e-02, 0.000000000000000e+00, 0.000000000000000e+00, 0.000000000000000e+00, 1.631912537158112e+03, 1.527140682241669e+03, -2.835897430976383e+01, 2.683147345534385e+03, 6.479502927005419e+02, -1.551627946992176e+02, 1.600115465530947e+03
3280, 9.792950678401551e-01, 8.696922904741889e-01, 2.443130010265213e-02, 0.000000000000000e+00, 0.000000000000000e+00, 0.000000000000000e+00, -4.351039896344888e+02, -5.290792140664398e+02, 1.907637065117135e+01, -1.042783566035438e+03, 3.136957873129178e+02, -8.649355506250697e+01, 7.998432694560917e+02
3281, 8.174796714605754e-01, 7.411775837081396e-01, 4.440098662903227e-02, 0.000000000000000e+00, 0.000000000000000e+00, 0.000000000000000e+00, 1.120593821094885e+03, 9.430747690958466e+02, -3.565738904434181e+01, 1.583419435431693e+03, 6.561286159569561e+02, -2.163260243456902e+02, 1.328006176208383e+03
3282, 1.036607636925566e+00, 9.069898243145904e-01, 1.559153293095552e-02, 0.000000000000000e+00, 0.000000000000000e+00, 0.000000000000000e+00, -1.523321104489371e+03, -1.737836022889774e+03, -4.741047119681554e+00, -3.502601180303704e+03, -8.296053758688624e+02, 3.028107610543025e+02, 2.424637479583876e+03
3283, 4.990151163149418e-01, 3.467471707618710e-01, 6.854558247070579e-02, 0.000000000000000e+00, 0.000000000000000e+00, 0.000000000000000e+00, 3.515809436955121e+03, 3.437401195934612e+03, -1.332632818478074e+01, 6.369646847033408e+03, 9.626372716400901e+02, -3.589842145033132e+02, 3.397271480028262e+03
3284, 1.032177733787278e+00, 1.422976999964433e+00, 2.489222775178630e-02, 0.000000000000000e+00, 0.000000000000000e+00, 0.000000000000000e+00, 8.532653858516134e+02, 8.087238547104351e+02, -6.818503359563525e+01, 1.097666417956089e+03, 4.245360346184646e+02, -2.423668354552906e+02, 8.963632009104407e+02
3285, 2.855272272515821e-01, 1.567551991047728e-02, 7.768303651349623e-02, 0.000000000000000e+00, 0.000000000000000e+00, 0.000000000000000e+00, 1.385116817999423e+03, 1.714940647554822e+03, -4.941277728706294e+01, 2.301717140195301e+03, 1.367289005371362e+02, -5.616225420336310e+02, 1.286970148961784e+03
3286, 1.098227232231238e+00, 1.477633429667551e+00, 1.629833549770307e-02, 0.000000000000000e+00, 0.000000000000000e+00, 0.000000000000000e+00, -9.768341363565033e+01, -1.913961068053543e+02, -2.588681862954883e+01, -3.478907038172440e+02, 2.569865613887603e+02, -1.628856080926423e+02, 5.724246520007579e+02
3287, 1.108800387179043e+00, 1.461020954506043e+00, 1.430059715373602e-02, 0.000000000000000e+00, 0.000000000000000e+00, 0.000000000000000e+00, -2.010667956563998e+02, -2.565598761837090e+02, -4.505675607442402e+01, -6.300454717181004e+02, 2.452973164175428e+02, 9.368542856892408e+01, 6.133762067394636e+02
3288, 2.459100982940610e-01, 1.587598222709163e-02, 7.555420940684041e-02, 0.000000000000000e+00, 0.000000000000000e+00, 0.000000000000000e+00, 1.611010688851917e+03, 1.936814234480183e+03, -2.253061998162604e+01, 2.732949704223008e+03, 8.455101200257515e+01, -6.058997061893248e+02, 1.457283865501980e+03
3289, 5.615344218321130e-01, 9.142414398510733e-02, 6.733122087621896e-02, 0.000000000000000e+00, 0.000000000000000e+00, 0.000000000000000e+00, 2.118452340744511e+03, 1.963483776672618e+03, -4.205916348944082e+01, 3.604933518210737e+03, 5.872613059290354e+02, -4.032705074882217e+02, 1.997952739946034e+03
3290, 9.454141289036433e-01, 1.178436528615715e+00, 3.311307147175133e-02, 0.000000000000000e+00, 0.000000000000000e+00, 0.000000000000000e+00, 1.014228011355190e+03, 8.482435667036704e+02, -6.614706454073230e+01, 1.463932516440339e+03, 6.472327013736794e+02, -2.098024552824676e+02, 1.306268331027792e+03
3291, 9.651448142250786e-01, 1.179322042100076e+00, 3.077528276658886e-02, 0.000000000000000e+00, 0.000000000000000e+00, 0.000000000000000e+00, 5.816699869320128e+02, 4.065340688394321e+02, -1.464309784333645e+01, 5.964882691980146e+02, 5.811572349115274e+02, -1.476383470197815e+02, 1.054871122607043e+03
3292, 1.724265075906737e-01, 1.573939176990659e-01, 5.288151761990340e-02, 0.000000000000000e+00, 0.000000000000000e+00, 0.000000000000000e+00, 5.440610301089021e+03, 5.544820630508421e+03, 9.062257774730759e+01, 1.055890713123865e+04, -7.047352089245310e+02, 1.489340717656947e+02, 5.220687637431085e+03
3293, 8.130874332949375e-01, 1.258029568993161e+00, 4.182333551422247e-02, 0.000000000000000e+00, 0.000000000000000e+00, 0.000000000000000e+00, 3.883436351774143e+03, 3.828822561912225e+03, 2.617219794738223e+01, 7.586913726438341e+03, 1.039290970571676e+03, -2.273927057409802e+02, 4.161555323438009e+03
3294, 9.262605129993899e-01, 9.533662773696712e-01, 3.328806489799858e-02, 0.000000000000000e+00, 0.000000000000000e+00, 0.000000000000000e+00, 5.383943613929588e+02, 3.726972919880731e+02, -3.214060379612746e+01, 4.945291078283154e+02, 5.340908237793022e+02, -1.418650956894480e+02, 9.702301432202172e+02
3295, 9.326205143035047e-01, 1.452413789259899e+00, 3.437689169063301e-02, 0.000000000000000e+00, 0.000000000000000e+00, 0.000000000000000e+00, 2.603481108220078e+03, 2.245656077085337e+03, -9.923625242975366e+00, 3.897909472845687e+03, 7.936610917079686e+02, -3.028604319225111e+02, 2.105213755913582e+03
3296, 3.675057193604895e-01, 2.024859962680099e-01, 7.249640688428702e-02, 0.000000000000000e+00, 0.000000000000000e+00, 0.000000000000000e+00, 4.265175235610795e+03, 4.246988865492538e+03, 3.535886196288557e+01, 8.096187123622971e+03, 8.996359771465891e+02, -4.868846412118815e+02, 4.229611142091318e+03
3297, 8.932692563278435e-01, 1.450604796177922e+00, 3.598687436134392e-02, 0.000000000000000e+00, 0.000000000000000e+00, 0.000000000000000e+00, 3.453372782863609e+03, 3.437865218768318e+03, -1.316212870264959e+02, 6.065403553685868e+03, 7.490731444041492e+02, -7.639123077134490e+02, 3.217054821586080e+03
3298, 1.612265772710534e-01, 2.075075826740766e-01, 4.215841703820420e-02, 0.000000000000000e+00, 0.000000000000000e+00, 0.000000000000000e+00, 4.673314008965649e+03, 4.471897219378034e+03, 3.378870107624864e+01, 8.195217303451886e+03, -1.130708693173015e+03, 2.447561521261204e+02, 4.143958275740400e+03
3299, 1.515589087573515e-01, 2.235508510735139e-01, 3.548409749536626e-02, 0.000000000000000e+00, 0.000000000000000e+00, 0.000000000000000e+00, 4.126876752834611e+03, 3.727536091478860e+03, -3.341477691816908e+01, 6.746390918926405e+03, -1.170482223688411e+03, 1.464468211322803e+02, 3.499311577125695e+03
3300, 2.969073522544365e-01, 2.162306183877333e-01, 6.722939676471824e-02, 0.000000000000000e+00, 0.000000000000000e+00, 0.000000000000000e+00, 5.005392974723110e+03, 5.189709316326285e+03, 1.183193771815405e+02, 9.938090872499835e+03, 7.433027998773132e+02, -4.531295223885525e+02, 5.076591268548957e+03
3301, 1.056211455647992e+00, 9.079769268567883e-01, 1.207822987916522e-02, 0.000000000000000e+00, 0.000000000000000e+00, 0.000000000000000e+00, -1.233001957346992e+03, -1.115225571636259e+03, 7.961277394590661e+01, -1.523963083523688e+03, 5.685257745419472e+02, 3.752941654800753e+01, 1.060991340870160e+03
3302, 8.325471731651383e-01, 1.481574686527895e+00, 3.255872542907658e-02, 0.000000000000000e+00, 0.000000000000000e+00, 0.000000000000000e+00, 9.417734594355741e+03, 9.701837659542694e+03, 1.950213377227671e+02, 1.831316154065863e+04, 1.349504576167054e+03, 4.574424146023571e+01, 9.070059670351577e+03
3303, 1.518822158336458e-01, 2.566893950494524e-01, 2.821481675264206e-02, 0.000000000000000e+00, 0.000000000000000e+00, 0.000000000000000e+00, 4.212646092580764e+03, 3.948385159095646e+03, 1.813572875592475e+02, 7.166253526037759e+03, -1.013792092219556e+03, 5.513494811572974e+02, 3.697040321197930e+03
3304, 6.706309547092328e-01, 4.927869006510091e-01, 5.775988720418789e-02, 0.000000000000000e+00, 0.000000000000000e+00, 0.000000000000000e+00, 1.874691467412722e+03, 1.752761970800831e+03, -1.214102636715402e+01, 3.070209387347627e+03, 7.764661780401256e+02, -2.456309324334788e+02, 1.892100381213046e+03
3305, 6.657052545493740e-01, 1.822734203284508e-01, 5.751091995195707e-02, 0.000000000000000e+00, 0.000000000000000e+00, 0.000000000000000e+00, 1.373679586007834e+03, 1.277688627358082e+03, -4.197677042301390e+01, 2.252399340273581e+03, 6.630711022137236e+02, -1.229398003750628e+02, 1.495102141448130e+03
3306, 8.197769303667569e-01, 2.584737698288847e-01, 3.867790993415915e-02, 0.000000000000000e+00, 0.000000000000000e+00, 0.000000000000000e+00, -1.506480892104268e+02, -2.978183549796566e+02, -1.954330246810936e+01, -7.295737650253662e+02, 4.913146109681695e+02, -6.605979439522335e+01, 1.004998025792670e+03
3307, 8.288636596463395e-01, 2.761225497700190e-01, 3.761087072101602e-02, 0.000000000000000e+00, 0.000000000000000e+00, 0.000000000000000e+00, -2.165217221220663e+02, -3.891733326499134e+02, -2.059902188470345e+01, -9.346255329578016e+02, 4.672114274046670e+02, -6.027728696646844e+01, 1.043327584730771e+03
3308, 4.252758883950591e-01, 4.292809598407882e-01, 6.440199864761639e-02, 0.000000000000000e+00, 0.000000000000000e+00, 0.000000000000000e+00, 4.533976173287048e+03, 4.604469811675041e+03, 8.362059359257400e+01, 8.805008458924551e+03, 1.048856265991122e+03, -3.930390270686480e+02, 4.661579150252193e+03
3309, 7.448552143749627e-01, 1.013682564508275e+00, 4.868920309347251e-02, 0.000000000000000e+00, 0.000000000000000e+00, 0.000000000000000e+00, 3.287056685264185e+03, 3.160274521062158e+03, -5.647512586090039e+01, 5.833249669681137e+03, 9.160197484772798e+02, -4.309434916862259e+02, 3.147374465407405e+03
3310, 9.366999840264060e-01, 4.009736928653585e-02, 1.482192793031441e-02, 0.000000000000000e+00, 0.000000000000000e+00, 0.000000000000000e+00, -3.418920139362166e+03, -3.403133274280665e+03, 1.409276292876090e+02, -7.099557990932485e+03, -5.262957566579996e+02, -1.846221170568180e+03, 4.972081178458255e+03
3311, 9.236905446721120e-01, 1.258884287782790e-01, 1.914758508753774e-02, 0.000000000000000e+00, 0.000000000000000e+00, 0.000000000000000e+00, -2.246538982821367e+03, -2.269211311664395e+03, 5.183226946439166e+01, -4.586351535986067e+03, 7.592614013367260e+02, -7.255405321701485e+02, 2.956164472661158e+03
3312, 6.176550458200878e-01, 7.660618329028960e-01, 5.644774892889314e-02, 0.000000000000000e+00, 0.000000000000000e+00, 0.000000000000000e+00, 3.627504911440950e+03, 3.626901991142409e+03, -4.976163975703857e+01, 6.491101043987834e+03, 1.038943220107410e+03, -4.155868369411259e+02, 3.459145076084129e+03
3313, 7.635609291704043e-01, 4.108846741207923e-01, 4.805776492857481e-02, 0.000000000000000e+00, 0.000000000000000e+00, 0.000000000000000e+00, 6.311864329581210e+02, 4.657918288429657e+02, -3.072076143768857e+01, 6.835341819778619e+02, 6.215160080959729e+02, -1.519260965405464e+02, 1.126799030023553e+03
3314, 7.742169890798758e-01, 3.940854489279899e-01, 4.659464858824554e-02, 0.000000000000000e+00, 0.000000000000000e+00, 0.000000000000000e+00, 4.520580639468488e+02, 3.408144624667807e+02, -3.513131792207836e+01, 4.790856279718074e+02, 5.945524485099438e+02, -1.302661320876638e+02, 1.063579116822216e+03
3315, 8.829507499353366e-01, 1.244267366699102e+00, 3.905421562482858e-02, 0.000000000000000e+00, 0.000000000000000e+00, 0.000000000000000e+00, 2.442545217221589e+03, 2.298071127886745e+03, -2.101175667490935e+01, 4.072605285191869e+03, 8.317200455116385e+02, -1.475222651563158e+02, 2.248412255745241e+03
3316, 8.722997961089108e-01, 1.260901294296937e+00, 3.963004742225563e-02, 0.000000000000000e+00, 0.000000000000000e+00, 0.000000000000000e+00, 2.553622057192080e+03, 2.495248532393325e+03, -2.709855207842232e+01, 4.488699765992927e+03, 8.281221658737971e+02, -2.823066729971843e+02, 2.481842792439230e+03
3317, 8.814036381944658e-01, 1.278504894109640e+00, 3.893149611984138e-02, 0.000000000000000e+00, 0.000000000000000e+00, 0.000000000000000e+00, 2.466433153228839e+03, 2.378571160208646e+03, -1.507372019009151e+01, 4.201014781019634e+03, 7.999704339552434e+02, -3.356755023656879e+02, 2.329693288301027e+03
3318, 2.227171474919893e-01, 3.995575903253651e-01, 2.693481266439345e-02, 0.000000000000000e+00, 0.000000000000000e+00, 0.000000000000000e+00, 4.320643373942586e+03, 4.355978220830570e+03, -3.461568407635062e+01, 8.003635749321417e+03, -1.145069718236537e+03, 7.176157710462426e+02, 4.349437816202410e+03
3319, 2.316796643036560e-01, 4.173444533504479e-01, 2.684178614429630e-02, 0.000000000000000e+00, 0.000000000000000e+00, 0.000000000000000e+00, 3.808352509319698e+03, 3.892026846940463e+03, -1.276689047254362e+02, 6.930259841344526e+03, -9.335118788670291e+02, 8.524517156382935e+02, 3.786203424348592e+03
3320, 6.355032269392504e-01, 1.979149754186043e-01, 6.070315031426069e-02, 0.000000000000000e+00, 0.000000000000000e+00, 0.000000000000000e+00, 1.689055338897557e+03, 1.585381611879727e+03, -3.712013279687918e+01, 2.825079767124207e+03, 6.837790805987668e+02, -1.735916248180961e+02, 1.707709867702951e+03
3321, 7.118146202587234e-01, 4.802422718810764e-02, 5.079220443972475e-02, 0.000000000000000e+00, 0.000000000000000e+00, 0.000000000000000e+00, 6.044002288674675e+02, 5.280595509327341e+02, -4.180740041302256e+01, 8.936278385920411e+02, 3.956110973222275e+02, -1.298619502367812e+02, 7.980731273872196e+02
3322, 4.831305685117329e-01, 4.665070401986833e-01, 6.505643723363159e-02, 0.000000000000000e+00, 0.000000000000000e+00, 0.000000000000000e+00, 4.086282758331714e+03, 4.098306114505647e+03, 5.057047670112696e+01, 7.600203459909748e+03, 9.440002354788311e+02, -4.678891406012177e+02, 3.955170835081787e+03
3323, 2.487723467235893e-01, 1.963525924031068e-01, 6.297556463712861e-02, 0.000000000000000e+00, 0.000000000000000e+00, 0.000000000000000e+00, 5.557724229742273e+03, 5.666100918673813e+03, 1.403818805989382e+02, 1.099968907920713e+04, 3.260093436148299e+02, -3.035410965833890e+02, 5.448974571730640e+03
3324, 3.102211560974172e-01, 1.650318811813360e-01, 7.151516995091088e-02, 0.000000000000000e+00, 0.000000000000000e+00, 0.000000000000000e+00, 4.729511068192293e+03, 4.744713258342779e+03, 7.384309008453478e+01, 9.197408154294724e+03, 8.696777715947934e+02, -4.704526048289200e+02, 4.779515383672401e+03
3325, 8.994611729222282e-01, 1.313780007617358e+00, 3.752082432039761e-02, 0.000000000000000e+00, 0.000000000000000e+00, 0.000000000000000e+00, 2.371816846927548e+03, 2.290762003018090e+03, -5.936142901722975e+01, 4.052621625868734e+03, 5.745611751432789e+02, -4.607937470482474e+02, 2.146121516433619e+03
3326, 8.904433292530136e-01, 1.296145605031162e+00, 3.822923878444095e-02, 0.000000000000000e+00, 0.000000000000000e+00, 0.000000000000000e+00, 2.456310126569575e+03, 2.326555954110937e+03, -9.901768940715387e+00, 4.066258884641848e+03, 7.595769973301873e+02, -3.628451474668967e+02, 2.223466730247629e+03
3327, 7.539677400785891e-01, 1.031350775030644e+00, 4.808675121102711e-02, 0.000000000000000e+00, 0.000000000000000e+00, 0.000000000000000e+00, 3.260351132436718e+03, 3.157976192000188e+03, 5.863068074562751e+00, 5.714263987758637e+03, 9.108053107921506e+02, -2.829207079667439e+02, 3.002053057914880e+03
3328, 5.369546392297569e-01, 1.932084539569615e-01, 6.880510304139098e-02, 0.000000000000000e+00, 0.000000000000000e+00, 0.000000000000000e+00, 2.764856610745517e+03, 2.643773784979223e+03, -4.067096184914441e+01, 4.708890775024782e+03, 8.358567420628640e+02, -3.240603518586062e+02, 2.538758796870410e+03
3329, 8.484368053925845e-01, 2.770815495573249e-01, 3.467804692311128e-02, 0.000000000000000e+00, 0.000000000000000e+00, 0.000000000000000e+00, -8.738349032527016e+02, -9.516675922288191e+02, 9.130393571090815e+00, -1.785078591887357e+03, 5.633592705034653e+02, -1.052910440192953e+02, 1.323301986717202e+03
3330, 1.135493722639373e+00, 1.513647132751773e+00, 1.081474800240893e-02, 0.000000000000000e+00, 0.000000000000000e+00, 0.000000000000000e+00, 1.534609311723504e+02, 2.496392338642470e+01, -3.744600623846340e+00, 1.088186426714456e+02, 4.618666843769015e+02, -4.832852469145879e+01, 8.122681342078146e+02
3331, 9.599144021854233e-01, 6.445317282888192e-01, 2.346188394132220e-02, 0.000000000000000e+00, 0.000000000000000e+00, 0.000000000000000e+00, -7.412716670075397e+02, -1.067137782950357e+03, -3.159303849348331e+00, -1.929017577774332e+03, 4.630431270683796e+02, -9.564792937289762e+01, 1.341858883322890e+03
3332, 5.639378728228525e-01, 8.494590703707684e-01, 4.977684109186453e-02, 0.000000000000000e+00, 0.000000000000000e+00, 0.000000000000000e+00, 5.604459663573938e+03, 5.695996678934103e+03, 6.997777291893942e+01, 1.137398732303898e+04, 1.021216911703095e+03, -4.606179778194025e+02, 6.045457176206979e+03
3333, 9.234182010113096e-01, 1.434889471638499e+00, 3.506526945349114e-02, 0.000000000000000e+00, 0.000000000000000e+00, 0.000000000000000e+00, 2.567476660188722e+03, 2.472368657546408e+03, -1.174579937278651e+02, 4.283905947266154e+03, 6.515798251776096e+02, -4.656857680146463e+02, 2.254787981402200e+03
3334, 9.037618996528831e-01, 1.434027563799104e+00, 3.599796140186721e-02, 0.000000000000000e+00, 0.000000000000000e+00, 0.000000000000000e+00, 2.557017379033750e+03, 2.385034823805057e+03, -2.967161152977508e+01, 4.381401676855970e+03, 7.635610454020698e+02, -4.551932017106591e+02, 2.458666003163395e+03
3335, 6.547859972820507e-01, 1.026170533723198e+00, 4.635187652143196e-02, 0.000000000000000e+00, 0.000000000000000e+00, 0.000000000000000e+00, 6.005777121786499e+03, 6.183752115614386e+03, 6.217616211837744e+01, 1.190090537039530e+04, 8.372825681609270e+02, -2.805241470639255e+02, 6.007148413833008e+03
3336, 1.027501269121893e+00, 6.651279872265341e-01, 1.196945131439033e-02, 0.000000000000000e+00, 0.000000000000000e+00, 0.000000000000000e+00, 3.265020579073577e+02, -2.103889095223037e+02, -7.633906822776891e+01, 6.629094617056501e+01, -1.969701496546618e+01, -1.487691125142284e+02, 5.489083364157040e+02
3337, 5.942634448201595e-01, 2.304665819317802e-01, 6.443838889922872e-02, 0.000000000000000e+00, 0.000000000000000e+00, 0.000000000000000e+00, 2.153030477098203e+03, 2.030994047843571e+03, -3.635054248349007e+01, 3.694710081702897e+03, 7.834233788404148e+02, -2.268602627081376e+02, 2.139959663420248e+03
3338, 7.930174352040146e-01, 1.479716387781267e+00, 2.695518171881967e-02, 0.000000000000000e+00, 0.000000000000000e+00, 0.000000000000000e+00, 4.633234672926359e+03, 3.860244379840758e+03, 3.715680342697365e+01, 7.697442414451597e+03, -6.412391961883920e+02, 8.060651225416615e+01, 3.689536983197973e+03
3339, 1.753083363745864e-01, 8.938577270866600e-02, 6.142812298882422e-02, 0.000000000000000e+00, 0.000000000000000e+00, 0.000000000000000e+00, 5.452530762402785e+03, 5.413712258375449e+03, 2.334386063274960e+02, 1.111283048916635e+04, -2.830297511313265e+02, -5.166954503458113e+02, 5.784889374470948e+03
3340, 7.973939314877378e-02, 1.156859718272198e-01, 2.814615504419233e-02, 0.000000000000000e+00, 0.000000000000000e+00, 0.000000000000000e+00, 3.093361694737048e+03, 2.616251499303359e+03, -1.883579323787821e+02, 4.171655334399840e+03, -9.271032751762559e+02, 3.746314307571786e+02, 2.238495009690570e+03
3341, 8.856048511630060e-02, 1.334478559328525e-01, 2.800930019384084e-02, 0.000000000000000e+00, 0.000000000000000e+00, 0.000000000000000e+00, 3.743790442988951e+03, 3.547957656025686e+03, -1.604898227158753e+02, 5.872005358875357e+03, -8.888810955092238e+02, 8.989039578030095e+01, 2.730616060908926e+03
3342, 9.747820792001524e-02, 1.511554690076226e-01, 2.794997024526421e-02, 0.000000000000000e+00, 0.000000000000000e+00, 0.000000000000000e+00, 3.119451698691410e+03, 2.891367741274210e+03, -5.917284000399361e+01, 5.575401756210683e+03, -6.348711574729892e+02, 4.573646075874501e+02, 2.913951161665989e+03
3343, 1.064334385937146e-01, 1.688748023479442e-01, 2.790746254465825e-02, 0.000000000000000e+00, 0.000000000000000e+00, 0.000000000000000e+00, 3.156126224825290e+03, 2.916371222615725e+03, 1.038263266110705e+02, 5.033887135678058e+03, -8.674837526004097e+02, 1.329490861772704e+02, 2.525197289452350e+03
3344, 1.005206608922092e+00, 1.370368438008450e+00, 2.770095048650294e-02, 0.000000000000000e+00, 0.000000000000000e+00, 0.000000000000000e+00, 6.992797999072545e+02, 5.920191858840893e+02, -5.388427059972399e+00, 8.811200504710556e+02, 4.010464169774563e+02, -2.331308267641240e+02, 8.424528184346070e+02
3345, 9.798425367083515e-01, 1.283299864336424e+00, 2.995625774142434e-02, 0.000000000000000e+00, 0.000000000000000e+00, 0.000000000000000e+00, 1.169647513308530e+03, 1.082977364327925e+03, -2.393859486153725e+01, 1.930746165922491e+03, 5.990275135241008e+02, -3.010473170119033e+02, 1.415223276884156e+03
3346, 5.466917070453866e-01, 5.902870262304749e-01, 6.163604300809603e-02, 0.000000000000000e+00, 0.000000000000000e+00, 0.000000000000000e+00, 3.949302058002029e+03, 3.948747958358224e+03, 9.719751611537141e+00, 7.383047048841174e+03, 1.050937273824224e+03, -4.225721477516856e+02, 3.954984215826346e+03
3347, 1.090507327804109e+00, 1.237143189663451e+00, 1.297820107896463e-02, 0.000000000000000e+00, 0.000000000000000e+00, 0.000000000000000e+00, -5.020016361559763e+03, -4.683228456375103e+03, 3.213981729171161e+00, -9.038945938559726e+03, 2.522282901499732e+03, 3.214586107272491e+02, 6.083955861209688e+03
3348, 1.048931121203028e+00, 5.263419377503532e-01, 4.487954973802315e-03, 0.000000000000000e+00, 0.000000000000000e+00, 0.000000000000000e+00, 3.279226139847496e+02, 5.783222406467861e+02, -1.833632715573845e+02, 1.089675982799113e+03, -5.945689084464625e+02, -3.872404253179421e+02, 1.436486574429587e+03
3349, 1.465254486113771e-01, 1.687356094823501e-02, 6.382839077586253e-02, 0.000000000000000e+00, 0.000000000000000e+00, 0.000000000000000e+00, 1.846309787639964e+03, 2.228940092111623e+03, 1.037562989709677e+02, 3.177448480017827e+03, -2.138182399429309e+02, -7.199050266250972e+02, 1.770096815174966e+03
3350, 5.103162078332839e-01, 5.195911950515160e-01, 6.361503783149579e-02, 0.000000000000000e+00, 0.000000000000000e+00, 0.000000000000000e+00, 4.068017154755490e+03, 4.049419919199896e+03, -1.326633820874960e+01, 7.655591714668042e+03, 1.022620610432300e+03, -4.774288407804273e+02, 4.093819447548221e+03
3351, 3.787173584102955e-01, 1.855958927728725e-01, 7.344771629449307e-02, 0.000000000000000e+00, 0.000000000000000e+00, 0.000000000000000e+00, 4.159977391033402e+03, 4.147008272499078e+03, 3.667736035498522e+01, 7.842366530690545e+03, 8.877673445522927e+02, -4.892269519457195e+02, 4.085874766450945e+03
3352, 8.887277077016581e-02, 9.972530034693826e-02, 3.609022003347071e-02, 0.000000000000000e+00, 0.000000000000000e+00, 0.000000000000000e+00, 4.096814487650209e+03, 3.432567030411771e+03, -2.406294181593876e+01, 6.341383015166718e+03, -1.068966570028016e+03, 5.383361073726511e+02, 3.357005279812341e+03
3353, 1.163269664718159e-01, 1.191040047412850e-01, 4.273167792790063e-02, 0.000000000000000e+00, 0.000000000000000e+00, 0.000000000000000e+00, 4.604256445891631e+03, 4.116380143255356e+03, -8.977183436275762e+01, 7.406854635742729e+03, -1.310062579698702e+03, 3.243250188237351e+02, 3.866319972724766e+03
3354, 1.469430033282613e-01, 7.048727383894504e-02, 5.801005860212644e-02, 0.000000000000000e+00, 0.000000000000000e+00, 0.000000000000000e+00, 4.988964498855099e+03, 4.703087959631235e+03, 2.116115639281064e+02, 1.020905897118879e+04, -6.869274793620918e+02, -6.859771236671172e+02, 5.637823563060141e+03
3355, 9.905013119848702e-01, 1.266500624559994e+00, 2.850192553634662e-02, 0.000000000000000e+00, 0.000000000000000e+00, 0.000000000000000e+00, 6.981206139763713e+02, 5.775588906393414e+02, -5.399706532970331e+01, 8.600025790469944e+02, 5.132287537775127e+02, -1.944417862223621e+02, 9.862245197864254e+02
3356, 5.755727613724682e-01, 6.088933097949698e-01, 6.107868148550653e-02, 0.000000000000000e+00, 0.000000000000000e+00, 0.000000000000000e+00, 3.608418948433296e+03, 3.543246595592404e+03, -5.250117055332617e+00, 6.596016891284177e+03, 1.119468072056266e+03, -3.655585882777867e+02, 3.644901359381100e+03
3357, 5.012420247265267e-01, 5.019325147844697e-01, 6.409826564832231e-02, 0.000000000000000e+00, 0.000000000000000e+00, 0.000000000000000e+00, 4.140675890694227e+03, 4.082849658741176e+03, 1.070942859650403e+01, 7.701620955221912e+03, 9.513888668999347e+02, -5.035425056954923e+02, 4.045493941393526e+03
3358, 5.119802491581874e-01, 4.852427364125257e-01, 6.478836721644481e-02, 0.000000000000000e+00, 0.000000000000000e+00, 0.000000000000000e+00, 3.902580167247087e+03, 3.877844741588468e+03, 1.339758504511235e+01, 7.280115725058862e+03, 9.358058872016081e+02, -4.982993950104288e+02, 3.855456702893572e+03
3359, 8.574893653069803e-01, 2.946888253286818e-01, 3.357822218202763e-02, 0.000000000000000e+00, 0.000000000000000e+00, 0.000000000000000e+00, -8.657089328488404e+02, -9.414749182478757e+02, -3.212585850519321e+01, -1.942683474928129e+03, 5.308521628395123e+02, -6.280429215790654e+01, 1.394402387214209e+03
3360, 8.770781367981962e-01, 2.956546376405633e-01, 3.050857655298765e-02, 0.000000000000000e+00, 0.000000000000000e+00, 0.000000000000000e+00, -9.891138308474884e+02, -1.020144119713640e+03, -3.986499144312819e+01, -2.364124315943778e+03, 5.889950670478911e+02, -6.021113814304191e+01, 1.704505530505342e+03
3361, 1.023106499615704e+00, 1.405413946363904e+00, 2.585003217885003e-02, 0.000000000000000e+00, 0.000000000000000e+00, 0.000000000000000e+00, 5.342893429713279e+02, 4.547434985444460e+02, -2.010078294295249e+01, 8.855814151789388e+02, 4.062396044140755e+02, -1.286043522907614e+02, 8.388079024296195e+02
3362, 8.025307606996824e-01, 1.274238344928189e+00, 4.129848932647784e-02, 0.000000000000000e+00, 0.000000000000000e+00, 0.000000000000000e+00, 4.174011825091374e+03, 4.429301777907743e+03, 1.178760624385002e+01, 7.957071693129447e+03, 8.380983125166787e+02, -2.141483082994055e+02, 3.956786503099652e+03
3363, 9.779538648843611e-02, 1.173665176670258e-01, 3.600430920373826e-02, 0.000000000000000e+00, 0.000000000000000e+00, 0.000000000000000e+00, 3.728386773545360e+03, 3.430952876385257e+03, -1.601060541814967e+02, 5.838415683225618e+03, -9.970630490368870e+02, 3.256077867703079e+02, 2.923294435056152e+03
3364, 6.557927913943602e-01, 3.885556086056585e-01, 5.911718358667509e-02, 0.000000000000000e+00, 0.000000000000000e+00, 0.000000000000000e+00, 1.879503706288599e+03, 1.773848116855805e+03, -4.455469677935223e+01, 3.184428034542630e+03, 7.857496312184035e+02, -2.425895435397031e+02, 1.971439835986322e+03
3365, 4.840261347910172e-01, 6.559267004174031e-01, 5.527888060513538e-02, 0.000000000000000e+00, 0.000000000000000e+00, 0.000000000000000e+00, 5.259104581917892e+03, 5.368917849663090e+03, 1.774159641976912e+02, 1.057072680745620e+04, 9.327644634615665e+02, -2.990017727422584e+02, 5.533072122541587e+03
3366, 1.001190456400123e+00, 1.249850454965500e+00, 2.693854370087061e-02, 0.000000000000000e+00, 0.000000000000000e+00, 0.000000000000000e+00, 2.395139912471341e+02, 1.217237188973387e+02, -1.410155772684336e+01, 1.165268759183051e+02, 4.164234154563536e+02, -1.193392250983202e+02, 7.603033536294739e+02
3367, 5.110798510738981e-01, 7.090115033763851e-01, 5.425787838939133e-02, 0.000000000000000e+00, 0.000000000000000e+00, 0.000000000000000e+00, 4.852567735203522e+03, 4.970551590650010e+03, 1.151434214259654e+02, 9.598818167423462e+03, 8.908813005910657e+02, -2.131115698754941e+02, 4.953570888960006e+03
3368, 7.051076066183052e-01, 1.840706267295720e-01, 5.302929480532683e-02, 0.000000000000000e+00, 0.000000000000000e+00, 0.000000000000000e+00, 9.604161451668502e+02, 8.145152486547701e+02, -2.029144447190391e+01, 1.352235448813955e+03, 6.249708602261321e+02, -6.769523300998905e+01, 1.191102479325292e+03
3369, 9.794358805834403e-01, 6.455714050694719e-01, 2.018824460563056e-02, 0.000000000000000e+00, 0.000000000000000e+00, 0.000000000000000e+00, -1.410392676147384e+03, -1.488228339154378e+03, -3.811985609734858e+01, -2.875023513925846e+03, 3.240161912308767e+02, 4.265670460308718e+02, 1.703642729621693e+03
3370, 6.018818478577301e-01, 8.858268071211735e-01, 5.069528991529276e-02, 0.000000000000000e+00, 0.000000000000000e+00, 0.000000000000000e+00, 4.622197373962677e+03, 4.846210612880690e+03, 1.475602773974793e+02, 9.059309716079899e+03, 1.076178232958903e+03, -4.354941556314207e+02, 4.780475113733636e+03
3371, 5.557420269281125e-01, 6.079166263173428e-01, 6.113105759910969e-02, 0.000000000000000e+00, 0.000000000000000e+00, 0.000000000000000e+00, 3.873941852533289e+03, 3.851824709192798e+03, 1.656180417385701e+01, 7.223713422853854e+03, 1.092350515011997e+03, -3.873888860470684e+02, 3.914877825609364e+03
3372, 6.788196244457936e-01, 3.206909132000901e-01, 5.682753666108848e-02, 0.000000000000000e+00, 0.000000000000000e+00, 0.000000000000000e+00, 1.364052322844118e+03, 1.225877424908277e+03, -2.332680411077666e+01, 2.148398976861361e+03, 7.435155084761320e+02, -1.608065791687103e+02, 1.574904319655081e+03
3373, 8.861217409249402e-01, 3.133553731106238e-01, 2.937271502672103e-02, 0.000000000000000e+00, 0.000000000000000e+00, 0.000000000000000e+00, -9.286382599609663e+02, -1.157901375307126e+03, 3.357923822838004e+01, -2.831338696352217e+03, 6.450884683429979e+02, -1.804531697807851e+02, 2.141518533243003e+03
3374, 6.359592853618418e-01, 3.876338470988595e-01, 6.076258957697888e-02, 0.000000000000000e+00, 0.000000000000000e+00, 0.000000000000000e+00, 2.128837302161952e+03, 1.996881518974726e+03, -2.325785602876498e+01, 3.639322247639137e+03, 7.961507877782926e+02, -2.583282257669005e+02, 2.145154016411759e+03
3375, 2.433736804165289e-01, 4.667811366432084e-01, 1.519011293854896e-02, 0.000000000000000e+00, 0.000000000000000e+00, 0.000000000000000e+00, 1.519072258601826e+03, 1.324290752084244e+03, -1.608623338251341e+02, 1.957242682973967e+03, -5.887352607861504e+02, 3.697217266801799e+02, 1.357505362860240e+03
3376, 8.951559726215845e-01, 3.310629958058304e-01, 2.822933902280424e-02, 0.000000000000000e+00, 0.000000000000000e+00, 0.000000000000000e+00, -1.399273677034380e+03, -1.831705328706217e+03, 5.006805774642690e+01, -3.254613904099532e+03, 3.098456276764766e+02, -4.927877685063685e+02, 1.962403979125976e+03
3377, 8.845584409058089e-01, 3.477258444223112e-01, 3.024473234859990e-02, 0.000000000000000e+00, 0.000000000000000e+00, 0.000000000000000e+00, -8.409894543518196e+02, -1.065237592135203e+03, -7.691432976853268e+01, -2.169400266832315e+03, 3.366614903706262e+02, -1.024414927976500e+02, 1.380696187113992e+03
3378, 8.740581140779149e-01, 3.643945386946402e-01, 3.219020814272137e-02, 0.000000000000000e+00, 0.000000000000000e+00, 0.000000000000000e+00, -8.527336877434572e+02, -9.673111924651383e+02, -1.816660511869738e+01, -1.863930788165446e+03, 5.022303762189982e+02, -3.768190849549420e+01, 1.296820360590228e+03
3379, 8.830395677823955e-01, 3.821896083592076e-01, 3.109201133081240e-02, 0.000000000000000e+00, 0.000000000000000e+00, 0.000000000000000e+00, -9.362213852007148e+02, -1.166474595767861e+03, 2.020122118406916e+01, -2.084152304022202e+03, 3.925179066662160e+02, -6.234220681452526e+01, 1.257593732975504e+03
3380, 6.461481895151394e-01, 1.812582544982657e-01, 5.957101368773395e-02, 0.000000000000000e+00, 0.000000000000000e+00, 0.000000000000000e+00, 1.636100903028398e+03, 1.489924891116772e+03, -3.846188070869029e+01, 2.612546332512158e+03, 6.467872435532806e+02, -1.547608981202263e+02, 1.564876344246733e+03
3381, 8.603812596452449e-01, 4.499240631682191e-01, 3.563571435718805e-02, 0.000000000000000e+00, 0.000000000000000e+00, 0.000000000000000e+00, -4.255841498632486e+02, -6.399299532025788e+02, -5.061877042251209e+01, -1.305586174693216e+03, 4.679599491694433e+02, 1.833460301755505e+01, 1.139024907981519e+03
3382, 2.699685833882954e-01, 5.203443301021068e-01, 1.489961344279376e-02, 0.000000000000000e+00, 0.000000000000000e+00, 0.000000000000000e+00, 2.415635688863264e+03, 2.145034046443766e+03, 1.551529557933813e+02, 4.266747119580497e+03, -1.117927970748996e+03, 4.883136756366604e+02, 2.921918799544274e+03
3383, 8.345922334311580e-01, 1.724388652152539e-02, 3.229810941939418e-02, 0.000000000000000e+00, 0.000000000000000e+00, 0.000000000000000e+00, -1.267730616135340e+02, -2.142825304119577e+02, -3.135970904801189e+01, -3.081014498722781e+02, 1.022837505805403e+02, 1.048149930546597e+02, 3.032567886192139e+02
3384, 6.252362738007927e-01, 4.043671236838305e-01, 6.152544246416269e-02, 0.000000000000000e+00, 0.000000000000000e+00, 0.000000000000000e+00, 2.302021929500738e+03, 2.183201976349201e+03, -4.543388669720743e+01, 3.956945590446426e+03, 8.100563172681990e+02, -2.213895868100691e+02, 2.251962461887663e+03
3385, 9.115833632896562e-01, 6.248433311020829e-01, 3.076013885707846e-02, 0.000000000000000e+00, 0.000000000000000e+00, 0.000000000000000e+00, -3.404425504842318e+02, -3.816395456563978e+02, -3.160440366153896e+01, -1.101274318533574e+03, 4.207303114886461e+02, -3.440023263451791e+01, 1.042500271958466e+03
3386, 8.859764747992208e-01, 5.373773813016323e-01, 3.320682246173581e-02, 0.000000000000000e+00, 0.000000000000000e+00, 0.000000000000000e+00, -8.342587844865504e+02, -9.125082408955533e+02, 2.448655325935889e+01, -1.849195378866379e+03, 3.548022265629435e+02, -7.560774184920594e+01, 1.163358610625309e+03
3387, 8.875161498228378e-01, 5.029814098308348e-01, 3.242920386204157e-02, 0.000000000000000e+00, 0.000000000000000e+00, 0.000000000000000e+00, -7.818064004924568e+02, -8.235286573232329e+02, -5.891224930874247e+01, -1.597034921489478e+03, 4.525662497643477e+02, -4.336843372741106e+01, 1.123756276155236e+03
3388, 8.709159004479747e-01, 4.332647884389064e-01, 3.381146370779247e-02, 0.000000000000000e+00, 0.000000000000000e+00, 0.000000000000000e+00, -6.647711808787324e+02, -8.527290557384273e+02, 1.012634977753581e-01, -1.648487228367566e+03, 3.845658011451208e+02, -1.515828114411704e+02, 1.153573963915937e+03
3389, 5.328092212922438e-01, 2.622845045063128e-01, 6.846719547713748e-02, 0.000000000000000e+00, 0.000000000000000e+00, 0.000000000000000e+00, 3.024203009090854e+03, 2.919842627274924e+03, -4.018281198109565e+01, 5.400907073369988e+03, 8.460160397399455e+02, -2.903066440554467e+02, 2.883150061727880e+03
3390, 1.024779984637090e+00, 1.371249994135741e+00, 2.526875901109213e-02, 0.000000000000000e+00, 0.000000000000000e+00, 0.000000000000000e+00, 6.443741077275411e+02, 5.815456688630819e+02, -3.792930874066005e+01, 8.637606906944055e+02, 4.157562324120268e+02, -2.434264721510446e+02, 8.755036126803309e+02
3391, 8.890057903826983e-01, 4.686676619787957e-01, 3.163785385792621e-02, 0.000000000000000e+00, 0.000000000000000e+00, 0.000000000000000e+00, -6.065945377707728e+02, -6.502932985847355e+02, 1.547920161718439e+01, -1.399529796221609e+03, 2.704098229422997e+02, -3.018599484207694e+01, 9.048880784517835e+02
3392, 5.221465472757152e-01, 2.788954090044625e-01, 6.882589639737849e-02, 0.000000000000000e+00, 0.000000000000000e+00, 0.000000000000000e+00, 3.177338742455280e+03, 3.078799734088968e+03, -1.417971536977610e+01, 5.642829911887576e+03, 8.443319443815353e+02, -2.897109754205120e+02, 2.953369860925098e+03
3393, 8.980504470654262e-01, 4.863501296570888e-01, 3.053734463442751e-02, 0.000000000000000e+00, 0.000000000000000e+00, 0.000000000000000e+00, -1.106870626649581e+03, -1.171094030528149e+03, -8.360230432419173e+01, -2.056647641724829e+03, 4.965939299404381e+02, 7.895942666825400e+01, 1.274633874468503e+03
3394, 5.449349163402264e-01, 6.246793992864368e-01, 6.039426925242990e-02, 0.000000000000000e+00, 0.000000000000000e+00, 0.000000000000000e+00, 4.211356619862367e+03, 4.177824689865931e+03, 3.901033866292192e+01, 7.826340630281766e+03, 1.140157185038895e+03, -4.400065090726517e+02, 4.204248922236524e+03
3395, 8.964924167483532e-01, 5.207418119083391e-01, 3.135452848964652e-02, 0.000000000000000e+00, 0.000000000000000e+00, 0.000000000000000e+00, -8.108375558175869e+02, -8.449141640759892e+02, 2.844426298389943e+01, -1.751959758767113e+03, 4.610390738388963e+02, -1.431092771123188e+02, 1.247533995599870e+03
3396, 9.220761731487901e-01, 6.082162596307351e-01, 2.887773177731705e-02, 0.000000000000000e+00, 0.000000000000000e+00, 0.000000000000000e+00, -7.076402789735039e+02, -9.092015108946687e+02, -4.548667988464426e+01, -1.538240799278768e+03, 3.407929037465320e+02, -1.215106893911961e+02, 9.808304426452098e+02
3397, 8.947607346468256e-01, 1.416382483752783e+00, 3.661926798934662e-02, 0.000000000000000e+00, 0.000000000000000e+00, 0.000000000000000e+00, 2.493971416306441e+03, 2.619193720514546e+03, -3.106123738911576e+01, 4.575792979811826e+03, 8.062477766859373e+02, -4.576055034582625e+02, 2.582669235236730e+03
3398, 9.401588579434443e-01, 6.436194203368530e-01, 2.665038102309854e-02, 0.000000000000000e+00, 0.000000000000000e+00, 0.000000000000000e+00, -5.165452631839737e+02, -7.655264827061050e+02, -6.379884879522696e+01, -1.364165907444630e+03, 5.507923238580412e+02, -5.281174625908743e+01, 1.224787922689410e+03
3399, 6.247902583792267e-01, 2.145873406877645e-01, 6.176855515614000e-02, 0.000000000000000e+00, 0.000000000000000e+00, 0.000000000000000e+00, 1.892724667116652e+03, 1.740002607659139e+03, -5.958193126234566e+01, 3.074494858963482e+03, 7.279379481771678e+02, -1.814003060006406e+02, 1.816435078147956e+03
3400, 9.130182766966786e-01, 5.905335913908598e-01, 2.997946672642984e-02, 0.000000000000000e+00, 0.000000000000000e+00, 0.000000000000000e+00, -4.938843551185299e+02, -7.249718215549962e+02, -9.294739290786261e+00, -1.678410033314058e+03, 4.469919613571511e+02, -1.434848342182974e+02, 1.358013906993079e+03
3401, 1.035389361856845e+00, 1.354606840865738e+00, 2.364694125908046e-02, 0.000000000000000e+00, 0.000000000000000e+00, 0.000000000000000e+00, 3.447577842599453e+02, 2.491244850073602e+02, -6.329118817366513e+01, 2.948812022614472e+02, 3.650694000746842e+02, -2.715618948633272e+01, 6.487836613710721e+02
3402, 7.649667953508013e-01, 1.460782661245985e+00, 2.265614389184556e-02, 0.000000000000000e+00, 0.000000000000000e+00, 0.000000000000000e+00, 4.837085172796749e+03, 5.351074420296734e+03, -1.194240679759947e+02, 9.328994067383508e+03, -2.004918421307142e+02, -7.304344584700544e+02, 4.460562559355729e+03
3403, 8.857087008429565e-01, 1.398761088890795e+00, 3.723349563818164e-02, 0.000000000000000e+00, 0.000000000000000e+00, 0.000000000000000e+00, 3.745573995573786e+03, 3.292732524549347e+03, -1.428406844567910e+01, 5.929528773826222e+03, 1.038044705335609e+03, -3.168276649312108e+02, 3.081894061810555e+03
3404, 3.144057464106796e-01, 6.093471639032283e-01, 1.475827965565258e-02, 0.000000000000000e+00, 0.000000000000000e+00, 0.000000000000000e+00, 2.956797358708453e+03, 2.328617687671183e+03, -2.211700494932666e+02, 3.259555255228566e+03, -8.120701976338468e+02, 4.636492248739369e+02, 1.856473215552034e+03
3405, 3.305512411910950e-01, 6.122882400604577e-01, 2.596881972989026e-02, 0.000000000000000e+00, 0.000000000000000e+00, 0.000000000000000e+00, 3.490556088722977e+03, 3.049792517367320e+03, -2.255381431786183e+02, 4.727792879546867e+03, -1.092441454409945e+03, 5.806353091496287e+02, 2.648519539602779e+03
3406, 1.134311407660050e+00, 1.360993683872607e+00, 7.717420163416162e-03, 0.000000000000000e+00, 0.000000000000000e+00, 0.000000000000000e+00, 9.818336616849510e+02, 6.388348937759296e+02, -1.100725473762118e+02, 1.503968297255010e+03, -8.486426889225646e+01, 3.808911418515066e+02, 1.030801719253752e+03
3407, 5.261523919188906e-01, 2.098067549836863e-01, 6.934645260916336e-02, 0.000000000000000e+00, 0.000000000000000e+00, 0.000000000000000e+00, 2.884743329331950e+03, 2.775843345923842e+03, -1.568628734020488e+01, 5.082724403424532e+03, 8.322383202254664e+02, -3.669821239607453e+02, 2.750448652976889e+03
3408, 8.235736377951913e-01, 1.464257515909893e+00, 3.286896305769673e-02, 0.000000000000000e+00, 0.000000000000000e+00, 0.000000000000000e+00, 6.103586802209716e+03, 6.745204963851273e+03, 1.687317994187962e+02, 1.364650156086414e+04, 1.839126757768803e+02, -1.193025518619449e+03, 7.544824607794368e+03
3409, 1.155750135577294e-01, 1.863604877216539e-01, 2.804241611684730e-02, 0.000000000000000e+00, 0.000000000000000e+00, 0.000000000000000e+00, 3.938725217233685e+03, 3.566297868553106e+03, -3.523332096111422e+01, 6.646950747701848e+03, -8.798920716160734e+02, 1.790828873316106e+02, 3.302176749247005e+03
3410, 5.907216576978538e-01, 2.991072907693755e-01, 6.450257771084866e-02, 0.000000000000000e+00, 0.000000000000000e+00, 0.000000000000000e+00, 2.398045317457708e+03, 2.230459365669117e+03, -5.680800577981015e+00, 3.986746625768035e+03, 8.939213313204978e+02, -2.042840601472324e+02, 2.311034336627339e+03
3411, 4.551505731266378e-01, 3.496836296510109e-02, 7.504765816764641e-02, 0.000000000000000e+00, 0.000000000000000e+00, 0.000000000000000e+00, 1.999227455804838e+03, 2.038225280443176e+03, -4.697764746291460e+01, 3.600731582464721e+03, 3.508154633299005e+02, -6.608017092048909e+02, 2.046873954015729e+03
3412, 8.037847336408729e-01, 1.463209498311663e+00, 3.050653175528447e-02, 0.000000000000000e+00, 0.000000000000000e+00, 0.000000000000000e+00, 5.943142728212370e+03, 6.516142750503002e+03, 2.545971649385207e+02, 1.202514229135303e+04, -7.455222079153649e+02, -2.120969080322976e+02, 5.985890606935350e+03
3413, 8.495314931763264e-01, 1.328447211142173e+00, 3.959289725020246e-02, 0.000000000000000e+00, 0.000000000000000e+00, 0.000000000000000e+00, 2.782158023538405e+03, 2.683461498910972e+03, -7.331171446315282e+01, 5.212482228190744e+03, 8.254771101854783e+02, -4.771594267207971e+02, 2.983200605505489e+03
3414, 8.478537866709296e-01, 1.362750147666910e+00, 3.873255363449176e-02, 0.000000000000000e+00, 0.000000000000000e+00, 0.000000000000000e+00, 4.194281571456747e+03, 4.351243511129638e+03, -1.372155482601653e+02, 7.408594429720392e+03, 9.834799106077874e+02, -4.714647714261866e+02, 3.671095073163382e+03
3415, 8.585260995763204e-01, 1.346195119216503e+00, 3.901362400895440e-02, 0.000000000000000e+00, 0.000000000000000e+00, 0.000000000000000e+00, 3.244856964567606e+03, 3.274487532499864e+03, 9.523499586994305e+01, 6.108425836441997e+03, 9.834468710703968e+02, -3.642716569024224e+02, 3.382728094389794e+03
3416, 1.783719740608121e-01, 3.099088260335039e-01, 2.779190094029839e-02, 0.000000000000000e+00, 0.000000000000000e+00, 0.000000000000000e+00, 4.111410974648581e+03, 4.114328039882585e+03, 2.186185888150294e+01, 6.722506598826050e+03, -1.074378407715436e+03, 5.550278678872336e+02, 3.346442984052087e+03
3417, 1.046899634344426e+00, 6.662182584879779e-01, 8.287462386518943e-03, 0.000000000000000e+00, 0.000000000000000e+00, 0.000000000000000e+00, 4.557185401838975e+02, 5.287310790967670e+02, -9.747244560108840e+01, 1.276457777028418e+03, -3.716007572965998e+01, 1.959874304023023e+02, 8.757270896422958e+02
3418, 8.404934490647281e-01, 1.310807433570526e+00, 4.016245785719826e-02, 0.000000000000000e+00, 0.000000000000000e+00, 0.000000000000000e+00, 3.359426695914238e+03, 3.245987894384396e+03, -1.484574207409492e+00, 5.652110010871652e+03, 7.398472985932200e+02, -3.819324091727211e+02, 2.758457934250784e+03
3419, 2.172266785351885e-01, 2.455555659753537e-01, 5.196401881894324e-02, 0.000000000000000e+00, 0.000000000000000e+00, 0.000000000000000e+00, 5.617567121394213e+03, 5.705627187782495e+03, 2.588427798517606e+02, 1.174455040467828e+04, -2.794015155825114e+02, 2.395491901224634e+01, 6.119236232035587e+03
3420, 2.159827334588830e-01, 2.796175385737732e-01, 4.701975475035243e-02, 0.000000000000000e+00, 0.000000000000000e+00, 0.000000000000000e+00, 5.568319793549751e+03, 5.752317076310793e+03, 2.452865105258027e+02, 1.112568267547732e+04, -6.959522578772995e+02, 1.640236363173694e+02, 5.622264120813039e+03
3421, 4.138575480328996e-01, 7.364654654372080e-01, 3.326150269263682e-02, 0.000000000000000e+00, 0.000000000000000e+00, 0.000000000000000e+00, 5.976834876314169e+03, 5.566571139565090e+03, 1.754888837655142e+02, 1.022336235557902e+04, -1.580436542064755e+03, 2.536486165741234e+02, 5.265192218259479e+03
3422, 8.313774186867207e-01, 1.293078943078368e+00, 4.072750643331235e-02, 0.000000000000000e+00, 0.000000000000000e+00, 0.000000000000000e+00, 3.121626069326834e+03, 3.166441976504658e+03, -1.962982878248821e+01, 5.647785634802579e+03, 9.131206359210174e+02, -2.371256454604223e+02, 2.990232110748530e+03
3423, 3.316620793705621e-01, 5.782051589518901e-01, 3.361412345246076e-02, 0.000000000000000e+00, 0.000000000000000e+00, 0.000000000000000e+00, 5.351023074031335e+03, 4.880895932599553e+03, -2.200790920075586e+02, 8.695082235364229e+03, -1.456721295400376e+03, 6.417460699434730e+02, 4.552231699990743e+03
3424, 9.793055539524316e-01, 2.301076360475171e-01, 1.109245956920213e-02, 0.000000000000000e+00, 0.000000000000000e+00, 0.000000000000000e+00, -6.114657617380067e+03, -5.669158588731772e+03, 2.919917955508573e+02, -9.812878133954691e+03, 2.063420026787198e+03, -8.909867515364430e+02, 5.561772598973112e+03
3425, 2.340217992187022e-01, 3.152016331186961e-01, 4.668765088185636e-02, 0.000000000000000e+00, 0.000000000000000e+00, 0.000000000000000e+00, 5.933961623793591e+03, 5.902456804336720e+03, 1.572745704037531e+02, 1.146343951538931e+04, -6.973810172332427e+02, 1.598082090933362e+02, 5.688599671458698e+03
3426, 1.600102822866904e-01, 2.746081596631233e-01, 2.766334141804470e-02, 0.000000000000000e+00, 0.000000000000000e+00, 0.000000000000000e+00, 4.038100794762435e+03, 3.508024255625596e+03, -1.650265779601648e+02, 7.140962815372927e+03, -1.380931267459900e+03, 4.503000136677737e+02, 4.238444683509176e+03
3427, 2.380286038242043e-01, 2.127294697804581e-01, 5.975987592377079e-02, 0.000000000000000e+00, 0.000000000000000e+00, 0.000000000000000e+00, 5.472746870632261e+03, 5.715318521057425e+03, 1.403639095354395e+02, 1.125355806909673e+04, 2.121907614758221e+02, -2.777970666893592e+02, 5.700881745355307e+03
3428, 2.275629281025510e-01, 2.291429378744667e-01, 5.612052451305868e-02, 0.000000000000000e+00, 0.000000000000000e+00, 0.000000000000000e+00, 5.615367247401866e+03, 5.862300758271122e+03, 1.531068176833313e+02, 1.163925477090809e+04, 3.200664001387046e+01, -2.017055225033477e+02, 5.920823513725652e+03
3429, 2.260802878561683e-01, 2.633330719431282e-01, 5.173315615400690e-02, 0.000000000000000e+00, 0.000000000000000e+00, 0.000000000000000e+00, 5.779413708914169e+03, 6.107424944515812e+03, 1.623042258221273e+02, 1.184760500618129e+04, -2.502648603812122e+02, -2.891685163258965e+01, 5.933762390316507e+03
3430, 2.249493128896419e-01, 2.974004713567349e-01, 4.684158394233701e-02, 0.000000000000000e+00, 0.000000000000000e+00, 0.000000000000000e+00, 5.270873149124877e+03, 5.408047902731011e+03, 1.696159272821666e+02, 1.078266581523789e+04, -7.974565344935753e+02, 1.263183063223192e+02, 5.628906191389341e+03
3431, 2.239571414727133e-01, 3.313800053453024e-01, 4.123758845638754e-02, 0.000000000000000e+00, 0.000000000000000e+00, 0.000000000000000e+00, 5.424273022456433e+03, 5.498616938208313e+03, 4.271382849648569e+01, 1.040213851775644e+04, -9.430890591313544e+02, 1.353247030973105e+02, 5.209919438311918e+03
3432, 8.042149375813877e-01, 1.240262812764176e+00, 4.236426437175082e-02, 0.000000000000000e+00, 0.000000000000000e+00, 0.000000000000000e+00, 4.184036699303126e+03, 4.247614332824318e+03, 1.544485220825523e+01, 8.144830024003364e+03, 8.194671449098919e+02, -3.705681554658597e+02, 4.226980614895077e+03
3433, 7.951742129699608e-01, 1.222589063365264e+00, 4.289702560159203e-02, 0.000000000000000e+00, 0.000000000000000e+00, 0.000000000000000e+00, 4.264478211224555e+03, 4.003412621263544e+03, 3.687775683887306e+01, 7.695428357364389e+03, 8.464775498586571e+02, -5.287006466014332e+02, 3.965791588930301e+03
3434, 4.568921333773861e-01, 8.591229336252253e-01, 2.535221173465180e-02, 0.000000000000000e+00, 0.000000000000000e+00, 0.000000000000000e+00, 4.692945348920984e+03, 4.340522107769109e+03, 1.094482337272003e+02, 9.935892385218205e+03, -9.491337780121482e+02, -1.459977090013109e+02, 5.680042225233105e+03
3435, 2.970601107993169e-01, 4.388534949057893e-01, 4.558038345615429e-02, 0.000000000000000e+00, 0.000000000000000e+00, 0.000000000000000e+00, 6.053750162436843e+03, 6.091571904675750e+03, 2.956154908027722e+01, 1.135913098595605e+04, -6.921019741854687e+02, 2.567612794089933e+02, 5.439232810621595e+03
3436, 3.848847757959121e-01, 7.172727535324402e-01, 2.589446344235743e-02, 0.000000000000000e+00, 0.000000000000000e+00, 0.000000000000000e+00, 3.572842916890244e+03, 3.291957913781989e+03, 3.399231783825667e+01, 6.253877048467911e+03, -1.098279283121750e+03, 2.007212163110856e+02, 3.429706734443719e+03
3437, 3.764965275835904e-01, 7.331582094554389e-01, 1.491006606450913e-02, 0.000000000000000e+00, 0.000000000000000e+00, 0.000000000000000e+00, 2.310543270130770e+03, 2.129392967328731e+03, 1.043489754383606e+01, 4.170119117172397e+03, -1.062341504944566e+03, 2.434982500559730e+02, 2.718751508480625e+03
3438, 1.162348764466189e+00, 1.566672185245885e+00, 7.120782301947687e-03, 0.000000000000000e+00, 0.000000000000000e+00, 0.000000000000000e+00, -2.486714436959056e+03, -2.830149927281176e+03, -6.353272859865660e+01, -5.973211590332146e+03, -1.058044468874056e+01, -1.195301654888972e+03, 3.921084885066382e+03
3439, 1.054800496563989e+00, 1.355896909960006e+00, 2.090641388878704e-02, 0.000000000000000e+00, 0.000000000000000e+00, 0.000000000000000e+00, -6.956694388497412e+01, -1.777238473778538e+02, -2.808606281426798e+01, -4.019515873374505e+02, 3.460282628639343e+02, -2.517786099563196e+01, 6.705987653581361e+02
3440, 5.012486510468265e-01, 9.477107218410645e-01, 2.471555105820320e-02, 0.000000000000000e+00, 0.000000000000000e+00, 0.000000000000000e+00, 3.862090649649755e+03, 3.578309818126766e+03, -1.690566726826725e+02, 6.348419402296568e+03, -9.073960188278995e+02, 4.439324335920222e+02, 3.180409685074918e+03
3441, 4.558847078091546e-01, 2.237168481662334e-01, 7.215527357436788e-02, 0.000000000000000e+00, 0.000000000000000e+00, 0.000000000000000e+00, 3.498892739482572e+03, 3.400002325327921e+03, -3.031429080161970e+01, 6.203299876680042e+03, 9.095623565349143e+02, -3.373033549024502e+02, 3.227541756386483e+03
3442, 1.112664918248978e+00, 1.171904772965484e+00, 7.474284151526645e-03, 0.000000000000000e+00, 0.000000000000000e+00, 0.000000000000000e+00, -5.586502276632570e+03, -5.927257642176532e+03, -4.772681624646175e+02, -1.075639080144383e+04, -2.976694800595746e+02, 1.604394995185062e+03, 5.809786595094265e+03
3443, 1.092582391508787e+00, 1.391764599288874e+00, 1.566511252839807e-02, 0.000000000000000e+00, 0.000000000000000e+00, 0.000000000000000e+00, -2.482728851223124e+02, -3.963742136405352e+02, 3.491313171426172e+01, -6.662781179969405e+02, 1.507116259002966e+02, -1.311674229800293e+02, 5.081030302011827e+02
3444, 6.448633709683135e-01, 2.909538047971589e-02, 5.879609252968914e-02, 0.000000000000000e+00, 0.000000000000000e+00, 0.000000000000000e+00, 8.244827358491639e+02, 8.264046458953435e+02, -5.789661394427716e+01, 1.420291922002440e+03, 2.744956104721979e+02, -2.254910417436307e+02, 8.616759207070929e+02
3445, 4.248975248429531e-01, 2.402463431943943e-01, 7.207954464780322e-02, 0.000000000000000e+00, 0.000000000000000e+00, 0.000000000000000e+00, 3.781756594700088e+03, 3.754076616571855e+03, 2.269146229241204e+01, 7.056568174434435e+03, 1.018565282251635e+03, -4.258449717370802e+02, 3.804445558385834e+03
3446, 2.941927995065490e-01, 9.549185169571639e-02, 7.426407873197033e-02, 0.000000000000000e+00, 0.000000000000000e+00, 0.000000000000000e+00, 4.255776335111602e+03, 4.131802738399321e+03, 4.264518038252545e+01, 8.316203763127472e+03, 6.134630929196099e+02, -9.337274423331077e+02, 4.555857074838555e+03
3447, 6.812353699063157e-01, 1.113412986387607e+00, 4.307694521635341e-02, 0.000000000000000e+00, 0.000000000000000e+00, 0.000000000000000e+00, 5.192482979510959e+03, 5.361456686337390e+03, 1.931676832879647e+02, 1.014692110005980e+04, 5.997685543704542e+02, 1.543401448776472e+02, 5.000041028678949e+03
3448, 5.924117708736473e-01, 1.124699815556863e+00, 2.432241621344289e-02, 0.000000000000000e+00, 0.000000000000000e+00, 0.000000000000000e+00, 3.893736867897159e+03, 3.419258810266415e+03, -2.834247675123710e+02, 6.792861762711260e+03, -8.328509297731395e+02, 7.526030579728983e+02, 3.745233054247090e+03
3449, 5.526666436745105e-01, 8.998668587739642e-01, 4.430049515584522e-02, 0.000000000000000e+00, 0.000000000000000e+00, 0.000000000000000e+00, 5.994123532326120e+03, 6.314500193590387e+03, 3.046328917320990e+02, 1.254408101560594e+04, 7.593223473379187e+02, -4.675192800408239e+01, 6.551397013914805e+03
3450, 9.452736759364497e-01, 9.171664878703308e-02, 1.438343664495345e-02, 0.000000000000000e+00, 0.000000000000000e+00, 0.000000000000000e+00, -3.149906638998590e+03, -3.656670789851667e+03, 2.674306998667711e+02, -6.249886754126813e+03, 1.505920777422323e+03, -8.315362919007991e+02, 4.169896322887500e+03
3451, 7.860333011560325e-01, 1.204911722721567e+00, 4.342304388721971e-02, 0.000000000000000e+00, 0.000000000000000e+00, 0.000000000000000e+00, 4.008868127404916e+03, 3.964213058963283e+03, 8.802045305820090e+01, 7.321026497269097e+03, 1.000871662214792e+03, -5.658291722422508e+02, 3.887062491203255e+03
3452, 7.705572114651197e-01, 1.100601370264950e+00, 4.626202009582608e-02, 0.000000000000000e+00, 0.000000000000000e+00, 0.000000000000000e+00, 3.259023911063124e+03, 3.174817149843778e+03, 7.709449207285830e+00, 5.898775774778594e+03, 8.515984198077598e+02, -4.011264646530236e+02, 3.139460283249993e+03
3453, 4.620371280210243e-01, 7.229618762498577e-01, 4.669111832234315e-02, 0.000000000000000e+00, 0.000000000000000e+00, 0.000000000000000e+00, 5.337803898586132e+03, 5.806129415154424e+03, 1.726325813152081e+02, 1.129705997925587e+04, 3.250931048980244e+02, -1.898072019276727e+02, 5.784093106856774e+03
3454, 7.507279395683696e-01, 1.099642677923339e+00, 4.654579600606182e-02, 0.000000000000000e+00, 0.000000000000000e+00, 0.000000000000000e+00, 3.522909113583099e+03, 3.416097097198391e+03, 1.789529834342353e+01, 6.388798945193424e+03, 9.290952665375895e+02, -4.378945550138621e+02, 3.420045978838703e+03
3455, 7.103655272772339e-01, 1.132366446928975e+00, 4.414833933075565e-02, 0.000000000000000e+00, 0.000000000000000e+00, 0.000000000000000e+00, 4.382430932244270e+03, 4.674165849569880e+03, 1.346442299012647e+02, 8.884968831048172e+03, 6.958813833588471e+02, -5.989811696572960e+02, 4.650578942492527e+03
3456, 8.201872414620541e-01, 3.562246369006240e-02, 3.494697122799133e-02, 0.000000000000000e+00, 0.000000000000000e+00, 0.000000000000000e+00, -3.284984792222978e+02, -4.071592333160367e+02, -5.783686217865041e+01, -8.691359660161772e+02, 2.815061768814534e+02, 1.503420276111140e+02, 7.559961114349487e+02
3457, 6.353134042243171e-01, 1.025227264688421e+00, 4.464934221244947e-02, 0.000000000000000e+00, 0.000000000000000e+00, 0.000000000000000e+00, 5.888319000484486e+03, 5.891647361099422e+03, 1.984656390248626e+02, 1.245067347732675e+04, 2.638865738147158e+02, -1.957487471688656e+02, 6.594292410314263e+03
3458, 3.401165282535464e-01, 6.289403463241890e-01, 2.633292005091808e-02, 0.000000000000000e+00, 0.000000000000000e+00, 0.000000000000000e+00, 3.945256816010338e+03, 3.665040398751778e+03, -3.576254123998494e+02, 6.231769170578774e+03, -1.194239458209984e+03, 4.566683879993874e+02, 3.351914049513100e+03
3459, 3.320159473927726e-01, 6.444695094600563e-01, 1.480168883824417e-02, 0.000000000000000e+00, 0.000000000000000e+00, 0.000000000000000e+00, 2.958880539563600e+03, 2.786731162988285e+03, -2.408574631110090e+02, 3.909592432078385e+03, -1.005968799577428e+03, 7.318905171031904e+02, 2.431892429133898e+03
3460, 3.646802038808595e-01, 4.601102462243379e-01, 5.626723066958669e-02, 0.000000000000000e+00, 0.000000000000000e+00, 0.000000000000000e+00, 5.476982737833958e+03, 5.700166451502928e+03, 1.816633971362785e+02, 1.124043030913767e+04, 6.150913177285433e+02, -1.198266502030895e+02, 5.766968291921053e+03
3461, 7.007309382453888e-01, 1.114526395137944e+00, 4.451397863323486e-02, 0.000000000000000e+00, 0.000000000000000e+00, 0.000000000000000e+00, 4.475810794055154e+03, 4.657440393125918e+03, 2.290990329275577e+02, 8.851394931679328e+03, 7.968433219138562e+02, -3.542257148484546e+02, 4.563195675724488e+03
3462, 5.723524631047823e-01, 1.092021215287050e+00, 2.315845806518080e-02, 0.000000000000000e+00, 0.000000000000000e+00, 0.000000000000000e+00, 2.330166393452189e+03, 2.390410467569529e+03, -1.256198094018912e+02, 4.081176809041711e+03, -8.702786880621578e+02, 4.822018877223358e+01, 2.300141381905903e+03
3463, 5.446639477673479e-01, 8.483157543126951e-01, 4.766760720977977e-02, 0.000000000000000e+00, 0.000000000000000e+00, 0.000000000000000e+00, 6.354077998164426e+03, 6.484111097912165e+03, 9.288458189076132e+01, 1.301025303234751e+04, 8.321461042082209e+02, -5.734287638263747e+02, 6.822448044141486e+03
3464, 1.083725856543975e+00, 8.026636354920491e-01, 4.296956687568623e-03, 0.000000000000000e+00, 0.000000000000000e+00, 0.000000000000000e+00, 8.174520204534416e+01, 2.057801825173213e+02, 1.038843287828149e+01, 3.030220610674064e+02, -1.715185048006818e+01, -7.698781283529775e+01, 2.364101104961703e+02
3465, 6.084272042418827e-01, 9.719617781516916e-01, 4.564005831533408e-02, 0.000000000000000e+00, 0.000000000000000e+00, 0.000000000000000e+00, 4.922041717484073e+03, 5.154758814608210e+03, 3.063146399445583e+02, 1.053546378585948e+04, 5.094758091815068e+02, -1.511117971212321e+02, 5.602411300357840e+03
3466, 4.569296567770507e-01, 6.027014944480754e-01, 5.627773468327906e-02, 0.000000000000000e+00, 0.000000000000000e+00, 0.000000000000000e+00, 5.404432537816180e+03, 5.541349371019197e+03, 1.456198594555246e+02, 1.082763594661971e+04, 1.036170146777117e+03, -3.611499366290946e+02, 5.688866545782635e+03
3467, 5.177207023996487e-01, 7.950787094613598e-01, 4.855838638679283e-02, 0.000000000000000e+00, 0.000000000000000e+00, 0.000000000000000e+00, 5.762531822583931e+03, 5.922951973080955e+03, 1.471948056936245e+02, 1.156969008415085e+04, 2.655631427292421e+02, -5.314298974293418e+02, 5.825895638074317e+03
3468, 4.115702621771921e-01, 5.143005714653004e-01, 5.784280863162952e-02, 0.000000000000000e+00, 0.000000000000000e+00, 0.000000000000000e+00, 5.316810613441522e+03, 5.547042122273037e+03, 1.497242196917935e+02, 1.081407804732026e+04, 6.458024915155175e+02, -6.583726869369516e+02, 5.623709629438021e+03
3469, 1.098416408142290e+00, 1.066486438857477e+00, 7.749503509517634e-03, 0.000000000000000e+00, 0.000000000000000e+00, 0.000000000000000e+00, -3.203321982086115e+03, -3.731260486315879e+03, -1.537622996053592e+02, -7.126489273913878e+03, -3.237062661414402e+02, -1.077260082181412e+03, 4.179177337774368e+03
3470, 3.351397370008296e-01, 4.752124252730679e-01, 4.964150307765559e-02, 0.000000000000000e+00, 0.000000000000000e+00, 0.000000000000000e+00, 5.575961612965603e+03, 5.831717004530065e+03, 1.807055532237461e+02, 1.180938201504100e+04, -3.348750540948996e+01, 1.822042803190319e+02, 6.125980148748318e+03
3471, 3.254032935387463e-01, 4.575384123550936e-01, 4.969374151100559e-02, 0.000000000000000e+00, 0.000000000000000e+00, 0.000000000000000e+00, 6.068622460256447e+03, 6.347280363104880e+03, 1.734816630059814e+02, 1.245132237452670e+04, -2.304156578143929e+02, 7.664840631013351e+01, 6.269378388061271e+03
3472, 7.679606001875161e-01, 1.169509599239369e+00, 4.445621614125625e-02, 0.000000000000000e+00, 0.000000000000000e+00, 0.000000000000000e+00, 4.142772974300293e+03, 4.099787665830160e+03, 5.714045695431683e+00, 7.511990235812119e+03, 1.206943797923611e+03, -4.506816592558282e+02, 4.059295425842359e+03
3473, 7.768479138657367e-01, 1.187137676567568e+00, 4.394462157061518e-02, 0.000000000000000e+00, 0.000000000000000e+00, 0.000000000000000e+00, 3.867992243443875e+03, 3.803692668015217e+03, -4.899964723339203e+01, 7.010364337935100e+03, 1.197851541803976e+03, -4.335075215330712e+02, 3.867327781003678e+03
3474, 3.065271795527704e-01, 4.564242489504026e-01, 4.554393891139624e-02, 0.000000000000000e+00, 0.000000000000000e+00, 0.000000000000000e+00, 5.856482952707504e+03, 6.004122354617387e+03, 9.023326548619418e+01, 1.156618239331521e+04, -7.628678743124236e+02, 2.188905958155315e+02, 5.804615066562123e+03
3475, 7.695751416121287e-01, 1.135191652752711e+00, 4.545535282268881e-02, 0.000000000000000e+00, 0.000000000000000e+00, 0.000000000000000e+00, 3.934432472897817e+03, 3.731370066007923e+03, -5.498840513101589e+01, 7.044364212384351e+03, 1.116161361274086e+03, -4.262521256840698e+02, 3.825704162751199e+03
3476, 7.784146166241405e-01, 1.152839064649893e+00, 4.490718705679750e-02, 0.000000000000000e+00, 0.000000000000000e+00, 0.000000000000000e+00, 3.733593890168483e+03, 3.696915736563529e+03, -1.838861754829890e+01, 6.770758887102280e+03, 1.128194356728187e+03, -4.586331271628072e+02, 3.713169682259655e+03
3477, 1.279592170824866e-01, 1.545008133816867e-02, 6.051103979681682e-02, 0.000000000000000e+00, 0.000000000000000e+00, 0.000000000000000e+00, 1.412342615839011e+03, 1.614103050235447e+03, 1.453055248169443e+02, 2.138638972338560e+03, -2.443044041141018e+02, -4.988850123583009e+02, 1.187741377938526e+03
3478, 7.799804742450267e-01, 1.118493963313398e+00, 4.566062056814167e-02, 0.000000000000000e+00, 0.000000000000000e+00, 0.000000000000000e+00, 3.580541308420954e+03, 3.465110162625410e+03, -4.364824034382380e+01, 6.254282448903462e+03, 9.248359480045290e+02, -4.928950645451313e+02, 3.281975894474767e+03
3479, 1.171583863159430e+00, 1.493641082019540e+00, 3.638631700950397e-03, 0.000000000000000e+00, 0.000000000000000e+00, 0.000000000000000e+00, 3.989919003088419e+02, 5.721629138525029e+02, -5.727446272435458e+01, 1.340614579410796e+03, -4.155339561053455e+02, 4.150002112715024e+01, 1.134280816000397e+03
3480, 3.674194922193641e-01, 6.484268166961111e-01, 3.322785036786430e-02, 0.000000000000000e+00, 0.000000000000000e+00, 0.000000000000000e+00, 5.002333920816046e+03, 4.835297742901555e+03, -1.057932853503434e+02, 8.887077777534721e+03, -1.486627004410517e+03, 8.001121860455437e+02, 4.934807333850837e+03
3481, 6.719292526275233e-01, 1.095857193660165e+00, 4.338426172046568e-02, 0.000000000000000e+00, 0.000000000000000e+00, 0.000000000000000e+00, 6.407390680953005e+03, 6.573087297388842e+03, 7.079101625681967e+01, 1.241573020520808e+04, 6.539597197481780e+02, 1.151833246656692e+02, 6.039028342523963e+03
3482, 5.719613072564705e-01, 9.013167624975951e-01, 4.681628500404171e-02, 0.000000000000000e+00, 0.000000000000000e+00, 0.000000000000000e+00, 5.343868666617082e+03, 5.555246493604543e+03, 2.040724975373327e+02, 1.075822729158842e+04, 8.699302664663310e+02, -2.665100514862525e+02, 5.551922200985149e+03
3483, 6.628017348443550e-01, 1.077952032614140e+00, 4.372703294141039e-02, 0.000000000000000e+00, 0.000000000000000e+00, 0.000000000000000e+00, 5.411727824060285e+03, 5.437218194622563e+03, 9.938028398620473e+01, 1.136137241749100e+04, 1.000108380787089e+03, -3.524618887789869e+02, 6.216930890186291e+03
3484, 4.428746785452982e-01, 1.635707699184203e-02, 7.589921259096176e-02, 0.000000000000000e+00, 0.000000000000000e+00, 0.000000000000000e+00, 9.872938004392637e+02, 1.188509446955704e+03, -6.057259004849772e+01, 1.600189582413169e+03, 1.360543258026503e+02, -3.813260820113429e+02, 8.919489627316747e+02
3485, 6.070029632665124e-01, 1.005931527244825e+00, 4.273262153166139e-02, 0.000000000000000e+00, 0.000000000000000e+00, 0.000000000000000e+00, 6.627634416960100e+03, 6.716078706965844e+03, 1.278430876622285e+02, 1.279690761556744e+04, -9.484934858089402e+01, -3.369569437538958e+02, 6.159444610627390e+03
3486, 6.445701807643575e-01, 1.042732255567038e+00, 4.436128579878013e-02, 0.000000000000000e+00, 0.000000000000000e+00, 0.000000000000000e+00, 5.689520717869716e+03, 5.987525931296461e+03, 1.348031806243026e+02, 1.173412377025564e+04, 4.769024396311244e+02, -6.626101751039754e+01, 5.964453454932710e+03
3487, 6.159910930638689e-01, 1.023857490166052e+00, 4.242947290247071e-02, 0.000000000000000e+00, 0.000000000000000e+00, 0.000000000000000e+00, 6.217243187303109e+03, 6.095279817843501e+03, 2.088683244007556e+02, 1.252551096018957e+04, -3.164897003667528e+02, 7.375574837381780e+01, 6.405168991084138e+03
3488, 5.992942263860019e-01, 9.541337504451944e-01, 4.595056861393855e-02, 0.000000000000000e+00, 0.000000000000000e+00, 0.000000000000000e+00, 5.273914483678878e+03, 5.601980396710655e+03, 2.615235475694059e+02, 1.098755507198999e+04, 6.913428446461364e+02, -3.118016833083965e+02, 5.727964267767540e+03
3489, 6.172434537278542e-01, 9.896607628655296e-01, 4.530091962387948e-02, 0.000000000000000e+00, 0.000000000000000e+00, 0.000000000000000e+00, 5.769562119137414e+03, 6.088178914863911e+03, 2.834441565261830e+02, 1.145735498046062e+04, 3.427796354964283e+02, -4.401760982170701e+02, 5.640483876146788e+03
3490, 4.812624903467608e-01, 7.244305377688067e-01, 4.960590195277206e-02, 0.000000000000000e+00, 0.000000000000000e+00, 0.000000000000000e+00, 5.275325925819887e+03, 5.496948373175847e+03, 1.773118413021860e+02, 1.057975670702537e+04, 5.722886840883693e+02, -2.271539227249712e+02, 5.314337182099373e+03
3491, 4.544028781252973e-01, 6.712507203291863e-01, 5.044815795977697e-02, 0.000000000000000e+00, 0.000000000000000e+00, 0.000000000000000e+00, 5.735001040803761e+03, 6.092421683406268e+03, 1.685960009488094e+02, 1.183846827340013e+04, 2.840460852546444e+02, 1.404982378438149e+02, 5.965324486524012e+03
3492, 5.810881307189115e-01, 9.187972977140551e-01, 4.654323505609692e-02, 0.000000000000000e+00, 0.000000000000000e+00, 0.000000000000000e+00, 5.495693699086745e+03, 5.586661004793048e+03, 1.705549304218654e+02, 1.092245079848529e+04, 7.644030700669690e+02, -3.355821418515760e+02, 5.580533973534363e+03
3493, 1.109621060347569e+00, 1.427192415650017e+00, 1.351711385579559e-02, 0.000000000000000e+00, 0.000000000000000e+00, 0.000000000000000e+00, -7.642394439369009e+02, -9.354768172035334e+02, 1.012335696003822e+01, -2.013894148469590e+03, -2.159867472555398e+02, -4.240516080256799e+02, 1.434116139061085e+03
3494, 5.537492290145891e-01, 8.659882898326039e-01, 4.738483359805073e-02, 0.000000000000000e+00, 0.000000000000000e+00, 0.000000000000000e+00, 6.079283618052690e+03, 6.212734584593422e+03, 1.590762295174997e+02, 1.248551137604554e+04, 9.688797821992896e+02, -2.437233298408221e+02, 6.578217766503842e+03
3495, 5.163981457944925e-01, 8.291858445641890e-01, 4.527939152224630e-02, 0.000000000000000e+00, 0.000000000000000e+00, 0.000000000000000e+00, 5.554707444146804e+03, 5.919841638086456e+03, 2.335886228606071e+02, 1.194781885739999e+04, 1.349897081420903e+02, -8.052841721552574e+02, 6.390200179265235e+03
3496, 3.740029502222025e-01, 4.777374081142582e-01, 5.604426906163913e-02, 0.000000000000000e+00, 0.000000000000000e+00, 0.000000000000000e+00, 5.390709140735858e+03, 5.680131873841545e+03, 1.992680916382888e+02, 1.092386303721166e+04, 5.391038372346288e+02, -1.068065932890784e+02, 5.488477215149952e+03
3497, 5.253649994384501e-01, 8.468381031391620e-01, 4.502457675254001e-02, 0.000000000000000e+00, 0.000000000000000e+00, 0.000000000000000e+00, 7.305535929971320e+03, 7.431972855102182e+03, 2.506111235722940e+02, 1.465174796400419e+04, 4.079877998130924e+02, -6.346407900822613e+02, 7.412831565706565e+03
3498, 6.537150466184263e-01, 1.060328723285566e+00, 4.405028196796886e-02, 0.000000000000000e+00, 0.000000000000000e+00, 0.000000000000000e+00, 5.656637194510725e+03, 6.166975772155599e+03, 1.665802948535242e+02, 1.176810874763355e+04, 6.248078813201512e+02, -3.690058412910315e+02, 6.012861871939585e+03
3499, 5.085970037794179e-01, 7.772759316360996e-01, 4.883583835855222e-02, 0.000000000000000e+00, 0.000000000000000e+00, 0.000000000000000e+00, 5.330703100338369e+03, 5.557089813727234e+03, 2.682156291897229e+02, 1.083761619676322e+04, 3.259313754529467e+02, -4.945239159432530e+02, 5.513512964056154e+03
3500, 5.267168443520337e-01, 8.126251074993013e-01, 4.828254061922733e-02, 0.000000000000000e+00, 0.000000000000000e+00, 0.000000000000000e+00, 5.769810486249326e+03, 5.936157085703763e+03, 1.673480077563798e+02, 1.148925720723017e+04, 4.372431462432555e+02, -6.302208642050177e+02, 5.799778207780082e+03
3501, 4.903935483217439e-01, 7.419324946191552e-01, 4.936514561473379e-02, 0.000000000000000e+00, 0.000000000000000e+00, 0.000000000000000e+00, 5.142445239272415e+03, 5.295269552596894e+03, 2.550853271965585e+02, 1.060468482388742e+04, 5.870963807973591e+02, -2.717085241125938e+02, 5.520451263842559e+03
3502, 4.631771578147253e-01, 6.890816018827552e-01, 5.013385398282527e-02, 0.000000000000000e+00, 0.000000000000000e+00, 0.000000000000000e+00, 5.453284336604526e+03, 5.804490220164863e+03, 1.420314749637030e+02, 1.114584001205159e+04, 4.833865355234875e+02, 4.488263963790336e+01, 5.594356660675120e+03
3503, 4.559908713077835e-01, 6.369023932276814e-01, 5.359119075115782e-02, 0.000000000000000e+00, 0.000000000000000e+00, 0.000000000000000e+00, 5.936971169385486e+03, 6.155385763606252e+03, 2.117105825324037e+02, 1.211282514093947e+04, 8.129639404819554e+02, -1.598031346514224e+02, 6.247702531101958e+03
3504, 4.106229228459415e-01, 5.482946878046191e-01, 5.502100243928985e-02, 0.000000000000000e+00, 0.000000000000000e+00, 0.000000000000000e+00, 5.769344607533565e+03, 5.993955786426573e+03, 1.129899727775983e+02, 1.197880980473649e+04, 6.275573179418459e+02, -6.462863474596130e+02, 6.299685373985691e+03
3505, 5.902079592060782e-01, 9.364601655163944e-01, 4.625112960979726e-02, 0.000000000000000e+00, 0.000000000000000e+00, 0.000000000000000e+00, 5.302164764659155e+03, 5.436574676225922e+03, 1.894043332842543e+02, 1.087659438202237e+04, 7.885062842715223e+02, -2.219301578895471e+02, 5.697690800816492e+03
3506, 4.647291949664900e-01, 6.547118568021904e-01, 5.324941864550851e-02, 0.000000000000000e+00, 0.000000000000000e+00, 0.000000000000000e+00, 5.458775631443401e+03, 5.655223303585513e+03, 2.178222587366961e+02, 1.143417535990257e+04, 8.444788855077818e+02, -2.123709843012221e+02, 6.081711758568771e+03
3507, 9.896538022758125e-01, 1.832313724607577e-01, 7.948757108479273e-03, 0.000000000000000e+00, 0.000000000000000e+00, 0.000000000000000e+00, -2.367953279553537e+03, -2.540417101864781e+03, -1.826504305153608e+01, -5.759535485073852e+03, -1.629590864312175e+01, 1.168682338680181e+02, 3.315180304829927e+03
3508, 3.923629423097623e-01, 5.131789219058283e-01, 5.553159800896731e-02, 0.000000000000000e+00, 0.000000000000000e+00, 0.000000000000000e+00, 5.269346850088490e+03, 5.407747368657295e+03, 1.888037751595572e+02, 1.068636663342483e+04, 4.522128684778200e+02, -5.315488365754516e+02, 5.493778501020459e+03
3509, 4.376996729529248e-01, 6.016024791681003e-01, 5.414053181761740e-02, 0.000000000000000e+00, 0.000000000000000e+00, 0.000000000000000e+00, 5.821254285451439e+03, 6.074298915832922e+03, 2.178378868716357e+02, 1.204602778588595e+04, 8.924251240363282e+02, -3.503994454732783e+02, 6.335349900527869e+03
3510, 4.663091999919918e-01, 6.203354319609735e-01, 5.599062944651329e-02, 0.000000000000000e+00, 0.000000000000000e+00, 0.000000000000000e+00, 5.240522186670380e+03, 5.393073954237239e+03, 1.771153393790720e+02, 1.066792420092159e+04, 9.909542511503906e+02, -4.289918585769564e+02, 5.678396556567797e+03
3511, 3.831794581813086e-01, 4.954636240929141e-01, 5.578847365598634e-02, 0.000000000000000e+00, 0.000000000000000e+00, 0.000000000000000e+00, 5.331223513437292e+03, 5.633933927691711e+03, 2.234078882051570e+02, 1.055029699880391e+04, 4.617641267448281e+02, -4.234613088082266e+02, 5.203639472881479e+03
3512, 4.285404714985448e-01, 5.838809290518281e-01, 5.441500655123621e-02, 0.000000000000000e+00, 0.000000000000000e+00, 0.000000000000000e+00, 5.893676455137635e+03, 6.115399215223963e+03, 2.171601610537465e+02, 1.228662362906401e+04, 8.185997291101488e+02, -3.998255896711355e+02, 6.490981922719890e+03
3513, 4.208219714511609e-01, 5.319235367181163e-01, 5.755954537686374e-02, 0.000000000000000e+00, 0.000000000000000e+00, 0.000000000000000e+00, 5.300319999371122e+03, 5.527788964979362e+03, 1.270094921815168e+02, 1.103448689319906e+04, 7.888477402593796e+02, -6.842369816102643e+02, 5.911670181165568e+03
3514, 5.435425466191336e-01, 8.822662794898574e-01, 4.453403848642783e-02, 0.000000000000000e+00, 0.000000000000000e+00, 0.000000000000000e+00, 6.704767214970207e+03, 7.004258385500683e+03, 2.001713712866383e+02, 1.352189419863539e+04, 8.844981168256899e+02, 4.278094120967532e+01, 6.855213566993676e+03
3515, 4.195198102117661e-01, 5.661051514888968e-01, 5.470941955923869e-02, 0.000000000000000e+00, 0.000000000000000e+00, 0.000000000000000e+00, 5.744012183841340e+03, 5.993574283488080e+03, 1.368049468406076e+02, 1.195723042956839e+04, 7.318093033470602e+02, -4.656989763017933e+02, 6.279266388605456e+03
3516, 4.995132672716008e-01, 7.596034213701367e-01, 4.910461688263806e-02, 0.000000000000000e+00, 0.000000000000000e+00, 0.000000000000000e+00, 5.267048831636558e+03, 5.415864628593781e+03, 1.843683087630975e+02, 1.045995878763198e+04, 4.760330783795998e+02, -4.204988009200516e+02, 5.246706408649204e+03
3517, 4.530222110352654e-01, 7.053557961067481e-01, 4.691563194867129e-02, 0.000000000000000e+00, 0.000000000000000e+00, 0.000000000000000e+00, 5.502128773152568e+03, 5.966403149158599e+03, 1.545941862409001e+02, 1.147089330786182e+04, 8.196906007922834e+01, -6.318902437261632e+01, 5.759721326872715e+03
3518, 7.509242860026808e-01, 1.480093412553821e+00, 1.350989676237213e-02, 0.000000000000000e+00, 0.000000000000000e+00, 0.000000000000000e+00, 1.164707723680077e+03, 1.624839756398968e+03, 4.526586240457772e+02, 5.201361259510646e+03, -1.536514520771532e+03, -1.441804417505265e+02, 4.733771621634099e+03
3519, 1.042261064118576e+00, 4.661773278344354e-01, 4.345575770607058e-03, 0.000000000000000e+00, 0.000000000000000e+00, 0.000000000000000e+00, 8.314637427511450e+02, 1.100003783818931e+03, -1.033058170917242e+02, 2.236536922456552e+03, -3.313744621982119e+01, -3.234416095043933e+02, 1.420626606621203e+03
3520, 3.139650357252088e-01, 9.616763450020283e-02, 7.519051347842648e-02, 0.000000000000000e+00, 0.000000000000000e+00, 0.000000000000000e+00, 4.169214076615433e+03, 4.108276991245305e+03, 3.408315158887800e+01, 8.026106313436289e+03, 6.494061295488987e+02, -8.801507738776710e+02, 4.325161838306984e+03
3521, 7.961352303787790e-01, 1.599001184686203e-02, 3.836284226132236e-02, 0.000000000000000e+00, 0.000000000000000e+00, 0.000000000000000e+00, -8.345821601400195e+01, -1.466728374220391e+02, -4.323064194105738e+01, -2.206436287752329e+02, 9.723897462725573e+01, 5.628943500604251e+01, 2.400462937670788e+02
3522, 4.835727891491524e-01, 8.785830458421284e-01, 3.146869015364895e-02, 0.000000000000000e+00, 0.000000000000000e+00, 0.000000000000000e+00, 8.258263170455451e+03, 8.228355133941752e+03, 2.567645594837874e+02, 1.552779201586717e+04, -1.028547272962457e+03, 1.062938453778657e+02, 7.514636997150230e+03
3523, 3.245146279091637e-01, 1.610673902125065e-02, 7.863312837800926e-02, 0.000000000000000e+00, 0.000000000000000e+00, 0.000000000000000e+00, 1.493932495694314e+03, 1.828779166442330e+03, -6.744124933711213e+01, 2.421919083133515e+03, 1.666377560389460e+02, -5.930909108466874e+02, 1.347133273737848e+03
3524, 4.241126818269876e-01, 1.683015266858186e-02, 7.679640869351732e-02, 0.000000000000000e+00, 0.000000000000000e+00, 0.000000000000000e+00, 1.371228732961467e+03, 1.601480978566354e+03, -8.421653586445505e+01, 2.265899166556401e+03, 1.895125533283807e+02, -5.225282626677842e+02, 1.263163116604305e+03
3525, 5.287120511746551e-01, 9.671139623298196e-01, 3.086681576586367e-02, 0.000000000000000e+00, 0.000000000000000e+00, 0.000000000000000e+00, 3.754807070617765e+03, 3.776848228156225e+03, 1.799280779012549e+01, 6.576158154757249e+03, -8.656340724932272e+02, 1.299284424586330e+02, 3.193415784883512e+03
3526, 1.000404141387503e+00, 1.307403604450595e-01, 4.495740725242689e-03, 0.000000000000000e+00, 0.000000000000000e+00, 0.000000000000000e+00, -1.119347102607942e+02, 3.697518294281436e+02, -3.780810015635725e+01, 6.071973347677962e+02, -6.991257001311061e+02, -2.224391276759913e+01, 1.369262414727221e+03
3527, 1.076611102597941e+00, 8.756770551548407e-01, 7.474165426590933e-03, 0.000000000000000e+00, 0.000000000000000e+00, 0.000000000000000e+00, 1.339253859329586e+02, 1.398467961931281e+01, -1.063142665221635e+01, 1.281872819391161e+02, -3.654253172129137e+01, 8.749458009808470e+01, 2.025870746961596e+02
3528, 1.153875553504535e+00, 1.515378277761859e+00, 7.545624651607909e-03, 0.000000000000000e+00, 0.000000000000000e+00, 0.000000000000000e+00, -3.938683867653945e+03, -3.695176209101247e+03, -1.353060982540248e+02, -8.095907818786923e+03, 6.239454908789339e+02, 1.114693173989287e+03, 4.827483049573625e+03
3529, 1.098092311268049e-01, 3.662933517118984e-02, 5.377076270744092e-02, 0.000000000000000e+00, 0.000000000000000e+00, 0.000000000000000e+00, 3.260959754098097e+03, 3.055227164874995e+03, 2.587504400597967e+02, 6.026662979356251e+03, -7.938487562628254e+02, -8.123475176257328e+02, 3.511638349311961e+03
3530, 8.039399824299394e-01, 1.584368540515768e+00, 1.322426115794944e-02, 0.000000000000000e+00, 0.000000000000000e+00, 0.000000000000000e+00, 3.893474337299824e+03, 3.296068625689888e+03, 1.301910681458433e+03, 8.415688922265506e+03, -1.790599798943318e+03, -7.005065149965599e+02, 6.299579389054232e+03
3531, 6.186220896935254e-01, 1.144173681541288e+00, 2.942895565847437e-02, 0.000000000000000e+00, 0.000000000000000e+00, 0.000000000000000e+00, 3.503314620670443e+03, 4.337921582892258e+03, 9.480864606910043e+01, 7.445198732028908e+03, -9.904499363905483e+02, 3.570339310171576e+02, 4.037010546982420e+03
3532, 4.479479888498268e-01, 8.753810057022153e-01, 1.516151513080775e-02, 0.000000000000000e+00, 0.000000000000000e+00, 0.000000000000000e+00, 2.397038105225327e+03, 3.033117059015540e+03, 3.228021715995079e+02, 6.767502783509775e+03, -1.595612634785396e+03, 8.571575614308023e+02, 5.184621236081672e+03
3533, 5.427138918657545e-01, 2.001494292618473e-02, 6.897897883389791e-02, 0.000000000000000e+00, 0.000000000000000e+00, 0.000000000000000e+00, 8.789182953577798e+02, 1.020847292729955e+03, -8.341477584682281e+01, 1.407282809030502e+03, 2.058545205764224e+02, -3.166585456037902e+02, 8.204528523058306e+02
3534, 7.748526393763683e-01, 1.673008761015867e-02, 4.158419713030435e-02, 0.000000000000000e+00, 0.000000000000000e+00, 0.000000000000000e+00, -2.692322588669901e+00, -6.718312583865004e+01, -6.513305860208784e+01, -1.464171064204791e+02, 1.330317293973667e+02, 3.579380539286380e+01, 2.919071924371563e+02
3535, 9.550297278696870e-01, 7.293857683165399e-02, 1.208560038136704e-02, 0.000000000000000e+00, 0.000000000000000e+00, 0.000000000000000e+00, -8.609225308048533e+03, -8.367642019585823e+03, 4.382447324282045e+02, -1.787681643493587e+04, 2.738192947200084e+03, 9.554912660325691e+02, 1.067678185523017e+04
3536, 1.149493931022859e+00, 1.464478596089660e+00, 7.216788153559065e-03, 0.000000000000000e+00, 0.000000000000000e+00, 0.000000000000000e+00, -1.805416730347855e+03, -2.229089203055853e+03, -1.058586963990684e+02, -4.082920368476682e+03, 8.221832860096717e+01, 8.917625550761744e+02, 2.615573494139431e+03
3537, 1.055361172183309e+00, 1.544802072134785e+00, 2.324472037337909e-02, 0.000000000000000e+00, 0.000000000000000e+00, 0.000000000000000e+00, 2.593600592576464e+03, 2.420400762085213e+03, -6.478449375523780e+01, 4.409839843444954e+03, 2.345533138180859e+02, -1.372908568138422e+03, 3.078240763882138e+03
3538, 3.955797017483230e-01, 3.333967828479166e-02, 7.757286291179373e-02, 0.000000000000000e+00, 0.000000000000000e+00, 0.000000000000000e+00, 2.134499323000074e+03, 2.230505630413523e+03, -7.405136328376663e+01, 3.730983092259694e+03, 3.755884496250994e+02, -7.747074910905684e+02, 2.155196297088479e+03
3539, 4.924052464149453e-01, 9.641047473805163e-01, 1.511395989232747e-02, 0.000000000000000e+00, 0.000000000000000e+00, 0.000000000000000e+00, 2.381104665091871e+03, 2.015474598780451e+03, -1.943583238653476e+02, 3.468611489115141e+03, -7.976699966289824e+02, 4.750987274950194e+02, 2.100784562301777e+03
3540, 5.836398061617067e-01, 1.074479456358122e+00, 3.013161618350103e-02, 0.000000000000000e+00, 0.000000000000000e+00, 0.000000000000000e+00, 4.171298121527112e+03, 4.081664725771480e+03, -3.077218770898935e+01, 7.065571979715817e+03, -1.215623490550970e+03, 7.804105408060417e+01, 3.619200508302715e+03
3541, 8.386806344515146e-01, 1.565355624236679e+00, 2.628297199735833e-02, 0.000000000000000e+00, 0.000000000000000e+00, 0.000000000000000e+00, 6.875348234851919e+03, 7.477696573893722e+03, 4.627500307184878e+02, 1.275485337857392e+04, 3.416650257713518e+02, -1.893517812995567e+03, 6.568008904194758e+03
3542, 1.010416808643578e+00, 3.397525682783035e-01, 7.625602103006869e-03, 0.000000000000000e+00, 0.000000000000000e+00, 0.000000000000000e+00, -8.566937673595699e+01, -2.936433837976459e+02, 1.851652545466399e+02, -2.214192085873804e+02, 5.074917441453077e+00, 2.527786868424247e+02, 5.727789629283834e+02
3543, 8.914846250104830e-01, 1.802334336870324e-02, 2.262199164638602e-02, 0.000000000000000e+00, 0.000000000000000e+00, 0.000000000000000e+00, -4.334421577989421e+02, -5.188808742335059e+02, -6.651037749693586e+01, -8.057233940708488e+02, 6.275628685954134e+01, 2.535112833274574e+02, 5.761733420203765e+02
3544, 1.068199434224106e+00, 8.222645967423052e-01, 7.843904563909300e-03, 0.000000000000000e+00, 0.000000000000000e+00, 0.000000000000000e+00, -4.745301883209136e+01, -3.017211418832637e+02, -1.119965959326042e+02, 1.395183156131127e+02, -1.233750418827588e+02, 3.283316586540978e+01, 4.834039452676907e+02
3545, 1.038154676188627e+00, 4.267619516537031e-01, 4.198087603656926e-03, 0.000000000000000e+00, 0.000000000000000e+00, 0.000000000000000e+00, 1.547373446983892e+02, 3.731036353825132e+02, 4.129215895906010e+01, 5.352802013767563e+02, -4.004492967573985e+02, -2.922832337018365e+02, 9.229742584284101e+02
3546, 5.815891737094604e-01, 1.142116350152701e+00, 1.483575916255685e-02, 0.000000000000000e+00, 0.000000000000000e+00, 0.000000000000000e+00, 1.792389142858493e+03, 1.664136977422118e+03, -8.909324324211563e+01, 2.369692504867364e+03, -5.849060283466756e+02, 4.062806268047324e+02, 1.403252665463630e+03
3547, 7.626070642894963e-01, 3.306434807358231e-02, 4.362068372061850e-02, 0.000000000000000e+00, 0.000000000000000e+00, 0.000000000000000e+00, 1.673834680086396e+02, 9.455913655304978e+01, -5.684248478280675e+01, 6.723927746784594e+01, 3.013794697536023e+02, -3.192281026833252e+01, 5.415519037615435e+02
3548, 1.143435043698375e+00, 1.410093851198461e+00, 7.118426845169043e-03, 0.000000000000000e+00, 0.000000000000000e+00, 0.000000000000000e+00, -2.476399207130735e+03, -3.045963852964921e+03, -5.065452637688609e+02, -5.747009854402154e+03, 3.381186305333163e+02, 5.829225959176074e+02, 3.360149831931586e+03
3549, 3.758327087769316e-01, 3.291158993974801e-02, 7.801814513735951e-02, 0.000000000000000e+00, 0.000000000000000e+00, 0.000000000000000e+00, 2.118653719234006e+03, 2.258347076199199e+03, -8.408760587896049e+01, 3.741856463347843e+03, 3.756982101308972e+02, -7.768632583885385e+02, 2.163968558111401e+03
3550, 8.913123304938741e-02, 1.312611357896429e-02, 5.169597851926548e-02, 0.000000000000000e+00, 0.000000000000000e+00, 0.000000000000000e+00, 1.470649754700219e+03, 1.631268599790878e+03, 1.710743731557855e+02, 2.191122132161062e+03, -3.016496262187408e+02, -4.606558239748159e+02, 1.194380842874775e+03
3551, 1.064851719467001e+00, 7.732757603963660e-01, 7.332043760096069e-03, 0.000000000000000e+00, 0.000000000000000e+00, 0.000000000000000e+00, -5.372052291653175e+02, -7.899978692294615e+02, -1.254857058294739e+02, -8.478221326434597e+02, -5.620548031021975e+01, -5.439745109469128e+02, 1.013068247134037e+03
3552, 1.118485752315489e+00, 1.222561166908358e+00, 7.537507015172545e-03, 0.000000000000000e+00, 0.000000000000000e+00, 0.000000000000000e+00, -2.556512512722989e+01, -5.737140608493498e+02, 2.963402947258308e+02, -3.354327528752907e+02, 1.112372995741238e+02, -4.782213614524014e+02, 1.101495585568566e+03
3553, 1.019445467379190e+00, 5.488545754944916e-01, 1.082677552234557e-02, 0.000000000000000e+00, 0.000000000000000e+00, 0.000000000000000e+00, -5.864637868571106e+02, -9.765392304364755e+02, 1.120664634198365e+02, -1.552356480446026e+03, 4.306848820235891e+02, 2.855722831044638e+02, 1.243839295256473e+03
3554, 1.134681522409953e+00, 1.327925910634895e+00, 6.888384880070628e-03, 0.000000000000000e+00, 0.000000000000000e+00, 0.000000000000000e+00, -5.830378526710759e+01, -1.008466406336983e+02, 7.336402486410147e+01, 9.766166743221018e+01, -1.822946028796897e+01, -5.897920613384061e+01, 2.456618672958937e+02
3555, 8.613243982502439e-01, 1.586876966142404e+00, 2.781776161246438e-02, 0.000000000000000e+00, 0.000000000000000e+00, 0.000000000000000e+00, 5.366869650800311e+03, 5.616070364074637e+03, 1.871536895987109e+01, 1.114804747223890e+04, 5.514720790939606e+02, -2.610248805101952e+03, 7.307328923258944e+03
3556, 7.354552647503976e-01, 1.640411719647405e-02, 4.722131155786467e-02, 0.000000000000000e+00, 0.000000000000000e+00, 0.000000000000000e+00, 2.962424696505052e+02, 2.625734833352201e+02, -6.672927468359491e+01, 3.250786643538260e+02, 1.697240743110901e+02, -6.989497696904235e+01, 3.425917514002517e+02
3557, 1.098141454975737e+00, 1.033651321058714e+00, 7.031285392135542e-03, 0.000000000000000e+00, 0.000000000000000e+00, 0.000000000000000e+00, -3.588897705780725e+03, -3.678580807573437e+03, -5.527159648134418e+01, -7.110149127651792e+03, -2.780641534356237e+02, 1.142157547325645e+03, 4.030651726733529e+03
3558, 1.047303767626794e+00, 6.358768168822934e-01, 7.484763933164417e-03, 0.000000000000000e+00, 0.000000000000000e+00, 0.000000000000000e+00, -2.377337236716733e+03, -3.006783237625732e+03, -3.998593011693119e+01, -6.538913051701681e+03, -1.085185480841195e+03, 9.909930314772498e+02, 4.645353490351735e+03
3559, 1.126044501043171e+00, 1.272527176950888e+00, 7.252882039409811e-03, 0.000000000000000e+00, 0.000000000000000e+00, 0.000000000000000e+00, 3.977905846882202e+02, 2.173195648958683e+02, 6.455135377505133e+01, 5.215850068584616e+02, 1.485017342282598e+02, 7.928695645424598e+01, 4.095782525712686e+02
3560, 3.566218679366780e-01, 3.269142636291344e-02, 7.822757372167310e-02, 0.000000000000000e+00, 0.000000000000000e+00, 0.000000000000000e+00, 2.365875002615901e+03, 2.586730221773549e+03, -1.017558783083010e+02, 4.189378644032729e+03, 3.964832342123964e+02, -8.774739726395682e+02, 2.404943579599065e+03
3561, 1.021554213697067e+00, 2.882596115311651e-01, 4.120316336816794e-03, 0.000000000000000e+00, 0.000000000000000e+00, 0.000000000000000e+00, -3.400263944870794e+00, -2.712458351538987e+01, -2.810498640725417e+01, -5.422936358962196e+01, 5.117344891436272e+01, -5.591584969156283e+01, 1.467860281182891e+02
3562, 8.215248548381914e-01, 1.586171913561474e+00, 1.954162188829453e-02, 0.000000000000000e+00, 0.000000000000000e+00, 0.000000000000000e+00, 6.122081510968578e+03, 5.993771017640044e+03, 1.719201933999139e+03, 1.347177381468162e+04, -1.119440088643674e+03, -2.912938645373069e+03, 9.646736341798185e+03
3563, 9.756437362786468e-01, 7.900232476495575e-02, 8.200265543577135e-03, 0.000000000000000e+00, 0.000000000000000e+00, 0.000000000000000e+00, -5.021969141315300e+03, -5.461104953770207e+03, -3.257636612265699e+02, -9.609117335319454e+03, -1.767586482757755e+03, -6.762092317291531e+02, 5.503055183509349e+03
3564, 7.174706815098109e-02, 3.517632594847645e-02, 4.254641790077619e-02, 0.000000000000000e+00, 0.000000000000000e+00, 0.000000000000000e+00, 2.355348051312859e+03, 1.891900636811700e+03, 1.544732988716150e+02, 3.504048651190499e+03, -9.053460134985944e+02, -4.588665259660843e+02, 2.286673255154540e+03
3565, 8.763658135235668e-01, 1.564280584472910e+00, 3.107030582180905e-02, 0.000000000000000e+00, 0.000000000000000e+00, 0.000000000000000e+00, 7.544754349986669e+03, 7.586459055175299e+03, 8.187573885371035e+01, 1.558722266574041e+04, 8.934956004712549e+02, -1.790886875005622e+03, 8.739826576852969e+03
3566, 1.057173969530167e+00, 5.801341552143278e-01, 4.153199830863456e-03, 0.000000000000000e+00, 0.000000000000000e+00, 0.000000000000000e+00, -2.305022061223234e+02, -3.019081431529247e+02, 1.436464824574551e+02, -1.658017204821957e+02, 1.829167886943230e+02, 7.689401008025781e+01, 4.403653214926828e+02
3567, 7.233700111940776e-01, 3.191168661963760e-02, 4.906905509049935e-02, 0.000000000000000e+00, 0.000000000000000e+00, 0.000000000000000e+00, 4.509980038028499e+02, 3.823292618485320e+02, -4.731128475162738e+01, 6.139333672306468e+02, 2.884383603361047e+02, -1.171730235890336e+02, 5.830485260328444e+02
3568, 1.059217494926917e+00, 7.372500129479618e-01, 7.574381283750630e-03, 0.000000000000000e+00, 0.000000000000000e+00, 0.000000000000000e+00, -3.480000696786127e+03, -3.873676768061640e+03, -7.669018948877955e+01, -8.153888557910818e+03, -6.187961285835036e+02, 6.577241542009834e+02, 4.756509651783885e+03
3569, 3.464774486315250e-01, 1.571889276418849e-02, 7.874544973451444e-02, 0.000000000000000e+00, 0.000000000000000e+00, 0.000000000000000e+00, 1.356640916187907e+03, 1.670959196059576e+03, -8.661909526570678e+01, 2.221331017838838e+03, 1.756866438564344e+02, -5.409504653005470e+02, 1.252072385603484e+03
3570, 9.528067322121410e-01, 1.381035222532922e-02, 1.112216480239778e-02, 0.000000000000000e+00, 0.000000000000000e+00, 0.000000000000000e+00, -3.602897175651927e+02, -4.766698065051725e+02, -1.829580672782643e+02, -4.478258664054207e+02, 4.976455499081375e+01, 3.719982296829038e+02, 7.307653400897618e+02
3571, 1.180987673688833e+00, 1.570478020998544e+00, 3.636384920176820e-03, 0.000000000000000e+00, 0.000000000000000e+00, 0.000000000000000e+00, 4.242918954856997e+02, 4.056123087848539e+02, -9.287140181943043e+01, 4.208100199053071e+02, 2.175748325288143e+02, -2.060135683552990e+02, 5.436106111336310e+02
3572, 1.083931809516818e+00, 9.306600814881497e-01, 7.353692260296870e-03, 0.000000000000000e+00, 0.000000000000000e+00, 0.000000000000000e+00, 6.428025343627435e+02, 1.292247809297783e+02, 1.828714421538521e+02, 3.308660042139491e+02, -1.866362996574960e+02, 3.649386308398663e+02, 8.973453494885204e+02
3573, 1.107608824929033e+00, 9.763389564466850e-01, 3.770233349798187e-03, 0.000000000000000e+00, 0.000000000000000e+00, 0.000000000000000e+00, -2.027961997198725e+01, 1.031192702790205e+00, -1.525662235215337e+01, -4.414638467741815e+01, -2.079939284365375e+01, 3.494624702876310e+01, 8.480714412785558e+01
3574, 6.968636564222846e-01, 1.513336699491814e-02, 5.235519027396273e-02, 0.000000000000000e+00, 0.000000000000000e+00, 0.000000000000000e+00, 3.643451422715456e+02, 3.847340342432954e+02, -5.950107688091970e+01, 5.138617228493555e+02, 1.346733806739827e+02, -1.085876017689101e+02, 3.465950547603730e+02
3575, 2.965167151218032e-01, 3.162995318177075e-02, 7.738770159827889e-02, 0.000000000000000e+00, 0.000000000000000e+00, 0.000000000000000e+00, 2.623613210354956e+03, 2.790426064569952e+03, -2.661892575899662e+01, 4.794340043793130e+03, 3.634030131010855e+02, -9.775853739486381e+02, 2.764616938461168e+03
3576, 8.973694196508073e-01, 1.566717317571147e+00, 3.218461275055497e-02, 0.000000000000000e+00, 0.000000000000000e+00, 0.000000000000000e+00, 4.912522058780584e+03, 5.223182228020533e+03, -1.588803192053901e+02, 1.088987126657698e+04, 1.488654938501009e+03, -1.698176550101986e+03, 7.024507755523347e+03
3577, 3.168946422545209e-01, 3.173286072529216e-02, 7.795027371597958e-02, 0.000000000000000e+00, 0.000000000000000e+00, 0.000000000000000e+00, 2.409722871072383e+03, 2.466434848674942e+03, -3.208226882922448e+01, 4.351730570479164e+03, 3.626686171233023e+02, -8.637633058642747e+02, 2.510061671540537e+03
3578, 1.105375562166565e+00, 1.114015037519880e+00, 7.522851282929014e-03, 0.000000000000000e+00, 0.000000000000000e+00, 0.000000000000000e+00, -1.607232226839737e+03, -2.026740195182344e+03, -5.342563383346469e+01, -3.681173400346720e+03, -7.717923142063999e+02, -3.077934777323002e+02, 2.384732181434601e+03
3579, 1.832572611222149e-01, 1.435170036695370e-02, 6.956902272087379e-02, 0.000000000000000e+00, 0.000000000000000e+00, 0.000000000000000e+00, 1.573613444413862e+03, 1.967779845714926e+03, 5.349493244742265e+00, 2.607702452400887e+03, -3.393187314238208e+01, -6.322669461831242e+02, 1.421241895821034e+03
3580, 9.948520385853147e-01, 2.014263725360154e-01, 7.358164502915990e-03, 0.000000000000000e+00, 0.000000000000000e+00, 0.000000000000000e+00, 5.432513485756173e+02, 1.196185226184775e+02, 2.493904407273843e+02, 2.065853715626106e+02, -1.537459387178775e+02, 6.973431765690038e+02, 1.366216939793341e+03
3581, 5.185815856082523e-02, 1.168989877985947e-02, 3.968909148684694e-02, 0.000000000000000e+00, 0.000000000000000e+00, 0.000000000000000e+00, 9.119438914465746e+02, 9.357946418700378e+02, 1.450933202376872e+02, 1.167744142224816e+03, -2.614955274444044e+02, -2.586487466173335e+02, 7.272517228495404e+02
3582, 1.170489470055566e+00, 1.473342319283169e+00, 3.362166827049665e-03, 0.000000000000000e+00, 0.000000000000000e+00, 0.000000000000000e+00, 7.295077965572610e+02, 9.015821514198225e+02, 9.326245256696068e+01, 1.636256287099412e+03, -2.324242926525801e+02, 1.372008705722400e+02, 9.697439324110804e+02
3583, 1.072425753497775e+00, 6.830847344315776e-01, 3.617238244498660e-03, 0.000000000000000e+00, 0.000000000000000e+00, 0.000000000000000e+00, 3.934403148045820e+01, 5.281444831553466e+01, -1.676779137646093e+01, -5.291565401962895e+01, 1.055125408131682e+02, -1.218071055158369e+01, 2.112424023181766e+02
3584, 1.118629863850732e+00, 1.188882433327822e+00, 6.724537731646166e-03, 0.000000000000000e+00, 0.000000000000000e+00, 0.000000000000000e+00, -7.649832066044979e+03, -9.277690008164851e+03, 2.295858866021742e+02, -2.017734748146719e+04, -2.733949278604308e+03, -5.599054364432384e+02, 1.275608073839844e+04
3585, 1.025112080396727e+00, 4.414655269753867e-01, 7.177400098051713e-03, 0.000000000000000e+00, 0.000000000000000e+00, 0.000000000000000e+00, -1.664156359256469e+02, -3.667969899249160e+02, -4.048462788900346e+01, 3.406263208862171e+02, -3.067068567737732e+02, -2.453209450976050e+01, 8.293224711074511e+02
3586, 9.875529882673285e-01, 1.453642731043238e-02, 4.208965974590057e-03, 0.000000000000000e+00, 0.000000000000000e+00, 0.000000000000000e+00, 5.460908005188782e+02, 4.479543905316925e+02, -1.418053201747854e+02, 5.223478436363434e+02, 5.908501815245174e+01, -1.535605193861984e+02, 3.865311091724576e+02
3587, 1.139304877450187e+00, 1.379367873491837e+00, 7.195496802520132e-03, 0.000000000000000e+00, 0.000000000000000e+00, 0.000000000000000e+00, -5.532901696393026e+03, -5.703475193755447e+03, -3.627197214565491e+02, -1.190499142851058e+04, -3.141165076139818e+02, 2.953916005899711e+03, 8.149434144825318e+03
3588, 9.970594848642352e-01, 2.367271587940835e-01, 7.777043579902558e-03, 0.000000000000000e+00, 0.000000000000000e+00, 0.000000000000000e+00, -4.399081716877708e+03, -5.737186922670224e+03, 4.965135733689345e+02, -9.535626372736351e+03, -7.706594839299794e+01, -2.241290032708826e+03, 6.093350236002566e+03
3589, 2.761665101914040e-01, 3.058949680749273e-02, 7.657390936969594e-02, 0.000000000000000e+00, 0.000000000000000e+00, 0.000000000000000e+00, 2.769247969708205e+03, 2.894507652280192e+03, 1.354080993498390e+01, 5.138459080643896e+03, 3.505203398388223e+02, -9.838588789686298e+02, 2.933455830970840e+03
3590, 6.787910222554470e-01, 1.289338326515920e-02, 5.461429661432379e-02, 0.000000000000000e+00, 0.000000000000000e+00, 0.000000000000000e+00, 3.948387592949160e+02, 4.632794526071989e+02, -8.711690409965483e+01, 5.634753412776192e+02, 1.302514738699181e+02, -1.355100829250628e+02, 3.877295097020867e+02
3591, 9.200567158939118e-01, 1.587054349815887e+00, 3.199641608561030e-02, 0.000000000000000e+00, 0.000000000000000e+00, 0.000000000000000e+00, 4.050472620059676e+03, 3.692388191497097e+03, -7.645021549314116e+01, 7.370681431262192e+03, 1.637585695092698e+03, -1.383233380864516e+03, 5.113073877161456e+03
3592, 1.035717617254516e+00, 3.867484160801763e-01, 3.692938410679622e-03, 0.000000000000000e+00, 0.000000000000000e+00, 0.000000000000000e+00, -2.638003906110669e+02, -4.053785638617430e+02, -3.610798783509262e+01, -6.223918241820930e+02, 3.396004158213272e+02, 2.377143336115079e+02, 7.856745357403646e+02
3593, 1.103277447130269e+00, 1.085025589626829e+00, 7.247956975468568e-03, 0.000000000000000e+00, 0.000000000000000e+00, 0.000000000000000e+00, 1.140268456220002e+01, -6.636267837881647e+01, 1.189641727592676e+02, -4.948732146054696e+02, 1.331241481932418e+02, -2.830274530974065e+02, 7.476156539440236e+02
3594, 1.010737447988009e+00, 3.758503133843846e-01, 8.431836550655568e-03, 0.000000000000000e+00, 0.000000000000000e+00, 0.000000000000000e+00, -3.667102621612625e+03, -3.665474230059963e+03, -5.885209428518915e+02, -8.013337201006486e+03, -1.453442595197927e+03, 2.714480308468717e+01, 5.125973312122232e+03
3595, 1.030826600760199e+00, 4.945476747705640e-01, 7.330272647036444e-03, 0.000000000000000e+00, 0.000000000000000e+00, 0.000000000000000e+00, 8.159725888256713e+02, 2.549224901448312e+02, 3.242472189318670e+02, 1.000141964339607e+03, 5.803038870921487e+02, 1.888913897083513e+02, 1.372854788682632e+03
3596, 1.115306799820291e+00, 1.446508524059819e+00, 1.293490822855311e-02, 0.000000000000000e+00, 0.000000000000000e+00, 0.000000000000000e+00, -2.376987371368266e+02, -3.293580452159425e+02, 9.552083642580430e+01, -5.608875244503839e+02, 2.616020106456593e+02, -1.423800884394284e+02, 6.137792401399137e+02
3597, 9.874873323789944e-01, 1.430062921603185e-01, 7.401815932504401e-03, 0.000000000000000e+00, 0.000000000000000e+00, 0.000000000000000e+00, -2.856984435581039e+02, -6.811155076271245e+02, -2.231698730800300e+02, -3.850645097276006e+02, 5.796539611988869e+01, 5.566066616605743e+01, 5.438068581564223e+02
3598, 2.565563354740250e-01, 3.021849024303193e-02, 7.546626054406066e-02, 0.000000000000000e+00, 0.000000000000000e+00, 0.000000000000000e+00, 2.643483316594187e+03, 2.832072221381929e+03, 4.247426640557776e+01, 5.105227536701728e+03, 2.249174446115486e+02, -9.242761368320963e+02, 2.889900971633444e+03
3599, 1.060785369584927e+00, 6.094209348210966e-01, 4.148639984059077e-03, 0.000000000000000e+00, 0.000000000000000e+00, 0.000000000000000e+00, 9.485964067672950e+02, 1.065473670720454e+03, -7.986503789827401e+01, 2.346278102832325e+03, -1.192097161659845e+02, 5.826761669414580e+00, 1.365901607512840e+03
3600, 1.090954766140616e+00, 1.136255729151970e+00, 1.073616959526962e-02, 0.000000000000000e+00, 0.000000000000000e+00, 0.000000000000000e+00, 3.180187353432054e+02, 2.553362162473945e+00, -1.223831887347676e+02, 1.026583174675871e+02, 3.160316561174669e+02, 4.385888291419953e+02, 9.998005788527449e+02
3601, 1.082338617441546e+00, 8.925415822483059e-01, 6.757596041959019e-03, 0.000000000000000e+00, 0.000000000000000e+00, 0.000000000000000e+00, -7.581738528841935e+03, -7.659468650954761e+03, -4.777652024802043e+02, -1.578713941238504e+04, -6.336999539911566e+02, 2.986211810452238e+03, 9.764155232824420e+03
3602, 9.356801399382250e-01, 1.567270993865158e+00, 3.253071676497256e-02, 0.000000000000000e+00, 0.000000000000000e+00, 0.000000000000000e+00, 4.337460197589518e+03, 4.022301660668744e+03, -1.991804678527767e+01, 6.737907525496887e+03, 1.112845489762950e+03, -1.694412176905092e+03, 4.352879168897700e+03
3603, 9.977310539684252e-01, 3.510218218885998e-01, 1.037643884725496e-02, 0.000000000000000e+00, 0.000000000000000e+00, 0.000000000000000e+00, 3.164763807990583e+02, -1.026261874460984e+02, 1.565461106429246e+02, 3.453207575666465e+00, 2.771591884708747e+01, 5.222303357830318e+02, 1.018056872403220e+03
3604, 1.083864713984921e+00, 7.814092132218295e-01, 3.742142587818899e-03, 0.000000000000000e+00, 0.000000000000000e+00, 0.000000000000000e+00, -4.015914526098662e+01, -6.245777492890054e+01, -3.166510011706986e+01, -6.146374040004035e+01, 4.361301570426577e+00, -1.415105162903435e+02, 2.522237669106357e+02
3605, 6.634313528631816e-01, 3.138302049291149e-02, 5.665298177349092e-02, 0.000000000000000e+00, 0.000000000000000e+00, 0.000000000000000e+00, 8.075888199936703e+02, 8.006307238411557e+02, -8.532336119055580e+01, 1.262747311915359e+03, 2.970785340173687e+02, -2.044878286518721e+02, 7.889472191715230e+02
3606, 1.179433863569770e+00, 1.532359788470115e+00, 3.017772701372251e-03, 0.000000000000000e+00, 0.000000000000000e+00, 0.000000000000000e+00, 5.173461652233344e+02, 5.565437066278262e+02, -1.992297219211743e+01, 9.225367099517596e+02, 1.917989346227032e+02, -1.267735736025864e+02, 5.564164240546827e+02
3607, 3.532426862251842e-02, 3.137288372321962e-02, 2.690561031945159e-02, 0.000000000000000e+00, 0.000000000000000e+00, 0.000000000000000e+00, 1.057936805389726e+03, 4.785190910822733e+02, 2.016713233744667e+01, 8.003252745096279e+02, -3.585933559959557e+02, -1.233747014287191e+02, 8.279345261101400e+02
3608, 2.131095368675166e-01, 2.626730404514940e-02, 7.209286868194584e-02, 0.000000000000000e+00, 0.000000000000000e+00, 0.000000000000000e+00, 2.412055534185436e+03, 2.550413279474094e+03, 1.389320231551153e+02, 4.649047242838254e+03, 2.350121485347373e+01, -8.910990633910925e+02, 2.674977664584570e+03
3609, 1.008023670602343e+00, 5.590358701811944e-01, 1.321500566645089e-02, 0.000000000000000e+00, 0.000000000000000e+00, 0.000000000000000e+00, -5.680210551209210e+03, -4.888367766393530e+03, -6.002937826458431e+02, -1.147376410496430e+04, 1.529172490414661e+03, 1.844893487897205e+03, 7.555588705978266e+03
3610, 6.376303206061545e-01, 1.374629742880378e-02, 5.950466320398717e-02, 0.000000000000000e+00, 0.000000000000000e+00, 0.000000000000000e+00, 4.804141361458236e+02, 5.572689260221431e+02, -6.325659676297492e+01, 7.179242360344331e+02, 1.103226917139709e+02, -1.652190881992661e+02, 4.177001781121559e+02
3611, 2.382736648180207e-01, 2.952977946539484e-02, 7.417535719972269e-02, 0.000000000000000e+00, 0.000000000000000e+00, 0.000000000000000e+00, 2.306481536365025e+03, 2.258016620547571e+03, 6.761889761102798e+01, 4.520096754786964e+03, 1.361724609194001e+02, -7.050962060886563e+02, 2.563308721420468e+03
3612, 9.996594042143584e-01, 9.033081197068590e-02, 3.631074251038502e-03, 0.000000000000000e+00, 0.000000000000000e+00, 0.000000000000000e+00, -5.356242346897757e+02, -7.844091349466535e+02, 1.351284084513682e+02, -8.038741417644587e+02, -1.685940520182608e+02, 5.017132529070143e+02, 9.809765036600670e+02
3613, 9.578117179770163e-01, 1.588357983313492e+00, 3.148063412853576e-02, 0.000000000000000e+00, 0.000000000000000e+00, 0.000000000000000e+00, 2.455075777814245e+03, 3.500612814516031e+03, -4.010330015739218e+02, 3.840309261605376e+03, 1.271168580449068e+03, -2.224446022480769e+03, 4.662432626168083e+03
3614, 1.033267409230595e+00, 5.222259676250688e-01, 7.515866053716522e-03, 0.000000000000000e+00, 0.000000000000000e+00, 0.000000000000000e+00, -7.621068523803123e+03, -8.709723238521947e+03, 5.373491887226991e+02, -1.763661728556762e+04, -1.242237881148224e+03, -3.143346965536247e+03, 1.121296122602545e+04
3615, 9.414150416919769e-01, 6.078106324703577e-02, 1.440417869092544e-02, 0.000000000000000e+00, 0.000000000000000e+00, 0.000000000000000e+00, -9.368511513306111e+02, -1.053322944899878e+03, -2.617014823666767e+02, -1.451883855877550e+03, 5.408234720000612e+02, 1.465584011105203e+01, 1.141234000882465e+03
3616, 1.132368925687721e+00, 1.287472798235699e+00, 6.388749559411431e-03, 0.000000000000000e+00, 0.000000000000000e+00, 0.000000000000000e+00, 2.540850596966979e+02, 3.947729616548400e+02, 7.593138290186103e+01, 4.787837977170357e+02, 4.622682869266205e+02, 9.650572653882783e+01, 8.514592840455366e+02
3617, 1.009235942310377e+00, 2.999645818439003e-01, 6.893873686828547e-03, 0.000000000000000e+00, 0.000000000000000e+00, 0.000000000000000e+00, -5.753155918636055e+01, 1.099407916925003e+01, -5.986821802110953e+01, 1.920937545449989e+02, 2.503385958817822e+02, 4.289325712350795e+01, 5.041658152489206e+02
3618, 1.021224694862757e+00, 5.838426914099273e-01, 1.129634836824363e-02, 0.000000000000000e+00, 0.000000000000000e+00, 0.000000000000000e+00, -7.790368999246602e+03, -9.069963428739318e+03, 5.714376511638887e+02, -1.482126693430849e+04, 1.139272900736698e+03, -3.487189243718529e+03, 9.133953552777133e+03
3619, 1.139336112741102e+00, 1.346023194350482e+00, 6.418409398377165e-03, 0.000000000000000e+00, 0.000000000000000e+00, 0.000000000000000e+00, 3.545006905313661e+02, 2.126269661748397e+02, 3.235998839246967e-01, 1.053372771738121e+03, 7.465179214771976e+01, 7.689396782609822e+01, 8.013482113226609e+02
3620, 1.073404343967663e+00, 8.359343780601525e-01, 7.154406544228886e-03, 0.000000000000000e+00, 0.000000000000000e+00, 0.000000000000000e+00, 6.161049773286236e+01, 9.332321536763942e+01, 1.123730333539558e+02, 2.787264852185213e+02, -7.297879299250937e+01, 3.035286408009937e+01, 3.128648399957412e+02
3621, 6.199542727551007e-01, 1.132756421918195e-02, 6.144782765283631e-02, 0.000000000000000e+00, 0.000000000000000e+00, 0.000000000000000e+00, 3.275027576228239e+02, 3.910835989159966e+02, -4.313433134689357e+01, 4.995175555052317e+02, 7.289263695442435e+01, -1.182470228578805e+02, 2.935363094045272e+02
3622, 9.746012400921521e-01, 1.568598147057576e+00, 3.087208851575568e-02, 0.000000000000000e+00, 0.000000000000000e+00, 0.000000000000000e+00, 2.586156697124094e+03, 2.287533907355343e+03, -9.483857987013768e+01, 4.123551879159915e+03, 1.345222759664486e+03, -9.971066683104709e+02, 3.369032764247594e+03
3623, 1.116084269945286e+00, 1.407837461465149e+00, 1.202549689890209e-02, 0.000000000000000e+00, 0.000000000000000e+00, 0.000000000000000e+00, 2.655457725421126e+02, 3.287781024707577e+01, 2.756214622354494e+01, 4.408191861027546e+02, 2.292797445436408e+02, -2.855415718208560e+02, 7.281649849851923e+02
3624, 1.143713607819219e+00, 1.235899923130211e+00, 2.899261642420351e-03, 0.000000000000000e+00, 0.000000000000000e+00, 0.000000000000000e+00, -2.068717127413797e+01, -3.560421332915694e+01, -1.759224874752543e+01, -7.372964542965435e+01, 6.234127781855965e+01, -3.849881808062685e+01, 1.388489423059545e+02
3625, 1.103500076428653e+00, 1.050341731318676e+00, 6.384143814192118e-03, 0.000000000000000e+00, 0.000000000000000e+00, 0.000000000000000e+00, -6.752482911802442e+03, -6.934671842415291e+03, 9.066587520928033e+01, -1.395738125131540e+04, -2.039235325962872e+03, -6.713102302681420e+01, 7.946365391486175e+03
3626, 6.036984348934580e-01, 3.073621566960692e-02, 6.326416658184086e-02, 0.000000000000000e+00, 0.000000000000000e+00, 0.000000000000000e+00, 1.243215368569072e+03, 1.208923833913607e+03, -1.210650891283465e+02, 1.936509097364562e+03, 2.881536484647805e+02, -3.243511061250219e+02, 1.055596974505336e+03
3627, 2.081745608804424e-01, 1.220700903077049e-02, 7.258201220371903e-02, 0.000000000000000e+00, 0.000000000000000e+00, 0.000000000000000e+00, 1.341616518569035e+03, 1.718612362709081e+03, 1.111265743307375e+01, 2.246744466920492e+03, 1.759109810647847e+01, -5.577351732783635e+02, 1.246859005116964e+03
3628, 9.830437386333286e-01, 2.116109673829154e-01, 9.929828571282415e-03, 0.000000000000000e+00, 0.000000000000000e+00, 0.000000000000000e+00, -5.167839238828033e+03, -4.662083907169861e+03, -6.659273834593673e+02, -1.086474239001612e+04, 1.802293462829623e+03, 1.451423075559507e+03, 7.279202082891309e+03
3629, 1.051808486682984e+00, 6.520306144439166e-01, 6.986428570917573e-03, 0.000000000000000e+00, 0.000000000000000e+00, 0.000000000000000e+00, -1.324809885221355e+01, -4.813234551304309e+01, 1.745890054862274e+02, -2.380136765782243e+02, 4.122101735933263e+01, -2.977267119534665e+02, 6.374643222170440e+02
3630, 1.088009420801532e+00, 9.473206087384249e-01, 6.955322739853277e-03, 0.000000000000000e+00, 0.000000000000000e+00, 0.000000000000000e+00, 1.892748238761963e+01, 7.108016460883948e+02, 1.313069586814553e+02, 1.123423235774997e+03, -3.463845983800427e+02, 3.913274465556535e+01, 1.162193696959982e+03
3631, 1.184895168803738e+00, 1.586372055247133e+00, 3.246722639332298e-03, 0.000000000000000e+00, 0.000000000000000e+00, 0.000000000000000e+00, 5.217763942444424e+02, 4.184841267435746e+02, -1.101975976516619e+02, 5.381585986566602e+02, 5.244012275700006e+02, -4.299815573231470e+02, 1.195283530011501e+03
3632, 1.047271498605698e+00, 7.481322561916078e-01, 1.013391286244802e-02, 0.000000000000000e+00, 0.000000000000000e+00, 0.000000000000000e+00, -1.414244950061719e+04, -1.418240926491276e+04, 2.440362352953677e+02, -2.789542949541608e+04, 6.785181154880328e+01, -1.889272430266012e+03, 1.412434116289463e+04
3633, 1.780760284328722e-01, 2.816511143577125e-02, 6.771073785338583e-02, 0.000000000000000e+00, 0.000000000000000e+00, 0.000000000000000e+00, 2.697081740161934e+03, 2.747067407674183e+03, 1.459296664213492e+02, 5.271952499814669e+03, -1.861471759560696e+02, -8.610195212428289e+02, 2.982558285440667e+03
3634, 8.284385201661976e-01, 1.574433794305344e+00, 2.311895781479221e-02, 0.000000000000000e+00, 0.000000000000000e+00, 0.000000000000000e+00, 8.036352521879257e+03, 8.685854211695252e+03, 8.183485179680490e+02, 1.532923316004458e+04, 1.626560382442730e+02, -2.576950983212087e+03, 8.419127336608730e+03
3635, 1.111098943771019e+00, 1.006216305550821e+00, 3.804432908132462e-03, 0.000000000000000e+00, 0.000000000000000e+00, 0.000000000000000e+00, -1.633685506923441e+02, -3.586515806742100e+02, 2.125330988357367e+01, -7.976490421361738e+02, 2.219131759762617e+02, 4.291246416530851e+01, 6.864392971694136e+02
3636, 9.236982935833428e-01, 2.407167122448311e-02, 1.689608340499129e-02, 0.000000000000000e+00, 0.000000000000000e+00, 0.000000000000000e+00, -3.085856309181428e+03, -2.915875424774503e+03, -1.496807927851524e+02, -5.209628046409771e+03, 1.615008961072558e+03, 1.293160664515848e+03, 4.220079247604212e+03
3637, 1.020513860271570e+00, 2.482920190328389e-01, 3.326815570199574e-03, 0.000000000000000e+00, 0.000000000000000e+00, 0.000000000000000e+00, -8.897367623680125e+01, -1.297699545646405e+02, -2.664138578733152e+01, -2.764604058541798e+02, 4.285162917588050e+01, -1.218364706304390e+02, 2.851969542437487e+02
3638, 1.030845141242893e+00, 4.580912412275658e-01, 6.442190415907910e-03, 0.000000000000000e+00, 0.000000000000000e+00, 0.000000000000000e+00, 2.543823671665489e+02, 3.670781936593816e+02, 1.793483940381672e+02, 6.044804821801089e+02, -3.602877175743354e+02, -1.610947151799840e+01, 7.632248986207561e+02
3639, 1.158992049272490e+00, 1.502358911096201e+00, 6.290259728515599e-03, 0.000000000000000e+00, 0.000000000000000e+00, 0.000000000000000e+00, 5.320652545914397e+02, 4.129407695780312e+02, -5.497319745428405e+01, 7.700455455891428e+02, -2.301483691006152e+01, 1.127793893791630e+02, 3.846911994272128e+02
3640, 9.901052160079922e-01, 1.571118983516214e+00, 2.981811894039470e-02, 0.000000000000000e+00, 0.000000000000000e+00, 0.000000000000000e+00, 2.483412130059107e+03, 2.359149824387580e+03, -2.322926891733772e+02, 3.656902817853396e+03, 8.402028516486425e+02, -6.869037549723938e+02, 2.287696364330581e+03
3641, 1.028975142890019e+00, 3.675266107179126e-01, -2.304954689465234e-03, -8.753142555171092e-12, -8.365585793125658e-12, 7.465366440227071e-12, -1.764548944261519e+02, -5.238702640424762e+01, -3.472384211440909e+01, -2.131151102797261e+02, -2.318705683519120e+01, 1.738758414327830e+02, 3.423649241285917e+02
3642, 1.014187454556109e+00, 2.490050916635068e-01, -2.365478353417558e-03, -2.199421104193380e-11, 3.366233111041438e-11, 2.708995442325234e-11, 1.053488482129260e+02, 1.565363169674895e+02, -1.170426241671720e+02, 2.096198959570860e+02, 9.523753052659883e+00, -1.388709935425348e+02, 3.276884635315448e+02
3643, 3.179462667023293e-01, 1.647356229860951e-02, -4.073089783666978e-02, -2.015411137284394e-10, -3.305593410690820e-10, -1.373276174549124e-09, 3.708309790982868e+02, 5.201957921377766e+02, -3.844930005672113e+02, 8.473312681341661e+02, 2.246017590931592e+02, -2.091998580089037e+03, 3.728593116249465e+03
3644, 4.768679975056889e-01, 1.588773377884804e-02, -3.468906578028547e-02, -1.618212215679305e-10, -2.071814950197043e-10, -1.008230098558635e-09, 7.068845921795937e+02, 6.945689473866024e+02, -3.846855628753560e+02, 1.396119655622732e+03, 5.582459373573194e+00, -1.568327585592159e+03, 2.882131452173291e+03
3645, 6.162722133879953e-01, 1.616559127668040e-02, -2.689859132449233e-02, -1.027024489831462e-11, -1.357554513629776e-10, -7.001396406239741e-10, 5.158924895719625e+02, 7.290374631004375e+02, -7.730493293622635e+01, 9.753106179719744e+02, 2.192104117189523e+02, -1.518263680629221e+03, 2.689987865245283e+03
3646, 1.043764437601881e+00, 4.860479271087380e-01, -2.248489013796887e-03, -3.718577001549477e-11, 2.855715584989709e-12, 2.990208544145170e-12, 8.251000894530309e+02, 5.944754354947239e+02, 3.948016915231278e-02, 9.985245039902612e+02, 3.759520702821817e+02, 7.079313721483587e-01, 7.397844887441548e+02
3647, 1.046229643727191e+00, 5.058010152342036e-01, -2.239422925386681e-03, -1.941397501859868e-10, 8.332937635435299e-11, -5.083305804556598e-11, 6.780379070114705e+02, -3.954054046758772e+01, 2.811249406768774e+02, -3.343885267805167e+02, -5.683701747713246e+02, 6.475418108839447e+02, 1.810411438769947e+03
3648, 1.061020038396579e+00, 6.243226171602039e-01, -2.185074643011064e-03, 6.514621258442613e-11, -8.270482197437756e-11, -2.923048747525859e-11, -8.028281963125454e+01, -2.991543338412774e+02, -6.583168214177175e+01, -7.975920631214246e+02, 2.463144808838040e+01, 4.666253226874764e+02, 1.036087767225683e+03
3649, 1.063485412221829e+00, 6.440756198403712e-01, -2.175982723066901e-03, -3.700438929048121e-11, 4.522693499333298e-13, 2.396310202981762e-11, 2.968628819292230e+01, -2.237626428966564e+02, 6.477590360989466e+01, -9.304869250188261e+02, -3.449465686332631e+01, -1.081451580710064e+02, 8.910991012535362e+02
3650, 1.078276610893791e+00, 7.625971858580506e-01, -2.121490570170384e-03, -3.222637984125751e-13, 6.682961602590125e-11, 3.398972542165205e-12, -1.177013829297318e+02, -3.515479978425701e+02, -1.687786163966122e+02, -1.495725918339241e+02, -1.119206444593204e+02, -2.375513019955230e+02, 5.835891176280794e+02
3651, 1.080742131335015e+00, 7.823501516631507e-01, -2.112372218198910e-03, -2.031196518651061e-12, 2.482287198909244e-11, 2.029282275941612e-12, 3.634001643494837e+01, -7.244377699108762e+01, -5.582264850055088e+01, 4.881469372009845e+01, 5.122740793254989e+01, -1.166346870283539e+02, 2.671680573801616e+02
3652, 1.095534151636504e+00, 9.008716336439521e-01, -2.057717428835921e-03, -1.916903944250751e-10, -9.567094137810051e-11, 1.282948227823083e-10, -4.640584279193880e+02, -1.078538844542806e+03, -4.236351957748826e+01, -1.747137167170606e+03, -1.076795743641183e+03, -9.244103063508649e+02, 2.698685780650245e+03
3653, 1.097999819482686e+00, 9.206245595807563e-01, -2.048569360086082e-03, -1.302150961568269e-11, -6.193316405097166e-11, 1.710938249928193e-11, 3.739852204690569e+01, -5.954608437004595e+01, 2.468025473278537e+02, 2.995746650536765e+01, -2.511242969550627e+01, 2.143227144792118e+02, 5.754661833014253e+02
3654, 3.090493644903596e-01, 5.880602871811894e-01, -1.497266620540958e-02, -3.792065672750518e-10, 2.827118857960903e-10, -6.094208320012033e-10, 4.878160751881226e+02, 7.659269243004685e+02, 4.004496301445991e+02, 2.881004575855612e+03, -4.589917479438370e+02, 5.232540510710058e+02, 2.659625830242229e+03
3655, 3.549693208101460e-01, 6.790744093093993e-01, -1.516294141822290e-02, -6.456475298475637e-10, 2.925952613334265e-10, -6.469963377596203e-10, -6.080581259116511e+01, 3.614460015083336e+02, 6.777795064799262e+02, 2.965847733832174e+03, -5.513112276451051e+02, 3.330641848842455e+02, 3.268593118623417e+03
3656, 4.140693735273596e-01, 8.034617014066737e-01, -1.246107590271283e-02, -2.653229283645663e-10, 1.458054357474845e-10, -2.263963886884727e-10, 1.659909354493680e+02, 6.130019829224003e+02, 1.574866747114027e+02, 1.080868104642885e+03, -2.121398690833254e+02, 1.382952504975372e+02, 9.458603326039687e+02
3657, 1.027929598555007e+00, 4.980327209335859e-01, -3.474757983738619e-03, -1.525997502633083e-10, -3.075567158431884e-10, -2.107610950437885e-10, -1.517279879191340e+03, -1.903203412924704e+03, -1.305601594042867e+02, -3.332080224774952e+03, 7.457200141822789e+02, 1.930704529701269e+03, 3.955294670841297e+03
3658, 2.634725297394125e-01, 5.015970684620777e-01, -1.295346156739203e-02, -5.055448968519525e-10, 3.765068883093958e-10, -7.009526520190945e-10, 2.326683731461610e+02, 7.083524154983039e+02, 3.350053454708996e+02, 2.430221087063485e+03, -7.718509354117068e+02, 1.041898169762530e+01, 2.476781276145436e+03
3659, 4.769257062940862e-01, 9.272986096655073e-01, -1.309446099416614e-02, -6.262929831335695e-10, 2.833699744946490e-10, -3.902644127522847e-10, 2.153082151872414e+02, 7.021808978858203e+02, 2.708791399659845e+02, 1.519089246687897e+03, -3.072038320679874e+02, 1.396540782904985e+02, 1.365237529614605e+03
3660, 1.045190396260128e+00, 6.363292347758135e-01, -3.409429091492770e-03, -5.598593368417481e-10, -6.961157754709802e-11, 1.003285233922005e-09, -1.996052309170344e+03, -2.971532030703222e+03, -4.257923684036385e+00, -6.619247798850221e+03, -2.436309056421476e+03, 1.947143342493786e+03, 6.855408463954068e+03
3661, 1.062446962652292e+00, 7.746039263130232e-01, -3.343879997927764e-03, -6.345632959215538e-12, 1.583010754523371e-10, 5.735253263079953e-12, -3.919098509589742e+02, -9.894853133159392e+02, -5.215127073597709e+01, -9.994885135700874e+02, -2.782546354041341e+01, -3.702373998228891e+02, 8.859364510550837e+02
3662, 5.303697725432750e-01, 1.034765604233456e+00, -1.268498848423780e-02, -3.893183851086685e-10, 2.383200713420714e-10, -2.421766040418491e-10, 1.972606411173828e+02, 3.836767638183425e+02, 2.108818777478659e+02, 5.933841425997496e+02, -3.555857992918181e+02, 2.462627422265289e+02, 9.013846502246585e+02
3663, 1.110327097368399e+00, 1.019392492997917e+00, -2.002885642726853e-03, -1.063719916486168e-11, -1.251340672426577e-11, -1.185187465086930e-13, -1.934486000479528e+00, -2.570951964783318e+02, 1.252810923687057e+02, -4.133516565097560e+02, 4.291697988263658e+01, -1.596442517412538e+01, 4.275158771869600e+02
3664, 1.112792892419280e+00, 1.039145381797914e+00, -1.993708781507775e-03, 1.702905335352485e-10, -1.091270278351192e-10, -9.724475529824774e-11, -1.033435748810434e+03, -1.052447917954802e+03, 9.636810590179851e+01, -2.733426281524831e+03, -1.274801508055031e+03, 6.744458010632436e+02, 3.020903386800267e+03
3665, 5.393390293586696e-01, 1.052576374027229e+00, -1.269509579524061e-02, -9.377325732013967e-11, 9.309898534893364e-11, -5.653414716741849e-11, 4.514616220908090e+02, 1.412183202898863e+02, 1.790718791842671e+02, 5.721707377806632e+02, 7.992704024837950e+01, -2.089002482198365e+01, 5.147282583806690e+02
3666, 5.493330306821249e-01, 1.036431927182862e+00, -1.851734358457757e-02, -7.537987502575748e-10, 8.022857125746396e-10, -1.200195762044774e-09, 3.582269903722371e+02, 7.028328154925938e+02, 1.204636315230714e+03, 3.584769218867454e+03, -1.103734705680396e+03, 1.566378959809344e+03, 4.978574964256517e+03
3667, 1.125120749510013e+00, 1.137913264155175e+00, -1.947877060066766e-03, -2.831355100619319e-11, 9.567683347161896e-12, 1.925605106194329e-11, 3.734602238897357e+02, 2.268077796997531e+02, -1.555910755482132e+02, 9.422679580069595e+01, 1.336541451077628e+02, -8.557852995215717e+01, 4.546592969147055e+02
3668, 1.127586672822406e+00, 1.157666112401702e+00, -1.938667520628603e-03, -3.911276304143267e-11, -3.117893466160428e-11, -3.660393458691565e-12, 3.479751727830549e+02, -7.844135681623345e+01, 3.380279698271784e+01, 8.894875849902100e+01, 2.095493058245709e+02, 6.146887565683542e+01, 5.338243956101941e+02
3669, 5.926287739701402e-01, 1.159184514263728e+00, -1.242689168684313e-02, -1.105996789463653e-10, 5.339192798847650e-11, -8.057664844759268e-11, 4.278879968704549e+02, 4.215628114228808e+02, -3.824238717505308e+01, 1.716642646223341e+03, -4.974853749313946e+02, -1.257602956235728e+01, 1.554482927295857e+03
3670, 1.139915105570516e+00, 1.256433947438768e+00, -1.892666776502393e-03, -2.697594358405119e-11, 4.984942514430672e-12, 1.303815917617278e-11, 6.751926258896046e+01, -7.081210024059280e+01, 3.710793193626112e+01, -2.220484657638616e+02, 8.119263408839529e+01, -3.114933259010144e+01, 2.995785487013590e+02
3671, 1.142381158538738e+00, 1.276186750844479e+00, -1.883419649340888e-03, -2.616077594597465e-11, 1.894393562212786e-11, 8.320025493305639e-12, 1.751265550788214e+02, 1.414742638881928e+02, 1.409225598915728e+01, 2.560979929276187e+02, 1.740243095473495e+02, -2.678557221255842e+01, 3.225140019711418e+02
3672, 7.162894815475905e-01, 1.654885616840817e-02, -2.061231260569036e-02, -1.273423765961757e-10, 3.224518201181159e-11, -1.171048393156216e-10, 1.849093534952742e+02, 3.389118796154451e+02, -2.162912681845600e+02, 1.865635298939607e+02, 2.438295959508349e+01, -2.107924596034901e+02, 5.467124237828102e+02
3673, 1.079704485625059e+00, 9.128784980263115e-01, -3.277869816437675e-03, -2.263683666353308e-10, -7.187439004119621e-11, -1.263911509103152e-11, -2.567844504249637e+02, -1.210127898577898e+03, 2.324703643577233e+02, -1.990290406509843e+03, -6.900051596039364e+01, -1.355115833213215e+03, 2.818990506040760e+03
3674, 7.352574415980823e-01, 1.443210410343608e+00, -1.155205741643608e-02, -3.975352862481468e-10, 4.220008276590242e-11, -5.815202842282251e-10, 7.605692737929572e+02, 1.079739519062846e+03, 8.004603984147590e+02, 5.950322303315665e+03, -4.379651290704841e+02, 1.756769003862172e+03, 6.093878429662970e+03
3675, 2.190124937411162e-01, 4.127159753504340e-01, -1.296869605154271e-02, -5.236243606916004e-10, 2.999162957839564e-10, -8.266744744563406e-10, 6.216169656156943e+02, 9.002058907688668e+02, 4.114955365851590e+02, 3.510895547875824e+03, -8.126927972148346e+02, 2.686014944571314e+02, 3.213480397749787e+03
3676, 6.552483242217439e-01, 1.283486948999180e+00, -1.226342217626556e-02, -1.240776058192875e-10, -6.490879803392243e-11, -2.801405740673312e-10, 5.459855052045823e+02, 1.379096579962287e+03, 6.981347800314325e+01, 2.185489316335001e+03, -2.919891696359497e+02, 6.378457034614026e+02, 1.872723749620900e+03
3677, 1.094497406210132e+00, 1.031399464561229e+00, -3.220873269297744e-03, -2.828587990174406e-11, -6.392149809615314e-11, 7.149751015316620e-11, -1.178743959702609e+03, -1.489002016969255e+03, -4.638998875483335e+01, -2.638852232012135e+03, 6.502121474604322e+02, 9.230988438125116e+02, 2.367759257743320e+03
3678, 1.011722979871597e+00, 2.292514875200480e-01, -2.375851964005388e-03, 2.935141491998747e-10, 9.099050139065652e-11, -6.304654039110300e-11, -1.537230892161735e+03, -2.572681042758889e+03, -1.592215307851661e+02, -5.588290709338820e+03, -1.602557081313318e+03, -6.676698124195646e+02, 4.733555025389759e+03
3679, 9.994011614030446e-01, 1.304833970066547e-01, -2.428647616991996e-03, 2.653121707419235e-10, 1.472204776099651e-10, -1.551287783671156e-10, -8.997211675485978e+02, -1.476104921578135e+03, 1.626327799744533e+02, -4.805323625443702e+03, -7.353888069741777e+02, -1.328783717667777e+03, 4.509274869116903e+03
3680, 7.765653102324465e-01, 1.722093667639472e-02, -1.669328884739225e-02, -1.236449542762476e-10, 1.000525604977053e-11, 9.771759301986212e-11, -8.274565205301413e+01, -5.740679802269595e+01, -2.102513941200326e+02, -1.826103731208551e+02, 4.857034091361437e+01, 1.898640657015715e+02, 5.108666638167750e+02
3681, 9.958894895179223e-01, 2.412580656293898e-01, -3.594817762343219e-03, 1.884560342068293e-10, -8.258636420821722e-11, -2.603753685351908e-10, -1.242678661682620e+02, -8.245495849095071e+02, 2.820797803868569e+02, -4.359905321154843e+02, -2.672543571084952e+02, -1.082383399130701e+03, 2.082526103466466e+03
3682, 1.923382659285075e-01, 3.593864225902628e-01, -1.297606916403302e-02, -6.574922360023630e-10, 4.245082340517947e-10, -1.191661508094042e-09, 5.470159311691716e+02, 2.378108743727770e+03, 4.962747139532424e+02, 6.143223127988120e+03, -1.773998858935732e+03, -5.359588343658791e+02, 5.955258042125171e+03
3683, 1.109291023797847e+00, 1.149920343829149e+00, -3.163442436744109e-03, -3.465431452886866e-10, 2.252409352271260e-10, -1.377719745678117e-10, 9.038840334921230e+02, 1.141462460775325e+02, 1.103960643882485e+01, -4.925210866464034e+02, -4.352378006059691e+02, 6.451348734392565e+02, 1.813311226802882e+03
3684, 6.900022392692481e-01, 1.352903082608241e+00, -1.197843977562001e-02, 8.260650398578142e-11, 2.499677668719974e-10, -8.320362283426004e-10, 1.433038849684357e+03, 2.135063778469122e+03, 3.706333221171990e+02, 5.518580340503490e+03, -1.209666493091549e+03, -5.531701820275501e+02, 4.476194176135534e+03
3685, 1.124084931020655e+00, 1.268427836739884e+00, -3.105401901927501e-03, -3.576670020628834e-11, -5.961225807518286e-11, -4.229353401811498e-12, 2.105611221923836e+01, -3.445488173000986e+02, 1.048047132287510e+02, -2.160282448849123e+02, 1.564070306441878e+02, 2.489738866017602e+01, 4.597803263941302e+02
3686, 9.406126297673736e-01, 1.582333898678878e+00, -1.594733541053143e-02, -1.129241740804853e-09, 2.822653519841205e-09, -8.611381043251491e-10, 4.762847022831455e+03, 6.145570858419952e+03, -6.279993092645317e+02, 2.968871988333744e+03, 1.197174128358859e+02, 6.078398359075483e+01, 2.974571216605569e+03
3687, 1.154710162859772e+00, 1.374954543199809e+00, -1.837223223713946e-03, 2.894669892485376e-10, -2.009395611144511e-10, -1.265398575373912e-10, -1.317736120069667e+03, -1.597540741483184e+03, -8.933730400024837e+01, -3.604755031699275e+03, -1.363504037368165e+03, 1.376054866977237e+03, 3.993842998891285e+03
3688, 1.566863940822469e-01, 2.882789847352505e-01, -1.289775116940349e-02, -6.942997901934943e-10, 3.859105277832353e-10, -7.860645894970690e-10, -1.033033517659862e+01, 1.500185357752046e+02, 1.587718468433830e+02, 1.808597801712432e+03, -2.887707668144743e+02, 4.020823601103531e+01, 1.836624492532125e+03
3689, 3.995140135468899e-01, 1.685315822953035e-02, -3.803068164230750e-02, -1.789118589767164e-10, -3.329394685754162e-10, -9.705006519029808e-10, 3.492690745325903e+02, 2.050625991271746e+02, -2.960429370818818e+02, 6.389671519614292e+02, -8.276527798703717e+01, -1.534106725880441e+03, 2.736863477957276e+03
3690, 7.615627559463409e-01, 1.494832254597578e+00, -1.139557860936731e-02, -4.167485858259488e-10, 7.441249572986476e-11, -9.015977111821038e-10, 1.843591466130761e+03, 1.273835885771905e+03, 7.621838073555385e+02, 4.654786658536684e+03, -2.255695857114040e+02, 1.583323428808273e+03, 4.386945475239697e+03
3691, 1.017933507874333e+00, 1.585454502728433e+00, -1.232952491991003e-02, -6.755869220852522e-10, 1.492801169131745e-09, 5.202030379870178e-10, 1.166316908852409e+03, 2.476659526876032e+03, -3.821742600884921e+02, 4.638225813718873e+02, 2.857807800047390e+02, -8.847894330458450e+01, 1.958998045194706e+03
3692, 1.212121661390393e-01, 2.171716947071324e-01, -1.299065645395359e-02, -4.261169949822241e-10, 1.576875478486007e-10, -5.358137334793454e-10, 9.239166578152434e+02, 1.123840216714860e+03, 3.707897910710801e+02, 3.038661727387763e+03, 1.272729764314007e+01, 4.094424947623045e+02, 2.237230298285147e+03
3693, 8.550364209578838e-01, 1.669248173632040e-02, -1.147269494494820e-02, -1.455702451118220e-10, -3.697854835492888e-11, 2.073178863525700e-11, -3.900618239985319e+02, -4.041559645192976e+02, -2.317553602127757e+02, -3.229085786139570e+02, 6.900398319071491e+01, 1.107246532315312e+02, 4.667449056925183e+02
3694, 2.381363577196033e-01, 1.723515444995255e-02, -4.208307886971442e-02, -2.985356235103735e-10, -3.750810047777864e-10, -1.994481924237022e-09, 1.310689491004932e+03, 1.211353820984951e+03, -2.345168366515860e+02, 2.487060427345904e+03, 1.046363827609053e+01, -2.964386266890769e+03, 5.295153677802788e+03
3695, 9.969369045935950e-01, 1.107297654712691e-01, -2.439365127463549e-03, 2.595386213214359e-10, -3.723428066452489e-10, 1.273082889996080e-10, -2.427991342911708e+03, -3.307582820000260e+03, -1.637217706040155e+02, -7.128875143767903e+03, -7.451051558006729e+02, 1.254696352628572e+03, 5.020545856349881e+03
3696, 1.162926364768555e+00, 1.453634337383249e+00, -1.913839583547822e-03, 3.753598789363533e-13, -3.775228544511127e-12, -9.810572547249551e-12, 6.038490265702676e+01, -1.800284017316114e+02, -2.301137727869217e+01, -1.345132863205509e+02, -3.301696268993382e+01, -1.606735026062081e+01, 2.335832881952981e+02
3697, 8.825473793107192e-01, 1.586039647267191e+00, -1.717288105086638e-02, -2.398600578385275e-09, 5.626093789125076e-09, -8.086509794213595e-10, 8.846436719499592e+03, 1.657840956270863e+04, 4.186181723677637e+02, 9.850223861408613e+03, 7.236583466718928e+02, 1.454909415395455e+03, 7.840713596646242e+03
3698, 9.811006495571007e-01, 1.227365142874873e-01, -3.650008390207815e-03, -2.403626030887414e-09, -1.224880138619699e-10, 5.484590113704506e-09, -1.207115311903611e+04, -1.246154413140842e+04, 3.738096552292922e+02, -2.612277680113506e+04, 3.001361843463655e+03, -1.072779969562647e+03, 1.493355938688586e+04
3699, 9.373535045085220e-02, 1.625656581000787e-01, -1.282583299558915e-02, -2.338638494801607e-10, -4.401631899388842e-11, -7.515183183356088e-10, 1.251150338895525e+03, 1.482786572097223e+03, 4.227634679284897e+02, 6.550743616007598e+03, -2.086888223035123e+01, 1.611071574075621e+03, 5.935984724853743e+03
3700, 5.545386751918270e-01, 1.812537063491835e-02, -3.055631360929326e-02, -1.194376151619137e-10, -1.183518191251302e-10, -4.756528033707603e-10, 5.726208584978931e+02, 7.988447790399698e+02, -2.047961355695474e+02, 6.113620992702055e+02, 2.864188755342474e+01, -9.024379248333665e+02, 1.617214277614756e+03
3701, 1.036369573004704e+00, 4.267872963536100e-01, -2.276102431966143e-03, 2.191438635696236e-10, 1.310495607221246e-10, -1.076174610234344e-10, -9.209183683953214e+02, -1.131638202647165e+03, 2.909307988817961e+02, -3.465623012104445e+03, -7.908453816690613e+02, -8.121658865370878e+02, 3.176913054463277e+03
3702, 3.804900183909884e-01, 7.301105891967788e-01, -1.507009690460250e-02, -4.662603535810351e-10, 2.629322625789290e-10, -1.261383040915827e-09, 7.808837517680926e+02, 1.956344415489353e+03, 7.133868875684083e+02, 6.050249950493198e+03, -9.747279326346619e+02, 3.907737634145125e+02, 5.271541881028423e+03
3703, 4.417935477528673e-01, 8.574408635704512e-01, -1.303253459081446e-02, -4.033709741342329e-11, 5.092553705965188e-10, -1.724412014582065e-09, 1.953705046811106e+03, 3.423419715047781e+03, 4.956053440063946e+02, 9.234999716879514e+03, -1.984751897918739e+03, -1.350160131608352e+03, 7.905648556626890e+03
3704, 6.189538679369877e-01, 1.211005535214943e+00, -1.251019174587182e-02, -1.573950599140355e-11, 2.189459594923568e-10, -1.193963477671557e-09, 1.937762237757054e+03, 1.784669732026367e+03, 1.584333043552270e+02, 4.799203905278282e+03, -1.180668625685100e+03, 5.878644387822815e+02, 3.734078647912117e+03
3705, 1.021581113337083e+00, 3.082658745483047e-01, -2.334812811239942e-03, -6.397452124987819e-11, 6.420974779508162e-12, 1.035277822932856e-11, 2.927580943574166e+02, 8.763887134795601e+01, -3.333188885111404e+01, 1.085511897340291e+02, 2.169186893015674e+02, 3.627453571693390e+01, 4.320456292825144e+02
3706, 1.783740195871375e-01, 1.723910333551971e-02, -4.147866590566508e-02, -4.230824059264657e-10, -2.161745796963154e-10, -1.585904859775195e-09, 7.862245527410049e+02, 1.133081777264750e+03, -9.332403000815701e+02, 7.826167897520857e+02, 1.774942004062985e+02, -2.390546619286827e+03, 4.469120572594662e+03
3707, 1.075243949411154e+00, 1.581184612747612e+00, -8.786582844649950e-03, -3.950718191994030e-10, 2.153347921909783e-10, 1.716386221226405e-10, 9.966916285775982e+01, 2.025119849390846e+02, -1.241743580332247e+02, -1.370729043159180e+03, 8.124262221677201e+01, 7.547320059151457e+02, 2.024546254900723e+03
3708, 8.943516088690696e-01, 1.705992866772781e-02, -8.811661788660828e-03, -1.804326045730432e-10, -3.594136778151480e-11, 9.955852649089011e-11, -2.445595801170068e+02, -3.955526156084013e+02, -2.134086814464802e+02, -3.950733657013350e+02, 6.895519495022304e+00, 3.378909460855596e+02, 7.085266952673203e+02
3709, 5.660785774377297e-01, 1.105877748388391e+00, -1.263440590768151e-02, -2.656332797900218e-10, -1.075646454135976e-10, -5.025136796178098e-10, 1.416671836499628e+03, 1.275191610922090e+03, 1.643407669391299e+02, 3.106931425498014e+03, -2.919103054696989e+02, 3.183741395813751e+02, 1.938266560868695e+03
3710, 5.036960230841809e-01, 9.819309521940017e-01, -1.258288276161547e-02, -4.874933966662935e-11, -1.697483314510185e-12, -7.751265285273668e-10, 1.563162023159402e+03, 2.597952836464238e+03, 1.223530121999130e+02, 7.581159812630303e+03, -7.735009595024712e+02, -8.938988996361132e+02, 5.941103290171979e+03
3711, 1.053624661729310e+00, 5.650620505946520e-01, -2.212272037609248e-03, -1.015105506813677e-10, 7.952641518116995e-11, 3.060811156488406e-11, 1.088456899026209e+02, -1.199831030946290e+02, -5.063753533955818e+00, -1.350052404669891e+02, 5.795193143956723e+00, 9.818647170388523e+00, 2.376818751314945e+02
3712, 1.070880818202462e+00, 7.033366712476912e-01, -2.148762802018013e-03, -5.146776237220439e-11, 1.785593629977184e-11, 1.637886955648582e-11, 5.672472216305575e+02, 2.539674680183104e+02, -2.483546553397278e+01, 1.484999067112829e+02, 1.956212628490446e+02, 2.597322697451148e+01, 5.108676190276626e+02
3713, 1.088137944410857e+00, 8.416111707981531e-01, -2.085073373061047e-03, 2.387337070805313e-11, -2.714436261892892e-11, -7.830630231847899e-12, -1.238602242768011e+02, -7.518319501372736e+01, 9.052964725495559e+01, -1.324787549542759e+01, -4.970586026559646e+01, 2.458397740055025e+01, 2.074421579799138e+02
3714, 6.787146040627853e-02, 1.105087142410074e-01, -1.299781750999711e-02, -9.085994923264986e-11, 1.038431757430102e-10, -6.646187231732059e-10, 1.209611570776346e+03, 1.330938881377724e+03, 2.453336283164192e+02, 3.498591795988457e+03, -4.890860336421583e+02, 9.118659595424352e+02, 2.892942234117719e+03
3715, 1.170873463166436e+00, 1.512916224522200e+00, -1.847207801095247e-03, -2.813732997712749e-11, -2.546217078559788e-11, 1.103957429316005e-10, -6.279309286514720e+02, -6.251222073541874e+02, -1.720474936106423e+02, -1.764228789143363e+03, -4.857237021552976e+02, 5.182921537001882e+02, 1.702009428621238e+03
3716, 7.884400085223144e-01, 1.550139537045454e+00, -1.082730786963512e-02, -1.378842328308358e-10, 8.373821538501616e-10, -4.875329427676175e-10, 7.038165006952761e+02, 3.717558480757447e+00, 1.356668957805910e+03, 1.451345914527024e+03, -1.007677580838759e+03, -1.395245482137536e+02, 3.193521396200722e+03
3717, 1.186170393357105e-01, 1.819026156185526e-02, -3.829140992216827e-02, -3.302864059897342e-10, -6.698452209976418e-11, -1.778056830044598e-09, 7.246415045238217e+02, 1.554442392804845e+03, -4.301231952488534e+02, 5.417573778127115e+02, 7.709191069225602e+01, -2.386930894213890e+03, 4.305686726575239e+03
3718, 9.786368276423972e-01, 1.029779579204564e-01, -3.659083855677432e-03, -7.184974374931885e-12, -2.343348795563113e-12, -2.468524940221667e-10, -2.981359713481185e+02, -1.017268759542842e+03, -6.710146380684820e+02, -1.560792788831398e+03, 7.661026855027687e+02, 1.390444196181415e+03, 3.180403022243851e+03
3719, 9.628043733297326e-01, 1.149590674884803e-01, -4.874877525994761e-03, -6.441712880573597e-10, -1.950143035305872e-10, -1.340102744268630e-10, -3.598262287551212e+03, -2.068864745220230e+03, -5.439627325145425e+02, -2.831885346682226e+03, 2.726820766929048e+03, 1.174969047850490e+03, 5.393541794248033e+03
3720, 9.652621953335937e-01, 1.346964760013245e-01, -4.865783601042999e-03, -4.234728565188974e-10, 2.669047555216039e-10, 1.981722988224659e-10, -3.133469294596026e+03, -2.433835160634064e+03, 1.024104606685700e+03, -5.079082341321348e+03, 1.582129584803667e+03, -2.211457540777828e+03, 5.564487534139178e+03
3721, 9.469604007888863e-01, 1.269962040589723e-01, -6.078999132876654e-03, -3.206027200830035e-10, 5.540096409368655e-12, 8.889759669359262e-11, -9.570458723112376e+02, -3.572895373936239e+02, 7.994216055735254e+01, -9.779440201700942e+02, -8.239086222997238e+01, -1.116693084708607e+02, 6.705410527536266e+02
3722, 9.494228682269313e-01, 1.467337406868658e-01, -6.069248384664374e-03, -1.841020392127422e-10, 5.495396844909313e-11, 1.783950681019549e-10, -1.031436782462339e+03, -1.234881969607686e+03, 9.487457318329369e+00, -2.050844840023864e+03, -3.011794953321294e+02, 2.477994858384730e+02, 1.153169599519503e+03
3723, 9.311242668639490e-01, 1.389754455921853e-01, -7.270444753361052e-03, -1.994495883354179e-10, 9.891192450842029e-11, 2.805970628995544e-10, -1.102514779025383e+03, -1.271091642638791e+03, -6.998675552868770e+01, -2.377284753747565e+03, 1.535692876704228e+02, -1.018647530820569e+02, 1.247050208767964e+03
3724, 9.335836958034182e-01, 1.587431361848395e-01, -7.260765576411681e-03, -6.135648262073694e-10, -4.543497096320236e-12, 2.922041257330300e-09, -3.380644997705034e+03, -3.835315231522298e+03, -3.915100057272520e+01, -6.980597729152236e+03, 1.523005421863687e+02, -3.271404260809096e+01, 3.406903100144621e+03
3725, 9.152853097835244e-01, 1.510087678482929e-01, -8.452105481464130e-03, -5.281713264862012e-10, -1.001169966264228e-10, 5.352413689416542e-10, -1.582238763071696e+03, -1.819067207805194e+03, -1.707561248571140e+02, -3.203072822179441e+03, 7.874584192885134e+02, 3.886837493213399e+02, 2.168017889645341e+03
3726, 9.170554260617064e-01, 1.652076823606015e-01, -8.444614740169245e-03, -5.549559914946517e-10, -1.147309307599783e-10, 6.447298134212328e-10, -1.687689665126909e+03, -1.971580756888191e+03, -3.589540301741498e+01, -3.530388898726007e+03, 1.008689955204045e+03, 1.553699357549713e+02, 2.466102164985357e+03
3727, 8.993182559875360e-01, 1.627055960080878e-01, -9.630389251106909e-03, -6.678189024843704e-10, -1.024280238776015e-10, 6.867152007067639e-10, -1.590770045931964e+03, -1.623163035407645e+03, -1.993007436454788e+02, -2.995082025970467e+03, 5.791646415741906e+02, 8.083696276948211e+02, 2.239083149460392e+03
3728, 9.057711923503486e-01, 1.814038648146184e-01, -9.340786772310402e-03, -8.987430881440646e-10, -5.868073378212066e-11, 2.666508259946830e-09, -2.687967961801553e+03, -2.536559900048663e+03, -1.098514015929939e+02, -5.474434637305833e+03, 6.130719472244873e+02, 2.539027912911775e+02, 3.092957801899312e+03
3729, 8.840129109398753e-01, 1.747104347994460e-01, -1.075791486871183e-02, -4.552656195394975e-10, 4.582733145174780e-11, 4.623384600749903e-10, -1.051563485962678e+03, -3.629418448961811e+02, -1.287414177469944e+02, -8.817486822748041e+02, 4.388611357912686e+02, 1.712216323545595e+02, 1.049556845967260e+03
3730, 8.866393986062819e-01, 1.945621533961396e-01, -1.073633744520932e-02, -6.549173267709813e-10, 1.195730388833675e-10, 4.851235423450994e-10, -1.679161149762519e+03, -1.175048626986219e+03, -4.601162891320533e+01, -1.980811426617232e+03, 8.974180514079122e+02, -3.427443674342631e+02, 1.808877496790651e+03
3731, 8.678472159528670e-01, 1.869750976978687e-01, -1.193779698435954e-02, -5.091254040150378e-10, 1.448231541889404e-10, 5.443765926369531e-10, -9.538515885603540e+02, -8.189555010410725e+02, -2.131845738539954e+01, -1.946239221677900e+03, -2.668174443509271e+02, -3.124476386718317e+01, 1.163944225173972e+03
3732, 8.703201083363746e-01, 2.067534520348309e-01, -1.192547476765230e-02, -5.203158374728642e-10, 8.306562346729970e-11, 3.927328298587208e-10, -6.595736918009591e+02, -6.508020284382470e+02, 2.664456484558120e+01, -8.132323788552935e+02, -3.807513237255998e+02, -3.384521704072703e+02, 8.976245882800915e+02
3733, 8.519154360489580e-01, 1.990588948519074e-01, -1.309301473470987e-02, -5.917740054053046e-10, 1.939717501448966e-10, 1.925667575613599e-09, -1.239687957641425e+03, -1.365362453849714e+03, 7.969881605482908e+01, -2.550852991063341e+03, -2.103340795550975e+01, -1.780326199627973e+02, 1.298321060735373e+03
3734, 8.543800765682458e-01, 2.188187016281361e-01, -1.308058299575009e-02, -4.511891268558069e-10, -2.760862725796846e-12, 4.887634431798907e-10, -4.563020195527474e+02, -7.884332019759055e+02, 7.695674589624232e+00, -8.994717960027889e+02, -1.106391186287168e+02, -3.044420541362986e+02, 6.888219495233865e+02
3735, 8.360756071707968e-01, 2.110419558943864e-01, -1.423440828944917e-02, -5.263439687968393e-10, -3.897042119599232e-11, 9.680785751648410e-10, -4.996355004970897e+02, -8.461875543066698e+02, 1.258164664460554e+02, -1.057770552355065e+03, 2.161553292790861e+02, -4.559704707321999e+02, 1.024488239532813e+03
3736, 8.385380864794451e-01, 2.308286033589421e-01, -1.422176267769494e-02, -5.021143283080456e-10, 1.812630364644367e-11, 4.436151297294888e-10, -5.466795918168643e+02, -6.008553396272575e+02, -1.467680413328189e+02, -1.172579660827615e+03, -4.878227927051067e+01, -1.970139638495887e+02, 7.409335434321484e+02
3737, 8.202343988060427e-01, 2.230750622056879e-01, -1.536933546326018e-02, -5.705926347392580e-10, 8.936978283407863e-12, 1.212927635218466e-09, -8.840270533586959e+02, -8.525302120853604e+02, -2.632205069277134e+01, -1.969690589355585e+03, 3.282601054802684e+02, -3.516983755777855e+01, 1.242137565047567e+03
3738, 8.226863284790661e-01, 2.428148619234186e-01, -1.535641330469759e-02, -5.512842832994110e-10, 3.064748755501294e-11, 3.806058792204709e-10, -4.395077930116906e+02, -3.980278784793135e+02, -5.311829403485876e+01, -8.802286357837405e+02, -7.712492128901621e+01, -1.527311247686538e+02, 5.572488822855254e+02
3739, 8.043894882187085e-01, 2.350891816021460e-01, -1.649735331387543e-02, -5.083715120914113e-10, 7.607841161347569e-11, 3.227241778539940e-10, -2.282251018808365e+02, -2.724039953120762e+02, -2.258534093138870e+01, -4.504966618050566e+02, 3.589759087079075e+02, 7.528902957111106e+01, 6.683288302261930e+02
3740, 8.068538693856313e-01, 2.548475856779037e-01, -1.648305627618623e-02, -5.798681177653095e-10, 2.980271258103419e-11, 7.610364400410070e-10, -6.327990562003190e+02, -6.046225319834803e+02, -1.541166514789088e+01, -1.324984066275990e+03, 1.738346391280548e+02, -2.594843644732727e+01, 7.699385300150569e+02
3741, 7.885480618327975e-01, 2.470711811690753e-01, -1.761744031333461e-02, -5.832349090290810e-10, 6.406733719258516e-11, 2.503607230295859e-10, -1.271989478731971e+02, -1.385513706254480e+02, -3.746835543443001e+01, -4.960033501090930e+02, 3.725667400030846e+02, -2.557967467328584e+01, 7.446819862461314e+02
3742, 7.910117116755057e-01, 2.668565998593698e-01, -1.760255914504972e-02, -5.647048956927743e-10, 9.784657280285450e-11, 1.320102841899828e-10, -1.053527446539112e+02, -1.403079172749324e+02, -1.922678455225032e+01, -3.903563660947744e+02, 3.372099160818205e+02, -1.774981201169231e+02, 7.136132816321435e+02
3743, 7.727054878695507e-01, 2.591080965769994e-01, -1.872961940120470e-02, -5.898672121476894e-10, 1.074702377435481e-10, 1.373408002565996e-11, 2.301889714409898e+02, 2.155669991934986e+02, -1.857971263910562e+01, 2.908158231886790e+02, 3.228979638188967e+02, -1.782020767267659e+02, 6.433263123008186e+02
3744, 7.751696716211049e-01, 2.788648970133722e-01, -1.871350074171429e-02, -6.271992575421077e-10, 7.855535200673028e-11, -9.405258744327698e-11, 3.585038126785716e+02, 3.156077532235694e+02, -5.267714040150096e+00, 6.358025673614936e+02, 3.517310085243410e+02, 1.406693099338670e+01, 6.800372668333241e+02
3745, 7.568634356824461e-01, 2.710889606825582e-01, -1.983198697806854e-02, -5.424932187446088e-10, 1.020397223332648e-10, -7.843598981081511e-10, 8.826276525775369e+02, 9.190720365947244e+02, -5.759285530189979e+00, 1.898552352049859e+03, 4.924703641585994e+01, -3.657428008029964e+01, 1.003889830624393e+03
3746, 7.593144197575609e-01, 2.908457983932173e-01, -1.981550409482585e-02, -5.837095044170536e-10, 1.151638777227376e-10, -8.215836802880798e-11, 2.777640498072784e+02, 2.855194897552554e+02, -3.935914654267135e+01, 2.992998877099204e+02, 8.251167075261301e+01, 1.738817798556571e+02, 3.407836469720212e+02
3747, 7.410224758609072e-01, 2.831252416038565e-01, -2.092384371060835e-02, -5.681544906999779e-10, 9.301130049530824e-11, -2.126076600916236e-10, 4.975632918050085e+02, 4.181304936064518e+02, -7.615324703250512e+01, 5.681419265596190e+02, -5.290173982569871e+01, 1.187223969864429e+02, 2.915063078806849e+02
3748, 7.434862851376246e-01, 3.028799756525788e-01, -2.090500973449788e-02, -5.899128347390891e-10, 1.262545297138840e-10, -2.113357621591945e-10, 2.935020349202519e+02, 2.873483503450435e+02, -7.366113662237828e+01, 4.446764722693512e+02, 3.741281372078460e+02, -1.064739395696134e+02, 7.028694301680152e+02
3749, 7.251797161914414e-01, 2.951045437915727e-01, -2.200253765218217e-02, -5.796316813927262e-10, 1.718292268204513e-10, -6.165384138566877e-10, 8.884931253472095e+02, 8.985200584909426e+02, -3.561610083225886e+01, 1.711543501476709e+03, 3.631399260479860e+02, 9.937538455879285e-01, 1.033769843904247e+03
3750, 7.276446639182371e-01, 3.148867571382606e-01, -2.198193039985179e-02, -6.360578071169445e-10, 1.496668193428209e-10, -1.066171979303430e-09, 1.209342063829787e+03, 1.224332556996872e+03, -8.552163195365479e+01, 2.420770036410145e+03, 1.507098941237624e+02, 1.389997225603992e+02, 1.263988757332203e+03
3751, 7.093395782767367e-01, 3.071403046334036e-01, -2.306630743259341e-02, -5.587784989209492e-10, 1.929387825445086e-10, -5.734634898008112e-10, 9.411168391995041e+02, 9.296549565950138e+02, -5.440403752051894e+01, 1.252903115548508e+03, -1.605560852180573e+02, 3.229436124628796e+02, 7.071121639871501e+02
3752, 7.118028878004842e-01, 3.268930440089428e-01, -2.304322418478977e-02, -6.087932546627364e-10, 2.260503150570500e-10, -4.832865587379265e-10, 6.114973096997452e+02, 6.308840121935232e+02, -5.822494053175931e+01, 7.347546745815575e+02, -6.810042475296804e+00, 3.509767572586220e+01, 1.648750133509012e+02
3753, 6.934953652670579e-01, 3.191179514594406e-01, -2.411184761090598e-02, -6.114001132745487e-10, 2.361367426930453e-10, -7.191208953673274e-10, 7.188651913447071e+02, 6.546243310359895e+02, -3.496124625378042e+01, 6.384594006035461e+02, 4.593961156907174e+02, -2.518205821978510e+02, 9.123972262980110e+02
3754, 6.959607769036112e-01, 3.388988457081637e-01, -2.408582815724985e-02, -6.335266574909680e-10, 2.375623240966660e-10, -8.260026483108030e-10, 8.522246599237902e+02, 7.248261957757367e+02, 5.439430965345896e+00, 1.131009490359917e+03, 5.757680839454816e+02, -3.862305878199409e+01, 1.062336459546309e+03
3755, 6.776554741178796e-01, 3.311534087613932e-01, -2.513592024840159e-02, -5.398126350140915e-10, 1.380215571921345e-10, -2.699326471368458e-09, 1.895516611792980e+03, 1.655727932779561e+03, -3.922380010148473e+00, 3.335041797032201e+03, 2.472095522830175e+02, -2.186925436975953e+02, 1.673850752461996e+03
3756, 6.801181323987739e-01, 3.509041725084000e-01, -2.510611548697817e-02, -6.202188126141909e-10, 3.208766417784668e-10, -1.214009660355788e-09, 9.397544547000535e+02, 1.072916739249938e+03, -4.612038909207058e+01, 9.368401592308738e+02, 3.898697172643314e+02, 4.730327126019288e+02, 1.073212496736361e+03
3757, 6.618124741618459e-01, 3.431592620781917e-01, -2.613428570340147e-02, -8.076736831930465e-10, 2.383012983488058e-10, -1.896312746475430e-09, 1.952000176829509e+03, 1.935102212151466e+03, -1.008000816576787e+02, 3.831724706223857e+03, 5.120605443478655e+02, 6.271073069937980e+02, 2.358453743959025e+03
3758, 6.642747325046383e-01, 3.629090396694597e-01, -2.609982705939771e-02, -6.499400214997166e-10, 2.416699348001115e-10, -1.654740113769926e-09, 1.235722651930382e+03, 1.236519333722480e+03, 9.614341551187916e+01, 1.849297054250921e+03, -2.043646512007866e+02, -9.705205396400208e+02, 1.831595237201729e+03
3759, 6.825747008756753e-01, 3.706424896468669e-01, -2.507590507607253e-02, -5.562021043246871e-10, 3.590394257944195e-10, -1.097872692238084e-09, 1.206240587376728e+03, 8.907140374098470e+02, -5.060544929153423e+01, 1.249810993893943e+03, 6.917515179564424e+02, -5.239007412659487e+02, 1.543328282149738e+03
3760, 6.667366299850824e-01, 3.826582420044479e-01, -2.606445964239167e-02, -5.569755326464551e-10, 2.265770509957892e-10, -4.461005019610788e-09, 3.229008964320774e+03, 2.926885259218978e+03, -1.590980485337129e+01, 5.837808172126261e+03, 2.210822174101030e+02, -2.918759761593125e+02, 2.843986336987745e+03
3761, 6.850412832625307e-01, 3.904026417441485e-01, -2.504446654984004e-02, -5.105609571837891e-10, 2.547848773933640e-10, -1.604496873450236e-09, 1.543102415344687e+03, 1.063724761087136e+03, -1.121676466558593e+02, 2.271708721152236e+03, 1.352599324601924e+03, -9.977088823074754e+01, 2.581884950582426e+03
3762, 6.691892764071242e-01, 4.023890148249821e-01, -2.602849849533885e-02, -7.649264576983269e-10, 2.914128442075889e-10, -2.019240349346203e-09, 2.058044239657349e+03, 2.092634917724499e+03, -2.008288360487973e+02, 3.763646572815769e+03, 1.105078776105860e+03, 7.494623109393605e+02, 2.884606234408510e+03
3763, 6.874973724292470e-01, 4.101380924216574e-01, -2.501266442383837e-02, -6.380017257168720e-10, 2.191886662395629e-10, -1.157514217503657e-09, 1.540622556029044e+03, 1.186845351156719e+03, 7.367858473395330e+00, 1.973377966871959e+03, -3.801054391824135e+02, -2.424683624808483e+02, 1.037068255737551e+03
3764, 6.716599679710215e-01, 4.221542584221523e-01, -2.599063889538636e-02, -6.765737721346387e-10, 2.686197372215119e-10, -1.520794223890500e-09, 1.398964797404626e+03, 1.296275601262078e+03, 3.062006757986168e+00, 2.103863254609525e+03, 7.367802267781324e+02, 4.126288036761175e+02, 1.648988594910881e+03
3765, 6.899579979435113e-01, 4.298854814789513e-01, -2.497988011080560e-02, -5.968799568198509e-10, 1.412169055299490e-10, -1.790852436315230e-09, 1.521790104227437e+03, 1.575381143897570e+03, -1.170230415973108e+02, 2.897935764021978e+03, -3.505738308262769e+02, -4.098344119285672e+02, 1.654261691763290e+03
3766, 6.741213866885059e-01, 4.419011929971624e-01, -2.595224685942951e-02, -9.004352346933283e-10, 2.973527455622792e-10, -1.717184540217088e-09, 1.557822730873880e+03, 1.182226336644457e+03, -1.949363625675609e+02, 1.343289088417932e+03, -7.330399209057912e+02, -2.696852252408211e+02, 1.432044960178870e+03
3767, 6.924247643898983e-01, 4.496446645652459e-01, -2.494602197369344e-02, -3.056925464821576e-10, 1.213517605998870e-10, -3.895771037658753e-09, 2.440998324286986e+03, 2.364072758265419e+03, -6.686840071368032e+01, 4.122176896787400e+03, -3.219765615838267e+01, 2.250607688658124e+02, 1.769204853568660e+03
3768, 6.765788056985719e-01, 4.616350433425847e-01, -2.591293915045725e-02, -8.896553740073553e-10, 3.455366076267929e-10, -1.733604178815283e-09, 1.968038221860549e+03, 1.230636579605392e+03, -3.703742258316486e+02, 1.459050357623260e+03, -6.085514261936119e+02, 4.478021518352897e+02, 1.597378276732810e+03
3769, 6.948797278595100e-01, 4.693780835385049e-01, -2.491182747557674e-02, -6.438584884505204e-10, 4.335861818563857e-10, -1.556060224911446e-09, 9.930795978805247e+02, 9.151435453468810e+02, -1.341855057729024e+02, 1.163485076274424e+03, 2.742083376483196e+02, 8.222154952767895e+02, 1.534957860943821e+03
3770, 6.790437606768962e-01, 4.813930460245079e-01, -2.587212722193308e-02, -8.100140426972729e-10, 2.357270350819503e-10, -1.721641694379231e-09, 1.988178121430984e+03, 1.860484854340002e+03, 9.783582092156530e+01, 2.383117324184554e+03, 1.736936218804396e+02, -1.000902237780120e+03, 1.829577398369823e+03
3771, 6.973465064770392e-01, 4.891359720611630e-01, -2.487610354505585e-02, -6.856039368405990e-10, 2.847795404515496e-10, -1.553005807721538e-09, 1.332838095741755e+03, 1.312359496133603e+03, 1.069755043745646e+02, 1.963917632587575e+03, 1.092839434788621e+02, -8.321079361644855e+02, 1.599679795716199e+03
3772, 6.814968068290327e-01, 5.011265791029097e-01, -2.583052349196799e-02, -3.656294992526178e-10, 4.297344688088055e-10, -4.209069263931264e-09, 2.694902574508145e+03, 2.541753180717035e+03, -8.736685625681326e+01, 4.713348145734692e+03, -2.416097894791926e+02, -7.398799062591439e+01, 2.149685655755292e+03
3773, 6.998009485605685e-01, 5.088679712069843e-01, -2.483985948631495e-02, -6.755633365815878e-10, 2.669885338292758e-10, -1.756276073471768e-09, 1.610528450567831e+03, 1.646030563369400e+03, -1.920193500385718e+02, 3.393585483239184e+03, 5.115625255656660e+02, 8.232783366349172e+02, 2.458925597418669e+03
3774, 6.459641672136903e-01, 3.551583185098339e-01, -2.710247778409202e-02, -7.152988512635141e-10, 3.053537055147894e-10, -1.652617132951293e-09, 9.628528697019444e+02, 1.124675852099512e+03, -1.894873126604063e+02, 1.244448979562706e+03, 1.046583783549939e+02, 7.139196356445332e+02, 1.315117681550014e+03
3775, 6.839654493211773e-01, 5.208825722019383e-01, -2.578680469941282e-02, -7.401145936949983e-10, 3.905800817792658e-10, -1.757330905632970e-09, 1.149912152235589e+03, 1.488537513819868e+03, -2.390397347507494e+02, 1.890219954106558e+03, 3.472348733068836e+02, 1.754389860413189e+02, 1.018581587054752e+03
3776, 7.022678024136809e-01, 5.286250117924181e-01, -2.480196722377446e-02, -8.553919693542771e-10, 4.068018412119126e-10, -1.407192074422203e-09, 1.546754704482462e+03, 1.773825686073661e+03, -9.111067563368950e+01, 2.116734126803569e+03, 3.199997680697985e+02, -9.419832473233889e+02, 1.800308951454795e+03
3777, 6.863958944187107e-01, 5.405932107615712e-01, -2.574369221635405e-02, -8.961704939914556e-10, 5.494310902491163e-10, -2.534665883831005e-09, 3.009465454740599e+03, 2.827727621790819e+03, 2.577696592741130e+02, 6.340725266015944e+03, 4.837513159593584e+02, -1.974555996289011e+03, 4.932923297141784e+03
3778, 7.047214364754184e-01, 5.483544177675275e-01, -2.476365032120326e-02, -3.814477631262767e-10, 4.146669359285905e-10, -4.063174755593351e-09, 3.058750401496826e+03, 2.707793704988908e+03, 2.805637233345377e+02, 6.098687662426708e+03, 2.538957348477844e+02, -7.973952519753045e+02, 3.573280033330006e+03
3779, 6.888865597709175e-01, 5.603699977677230e-01, -2.569614794701027e-02, -5.639622959775977e-10, 5.417177438230024e-11, -2.709547036880504e-09, 2.665167004946181e+03, 2.403603561756858e+03, 1.357722662904187e+02, 4.325527010728514e+03, 2.807160841775113e+02, -1.929312736933122e+02, 1.913863782351394e+03
3780, 7.071828489468257e-01, 5.680978757137767e-01, -2.472380123515662e-02, -5.550501218185440e-10, 3.529229478324453e-10, -2.040265057543996e-09, 1.793175017800838e+03, 1.804568734105710e+03, -1.778213534564712e+01, 3.769457547855131e+03, 1.544137449706369e+03, 1.561167806194171e+02, 3.333234555836965e+03
3781, 6.913342466813530e-01, 5.800946352459146e-01, -2.564908922533277e-02, -2.927084769273780e-10, 5.389749292831064e-10, -5.265496871101593e-09, 3.602558997898453e+03, 3.571428126886992e+03, -1.091693278963094e+02, 6.612171950381384e+03, -1.915514402070101e+02, 2.990749343504972e+02, 3.092991798528979e+03
3782, 7.096488957263444e-01, 5.878547854525735e-01, -2.468245492551494e-02, -5.220606440534616e-10, 2.565612483450713e-10, -1.613045717605769e-09, 1.229961395756998e+03, 1.220897824598026e+03, 1.053014077489097e+01, 1.784346878921619e+03, 8.949388248874212e+02, 2.633082281487785e+02, 1.709831262447084e+03
3783, 6.582782893768357e-01, 4.539043795983334e-01, -2.688820593217832e-02, -9.480598892099727e-10, 4.931974267639736e-10, -1.644239018880298e-09, 1.783447245427100e+03, 2.115764778894720e+03, -2.039123047820710e+02, 3.317959751230765e+03, 9.812525202963168e+02, -8.178084870585843e+02, 2.641015058063345e+03
3784, 6.938070268489667e-01, 5.998555685730874e-01, -2.559904296888851e-02, -7.555303570339918e-10, 4.357274083877077e-10, -1.688894321365549e-09, 1.343666973670806e+03, 1.390235352389520e+03, -1.777621628013524e+02, 1.554156268284782e+03, -7.249192610453485e+01, 9.084379092072953e+02, 1.619572139218567e+03
3785, 7.121090192977818e-01, 6.075971477143216e-01, -2.463992391953668e-02, -5.151657509923664e-10, 4.342394816305190e-10, -1.620196378520288e-09, 2.013778934836130e+03, 1.623875156522843e+03, -2.050949534830275e+01, 2.437035314262676e+03, -8.535747176479656e+02, -8.588013064946810e+01, 1.644797156230733e+03
3786, 6.962627339326024e-01, 6.195592604722411e-01, -2.554799884602632e-02, -7.723714091764332e-10, 4.375152287611993e-10, -2.056498107666033e-09, 2.269968422402036e+03, 1.832818230631784e+03, -9.940518554178452e+01, 4.055009150582546e+03, 9.301061942132698e+02, -1.226372308406246e+03, 3.360759657402811e+03
3787, 7.145623422469974e-01, 6.273236618570737e-01, -2.459634442080724e-02, -6.404975925434471e-10, 2.158837502940260e-10, -1.443789008565925e-09, 1.979237921921820e+03, 1.521661477842069e+03, -2.061686816886155e+02, 2.417492386638763e+03, -5.335091824074292e+02, 2.557146956625672e+02, 1.334001811613632e+03
3788, 6.987268976182898e-01, 6.393394299435688e-01, -2.549502915881082e-02, -5.213749634162953e-10, 2.297516025346968e-10, -2.099569672727037e-09, 1.543222310433197e+03, 9.972010282072229e+02, 3.235012914447299e+01, 1.827189328544434e+03, 1.320910480406617e+03, 2.942808756832734e+02, 2.455847171354017e+03
3789, 7.170289031697943e-01, 6.470806139032956e-01, -2.455076182655426e-02, -5.820594527825812e-10, 3.422336115090335e-10, -1.879357765902739e-09, 1.708463440116975e+03, 1.957979199198538e+03, -2.157327107257722e+02, 2.362183904722411e+03, 3.184418679455611e+02, -1.209303411225233e+03, 2.271029876583974e+03
3790, 6.680859121588114e-01, 5.328536730688148e-01, -2.669298923641698e-02, -6.663956238957140e-10, 4.975103002400059e-10, -1.782859913371570e-09, 1.882229482285779e+03, 2.014007598061047e+03, 1.636087414300119e+02, 3.170414723941181e+03, -4.782960865583456e+02, -1.223783412605990e+03, 2.601264017295807e+03
3791, 7.011865979861786e-01, 6.590807514782893e-01, -2.544013246598710e-02, -8.601881295736485e-10, 2.405571198677264e-10, -2.076460907814682e-09, 2.113986207726826e+03, 1.945025045845784e+03, 1.215903147079040e+02, 2.258861595506120e+03, -1.008497753154162e+03, -6.211312051983440e+02, 2.080140080983074e+03
3792, 7.194886642421952e-01, 6.668217580250038e-01, -2.450387246824653e-02, -4.784040736717748e-10, 5.606988619282322e-10, -5.143660713034410e-09, 3.458397567449893e+03, 3.291771008442784e+03, -9.227441183883720e+00, 6.393048906767782e+03, 1.473264204029149e+02, -1.488276409829676e+02, 3.043148600989319e+03
3793, 7.036343571284187e-01, 6.788001012028976e-01, -2.538352120082094e-02, -6.533993573909930e-10, 3.371778979022919e-10, -2.292607688522956e-09, 1.792751500260029e+03, 1.649665837357624e+03, -1.386227110408366e+02, 3.201153048395008e+03, -6.066154757355885e+02, 7.914879422288532e+02, 2.290533946310459e+03
3794, 7.219414247955825e-01, 6.865473340092456e-01, -2.445548082405425e-02, -7.510215841968538e-10, 2.555390051971538e-10, -1.882474868368664e-09, 2.313839427621882e+03, 2.194560553852088e+03, -4.099615280773909e+01, 4.167928589170920e+03, 5.426689976445419e+02, 1.172450120611893e+03, 2.947109867035327e+03
3795, 6.434930580136609e-01, 3.353928457294371e-01, -2.714207869478816e-02, -2.630960875907522e-10, 2.379678192488807e-10, -4.482564242590453e-09, 3.865569105737984e+03, 3.773464779924328e+03, 4.185609581123182e+01, 7.393285214128255e+03, -7.552206082121893e+02, -3.712095802963893e+01, 3.807708793763646e+03
3796, 6.276557599670011e-01, 3.474080070131545e-01, -2.808050032338325e-02, -5.884317241098942e-10, 2.288228940993344e-10, -2.133169602130823e-09, 2.378381727559882e+03, 2.246703998017068e+03, -3.024663552372149e+02, 3.568032948761419e+03, -1.296204508850775e+03, 7.806977423563551e+02, 2.955101113926076e+03
3797, 7.060527834949659e-01, 6.984716678497618e-01, -2.532606063541895e-02, -7.198244103576031e-10, 2.772645625426533e-10, -2.446039912574916e-09, 1.966145464545814e+03, 2.276849453189756e+03, -2.754395216547168e+02, 3.496192721405483e+03, 8.549444132398330e+02, -1.283450639732258e+03, 3.053574473401394e+03
3798, 7.243798477306630e-01, 7.062487201613381e-01, -2.440591756294285e-02, -8.046296219271654e-10, 3.692182770139890e-10, -2.050892145553322e-09, 2.286462901394436e+03, 2.016518199313336e+03, -3.646544455496137e+01, 3.130976615434848e+03, -5.560236105800574e+02, -5.961819277020182e+02, 1.735459646199454e+03
3799, 6.251928795845271e-01, 3.276585380937643e-01, -2.812525728409838e-02, -7.005584595430165e-10, 2.158164294419566e-10, -1.968427715968205e-09, 1.891627634115005e+03, 1.519469988155736e+03, 3.180618311203389e+02, 2.785373620973718e+03, -1.215975788962779e+03, -1.330048156584449e+03, 3.363965404817026e+03
3800, 6.093469952783255e-01, 3.396643102735757e-01, -2.903112256721455e-02, -5.314484536809957e-10, 3.802894507992453e-10, -1.884415333713939e-09, 1.377617279817630e+03, 1.285652231315882e+03, -2.342927999415834e+02, 1.917801671117969e+03, 6.643275547916976e+02, -4.679750584025978e+02, 1.579749804506069e+03
3801, 6.068913171794016e-01, 3.199284738052723e-01, -2.908205664317872e-02, -7.310448414741039e-10, 2.204173845113451e-10, -2.181325598296959e-09, 1.863575087041887e+03, 1.933773896638825e+03, -1.159850426314963e+02, 2.841141991256240e+03, 1.702484599609824e+02, 1.359154069785318e+03, 2.561474468552981e+03
3802, 5.910423616356094e-01, 3.319336981490079e-01, -2.995096803234426e-02, -8.828579547024224e-10, 5.767731521433572e-10, -2.395348111298808e-09, 1.741221929963538e+03, 1.955803228785744e+03, 1.568245079038326e+02, 2.602958643620485e+03, 2.293313627554465e+01, -9.874937858311862e+02, 1.898555822310994e+03
3803, 7.084872434916751e-01, 7.181927955303842e-01, -2.526567169446314e-02, -8.566492412626663e-10, 4.852689302025277e-10, -2.479429638242179e-09, 2.322478222432612e+03, 2.367681598475626e+03, 8.965737175216302e+01, 3.782264785282397e+03, 1.150414526156425e+03, 9.284287094756841e+02, 2.940654443823541e+03
3804, 7.268297201377737e-01, 7.259775620163565e-01, -2.435405810119955e-02, -6.964038890254703e-10, 5.127777112414314e-10, -2.384822012564212e-09, 2.622135440885291e+03, 2.477091504185558e+03, -3.486580229243381e+01, 4.368680239425461e+03, -7.048580910477295e+02, -6.324246575637135e+02, 2.453321566901160e+03
3805, 7.109280055343044e-01, 7.378994672072215e-01, -2.520232655572337e-02, -6.608839220950770e-10, 4.877894018801957e-10, -2.222699918924926e-09, 2.026320490896082e+03, 1.688859714076312e+03, -2.856995564070883e+01, 3.384151810140070e+03, -1.040373429488353e+03, -7.054054005944655e+02, 2.675475688958784e+03
3806, 7.292656433513727e-01, 7.456789439782769e-01, -2.430077794786791e-02, -5.834907617817178e-10, 3.650760862803241e-10, -5.377432005007519e-09, 3.890062170857500e+03, 3.414725009530252e+03, -2.073994068109207e+02, 7.863669925718872e+03, 3.556185646371839e+01, 2.239279776186051e+02, 4.264689453299022e+03
3807, 6.779634232816729e-01, 6.118564387470667e-01, -2.646505067011646e-02, -7.467349408754450e-10, 4.365900951240462e-10, -1.764855136983558e-09, 1.881564824224278e+03, 1.538329447822388e+03, 2.297056268223351e+01, 2.756134810323058e+03, 9.855884853359908e+01, -1.171734683417693e+03, 2.309215781961807e+03
3808, 7.107261267799754e-01, 4.573883495913216e-01, -2.391783163413708e-02, -5.723276899151433e-10, 3.019025469461779e-10, -1.246617331831675e-09, 1.017556740813190e+03, 1.135794903997363e+03, -6.842289536660061e+01, 2.072599631941669e+03, 1.058864567797440e+03, 1.511091006870691e+02, 2.109141747109318e+03
3809, 5.885681329575049e-01, 3.121623068262873e-01, -3.001026868562513e-02, -7.618270999538688e-10, 5.848004534974685e-10, -2.435338155754967e-09, 1.579698244210951e+03, 1.314029622780098e+03, -3.315297219739878e+02, 2.598740059550426e+03, -5.153967269980598e+02, 5.866687833371474e+02, 1.881204795966996e+03
3810, 5.727305886466720e-01, 3.241903592918484e-01, -3.083726585357956e-02, -5.712700757968136e-10, 4.610171068817422e-10, -3.650858933094392e-09, 2.064063795303185e+03, 2.173435001665493e+03, 8.472235262013616e+01, 4.760268330510878e+03, 1.224749318320278e+03, 1.494327978677985e+03, 4.266990560886960e+03
3811, 7.134825391693473e-01, 7.577822274995660e-01, -2.513101273251916e-02, -6.944069498025028e-10, 1.840525833466394e-10, -2.344713673800561e-09, 2.364032397360893e+03, 2.151598667167721e+03, -3.806460050561229e+02, 4.940352838725522e+03, -8.827428977130469e+02, 1.608357821969004e+03, 4.214579021942725e+03
3812, 7.317854517864137e-01, 7.655224233205711e-01, -2.424137840066970e-02, -8.071694440166394e-10, 2.291778866920963e-10, -1.751943286999078e-09, 1.625895437363726e+03, 1.743720665616039e+03, -1.034031752898540e+02, 1.852792372093606e+03, 5.879070098034506e+01, 7.431285084839462e+02, 1.318255077816241e+03
3813, 7.475934269213227e-01, 7.534664682575378e-01, -2.336065545214487e-02, -5.607488624204753e-10, 2.338032567009209e-10, -1.654219907369800e-09, 1.687952402375171e+03, 1.136722693896869e+03, -2.161950108686827e+01, 2.176394750106381e+03, 1.335778873524008e+03, 3.045463367564255e+02, 2.538550230062584e+03
3814, 7.500732518819233e-01, 7.732355311258936e-01, -2.331177333656732e-02, -5.721728813066362e-10, 2.510190569836585e-10, -1.723787754125316e-09, 1.417297295436838e+03, 1.417912542726500e+03, 9.674818790572988e+01, 1.651567776727187e+03, -1.988424923826972e+02, -1.049819767097808e+03, 1.872911951679118e+03
3815, 7.304090383855216e-01, 6.153389085988690e-01, -2.365134014106199e-02, -3.826866265398779e-10, 3.212026039497171e-10, -4.326551705027183e-09, 3.555067318215205e+03, 3.553994720025303e+03, -7.650334505827097e+00, 7.989241972703041e+03, -2.228880917957167e+02, 2.056092186151440e+02, 4.465725074863327e+03
3816, 7.776328942705099e-01, 2.986204354428860e-01, -1.869731819988936e-02, -5.683018737525959e-10, 9.047680113271410e-11, -8.092104615282911e-11, 1.983867872708718e+02, 2.033876620086616e+02, -1.216576449458726e+01, 2.509641077626491e+02, 1.001474831442442e+02, 4.459090593455756e+01, 1.975451089705769e+02
3817, 7.342442262272209e-01, 7.852623878859506e-01, -2.418244075286018e-02, -5.398342174992725e-10, 4.395969530878315e-10, -2.061689155995465e-09, 2.282972691446030e+03, 2.310419184063022e+03, 2.423024875672397e+00, 2.805937014361175e+03, 7.513558379336106e+01, -1.131045442855655e+03, 2.028456684030846e+03
3818, 7.525373950437795e-01, 7.929855604455103e-01, -2.326169324285417e-02, -5.957115186540570e-10, 2.893138273899162e-10, -4.617315980963242e-09, 3.220045965088939e+03, 3.215595811246329e+03, -2.248920449728854e+02, 6.113213250765460e+03, 2.396110736374775e+02, 1.948823381445244e+01, 2.951003364208304e+03
3819, 5.702607565863186e-01, 3.044237419681641e-01, -3.090499008284151e-02, -8.904330298122158e-10, 7.739108203413726e-10, -3.642417737772884e-09, 2.642117125618914e+03, 2.516823394367152e+03, -2.462144968862190e+01, 4.970165385090864e+03, 9.584584324083637e+02, -1.360558019389410e+03, 3.746771649057050e+03
3820, 5.544020383021865e-01, 3.164261370761587e-01, -3.168666882903214e-02, -5.495804646450430e-10, 5.409485743729668e-10, -7.250159220300308e-09, 5.513993617873448e+03, 4.925077130642796e+03, 3.131571436006075e+02, 9.775301661182630e+03, 1.977198384045283e+01, 4.283257264892946e+01, 4.616925633407516e+03
3821, 7.205682121795676e-01, 5.363676447963820e-01, -2.379174233245205e-02, -6.073634317764118e-10, 2.773914069790606e-10, -1.050846149237396e-09, 1.229875493459358e+03, 9.530285728865802e+02, -9.104415128459993e+01, 1.537985237848775e+03, 7.822321490807863e+02, -6.461092989370934e+02, 1.835694762776753e+03
3822, 5.519571939486329e-01, 2.966985679869985e-01, -3.176309849813570e-02, -7.440670097198393e-10, 3.708742618433016e-10, -3.425631752888114e-09, 1.489136437608971e+03, 1.725178177512393e+03, 2.401199770712279e+01, 2.032176594243849e+03, -3.273875199223617e+01, -9.917809860791847e+02, 1.782768058407327e+03
3823, 5.360962181209648e-01, 3.086904963289036e-01, -3.249346507905243e-02, -1.088428180351667e-09, 3.926540074225308e-10, -4.444586102518610e-09, 3.794370788460391e+03, 3.203613188152731e+03, -7.374815508212829e+01, 5.175114332794724e+03, 7.879092697052911e+01, -1.202822244280094e+03, 2.728812283043876e+03
3824, 5.385611284797884e-01, 3.284518608025393e-01, -3.240144438807844e-02, -8.345160226981536e-10, 5.172427568143281e-10, -3.873882735753686e-09, 3.134040484300770e+03, 2.963296568713676e+03, -5.512885512791470e+01, 3.421613839223526e+03, 3.851365441837380e+02, 1.564237049188942e+03, 2.820562710342757e+03
3825, 5.202443218391893e-01, 3.207092810625460e-01, -3.314931395999245e-02, -9.993468331882968e-10, 6.425989431143610e-10, -8.209107203210715e-09, 5.325978360327880e+03, 5.342784048165851e+03, -2.012734103290893e+02, 9.102212648316210e+03, -1.552769916120602e+02, -7.962861992197099e+01, 3.796004946663831e+03
3826, 5.227030473357090e-01, 3.404558409365683e-01, -3.304125527727715e-02, -1.055678251259592e-09, 6.470673517144180e-10, -3.678410045165579e-09, 2.903225881987317e+03, 2.480877283437381e+03, -2.861452581865985e+02, 3.104277620038798e+03, 6.595834599767445e+02, 1.673790144252145e+03, 3.203002146304657e+03
3827, 5.177853189735192e-01, 3.009623264467751e-01, -3.325370829916179e-02, -1.006331965190078e-09, 2.078440342679385e-10, -4.101596016294041e-09, 1.936098062331837e+03, 1.947209301583616e+03, -5.408918488764134e+02, 2.487798710419718e+03, 1.789551002903330e+01, -1.614526197501638e+03, 2.999517334252256e+03
3828, 5.019297906513281e-01, 3.129471534815740e-01, -3.385267715945942e-02, -1.077895452937022e-09, 7.237813335043530e-10, -5.311174490891021e-09, 4.240307273288427e+03, 4.292439219061048e+03, -2.679235128512392e+02, 7.607566530719479e+03, -1.953555972798187e+03, -9.533913535570896e+02, 5.055389988063109e+03
3829, 7.366958098318406e-01, 8.049856545297389e-01, -2.412149294111186e-02, -6.824622677996306e-10, 4.131992912921350e-10, -2.478616265308581e-09, 2.475234137170908e+03, 2.043633777507738e+03, -1.855090395959443e+02, 4.592219936587434e+03, 3.855844454010093e+02, 8.056746327206819e+02, 2.842217677126870e+03
3830, 7.550046567435519e-01, 8.127427175335118e-01, -2.320963280657292e-02, -5.296168014910291e-10, 3.758621697112576e-10, -1.785457478050801e-09, 1.108360483379214e+03, 1.100505179739575e+03, 9.367350768792484e+01, 1.621719548647577e+03, 5.180160085803352e+02, 9.296482584765182e+02, 1.921383723791730e+03
3831, 4.994649222784567e-01, 2.932062391948840e-01, -3.396895239715519e-02, -7.622697114853683e-10, 5.942872774136643e-10, -4.818786157940279e-09, 3.354596429889443e+03, 2.618097160534268e+03, -3.485484762133098e+02, 5.007465084851338e+03, 2.995439383072251e+03, -3.105796794367797e+02, 5.662468644210366e+03
3832, 6.878013504129377e-01, 6.908217765417741e-01, -2.620210233240626e-02, -5.791193878377668e-10, 3.993500696825840e-10, -3.004565679383146e-09, 2.262912928544750e+03, 2.113860893190027e+03, -2.679702237551139e+02, 3.838382670428394e+03, 1.580687800024627e+03, -9.350143785264988e+02, 3.615667288143906e+03
3833, 7.659156312599861e-01, 7.612447062909370e-01, -2.238639147386620e-02, -6.423056068309594e-10, 4.285599414498744e-10, -1.400900047208586e-09, 1.255428372504511e+03, 8.029407643036963e+02, 2.867613658476460e+01, 1.085491677420173e+03, -4.814453698814235e+02, 8.637257874680370e+01, 9.364538585826867e+02
3834, 7.391615508530300e-01, 8.247415456627498e-01, -2.405726856045090e-02, -6.134741675260060e-10, 3.521510396093989e-10, -1.897724748942995e-09, 1.879133244450192e+03, 2.168033464580685e+03, -1.750719326427241e+02, 2.819835298665170e+03, -7.445873821335326e+01, -1.330365130368767e+03, 2.472814521480713e+03
3835, 7.574635002720166e-01, 8.324820167493709e-01, -2.315588714927508e-02, -5.947503522548085e-10, 3.217029011168196e-10, -1.965134550783623e-09, 1.544562531805546e+03, 1.702323988997769e+03, -1.829131441822011e+02, 2.389736256709116e+03, 1.083481742214979e+03, -1.227273928184960e+03, 2.957472748938277e+03
3836, 4.836067726843924e-01, 3.052252097004683e-01, -3.453360834924738e-02, -9.534523508060180e-10, 7.158114564912228e-10, -4.782074354566169e-09, 3.081811901436816e+03, 3.112792407561096e+03, -2.462106356453058e+02, 5.427694327130393e+03, -4.764447579069763e+02, 1.951351867390945e+03, 4.209231248876419e+03
3837, 4.811484918339077e-01, 2.854785041834268e-01, -3.465480113611594e-02, -1.385802512989845e-09, 7.086006185356147e-10, -1.024782659123262e-08, 6.217143185851956e+03, 5.861661740350574e+03, 2.108002458131535e+01, 1.172316097272591e+04, 3.994588207658637e+02, -3.784457390874487e+02, 5.771445639731409e+03
3838, 7.416199514426389e-01, 8.444807209103040e-01, -2.399033985260784e-02, -7.248685153963023e-10, 2.749968961296341e-10, -6.308201433405980e-09, 4.340390123558509e+03, 4.383397827579618e+03, -3.484422880607533e+02, 8.510599750482334e+03, 9.281216600787342e+02, -2.714531806448693e+02, 4.514717363650597e+03
3839, 7.599221898313252e-01, 8.522210477737417e-01, -2.309980318758830e-02, -5.451404339604501e-10, 4.797773102737091e-10, -1.927745633105094e-09, 1.903010524507196e+03, 1.469877178744483e+03, 7.816331035149373e+01, 1.527524163201135e+03, 1.562706333797189e+03, 2.947502590957607e+02, 2.787664569279027e+03
3840, 7.757632692305305e-01, 8.402226474536252e-01, -2.221404435983439e-02, -5.480232016777362e-10, 3.441328855205986e-10, -1.091039606175521e-09, 1.551025455162212e+03, 1.224485821565800e+03, -1.791389038712542e+02, 1.793136321198475e+03, -4.867349385435135e+02, 5.712387728818643e+02, 1.424868676761298e+03
3841, 7.782225293468179e-01, 8.599621135504013e-01, -2.216697304599861e-02, -3.541937240928636e-10, 2.555821094426639e-10, -1.267328976921390e-09, 9.973886483383232e+02, 1.201973641715028e+03, -1.985983945488933e+02, 1.434686293287634e+03, 9.899897007120373e+00, -1.043217294078982e+03, 1.878069400429181e+03
3842, 7.623805390477201e-01, 8.719605926509186e-01, -2.304126272955497e-02, -5.283311322008639e-10, 5.361022132289252e-10, -1.814191647775176e-09, 2.021636576085831e+03, 1.054530071281554e+03, 4.832887250908477e+01, 2.020673244200157e+03, -7.706709416074556e+02, -1.069461009213849e+02, 1.660567620148416e+03
3843, 7.806812984471965e-01, 8.797015300091751e-01, -2.211789355281626e-02, -3.267728772514854e-10, 2.846302546667790e-10, -4.892715861544774e-09, 4.043768069801427e+03, 3.807653497260648e+03, -5.118123633460118e+01, 8.158501816707077e+03, -3.328976813690869e+02, 2.578143397257191e+02, 4.300936916069061e+03
3844, 7.648388620898053e-01, 8.916999087467292e-01, -2.298032253488159e-02, -5.471271756492170e-10, 4.317607408691419e-10, -1.435014413614027e-09, 1.796073749157812e+03, 1.405889949143588e+03, -1.488014569505940e+02, 1.740328480336797e+03, -7.797631613766732e+02, 4.548046451342911e+02, 1.626240822254670e+03
3845, 7.831399033293132e-01, 8.994407089108040e-01, -2.206685149642619e-02, -4.596502643445723e-10, 2.664613369957524e-10, -1.301239892760409e-09, 1.715720326267225e+03, 2.128559835023570e+03, -1.575769049328915e+02, 2.849152670336764e+03, -3.382504350638112e+01, 9.068153818366169e+02, 1.879373815996890e+03
3846, 7.672970216190812e-01, 9.114389788630100e-01, -2.291662333874648e-02, -5.706830129519984e-10, 4.162326270715443e-10, -1.533962808775772e-09, 1.953971728140658e+03, 2.102246218126530e+03, 3.396061196484950e+01, 2.932716589241037e+03, -2.183213497566515e+02, -1.636812140882607e+03, 3.003118128013100e+03
3847, 7.855983687634820e-01, 9.191796430806632e-01, -2.201373580452989e-02, -7.916025546817906e-10, 4.441387245314554e-10, -1.830381891160289e-09, 2.441876537414095e+03, 2.187751988169217e+03, -1.865455876468738e+02, 4.470091669520934e+03, 1.411613750400719e+03, -1.138969130170940e+03, 3.829851839572142e+03
3848, 7.697549936350822e-01, 9.311778075664368e-01, -2.284977815199316e-02, -1.462211546844269e-10, 2.372786046606527e-10, -6.771250812014828e-09, 5.648968065558179e+03, 5.479545538951936e+03, 9.234880508206953e+01, 1.145798666465127e+04, -4.348256998525839e+02, -8.267357538840063e+02, 6.115624316347406e+03
3849, 7.880566819209761e-01, 9.389183375522412e-01, -2.195823763449591e-02, -5.913657152483620e-10, 2.131551848191390e-10, -2.052256654330159e-09, 1.981882875232922e+03, 2.066228189992734e+03, -2.059845356661536e+01, 3.512959312757505e+03, 1.409607975253358e+03, -1.130628281509548e+03, 3.466898876377832e+03
3850, 7.989799735389248e-01, 8.874426297930953e-01, -2.115598016764078e-02, -5.752254531899352e-10, 3.199415517824070e-10, -1.466428922303832e-09, 1.575967268540871e+03, 2.009225893343056e+03, 1.161450781390710e+02, 3.622066451634681e+03, 8.426620751948402e+02, 1.255343711940309e+03, 3.222749671711033e+03
3851, 7.227174257275082e-01, 2.753791704385708e-01, -2.202311071803081e-02, -6.382653880294363e-10, 1.331812999931873e-10, -3.894990779282638e-10, 7.045752871575085e+02, 6.584897278464526e+02, -5.766421180204561e+01, 9.187448476036798e+02, 4.593695230081865e+02, -3.636910834162785e+02, 1.047717889426043e+03
3852, 7.722127862389607e-01, 9.509163980669474e-01, -2.277988140668845e-02, -3.020772579698130e-10, 3.465624678071405e-10, -3.638728980014129e-09, 4.709024408838703e+03, 3.242967313660503e+03, -1.100720656458126e+02, 5.013114332982843e+03, -7.524410070240378e+01, 2.774921902634282e+02, 1.723933185799780e+03
3853, 7.905148347378963e-01, 9.586567988283162e-01, -2.190013025919091e-02, 1.576314827862569e-10, 5.290908946534559e-10, -5.657685856214419e-09, 4.536828496792004e+03, 4.922686730762647e+03, 1.051749896348298e+02, 1.054745972917989e+04, 4.853759272849106e+01, -1.289708151596712e+02, 5.835021531978113e+03
3854, 4.652868776928996e-01, 2.974831476779766e-01, -3.518909051832610e-02, -8.488734497005714e-10, 8.037704710851905e-10, -4.368280316455254e-09, 2.469872062401042e+03, 2.302295061934065e+03, -2.906863796941185e+02, 4.407987343042185e+03, -1.153939901068446e+03, 9.982674139922061e+02, 3.368530469922739e+03
3855, 4.628231484849757e-01, 2.777231315756672e-01, -3.531871078642440e-02, -8.477360119723380e-10, 1.044963220404393e-09, -4.757571973963816e-09, 2.865757229976992e+03, 3.408765879746756e+03, 3.350754358996363e+02, 5.755209635257143e+03, -1.189586418652603e+03, -8.872076535629961e+02, 3.744113031696466e+03
3856, 7.746608218801949e-01, 9.706370488183422e-01, -2.270707296788628e-02, -3.787814288631314e-10, 3.881596429532065e-10, -2.613114419984564e-09, 3.690503381391591e+03, 2.363881109813072e+03, -2.758093810787706e+02, 3.399258169321993e+03, 5.522090885863587e+02, 1.891421863579603e+03, 3.651551056042566e+03
3857, 7.929728326060742e-01, 9.783950314069221e-01, -2.183952246038028e-02, -4.955493642788159e-10, 9.957374384599376e-11, -1.949315036246612e-09, 1.884040496636156e+03, 2.016016900766477e+03, -1.614420643167523e+02, 4.156031098813517e+03, 4.120591282596016e+02, 9.109654690373374e+02, 2.820753972080899e+03
3858, 5.678100674212527e-01, 2.846925774724434e-01, -3.096946917941128e-02, -5.074918991090464e-10, 8.281203633232150e-10, -3.144159786815670e-09, 9.077113355028042e+02, 1.463169315743844e+03, -1.556753726527172e+02, 1.645594940276975e+03, 2.771756603762908e+02, 9.004839644587271e+02, 1.782958233121529e+03
3859, 8.088145507016365e-01, 9.663973527018052e-01, -2.097433179753392e-02, -6.745955046295831e-10, 3.356487376756860e-10, -1.410724961147766e-09, 1.812497416975475e+03, 1.650560447882444e+03, -1.335755796442919e+02, 3.240553100537993e+03, 9.830822597556645e+02, 4.670265633606958e+02, 2.429823564341819e+03
3860, 8.112731933977048e-01, 9.861360996242865e-01, -2.092396322120177e-02, -5.254676069683644e-10, 2.372946230941177e-10, -1.540307290891815e-09, 1.981244573176438e+03, 1.942170571523511e+03, -4.207776361840464e+01, 3.555914043052700e+03, -8.930455285104481e+02, -1.403776009447338e+02, 2.235991844691346e+03
3861, 7.954304305787749e-01, 9.981338792648066e-01, -2.177606604888965e-02, -5.766558620626679e-10, 2.000382636127757e-10, -2.137191959529169e-09, 2.371554390990455e+03, 2.298216189906290e+03, -4.965550569565278e+02, 3.826366138534178e+03, 1.672944641463409e+03, -1.597064641372190e+03, 4.360771432802342e+03
3862, 8.137313062858271e-01, 1.005874831310409e+00, -2.087151761349819e-02, -7.091812914657606e-10, 2.389532846469369e-10, -1.033092394432193e-09, 1.853910135042008e+03, 1.588503099036731e+03, -2.339442148492116e+01, 2.531682829819068e+03, -4.194413909561411e+02, 7.169223157505378e+02, 1.667654137172154e+03
3863, 7.978879587790306e-01, 1.017872536318631e+00, -2.170931096471798e-02, -8.803346410540509e-10, 1.636005276171687e-10, -1.757816733012580e-09, 1.997489979071942e+03, 1.629950978528690e+03, 2.594049568999216e+02, 2.614619164760516e+03, 1.466840544856216e+03, 8.141897822086760e+02, 3.064017582246722e+03
3864, 8.161892366805770e-01, 1.025613360899350e+00, -2.081664940503066e-02, -5.933106754121529e-10, 1.868789794633756e-11, -1.497326098114504e-09, 1.413789514660199e+03, 1.134827015279666e+03, 2.704794232428563e+02, 1.757890572523308e+03, -8.564110197266419e+01, -1.272857858784005e+03, 2.322541461731819e+03
3865, 8.003453131317029e-01, 1.037610976310311e+00, -2.163933488535517e-02, -5.518734298465690e-10, 2.978469595577301e-10, -1.602257349262694e-09, 1.984352992511541e+03, 1.620601366969083e+03, 1.242648284051725e+02, 2.208432059341857e+03, -1.173951234081742e+03, -2.730779913557065e+01, 2.108810728469631e+03
3866, 8.186469946231336e-01, 1.045351672328055e+00, -2.075904506499222e-02, -4.653946508837581e-10, 2.278357317549769e-10, -4.609878391497129e-09, 3.158224537651764e+03, 3.319727151602627e+03, 2.179862111195385e+01, 5.786027665686730e+03, -1.526821529586042e+02, 3.542706168460103e+01, 2.565572370668892e+03
3867, 7.232577109620120e-01, 8.366664417659737e-01, -2.483509707637748e-02, -5.913989113155036e-10, 5.525761800415087e-10, -2.761076721349936e-09, 2.948645062348274e+03, 3.148271499375452e+03, -2.858608414154299e+02, 4.653337587725689e+03, 2.692754457055140e+02, -2.184265764542611e+03, 4.169083049637235e+03
3868, 8.320299295001748e-01, 1.013615945331257e+00, -1.992304474362979e-02, -5.654286937861679e-10, 3.522532566834953e-10, -9.706653465739218e-10, 1.391473905143373e+03, 1.267640656964346e+03, 1.261244955694828e+02, 1.688283250931130e+03, 2.175360709032407e+02, 8.191338029683799e+02, 1.530625323048284e+03
3869, 4.469592395402188e-01, 2.897224807497735e-01, -3.581316913672367e-02, -9.404749656682129e-10, 8.037550364933673e-10, -5.709180575672173e-09, 3.174644593112533e+03, 3.768463849063590e+03, -3.231925321342441e+02, 4.957518187986584e+03, 1.212479328041775e+03, -2.417889136326955e+03, 4.973409003937456e+03
3870, 4.494238350077007e-01, 3.094866953979949e-01, -3.566910029852194e-02, -6.754045535253751e-10, 9.980523514544228e-10, -5.492781279021604e-09, 1.864265307600366e+03, 1.171225633919342e+03, -3.898978826437266e+02, 2.725744357322830e+03, 2.557789855142049e+03, 7.973553381701198e+02, 4.879522908410966e+03
3871, 4.445084210205680e-01, 2.699946494789913e-01, -3.595287540372619e-02, -8.626068322224440e-10, 6.788107489607848e-10, -4.930415261562605e-09, 1.994912877438567e+03, 3.065276149201087e+03, 1.374994395612023e+02, 4.926103448849932e+03, -1.881580477267941e+02, 1.552771086768345e+03, 3.741168233776313e+03
3872, 8.028024745144797e-01, 1.057349191457798e+00, -2.156582861648648e-02, -5.139603315600073e-10, 2.779900962817605e-10, -1.334328298391150e-09, 1.647892815330869e+03, 1.492091778656582e+03, -1.001245167631491e+02, 1.062633745827334e+03, -3.941638223763445e+02, 4.327723435940761e+02, 1.154843707622433e+03
3873, 8.211045856657462e-01, 1.065089756600645e+00, -2.069880371432424e-02, -4.280143287816259e-10, 5.672283359984667e-10, -1.599292801625635e-09, 1.450678308285399e+03, 1.774827749767664e+03, -1.779799274541855e+02, 2.351432877152483e+03, -1.493725163297986e+02, 6.633465688153863e+02, 1.451380578638368e+03
3874, 8.052594178663857e-01, 1.077087174136986e+00, -2.148822332888236e-02, -4.520130886150287e-10, 5.425506707398464e-10, -1.729261191554172e-09, 2.357381175660440e+03, 2.384009044059630e+03, -3.407012934906247e+01, 4.368147197719102e+03, -1.340647121144196e+02, -1.559011901562673e+03, 3.367388203891986e+03
3875, 8.235619966369734e-01, 1.084827610035557e+00, -2.063558890660963e-02, -6.576155210535540e-10, 1.801611506853560e-10, -2.336584367978473e-09, 2.954463156401802e+03, 2.586102129169227e+03, -3.209644580613823e+02, 6.671074589874050e+03, 1.010075583465721e+03, -2.600153684373303e+03, 6.242608056677560e+03
3876, 4.286440743483529e-01, 2.819988934197712e-01, -3.639814539936951e-02, -7.795378392758584e-10, 7.948044862768469e-10, -5.105074400808637e-09, 1.978514280994010e+03, 2.829678496269986e+03, -5.730953608576119e+02, 2.350428045203913e+03, -1.548067499149607e+02, -1.917403699559499e+03, 3.554259668444569e+03
3877, 4.261650131208188e-01, 2.622256574731785e-01, -3.655227016630584e-02, -8.848972035951069e-10, 5.176748070044331e-10, -4.874787503233262e-09, 3.709375766093837e+03, 2.919149141915319e+03, -4.933000075709047e+02, 4.857257242541456e+03, -1.446431918037852e+03, 1.077191391120542e+03, 3.651948925970812e+03
3878, 4.603473083662453e-01, 2.579517157943202e-01, -3.544628537273943e-02, -1.884422491302860e-09, 6.914099290474167e-10, -5.308504267475794e-09, 3.464176150020278e+03, 3.795859675618961e+03, -1.353292800008692e+02, 8.335425894278811e+03, 2.321041722180988e+03, 2.449943151349832e+02, 6.214506211806513e+03
3879, 8.077161435171151e-01, 1.096824924282422e+00, -2.140652714001648e-02, -6.458080841422644e-10, 2.024296705848803e-10, -6.478835101425733e-09, 5.234353516922374e+03, 5.207071601506955e+03, -3.068598041753611e+02, 1.082974026235398e+04, -2.650702948623098e+01, -3.071884124577100e+02, 5.659455879331768e+03
3880, 8.260192054434752e-01, 1.104565231242850e+00, -2.056892172412278e-02, -2.563991487020493e-10, 2.533396975180526e-10, -2.012441541972253e-09, 2.510160217340608e+03, 2.486721563659416e+03, 1.691309649985631e+02, 3.631731890181023e+03, 1.813579593019001e+03, -6.712235747615164e+02, 3.548156204337486e+03
3881, 8.418619443858864e-01, 1.092568197757117e+00, -1.972923381696960e-02, -5.048561263644373e-10, 1.683587621999852e-10, -1.267677195565733e-09, 2.373349266101359e+03, 1.739596361187380e+03, -1.784741946208805e+02, 3.035886668725959e+03, -7.607972302998569e+02, 4.888182937957894e+02, 1.951745352824430e+03
3882, 8.443199126753314e-01, 1.112306377627996e+00, -1.967502057742470e-02, -5.151389644422782e-10, 3.818642644639249e-10, -1.863492259394024e-09, 1.881119284167353e+03, 2.480980471960483e+03, -3.955568861273726e+02, 3.410774040512102e+03, 9.336366903636324e+02, -1.371249048632658e+03, 3.241526896166381e+03
3883, 8.284759755751421e-01, 1.124303507663339e+00, -2.049886048258744e-02, -3.112904749208016e-10, 6.320886244587479e-10, -6.242557332008432e-09, 5.407109756608778e+03, 4.971372248936776e+03, 1.488824417505388e+02, 1.060765604102341e+04, -8.918385070395027e+01, 1.316993205758628e+02, 5.444631784025353e+03
3884, 8.467772603416851e-01, 1.132044526797913e+00, -1.961798481758539e-02, -5.117543259483767e-10, 3.903711073512801e-10, -1.786255877882553e-09, 2.297339745820461e+03, 2.228252056832895e+03, 1.463297975083997e+02, 4.542646376545362e+03, 1.322600017722508e+03, 1.237195168363239e+03, 3.886554171030092e+03
3885, 8.626183118234287e-01, 1.120047675757537e+00, -1.873270038305801e-02, -5.494106657540408e-10, 2.616637921675277e-10, -1.161848335567357e-09, 1.999694029585366e+03, 1.893018741940763e+03, -2.173743467736420e+02, 2.466104821131566e+03, -1.461660979287953e+02, 6.780246000835116e+02, 1.365164322792593e+03
3886, 8.650763578667153e-01, 1.139786402091911e+00, -1.868640123748749e-02, -3.950092739674507e-10, 1.644285331844578e-10, -1.387139504126058e-09, 1.327822571844743e+03, 1.477367549342063e+03, -9.204384247267186e+01, 2.475205980863344e+03, 2.761033373948325e+02, -1.494537955216337e+03, 2.849967267500299e+03
3887, 8.492341806193549e-01, 1.151783357700231e+00, -1.955815705077699e-02, -5.226092670821939e-10, 2.570757711470843e-10, -1.524394489751894e-09, 1.806480810524521e+03, 1.117752742203506e+03, -1.561594280426197e+02, 2.179793100534359e+03, -1.365687153039817e+03, -3.195712884610589e+02, 2.616420837022273e+03
3888, 8.675338023677099e-01, 1.159525108333238e+00, -1.863779796977541e-02, -1.621836386625272e-10, 1.711705739588722e-10, -5.184058630593631e-09, 3.657144257930467e+03, 3.679001940868250e+03, -3.437848043446938e+01, 7.359595300903695e+03, 3.460729073414606e+01, 7.037820629865735e+01, 3.694549010658710e+03
3889, 8.516910383734129e-01, 1.171521978049351e+00, -1.949522971382566e-02, -6.520706472216267e-10, 3.503057474929310e-10, -1.348647832101961e-09, 1.594711043833199e+03, 1.266102507619257e+03, 5.697521768206266e+01, 1.390541334658127e+03, -7.335825202757698e+02, 5.705730737836464e+02, 1.638110587530346e+03
3890, 8.699910512539567e-01, 1.179263584985270e+00, -1.858683527896257e-02, -4.806716421174840e-10, 3.762107171006816e-10, -1.367978347116832e-09, 1.146156710750651e+03, 1.910395028308230e+03, -1.315791492064857e+02, 2.201646674646801e+03, 9.996303595128981e+01, 1.026606348021279e+03, 2.033507369124120e+03
3891, 7.514403286425058e-01, 9.234165971448312e-01, -2.369109201331034e-02, -6.197393133593001e-10, 3.380635075304362e-10, -2.297015362371455e-09, 2.366410192047240e+03, 1.835878769528590e+03, 3.472555439342316e+02, 3.089994511864464e+03, -1.356961268610324e+03, -1.490566906081928e+03, 3.706761669313876e+03
3892, 8.541327410416509e-01, 1.191197756047831e+00, -1.942923601596220e-02, -3.809247006881286e-10, 4.429635603393066e-10, -1.362666874380351e-09, 2.689731007320435e+03, 2.665694068895955e+03, 4.797067434333454e+02, 4.446103588486988e+03, -1.767169803142517e+02, -1.481456482736747e+03, 3.239725686084405e+03
3893, 8.724348700966015e-01, 1.198976128485585e+00, -1.853397293274486e-02, -4.036458994659344e-10, 5.753208780927573e-10, -1.814385203127439e-09, 2.100926280773565e+03, 2.508119074423249e+03, -7.121713441826974e+01, 5.200987653214958e+03, 7.428383529741851e+02, -1.996537748521334e+03, 4.705634375282246e+03
3894, 4.103130764964389e-01, 2.742428590717183e-01, -3.693773684646648e-02, -8.971667573791400e-10, 1.126718579704391e-09, -5.954944469741942e-09, 3.979264569488321e+03, 3.329376687170966e+03, -2.716661286152267e+02, 3.719404013118229e+03, 2.968714720921840e+03, 2.944621060096384e+02, 5.219418940481220e+03
3895, 4.078640964817528e-01, 2.545104105549300e-01, -3.710708780495146e-02, -1.276660649452403e-09, 1.349532489755538e-09, -6.278328599122615e-09, 4.415378985978295e+03, 3.967457650454216e+03, -1.332918000087596e+02, 6.682745655857429e+03, 2.310270085398771e+03, -1.805887812615352e+03, 5.675052698871046e+03
3896, 8.566049813531956e-01, 1.210994588005730e+00, -1.935844721955066e-02, -3.239129784546232e-10, 2.934373489591094e-10, -5.703576813093487e-09, 6.829377159713385e+03, 6.395647744700565e+03, 1.566584851090429e+02, 1.392321664587515e+04, -3.503853404218207e+02, -7.605393985926696e+02, 7.467575412746472e+03
3897, 8.749017274165712e-01, 1.218734032740964e+00, -1.847713521098786e-02, -3.647774403267775e-10, 2.295485420846267e-10, -2.378710584568114e-09, 3.119530494151183e+03, 3.011174125251262e+03, 1.676143333687721e+02, 6.867302066859399e+03, 7.013662417005837e+02, -3.097768897276981e+02, 4.038754815093097e+03
3898, 8.590617291194504e-01, 1.230725641337320e+00, -1.928420649940208e-02, -3.621575290636505e-10, -4.266813309306771e-11, -1.690051004453817e-09, 3.131916787488992e+03, 2.826846951455883e+03, -2.510233141218922e+02, 5.117704165798769e+03, -7.924359395146772e+02, 9.846296167317058e+02, 3.102194652249708e+03
3899, 8.773549057174965e-01, 1.238463159045698e+00, -1.841787518880741e-02, -5.778610459185058e-10, 2.637892775364853e-10, -5.335310471459686e-09, 4.728101473586224e+03, 4.658135226393576e+03, -9.384601804494164e+01, 9.753841564752785e+03, 5.566946407310477e+02, 5.424532179104883e+02, 5.239609278226639e+03
3900, 8.809152087388957e-01, 1.127789339454632e+00, -1.774932423639223e-02, -3.910188785452326e-10, 5.077137414260209e-11, -9.703907576677468e-10, 1.295563019990873e+03, 1.439021455635007e+03, -1.565407140444710e+02, 2.088537742488589e+03, 7.896866854234979e+01, 1.077346986812093e+03, 2.027284648823873e+03
3901, 8.931871162939310e-01, 1.226474736742941e+00, -1.754288013074093e-02, -3.543309888490580e-10, 1.967274821635381e-10, -1.569988897276845e-09, 1.396229076773286e+03, 9.503479352101230e+02, -1.199873562784380e+02, 2.665205798354246e+03, 1.737586567773329e+03, -4.773614861416764e+02, 3.487027216043025e+03
3902, 8.956410411736464e-01, 1.246199264248742e+00, -1.749542691558605e-02, -7.022052478289842e-10, 7.044342081574003e-11, -1.325154846380218e-09, 2.481273374157464e+03, 2.631091982001124e+03, 7.947963480040585e+00, 5.091359252153808e+03, 1.259659393859634e+03, 1.429339109469236e+03, 4.163340031602052e+03
3903, 8.797642159149532e-01, 1.258117769116913e+00, -1.835733800359476e-02, -3.828768725693768e-10, 9.002871649532665e-11, -1.303856154797865e-09, 1.554621331979279e+03, 2.126751433362546e+03, -8.007675024257267e+01, 3.094711196181380e+03, 3.922632356929100e+02, 1.537938644044133e+03, 3.065076163349217e+03
3904, 8.980746701163107e-01, 1.265885197801790e+00, -1.744631785030356e-02, -6.119869598344675e-10, 1.918155717079662e-10, -9.321980077018538e-10, 1.324607306501997e+03, 1.363974263444480e+03, 1.586401877691112e+02, 2.128401567993599e+03, -6.087946597722846e+02, 3.342966323478633e+01, 1.344149398691593e+03
3905, 7.860829823941353e-01, 2.273406979915504e-01, -1.763272482222237e-02, -5.153897791720329e-10, 9.028786170334535e-11, 1.329310605147169e-10, 5.314338315499932e+01, -3.510638103999050e+01, -2.388083607508715e+01, -7.975569730529661e+01, 1.511719797079136e+02, 2.019595954885881e+01, 2.919165799384713e+02
3906, 8.822652376388809e-01, 1.277905604373556e+00, -1.828882482514011e-02, -4.116745372602571e-10, 3.790596836135175e-10, -9.203024803074732e-10, 2.031944791860459e+03, 1.774305901666584e+03, -2.288321512981117e+02, 2.503107984488936e+03, 1.188983719107398e+03, -8.299434438633742e+02, 2.621892482010490e+03
3907, 9.005345388088790e-01, 1.285612199326598e+00, -1.739342647435142e-02, -2.710936520477874e-10, 1.465478659911063e-10, -1.174068709432480e-09, 1.666062037255936e+03, 1.369615292595609e+03, -1.043367199290756e+02, 2.040671061410541e+03, -7.594307543799233e+02, 2.056614641094796e+02, 1.492989550552382e+03
3908, 3.919961772056770e-01, 2.665139819749648e-01, -3.742309498066359e-02, -6.258631158966639e-10, 9.475886312672113e-10, -1.491365368375910e-08, 9.090438783510757e+03, 8.288609855051340e+03, -3.078923346525891e+01, 1.759380428508279e+04, 6.729858095752813e+02, -9.140993181357813e+02, 9.145310560766879e+03
3909, 3.895399141630265e-01, 2.467678899378278e-01, -3.761175396005393e-02, -1.299997295418276e-09, 9.244386365240014e-10, -6.429458877806549e-09, 3.309829942243822e+03, 3.401172654552569e+03, 2.798644804255061e+02, 3.290757777333664e+03, 2.552216935108644e+02, -2.129537794034890e+03, 3.747749953136535e+03
3910, 7.844979329216479e-01, 1.049608699464791e+00, -2.237368058238847e-02, -6.847034794210731e-10, 3.903945909604248e-10, -1.878121038325230e-09, 1.806414226225613e+03, 1.911251269351437e+03, -1.639676475673388e+02, 2.307977866875094e+03, 1.160427305843451e+03, -8.615523877280789e+02, 2.560707472046591e+03
3911, 8.410105779384541e-01, 2.506056740891394e-01, -1.420833231643370e-02, -6.569887119636905e-10, 6.061050358460429e-11, 6.199642735479196e-10, -9.308190630030591e+02, -6.450924447976203e+02, -9.332490312758526e+01, -1.623036135220280e+03, 1.066534365058075e+03, 1.050303127302010e+02, 2.056768919078227e+03
3912, 8.847194541843537e-01, 1.297622949983938e+00, -1.821856571943321e-02, -3.666750361222859e-10, 3.052869806061195e-10, -1.616333757658797e-09, 2.560833520575023e+03, 1.976026477722907e+03, -6.440431073644893e+01, 3.476955119419296e+03, 1.714657579911198e+03, 1.006155277406297e+02, 3.252690958634737e+03
3913, 9.029858658161417e-01, 1.305325171107750e+00, -1.733791787028059e-02, -3.396274335980701e-10, 2.638492021955556e-10, -8.969100379005444e-10, 1.433921329593662e+03, 1.982933211698740e+03, 1.043041860861647e+02, 2.640198572040597e+03, -2.499244933568593e+01, -1.126287185060132e+03, 2.221337146875805e+03
3914, 9.114378516717202e-01, 1.234175148664174e+00, -1.656516110033086e-02, -4.806301307489983e-10, 1.054155711091750e-10, -1.028373821946662e-09, 1.166293846948188e+03, 8.303854754435773e+02, -1.840139231492869e+02, 1.775462797172375e+03, -1.843330714240886e+02, -4.060084384112739e+02, 1.177537330868482e+03
3915, 3.736701369323950e-01, 2.587709251261971e-01, -3.784606406731299e-02, -1.653213297380294e-09, 1.264347984271530e-09, -8.936101479759368e-09, 7.145934809893528e+03, 5.663466218847870e+03, -3.081199738189173e+02, 1.128665139469752e+04, 9.187350938423394e+02, -3.842908908526118e+03, 8.520716645386152e+03
3916, 3.712144574633354e-01, 2.390251415057112e-01, -3.805714049357245e-02, -1.575169512304919e-09, 1.110275901307633e-09, -6.893191972387663e-09, 3.487272244358075e+03, 4.488042909262482e+03, -2.451489990385853e+02, 5.743172019821335e+03, -2.358012510578732e+02, 1.559878621049117e+03, 3.388178290000225e+03
3917, 3.761262083089438e-01, 2.785157462005552e-01, -3.762510903894377e-02, -1.223860471788570e-09, 7.570836700709650e-10, -9.319149177823343e-09, 8.153145276186126e+03, 7.916414410596320e+03, -6.844285019357123e+02, 1.452920704735874e+04, 8.525683256796170e+02, 8.363531182721121e+02, 6.921273063725220e+03
3918, 3.870837646698064e-01, 2.270210649480541e-01, -3.779290769703774e-02, -1.820393871616885e-09, 6.813607626871533e-10, -7.563820124326660e-09, 4.533879307034554e+03, 4.555795505639529e+03, -2.719488194926263e+02, 7.650411133224266e+03, 1.314427480875478e+03, 3.003264314789505e+03, 6.489126700499048e+03
3919, 3.687572413960493e-01, 2.192777574857480e-01, -3.825961668975020e-02, -1.111289538332386e-09, 1.019354187828006e-09, -1.554535562721119e-08, 8.932753283432747e+03, 9.479534894432962e+03, -4.552135799573774e+02, 2.015062674044868e+04, -5.435711569936486e+02, -6.965704309416014e+02, 1.108916706615030e+04
3920, 8.358456705934294e-01, 1.183518880078347e+00, -2.026431078796266e-02, -7.354393760477794e-10, 8.217744290929976e-11, -1.939562313569561e-09, 3.147738798029782e+03, 2.430578992896859e+03, 2.334069747663626e+02, 4.655339573002118e+03, 1.411887694947320e+03, 1.001001520420436e+03, 3.608060161566694e+03
3921, 8.871768746579234e-01, 1.317327585532709e+00, -1.814380206411814e-02, 1.629350170780276e-10, 2.406548230588416e-10, -1.459829426086751e-09, 2.774982094204898e+03, 2.607886966724842e+03, -4.854065211305711e+01, 4.935134866288834e+03, -1.394907221120329e+03, -5.126954454429425e+02, 3.418781755809320e+03
3922, 9.054249412465987e-01, 1.325020890597936e+00, -1.727971504169560e-02, -1.378217778197690e-10, 5.067756802114355e-10, -5.635231351752115e-09, 5.104022761213469e+03, 5.675310962795365e+03, -1.884538611986404e+02, 1.245690612342242e+04, -4.891026387316666e+02, -1.300158994156493e+01, 7.142504064132266e+03
3923, 8.896331582409864e-01, 1.337007893507241e+00, -1.806413682172235e-02, -4.001342892333986e-10, 3.901562738189464e-10, -9.563998165758256e-10, 2.082355653763258e+03, 2.529694924346180e+03, -5.570817599057858e+02, 3.626357569346767e+03, -7.987086265416315e+02, 5.944037157161977e+02, 2.407931820339262e+03
3924, 9.078591031992568e-01, 1.344693567540531e+00, -1.721830476183697e-02, -5.118830297187216e-10, 2.065781321342464e-10, -9.042319260734943e-10, 1.628651732068355e+03, 1.802686637436662e+03, -1.918192135353988e+02, 2.923114569894248e+03, 1.777318254573374e+02, 8.310527646014112e+02, 1.938488122056763e+03
3925, 9.236405616246777e-01, 1.332756993962552e+00, -1.635795358060698e-02, -7.846683138646966e-10, 1.510768208252199e-10, -1.243929740630151e-09, 2.570704272524929e+03, 2.390458079321584e+03, -1.082848194094003e+02, 5.188454702582510e+03, 1.426913973492793e+03, 5.172808438970321e+02, 3.781945430328719e+03
3926, 9.260694748005887e-01, 1.352394960569962e+00, -1.630981003336862e-02, -5.888650847397890e-10, 9.652792353974418e-11, -1.257079136076751e-09, 1.733521415355158e+03, 1.347608552742534e+03, 3.119284009120606e+02, 1.481258999495382e+03, -1.260526326362014e+03, -4.040241688975266e+02, 2.379831544532738e+03
3927, 9.103238791817414e-01, 1.364350672250504e+00, -1.715131732202088e-02, -5.246126625804079e-10, 2.267141825701324e-10, -9.485034141264466e-10, 2.507018341894970e+03, 2.620234573935212e+03, -2.454499115625450e+02, 3.118994607799105e+03, 1.461660922929241e+03, -1.225027390521507e+03, 3.377901490422820e+03
3928, 9.285103463492267e-01, 1.372042826078099e+00, -1.625838626016941e-02, -3.706090674893511e-10, 3.710127086104046e-10, -1.172872569756107e-09, 1.686931189240782e+03, 1.661942206265247e+03, -3.651396617349924e+02, 1.680434794269740e+03, -7.922086043247222e+02, 6.976119760697488e+02, 1.934749611085751e+03
3929, 9.442501869113784e-01, 1.360135190895334e+00, -1.535070113095664e-02, 1.304374996869287e-10, 2.385981435760837e-10, -4.394425993676507e-09, 3.761596771988925e+03, 4.031673751474053e+03, 6.195348493076736e+01, 7.346163673169707e+03, -4.020032786854397e+02, 1.615273572578570e+02, 3.539570639920919e+03
3930, 9.466762688456192e-01, 1.379736178718509e+00, -1.531088010428718e-02, -4.249898279626855e-10, 2.772784775228204e-10, -1.021752786554891e-09, 1.661363622399528e+03, 1.850305264755012e+03, -1.028299375347471e+02, 3.291612309952064e+03, 5.180041084249315e+02, 1.130722338358067e+03, 2.656632010570910e+03
3931, 9.128584725976576e-01, 1.384001690426996e+00, -1.707694751006615e-02, -4.928926338199390e-10, 4.441151402436179e-10, -1.313981452573989e-09, 2.694072934046516e+03, 2.419862220687147e+03, -6.256698032172572e+01, 3.889671786539336e+03, 1.542308424673776e+03, -8.200602757416295e+02, 3.316305236965390e+03
3932, 3.528855182075356e-01, 2.312821136538628e-01, -3.843413798599979e-02, -1.115122526060908e-09, 7.732196792487411e-10, -7.040288197392960e-09, 5.874651721939041e+03, 5.370990800449767e+03, -7.020546283124878e+02, 9.959395349711418e+03, -3.593449305765598e+03, 1.494632590637011e+03, 8.118816795185328e+03
3933, 3.504289212438996e-01, 2.115348211174974e-01, -3.866216251651701e-02, -1.115506718342522e-09, 1.297983648644197e-09, -6.459909351457053e-09, 3.781784895135399e+03, 2.522641446414128e+03, -3.248966297002917e+02, 4.613067289897917e+03, -1.356978376780070e+03, -5.611885543243101e+02, 3.179436838708080e+03
3934, 6.950878651199576e-01, 7.499167002481599e-01, -2.597841072311701e-02, -6.614950639293354e-10, 5.719243304968064e-10, -2.412660217813745e-09, 2.277668889093164e+03, 1.264673936882180e+03, -4.945209763170635e+02, 3.537865282960501e+03, 1.886074860793584e+03, -9.841381649714408e+02, 4.266368270903098e+03
3935, 7.377887096488425e-01, 6.745629362977430e-01, -2.353442266614272e-02, -6.341224469230298e-10, 4.692027581747331e-10, -1.668689586198287e-09, 1.576021526241074e+03, 1.266795467932104e+03, -3.558866948060062e+02, 1.858794166909460e+03, 3.453449164609638e+02, 9.973289357289134e+02, 1.996189410161771e+03
3936, 3.846274149061251e-01, 2.072722611737380e-01, -3.796781491550497e-02, -1.298500360008551e-09, 7.096395226792635e-10, -7.183937988239048e-09, 5.243097241631893e+03, 5.276465549949408e+03, -3.826448476211826e+02, 8.757092561374280e+03, 7.794501541912480e+01, -3.556730025425274e+03, 7.116212715182149e+03
3937, 9.624025095502635e-01, 1.367837058747152e+00, -1.434993695016877e-02, -3.374807496716472e-10, 3.210003601964098e-10, -8.391285529202895e-10, 1.638238162339392e+03, 1.836562265435457e+03, -1.474480194044405e+02, 2.452720657047448e+03, 8.948652971336446e+02, 9.422897408339219e+02, 2.381698342815062e+03
3938, 9.648221385348765e-01, 1.387404645040827e+00, -1.431858661576883e-02, -4.351160848149659e-10, 3.555077681245289e-10, -6.327729544001722e-10, 1.481554222747650e+03, 1.340358327457638e+03, 7.163271594938877e+01, 2.525371565341500e+03, 7.065147061724581e+01, -9.077785852644055e+02, 1.938924484922285e+03
3939, 3.345558659447261e-01, 2.235380360656263e-01, -3.873270024961369e-02, -1.306500755310233e-09, 1.140137735597225e-09, -7.511695411884097e-09, 4.409700421493972e+03, 2.695838812615946e+03, -7.680904225263996e+02, 3.985392020622919e+03, 2.454375046710197e+03, -2.169808964622237e+03, 6.029604090236346e+03
3940, 3.320925453912635e-01, 2.037776912091386e-01, -3.899132224613306e-02, -1.333020351053517e-09, 1.280514158038367e-09, -7.314788947837446e-09, 4.351811208944206e+03, 4.528127931355890e+03, -5.471315554625842e+02, 6.249207256397492e+03, -6.008219436073352e+01, 3.099604730253753e+03, 5.747016058261031e+03
3941, 8.336303885112472e-01, 1.913111747966449e-01, -1.424628680610183e-02, -4.934112088940112e-10, 1.044626219794799e-10, 6.515019902095759e-10, -7.220756025615892e+02, -8.002597691480548e+02, -3.044829447493098e+01, -1.334909725644272e+03, 6.113560279553767e+02, 2.460172217552746e+01, 1.208151526098362e+03
3942, 8.662848060656730e-01, 1.289734022416646e+00, -1.903904658058060e-02, -5.148900544253228e-10, -4.808100505351378e-11, -6.114518979998447e-09, 4.859978506329251e+03, 4.634300956246861e+03, 8.892283967524241e+01, 9.645675894990429e+03, 1.674920559345599e+02, 8.408826261454374e+01, 4.915582305580717e+03
3943, 3.162257781284650e-01, 2.157929825630558e-01, -3.894194672893875e-02, -2.003244314657701e-09, 1.176172693862157e-09, -7.380506957712320e-09, 3.342157686380605e+03, 3.556154932838705e+03, -3.830665066254394e+01, 4.590531955854056e+03, -6.623926143229511e+02, -2.503611952675406e+03, 4.632709470243064e+03
3944, 3.137698984786506e-01, 1.960471607264866e-01, -3.923500646561279e-02, -1.377065560808562e-09, 1.010457265861002e-09, -7.172735685019170e-09, 4.365412601650230e+03, 3.649876017822112e+03, -2.412581885977036e+02, 4.543426225515808e+03, -9.142221393599982e+02, 1.396507197184475e+03, 3.033772679309077e+03
3945, 3.296121728974605e-01, 1.840064240406700e-01, -3.923823304687048e-02, -4.889722084625121e-10, 1.154890647341005e-09, -1.499382330474632e-08, 8.226957974751607e+03, 8.091721963791163e+03, 4.021383561363286e+02, 1.568206770115427e+04, -4.920810860710807e+02, 3.803891129274017e+01, 7.604016514092208e+03
3946, 2.978861893237191e-01, 2.080288394461171e-01, -3.904933347121512e-02, -1.871985862090259e-09, 9.843741126899687e-10, -7.741698767185526e-09, 5.028678861226147e+03, 4.520476722504042e+03, -1.219724632383875e+02, 8.420017494626874e+03, 4.814635357269076e+03, 1.026904700434760e+02, 9.115993714373564e+03
3947, 2.953915211746229e-01, 1.882393782561270e-01, -3.938283144207854e-02, -2.053707431314090e-09, 1.270455034862742e-09, -7.760867744298041e-09, 5.420082945514227e+03, 4.693617975210645e+03, -2.689738043197762e+02, 7.884300726240173e+03, 2.302023220699941e+03, -8.102788410509714e+02, 5.145378253320293e+03
3948, 3.003521279035787e-01, 2.277899876063927e-01, -3.869725318950792e-02, -1.998870832094920e-09, 1.230681939226309e-09, -6.946384341707638e-09, 3.866807887818652e+03, 4.164913528654220e+03, 7.565283267120336e+01, 5.941328370192190e+03, -1.387954540236645e+03, -7.731413798978130e+02, 3.371015009986726e+03
3949, 9.805507805777907e-01, 1.375532764755667e+00, -1.331443584758411e-02, -3.021759913183836e-10, 1.906299410423198e-10, -3.332452789085070e-10, 9.792140789704755e+02, 1.135297080355147e+03, -2.049490341418085e+02, 1.079111473808214e+03, 2.305543541101007e+02, 2.988094421440520e+02, 7.563653919419546e+02
3950, 9.829661856594516e-01, 1.395093992787457e+00, -1.328958657135948e-02, -2.917697938227009e-10, 2.607010490335592e-10, -5.077128245454304e-10, 1.061200128089980e+03, 8.687054910362062e+02, -4.609316113758278e+01, 1.374281350300210e+03, 7.977130925795448e+02, -4.974185554270011e+02, 1.689091005189332e+03
3951, 9.781290019833104e-01, 1.355930677289345e+00, -1.333853123288486e-02, -1.714690395682866e-10, 4.469168233365240e-11, -1.480242617905252e-09, 1.673594621313613e+03, 1.630045466023465e+03, 4.587188520693054e+01, 2.429693316931745e+03, 3.613205260077372e+02, 6.740833010235627e+01, 1.009014931482423e+03
3952, 9.672658491559833e-01, 1.407003009451505e+00, -1.428460092826754e-02, -1.026984487824928e-10, -5.075406751965648e-11, -3.640795250116004e-09, 3.368913097331216e+03, 3.259292600185300e+03, -1.368168128399614e+02, 5.509391843415326e+03, 8.563517043893664e+01, -1.946169799511352e+01, 2.215310181724053e+03
3953, 9.853766658531821e-01, 1.414654269665163e+00, -1.326396223379078e-02, -2.451435722256483e-10, 2.047565661533911e-10, -7.528256386427709e-10, 1.235557267471078e+03, 1.246386518384169e+03, -5.534765005307149e+01, 2.316458181072032e+03, 1.409335473313397e+03, 1.737018138695267e+02, 2.686102229446138e+03
3954, 9.696999930994492e-01, 1.426545757089874e+00, -1.424917859836809e-02, -2.289733726982197e-10, 5.449864183867297e-10, -1.066989087506600e-09, 1.937068370988655e+03, 2.222160166958527e+03, -2.113260019177920e+02, 2.367448327879754e+03, 1.379169236852618e+03, 1.147385735334816e+02, 2.454302478146176e+03
3955, 9.877790672366507e-01, 1.434185183361569e+00, -1.323747955245070e-02, -2.844921398638156e-10, 2.713506220237265e-10, -4.774548547829210e-10, 1.097085403877465e+03, 1.083523713544217e+03, -2.205155449746755e+02, 1.591608047863370e+03, 1.585556259388004e+01, -3.164633252892054e+02, 8.357785292176781e+02
3956, 9.962874825683427e-01, 1.363610534238634e+00, -1.227004515177812e-02, -3.049269009162244e-10, 1.608061818422065e-10, -3.344296817887541e-10, 7.914392630572853e+02, 8.431398097777549e+02, 5.179783757401883e+01, 1.621870451095326e+03, 6.326203255199940e+02, -3.110020011364494e+00, 1.363106251012990e+03
3957, 9.938718361879213e-01, 1.344009871924721e+00, -1.228896119290965e-02, -3.499021405080824e-10, 1.254428668942383e-10, -6.377681890171592e-11, 6.064200686071445e+02, 6.175748226254390e+02, 3.216208988342798e+01, 7.707207959256755e+02, 3.781292997006574e+02, -1.833126272188765e+02, 7.470913486203277e+02
3958, 1.003447820249732e+00, 1.422329449161202e+00, -1.221442599817198e-02, -3.024021837815259e-10, 2.207812378341597e-10, -1.804061392069983e-10, 7.748578042823621e+02, 6.984256658542564e+02, -9.041383278477446e+01, 9.811575613615504e+02, 1.480692734709691e+02, -2.268692855570268e+02, 5.557660695373685e+02
3959, 1.005871989615846e+00, 1.441889845217133e+00, -1.219212090690275e-02, -2.041555290103301e-10, 7.261254967028407e-11, -1.293982604505952e-09, 1.316494244712080e+03, 1.323302387431079e+03, -1.350095349290362e+02, 1.747595573255360e+03, 9.822282231294864e+01, -1.903999754526008e+02, 6.126516554288172e+02
3960, 2.795556952768010e-01, 2.002790422825385e-01, -3.903892795705621e-02, -1.832140285945775e-09, 1.078999864897957e-09, -1.690428319012995e-08, 1.001569203216941e+04, 9.609476742507240e+03, 1.539566216905406e+02, 2.063955605406467e+04, 1.745007114643742e+03, -4.734307458938165e+02, 1.127943886220822e+04
3961, 2.770642572668015e-01, 1.805027003518721e-01, -3.941896376391822e-02, -1.758274037513644e-09, 1.120596562497487e-09, -8.901529742723930e-09, 4.512210437108918e+03, 6.013287032359166e+03, -4.389638434222247e+02, 9.699469685529144e+03, 1.000212266390105e+03, -3.192081064614860e+03, 7.451302038842353e+03
3962, 7.300796121731902e-01, 3.346738042735090e-01, -2.196294528562076e-02, -6.167421481208920e-10, 1.325523847022920e-10, -2.605265697313708e-10, 3.846549463393242e+02, 4.895651039689602e+02, -5.845806746085624e+01, 6.797315312067180e+02, 1.472653545563402e+02, 2.056203452036044e+02, 5.189145123005932e+02
3963, 5.935032926190338e-01, 3.516817266426705e-01, -2.989045723831408e-02, -1.406228020343753e-10, 5.242526415098844e-10, -6.180870581092793e-09, 3.935857979295815e+03, 3.378093050829389e+03, -1.422867196550979e+02, 7.662057404592925e+03, -4.477810966382116e+02, -1.264141370071442e+02, 4.121190252076470e+03
3964, 8.812437826028606e-01, 1.551872159312725e-01, -1.079164235625198e-02, -4.787614899644168e-10, -8.621571999857103e-11, 2.666828303154632e-10, -9.004642337169133e+02, -5.906669408222967e+02, -1.031848220772324e+02, -1.320187055536202e+03, 2.418744258925668e+02, 1.867857727365162e+02, 8.451558523259026e+02
3965, 1.012050005878762e+00, 1.351704334750055e+00, -1.119537207045363e-02, -3.458059968043898e-10, 1.588824757280497e-10, -2.867939344806156e-11, 2.653061611611700e+02, 3.420353244148570e+02, 3.695962334272377e+00, 3.158753752554980e+02, 9.992474004182768e+01, -9.529223792953908e+01, 2.486003815016056e+02
3966, 1.009630101421496e+00, 1.332080835436350e+00, -1.121119940107659e-02, -3.415398687104665e-10, 8.301434546618677e-11, -2.191475242540947e-11, 2.773937657492270e+02, 2.823800303488725e+02, -1.681202726964541e+01, 3.871660059124562e+02, 1.725813674431119e+02, -3.285174487606332e+00, 3.189996068532888e+02
3967, 1.021537916407457e+00, 1.430049020165877e+00, -1.113931438422961e-02, -2.538220362558598e-10, 1.583507810569331e-10, -6.583665794495470e-11, 5.500188929744128e+02, 5.186895000232181e+02, -5.135552541611185e+01, 7.359010944125632e+02, 3.160206426123862e+02, -2.543227961965518e+02, 7.368289244085781e+02
3968, 1.023937447221229e+00, 1.449542369528452e+00, -1.112180997083575e-02, -2.361311907084596e-10, 1.778558245455049e-10, -3.292049575779855e-10, 8.248469612191606e+02, 1.101775357139232e+03, -5.054139102965570e+01, 1.593115038701415e+03, 4.640650923828340e+02, -6.191309605901563e+02, 1.502621673816053e+03
3969, 9.721298763292442e-01, 1.446055989831127e+00, -1.421199271500945e-02, -4.467635317389974e-10, 4.570830448720658e-10, -1.025448288761532e-09, 2.169408892913187e+03, 2.102110882303326e+03, -1.065998906060688e+01, 4.114101895322874e+03, 1.924840954375793e+03, 1.964424677355987e+02, 3.892092213781650e+03
3970, 2.612403104296018e-01, 1.925468478043177e-01, -3.889387304875004e-02, -1.926818731823491e-09, 1.682475261086602e-09, -9.086090342853784e-09, 8.150807544951283e+03, 7.067469344146297e+03, -9.670539187413765e+02, 1.381694711748419e+04, 1.447300940651360e+00, -2.437321031662985e+03, 7.748825222330405e+03
3971, 2.587835982935052e-01, 1.728054834627979e-01, -3.932952037632551e-02, -1.444806919450138e-09, 1.172179732199033e-09, -8.453361976365542e-09, 5.437657813515437e+03, 6.295103631222306e+03, -3.577317918319160e+02, 9.530152562898202e+03, -2.660334592437563e+02, 3.429493990197178e+03, 7.060818556835464e+03
3972, 2.745934547137335e-01, 1.607506757142450e-01, -3.978043435955371e-02, -1.856976599692985e-09, 9.074915580337952e-10, -1.008602164901015e-08, 8.506674691450255e+03, 8.338480602628862e+03, -2.933156108499543e+02, 1.732629357520930e+04, 9.611552533398248e+01, 3.018934922458756e+03, 1.034045913833802e+04
3973, 2.562592781975603e-01, 1.529961223596267e-01, -3.974407292709389e-02, -9.448943217149055e-10, 8.423079361597122e-10, -1.883970629108599e-08, 2.168098743462520e+04, 2.038586019816739e+04, -5.578833096588847e+02, 4.288694142850264e+04, -2.220986773047977e+03, 1.239284745120009e+03, 2.234219720796984e+04
3974, 6.227381736276543e-01, 3.079227757740287e-01, -2.816844894070260e-02, -7.827365595284082e-10, 3.016691352468471e-10, -1.603858608675635e-09, 1.678294078095180e+03, 1.225075915988314e+03, 1.119286874972244e+02, 2.303849458975417e+03, 9.948803691772275e+02, 3.853697348194862e+02, 2.081517171380547e+03
3975, 2.404382753014611e-01, 1.650393960961439e-01, -3.909793047671368e-02, -1.750550831413174e-09, 1.257166779546972e-09, -7.915755228591186e-09, 6.427425435309095e+03, 4.480721494674610e+03, -5.469665232594512e+02, 7.539227898706166e+03, -2.861735033338467e+03, 2.211328477350890e+03, 6.879399060007973e+03
3976, 2.379692600847439e-01, 1.452779852188389e-01, -3.957166247805117e-02, -1.295714923208358e-09, 1.704401381905710e-09, -8.486177435001637e-09, 6.205533469561412e+03, 4.349658882507398e+03, -2.174009585744523e+02, 8.056162002820871e+03, -2.962302946146729e+03, -5.243824091394436e+02, 6.131563211253793e+03
3977, 1.027823048588192e+00, 1.339782380598699e+00, -1.009865203541379e-02, -3.853463139566602e-10, 9.743672120560354e-11, -2.839901606814257e-10, 3.286223663813178e+02, 3.387188455616462e+02, -5.228858968026648e+01, 4.469439675081872e+02, 2.546760270288971e+02, -3.229147166325293e+01, 4.677792771074458e+02
3978, 1.025401044430539e+00, 1.320143406412094e+00, -1.011237386653823e-02, -3.448005228447154e-10, 1.005065540753475e-10, 1.033593874403142e-11, 7.074151106852965e+01, 4.811627456276340e+01, -1.191588234309974e+01, 1.057590201891751e+02, 2.234593311173545e+02, -2.411222912746985e+02, 5.719951638717110e+02
3979, 2.537947206639091e-01, 1.332519074027726e-01, -4.013479781655408e-02, -1.076307788863248e-09, 2.516659734571214e-09, -9.726257337527141e-09, 8.090187057350620e+03, 8.386782638273895e+03, -4.464736216720507e+02, 1.472804773916606e+04, -3.252661188142956e+03, -2.570197393373751e+03, 9.712650392484065e+03
3980, 8.886740670687918e-01, 2.145569222451250e-01, -1.075565229608735e-02, -5.328177861950300e-10, 1.491296789200798e-10, 3.819879884068196e-10, -1.167443824008614e+03, -9.440813577506858e+02, 1.557212259342631e+02, -1.017668883856163e+03, 1.029140825872609e+03, 1.263020855756131e+02, 1.826708978882333e+03
3981, 1.039605480586905e+00, 1.437726541249216e+00, -1.004577912175336e-02, -3.124401914129796e-10, 1.806533043017580e-10, -2.799271848092249e-10, 5.623511375208403e+02, 7.368686131897745e+02, -1.872451155307725e+02, 1.239865250798115e+03, -3.056449644592099e+02, -1.856946223828748e+02, 9.274318742303881e+02
3982, 1.041998782978268e+00, 1.457207093182542e+00, -1.003120990859875e-02, -4.425666463269735e-10, 2.732269580154115e-10, -3.005768245235627e-10, 1.155106698502704e+03, 1.150193816259697e+03, -1.194761484998737e+02, 2.407195127855103e+03, 8.419251869938315e+02, -5.080264237272924e+02, 2.125443762516817e+03
3983, 2.221343674388886e-01, 1.572959022638926e-01, -3.870085588843430e-02, -2.052033827922325e-09, 1.351017560347273e-09, -8.590284890575682e-09, 4.344253184198438e+03, 2.916620429265496e+03, -1.486353598405594e+03, 3.296933988665807e+03, 2.797419698580531e+03, -1.730644905862344e+03, 6.381977196052719e+03
3984, 2.196612699323799e-01, 1.375424154516392e-01, -3.924394558005018e-02, -1.645760897574920e-09, 1.687894985667083e-09, -9.191621755293243e-09, 4.461392297377292e+03, 4.513815797960750e+03, -1.299827420327549e+02, 5.656705029752083e+03, 5.433710504350056e+02, 3.636534256198881e+03, 6.479077503659227e+03
3985, 1.007181432838401e+00, 1.312396060234824e+00, -1.122813289475110e-02, -2.972029534101062e-10, 1.058300979041471e-10, -1.573120881207254e-10, 3.569594385448289e+02, 3.339837769300009e+02, -6.416681186540698e+01, 8.416668769425871e+02, 6.782328739914353e+02, 2.854423083826113e+01, 1.281171966840117e+03
3986, 1.022953001994829e+00, 1.300424026907769e+00, -1.012699943533123e-02, -3.398246252913644e-10, 9.794575839086649e-11, 1.791491646376273e-10, -2.127098267308932e+02, -2.210988894265870e+02, -6.893690483545086e+00, -2.868630835242213e+02, 4.782837173587964e+02, -3.644428749490056e+02, 1.043940297443310e+03
3987, 1.026356189185512e+00, 1.469066957629818e+00, -1.110276516280337e-02, -2.131009310093521e-10, 2.258335579121469e-10, -2.236590494840674e-09, 3.185203236062071e+03, 2.950787337774966e+03, -1.561083422743828e+02, 6.313342906890631e+03, 2.199893538577609e+02, -8.492399804213267e+01, 3.288377401064479e+03
3988, 1.044388645758870e+00, 1.476704720869255e+00, -1.001667910808912e-02, -3.915826724620731e-10, 1.673695200322373e-10, -7.920644095411283e-11, 9.322311068846763e+02, 7.046561632011858e+02, 7.074866767497763e+01, 9.394974817049005e+02, 7.649953021670680e+02, 9.126137369392411e+01, 1.359835384878618e+03
3989, 1.004741912473972e+00, 1.292734761414706e+00, -1.124438229960802e-02, -2.946126296921077e-10, 1.310760511907030e-10, -5.684725420003009e-11, 1.764313444417709e+02, 1.755936019590390e+02, -1.911295355674003e+01, 2.531664707426590e+02, 4.789252405800990e+02, -2.733790863024191e+02, 9.588356028818708e+02
3990, 1.020535354774759e+00, 1.280778636535805e+00, -1.014001955453981e-02, -2.371357008263812e-10, 1.557627977051972e-10, 2.105754064818689e-10, -1.848649025141317e+02, 4.740918179241540e+00, 8.847869305280607e+01, 4.562363867641682e+01, 2.918910388121644e+02, 8.021387781713385e+01, 5.863128323864488e+02
3991, 2.038212374314819e-01, 1.495321868398349e-01, -3.811093757457806e-02, -2.220812498787256e-09, 1.866687316502288e-09, -9.211148141926179e-09, 8.020749759450746e+03, 9.256889969562184e+03, -2.240777878014323e+02, 1.426727641940966e+04, -4.788271123801524e+02, -4.245740244571698e+03, 9.367120400820077e+03
3992, 2.013450731761394e-01, 1.297837034705775e-01, -3.873837758989201e-02, -1.988172584794544e-09, 1.855123098243780e-09, -9.612136746323184e-09, 7.147164401229930e+03, 6.098107547543455e+03, -6.062623702060739e+02, 7.581271683074821e+03, -2.084273806519652e+03, 2.731109213326753e+03, 6.185183855411427e+03
3993, 2.062889754002356e-01, 1.692649629135511e-01, -3.744193228310345e-02, -3.859848315489422e-09, 2.686451906476089e-09, -1.849493719700878e-08, 1.356569378537937e+04, 1.242029547491761e+04, -1.494310278589976e+02, 2.718269021104842e+04, 2.485256917976789e+03, -1.593160887176595e+03, 1.511761863602931e+04
3994, 1.389930744940013e-01, 2.527256849745821e-01, -1.298761286208388e-02, -7.637958612764442e-10, 4.098620339273196e-10, -8.761767494188575e-10, 1.919467949898783e+02, 4.178280195899137e+02, 8.555853701772273e+02, 3.265000789010449e+03, -5.877761092591097e+02, 1.120771503702549e+03, 3.975103207430903e+03
3995, 9.286560508175005e-01, 1.192454992602146e-01, -7.281017255766697e-03, -3.631766722882720e-10, -4.375847408087725e-11, 2.398648078686029e-09, -2.807737342489745e+03, -2.903721886937391e+03, 3.173117982916315e+01, -5.714079175803145e+03, 1.230555655530396e+02, -4.745458615827468e+01, 2.869194385391784e+03
3996, 1.043614651848487e+00, 1.327872629160419e+00, -8.984485330777231e-03, -3.278254953974388e-10, 7.206240077643566e-11, 1.001811966132167e-11, -1.618391474282281e+02, -1.281578510480435e+02, -3.584140422532897e+01, -2.549749576389873e+02, 5.154906827498370e+02, -1.320040499077131e+02, 9.307344422815271e+02
3997, 1.126551200582894e+00, 1.288192392108557e+00, -3.095733343008029e-03, -4.591796803399131e-11, -9.167370287918456e-11, -2.295586486870220e-10, -6.087508716531016e+02, -7.233965335114641e+02, 9.793949879788356e+01, -1.995423880087559e+03, -5.625429154492363e+02, 1.036254723676969e+03, 2.444716998701431e+03
3998, 1.057681152254447e+00, 1.445401039960895e+00, -8.936177972368843e-03, -3.741920805223476e-10, 1.593165193000096e-10, -6.364903203242165e-11, 3.934233783064072e+02, 4.754021762308130e+02, -1.000432799552560e+02, 4.794709086564654e+02, 7.448186911068649e+02, 1.575914678672325e+02, 1.332616396934507e+03
3999, 1.111767864547184e+00, 1.169609827413585e+00, -3.152518142141850e-03, 1.498445815103827e-10, 8.193667443510897e-11, 5.656706986019249e-11, -2.846839882806238e+03, -3.615862322822339e+03, -5.780558154727071e+01, -7.142194858496315e+03, -2.017600996230560e+02, 5.394702193584665e+02, 4.091879242865205e+03
4000, 1.093454148144770e+00, 1.161865662031525e+00, -4.358102920247122e-03, -1.754179555661818e-09, -4.863241728537224e-10, 6.146622765780475e-09, -1.004783593107763e+04, -1.018530698773363e+04, 2.209742493691621e+02, -2.081369548176703e+04, 1.377645624444153e+03, 8.409384530956072e+01, 1.096832086734815e+04
4001, 1.090991479508175e+00, 1.142165028787834e+00, -4.368541703579760e-03, -2.388516930189258e-10, -3.939615425481806e-10, -4.793020059447179e-11, -1.361845549591363e+03, -1.746841429838843e+03, -4.653211030268709e+02, -2.671051762679619e+03, 5.789888202772669e+02, 2.343439777066641e+03, 4.414588208741796e+03
4002, 1.075159612426981e+00, 1.154136810181823e+00, -5.546310017038390e-03, -5.064111910382292e-10, -3.972758124142748e-11, 1.062902576079806e-10, -2.666475765174688e+03, -1.965898806046433e+03, -5.018866668111192e+02, -2.837547086709951e+03, 2.376596631094490e+03, 9.492256286848552e+02, 4.587299347237138e+03
4003, 1.072692969432954e+00, 1.134392187955212e+00, -5.557325925623451e-03, -3.868219638812880e-10, 4.928331463650127e-11, 2.553993784715478e-10, -7.371916222429358e+02, -1.041705173697211e+03, -2.413306216249373e+01, -1.437895975330805e+03, 8.452505449122847e+01, -2.184410104162537e+02, 7.325784709166664e+02
4004, 1.056873711749966e+00, 1.146438751869242e+00, -6.720951062803356e-03, -2.757801044621401e-10, 4.117139364434928e-11, 2.258407652986135e-10, -1.471636942266648e+03, -1.491817723169622e+03, -2.807539770821241e+01, -2.782664875607465e+03, -3.923459451410503e+02, 7.825697302176765e+01, 1.474885455142941e+03
4005, 1.054401689975574e+00, 1.126675889887889e+00, -6.732894991688845e-03, -4.917987264685985e-10, -7.367178433809952e-12, 1.361614664050645e-09, -1.946390120011492e+03, -1.987811789304290e+03, 8.219320547041642e+01, -3.561604622632701e+03, 3.489641958074604e+02, -1.922838713184180e+02, 1.743629325186726e+03
4006, 1.038562300059129e+00, 1.138664667135718e+00, -7.885648546349010e-03, -4.237884685880415e-10, 3.976981203294659e-11, 5.141721004610927e-10, -1.405992184987238e+03, -1.484075921764014e+03, -2.541874760133542e+01, -2.922631935511399e+03, 3.552230615810018e+02, 3.426551950662632e+02, 1.708974739572645e+03
4007, 1.036114834356096e+00, 1.118950404356937e+00, -7.897087681703883e-03, -4.018890361810333e-10, 4.366583607766585e-11, 2.849158845952140e-10, -9.385871119990835e+02, -9.640053448571780e+02, -1.095513649895276e+02, -1.614933634828545e+03, 4.800438317775885e+02, 2.991280578409538e+02, 1.198608653003360e+03
4008, 1.020282804666447e+00, 1.130908301828073e+00, -9.038579313071881e-03, -4.333709510999638e-10, 8.305021347195508e-11, 1.028595187813438e-09, -1.046195555788122e+03, -9.697876108492156e+02, -6.526855768817259e+01, -1.861410263877379e+03, 3.845698616719453e+02, 4.483300602954221e+01, 1.093249266882930e+03
4009, 1.017820617981248e+00, 1.111208513929330e+00, -9.051905970370117e-03, -3.891338018547089e-10, 4.474660387932295e-11, 3.214079929783721e-10, -5.465556533928716e+02, -6.361497428351047e+02, -1.372058339299078e+01, -1.166415473633981e+03, 4.773989027505328e+02, 1.914723200329587e+02, 1.063483130905506e+03
4010, 1.022749992213279e+00, 1.150698776875039e+00, -9.025528166893520e-03, -4.871904609231967e-10, 9.417028662886749e-11, 5.221967037552472e-10, -9.676608768348283e+02, -8.597950680271956e+02, 1.917567599078484e+01, -1.641464872805933e+03, 1.008261598585632e+03, -2.676121527756351e+02, 1.950398302100290e+03
4011, 1.004458210447212e+00, 1.142956498086174e+00, -1.016919385889880e-02, -2.680462162915115e-10, 2.793139073771521e-11, 1.874823125476517e-10, -4.585090349651032e+02, -2.708999628177110e+02, -3.552013397521124e+01, -1.744003013347748e+02, 3.406583884464176e+02, -1.531838095147150e+02, 6.963755105355020e+02
4012, 1.006922116576805e+00, 1.162696748774322e+00, -1.015493382277625e-02, -3.007895820211182e-10, 7.041195412942724e-11, 1.467627023401881e-10, -4.325895212749617e+02, -1.638173765139652e+02, 3.983842696819659e+01, -3.211540045224998e+02, 1.380754466990329e+02, 9.059307983918128e+00, 3.419175021404447e+02
4013, 1.077630978271003e+00, 1.173928366452800e+00, -5.535311152837159e-03, -5.129291391748913e-10, 1.335482906170900e-10, 4.127426744044594e-10, -2.783010960211810e+03, -1.995569620000825e+03, 5.221985756042873e+02, -4.723498401160985e+03, 1.602339272456932e+03, -2.021617906626312e+03, 5.166714601597197e+03
4014, 9.886257925877571e-01, 1.154938292801956e+00, -1.128802213417183e-02, -3.141307516308240e-10, 7.021531140672418e-11, 8.401978816717538e-11, 2.669533239979751e+00, -6.718486847158016e+01, -7.019068816386249e+00, -1.204147943016448e+02, 1.678588908040310e+02, 1.315875408549713e+02, 3.847789929767042e+02
4015, 9.910971809886776e-01, 1.174691882361141e+00, -1.127203933571754e-02, -3.563517605764168e-10, 7.674125612779032e-11, 4.871633792624244e-10, -3.180603811546861e+02, -2.297827002314489e+02, -1.014775455252038e+01, -7.889412582498063e+02, 1.432455824828285e+02, 5.346813057711111e+00, 5.770984386425275e+02
4016, 1.002295678776359e+00, 1.273041676479992e+00, -1.126054775051209e-02, -3.280164216412876e-10, 1.015518120960958e-10, -6.232676115789252e-11, 3.597387155224205e+01, 1.680043002328056e+02, -2.669703323579859e+01, -1.956331551522278e+01, 9.276320206597666e+01, -3.140504142379278e+01, 2.424068304834665e+02
4017, 1.092032305817962e+00, 1.011635143870386e+00, -3.230281565461414e-03, -2.394640185597663e-10, -1.963810266017624e-11, 2.731360411659926e-10, -8.274430737275404e+02, -1.014487663818616e+03, -8.046505094091543e+00, -2.570666270000056e+03, -1.191053863242576e+03, 2.480021405445059e+02, 2.681098592337237e+03
4018, 1.076201341046467e+00, 1.023654290441830e+00, -4.429142895423134e-03, -8.099949572666030e-11, 1.746945130762067e-10, -7.254406801281203e-11, -1.142744307035853e+03, -1.544181359389731e+03, -5.461166610331826e+01, -2.558656633071449e+03, 2.225881045270264e+02, -1.743750821789035e+03, 3.298051581159883e+03
4019, 1.073735791922118e+00, 1.003903469501489e+00, -4.439203297590219e-03, -4.377333533012264e-10, -6.917551246306432e-11, 4.717171686572380e-09, -8.169488352666168e+03, -8.086980499383263e+03, -9.054530977556621e+01, -1.630182311421460e+04, 2.347605885426697e+02, 1.142925281073244e+02, 8.187904433382506e+03
4020, 1.057905134662273e+00, 1.015909559876456e+00, -5.621788983122340e-03, -4.192261573296182e-10, 3.508952453689531e-10, -4.059871637817876e-12, -2.032865289797331e+03, -1.840675122304999e+03, 1.033441088794867e+02, -3.893744554559108e+03, 7.275070696053306e+02, -6.760038028745768e+02, 2.616913151802863e+03
4021, 1.055438833066773e+00, 9.961404415413355e-01, -5.632358335919625e-03, -4.233446252572388e-10, 5.561552322860633e-11, 3.839700667433622e-10, -2.612341555726628e+03, -2.328754679524162e+03, -1.214528300777594e+02, -5.476755338015339e+03, 1.539979891684369e+03, -3.285487531018508e+02, 4.071891134210611e+03
4022, 1.039607998994541e+00, 1.008142148686860e+00, -6.801366114796393e-03, -3.243139771756071e-10, 9.323439716312292e-11, 3.291686039290959e-10, -1.534980021930503e+03, -1.602362513652359e+03, 1.980909917789628e+02, -3.516884652598528e+03, 5.224544668890038e+02, -1.061725665074924e+02, 2.183885223062241e+03
4023, 1.037143631097406e+00, 9.884163299092584e-01, -6.812792272868486e-03, -5.164728090850144e-10, -5.276677381975491e-11, 2.421602039567394e-09, -3.229811624510156e+03, -3.245686060686206e+03, -1.107253013679309e+01, -6.572053702026421e+03, -2.729144469949728e+01, -2.522411183092208e+02, 3.363221210510782e+03
4024, 1.021276159282910e+00, 1.000319130137242e+00, -7.972109316845451e-03, -5.119120255226184e-10, 1.267594564487139e-10, 5.880718061292972e-10, -1.446101289880944e+03, -1.420768147550898e+03, 1.159402211787652e+01, -3.014504664420057e+03, 3.777401206913261e+02, -1.080904574581192e+03, 2.536492392600866e+03
4025, 1.018841070283979e+00, 9.806377771932889e-01, -7.982573449315656e-03, -4.486956064603047e-10, 2.058295586365734e-11, 8.422252316625310e-10, -2.110429132566970e+03, -2.081810893215722e+03, -4.772603936700797e+01, -3.990274459087093e+03, 3.975384089913996e+02, -8.281968718692656e+01, 2.022364038665946e+03
4026, 1.002877551208836e+00, 9.924514895785344e-01, -9.137354048544878e-03, -4.752413651047125e-10, 1.114900775711704e-10, 1.773291834024778e-09, -1.868172621483904e+03, -1.924659719691725e+03, -3.578212899493144e+01, -3.990599336756111e+03, 5.064665749639743e+02, -2.709333329016677e+02, 2.319822643484991e+03
4027, 1.000519592520812e+00, 9.728218811871117e-01, -9.143813272223078e-03, -5.236455079496241e-10, 3.303930454928159e-12, 7.747652977409583e-10, -1.336446776002464e+03, -1.484146661706743e+03, -6.855841867076992e+01, -3.115739202483915e+03, 9.120462217695568e+02, -1.017234551704177e+01, 2.331263957433765e+03
4028, 9.846775450372072e-01, 9.848596657566271e-01, -1.028288189515327e-02, -4.802182642474774e-10, 1.694454965354863e-10, 3.844769112818986e-10, -1.200046869993840e+03, -1.154343573810000e+03, 1.540599713178250e+01, -2.023287974045294e+03, 6.430650228246769e+02, -4.464386110008429e+02, 1.598959581681965e+03
4029, 9.822555344755801e-01, 9.651883113259668e-01, -1.029405653523444e-02, -6.063122560473618e-10, 2.126988539966943e-10, 1.338819618685510e-09, -1.647108733405263e+03, -1.489808214602751e+03, -5.562917883358292e+00, -3.139445960892405e+03, 4.663335542830237e+02, -1.344637498280078e+02, 1.786979172693921e+03
4030, 9.664244058607721e-01, 9.771924217974292e-01, -1.142297167738003e-02, -3.932719534708774e-10, 7.970532387133693e-11, 2.349535286831525e-10, -3.894170097853523e+02, -1.832580076778495e+02, 1.359780773552589e+02, -2.910185444458414e+02, 4.923027275374067e+02, -2.397858378667315e+02, 9.934514814615704e+02
4031, 9.639596812458151e-01, 9.574463205832562e-01, -1.143726200128532e-02, -3.875622504757825e-10, 8.342820416474026e-11, 1.062664753903447e-10, -4.380229616909516e+02, -1.066443027697681e+02, -1.784607978452105e+01, -2.922828195458316e+02, 4.469323646897889e+02, 1.102142916084494e+02, 8.481741952587051e+02
4032, 9.687881544350295e-01, 9.967994954462132e-01, -1.141413960865822e-02, -4.128415612076574e-10, 1.153588715198714e-10, 1.045102319642257e-10, -2.066134927397556e+02, -2.472425013103358e+02, 6.592528008196014e+01, -3.611929784172526e+02, 8.050974167176054e+01, -4.008259384556190e+01, 2.378420665973562e+02
4033, 9.797903247773364e-01, 9.454423070725338e-01, -1.030743597216133e-02, -4.542608042800058e-10, 8.157334651964220e-12, 2.790094902131300e-10, -8.343487453392272e+02, -6.933212456088809e+02, -8.187299196733127e+01, -1.468194819446778e+03, 3.796083982450538e+02, 3.862172342694527e+02, 1.187833217679503e+03
4034, 9.614945384031727e-01, 9.377002649560773e-01, -1.145147659257116e-02, -3.871690797128892e-10, 8.127426365352131e-12, 1.741675715242392e-10, -1.276718402723141e+02, -1.404448010502964e+02, -1.084101778333745e+02, -3.102091713946428e+02, 9.168724522200399e+01, 2.200961067968829e+01, 3.050945841521300e+02
4035, 9.773252006951906e-01, 9.256961828886370e-01, -1.032073392636235e-02, -2.915210657160584e-10, -2.688929339628432e-12, 3.524456856021727e-10, -5.248737727258468e+02, -4.521152472467203e+02, 1.357896900346605e+02, -4.011201534345998e+02, 6.212740727918232e+02, -2.648899682601120e+02, 1.198067467482078e+03
4036, 9.590293495020517e-01, 9.179540858613404e-01, -1.146559515595701e-02, -3.379377366295169e-10, 6.625362636850925e-11, 1.325622221802977e-10, -1.017020661610680e+02, -1.652759953616485e+02, -6.235862205810957e+01, -1.875039783105375e+02, 5.607035326440555e+01, 4.804522125313534e+01, 1.843131155142608e+02
4037, 9.748541074533136e-01, 9.059357344250765e-01, -1.033424495811120e-02, -3.315033727483873e-10, 1.455365585555947e-10, 1.144325355202393e-10, -7.600279489610305e+02, -5.104325441025163e+02, 4.993821082144675e+01, -5.107933313091786e+02, 5.722836176098704e+02, 1.509636003617959e+02, 1.058576904632644e+03
4038, 9.565641353590770e-01, 8.982077775885577e-01, -1.147962125026252e-02, -3.335235978845181e-10, -6.073202394134281e-12, 3.159812875686337e-10, -5.811361922918267e+01, -2.567070237885868e+02, 8.821021583107346e+00, -2.070317856773403e+02, 1.271574472393581e+00, -4.368551022931240e+02, 7.776935245493083e+02
4039, 9.407330837838861e-01, 9.102120347533856e-01, -1.260226937106173e-02, -3.549988294895670e-10, 9.251101142207733e-11, 7.925534777246562e-11, -5.271559492637055e+01, -1.046640511906842e+02, -1.914265844473695e+01, -2.456055368006481e+02, 1.071750587965348e+02, 2.303513242637182e+01, 2.589121334623866e+02
4040, 9.382674150274614e-01, 8.904291564919445e-01, -1.261699156334004e-02, -3.785405309614193e-10, 8.797373345210034e-11, 2.329013234552442e-10, -2.770184155777979e+02, -2.822961670487582e+02, 3.845069231219291e+01, -5.953093322504039e+02, 5.137543166904779e+02, -2.465173224668545e+02, 1.038381111993114e+03
4041, 9.540943153856190e-01, 8.784481657942810e-01, -1.149376145494708e-02, -3.595037860346273e-10, 2.095774846964132e-10, 1.187790033673884e-09, -9.181163008065346e+02, -9.749058031610582e+02, -3.169432307524056e+00, -2.005654610403186e+03, 3.838409124174400e+01, -7.402140478989308e+01, 1.070089491309288e+03
4042, 9.358026252038987e-01, 8.707205255858498e-01, -1.263208069889750e-02, -3.391634613665879e-10, 4.595837425405860e-11, 1.603935756847991e-10, -2.276525283848753e+02, -1.768638542965858e+02, 2.457798105848708e+01, -4.002201080135694e+02, 3.958705920788796e+02, 6.853775181369276e+01, 7.260637825032502e+02
4043, 9.516332428542424e-01, 8.587162810895924e-01, -1.150745125578666e-02, -3.857193706676976e-10, 4.790266815700673e-11, 2.572461651209086e-10, -3.456087867460762e+02, -3.444326202994047e+02, -3.361851064971283e+00, -8.548821597539995e+02, 1.194385486761318e+02, 2.917689849844819e+02, 7.471129571422574e+02
4044, 9.333371529478238e-01, 8.509746683902844e-01, -1.264682573342381e-02, -4.028076603886873e-10, 7.011016357516427e-11, 1.960859645954121e-10, -1.430248880685588e+02, -2.199860447351255e+02, -2.708067175475471e+01, -2.430996051400440e+02, -1.493987348792999e+01, -8.955436510047194e+01, 1.875253139891011e+02
4045, 9.491678106687864e-01, 8.389703511673802e-01, -1.152124202953224e-02, -3.934741667239262e-10, 8.068411640599501e-11, 2.173315617614808e-10, -5.149398534251881e+02, -5.271510481812759e+02, 1.552929390419402e+00, -7.142983048609041e+02, 4.479202502458710e+02, -1.826142102954773e+02, 8.598879208798276e+02
4046, 9.308716562917511e-01, 8.312286841168097e-01, -1.266146538488083e-02, -3.931484516025027e-10, 1.195006892565135e-10, 1.847441874600345e-10, -1.489039890057697e+02, -2.831672871631470e+02, 4.474018159006679e+00, -3.114108595214290e+02, 3.107821281554800e+01, 3.993130149517624e+01, 1.742341836621236e+02
4047, 9.467023542192370e-01, 8.192242964316456e-01, -1.153495720815987e-02, -3.571567360520328e-10, 1.179147575868274e-10, 2.313685595954044e-10, -5.056374150832564e+02, -5.656529339402790e+02, -1.446746141873628e+01, -8.362934969532773e+02, 3.702506643361791e+02, -2.080856989620497e+02, 7.967900417588565e+02
4048, 9.283988512357335e-01, 8.114647482221522e-01, -1.267635063515413e-02, -4.346487369240385e-10, 1.708150336326016e-10, 2.195018766677155e-10, -4.108920956617883e+02, -4.841023154015329e+02, 5.092590293654929e+01, -9.124910172875447e+02, 4.456917635548161e+02, -3.282016009085029e+02, 1.071023672364552e+03
4049, 9.442330551348200e-01, 7.994652593545156e-01, -1.154875222221424e-02, -4.670034264081295e-10, 1.616258504032969e-10, 9.591939624774253e-10, -1.203320343499593e+03, -1.187220031426594e+03, 1.621111973047590e+01, -2.553457118729482e+03, 2.925291299326479e+02, -1.489520810891226e+02, 1.472730321365046e+03
4050, 9.259405937253953e-01, 7.917363446215310e-01, -1.269045836256533e-02, -3.995943475304111e-10, 1.053220132191969e-10, 1.365106284350485e-10, -2.114065189002895e+02, -1.372939149415987e+02, -5.813988911885592e+01, -3.175825762856227e+02, 3.304760883816859e+02, -8.687253039646222e+00, 6.022005459237716e+02
4051, 9.417713754582329e-01, 7.797318090786678e-01, -1.156216486969652e-02, -4.041089798332827e-10, 5.476822697013009e-11, 3.014600095607417e-10, -6.622811829508468e+02, -7.150835675630505e+02, 3.296116452433846e+01, -1.325032193370942e+03, 2.398651059825283e+02, 1.362761054170352e+02, 7.991312864020517e+02
4052, 9.234750211368106e-01, 7.719899805891364e-01, -1.270481839757545e-02, -3.895071038350377e-10, 9.949981268642540e-11, 1.644697182444662e-10, -1.514585744904279e+02, -1.571643573541280e+02, -9.109427166009112e+01, -4.462729949387329e+02, -6.432694015281139e+01, -1.408778145968074e+02, 4.267481599339674e+02
4053, 9.393058544485313e-01, 7.599853620568374e-01, -1.157566095483807e-02, -3.872022727490744e-10, 8.135152486961098e-11, 2.170046130786155e-10, -7.997449477512679e+02, -5.075349730271450e+02, 6.837082041205305e+01, -8.826024733483554e+02, 6.214223774990569e+02, -3.231997478118121e+02, 1.265843231334284e+03
4054, 9.210094208556454e-01, 7.522434814476273e-01, -1.271908521982450e-02, -3.129399500097968e-10, 7.271348929711007e-11, 2.460817682350979e-10, -3.051659076649446e+02, -3.627345955132590e+02, -1.610240444617207e+01, -7.073484433134973e+02, -3.757279082547318e+01, 8.061504198998010e+01, 4.079475285520288e+02
4055, 9.368367180416813e-01, 7.402269502917207e-01, -1.158923554748515e-02, -4.067791360106907e-10, 1.076725566622313e-10, 2.351896989787176e-10, -9.011926369003963e+02, -7.480193935722409e+02, -1.717898461057322e+02, -1.148470385298213e+03, 5.639360443992371e+02, 1.308559236672349e+02, 1.102933053507247e+03
4056, 9.185438009275539e-01, 7.324968618688438e-01, -1.273326275097468e-02, -4.174123318099216e-10, 1.398748055676656e-10, 2.461120828352446e-10, -3.232147683125535e+02, -5.233163955642186e+02, 2.895632876278717e+01, -9.501580932182486e+02, 6.908344948831828e+01, -4.978642426456759e+02, 1.033482270087737e+03
4057, 9.343747226981949e-01, 7.204921021805945e-01, -1.160244979146646e-02, -3.168287729355621e-10, 1.588003378854067e-10, 3.744524125951999e-10, -6.852468160595032e+02, -7.393546547039440e+02, -9.131102122843599e+01, -1.664308002717561e+03, -2.754038191204062e+02, -2.922968316534734e+02, 1.190538026544285e+03
4058, 9.160781534265729e-01, 7.127501152607830e-01, -1.274735556605132e-02, -5.100577161440499e-10, 7.011511644569051e-11, 1.666451601825436e-09, -1.629902067950592e+03, -1.592101843908035e+03, 5.978637106945213e+01, -3.974508745922950e+03, 1.017535949914534e+02, -5.130759176672756e+01, 2.374219452524554e+03
4059, 9.319091300563345e-01, 7.007452720558823e-01, -1.161574503757280e-02, -4.288912650688769e-10, 8.531725634939195e-11, 2.947373591318656e-10, -3.116508724658358e+02, -3.110030953812050e+02, 1.307631699113158e+02, -5.420490076140622e+02, -5.939799665867330e+01, 1.013318898538147e+02, 3.819932047408927e+02
4060, 9.136124701463255e-01, 6.930032232097971e-01, -1.276136795218843e-02, -4.942418086522024e-10, -7.701996287943232e-11, 4.849698929346917e-10, -8.404820531553770e+02, -8.805849836309569e+02, -3.751883047019007e+01, -1.903990630153232e+03, 1.023468704533580e+01, 3.807722922590541e+02, 1.236733106975853e+03
4061, 9.294400613488676e-01, 6.809867877158183e-01, -1.162911770877041e-02, -5.027559979376746e-10, 4.142712467603499e-11, 4.172748825732607e-10, -8.506707614175943e+02, -6.703820814286383e+02, 1.182309449329219e+02, -1.277255787461968e+03, 5.822542008138347e+02, -5.592869545216496e+01, 1.166090405099983e+03
4062, 9.111428680617932e-01, 6.732463316195562e-01, -1.277548461676145e-02, -4.527954851932986e-10, 2.548847723924060e-11, 3.967920227554021e-10, -4.375882534949038e+02, -5.274282404636508e+02, -5.173906837400507e+01, -1.107921087409515e+03, -7.715633260979969e+01, 4.552821739938173e+02, 1.022218325438626e+03
4063, 9.269778726829563e-01, 6.612511735722265e-01, -1.164214714718785e-02, -4.491519363442971e-10, -9.780259059755789e-12, 2.135810633355062e-10, -6.946186179694969e+02, -5.716471755020796e+02, -8.719982228695216e-01, -9.059301690059717e+02, 5.474431881944048e+02, 2.495242351933445e+02, 1.082419179151717e+03
4064, 9.086810294134500e-01, 6.535090040114083e-01, -1.278916380236023e-02, -4.692246205784999e-10, 5.136880384764977e-11, 2.793998498014194e-10, -2.962283231699623e+02, -4.533692290033418e+02, -1.134287436338022e+01, -4.754153449720887e+02, 9.088968581761110e+01, -2.395066248043685e+02, 4.752922253571620e+02
4065, 9.245087178186119e-01, 6.414926185177922e-01, -1.165540252715032e-02, -4.967667883637660e-10, 7.232029152126378e-11, 2.811993946132989e-10, -4.156210664194914e+02, -4.669040061771145e+02, -5.490724928493066e+01, -4.170235837131682e+02, -2.004668352917456e+02, -1.690095685849263e+02, 4.667525670016473e+02
4066, 9.062152442921207e-01, 6.337616393187329e-01, -1.280295559578072e-02, -4.062838411814571e-10, 8.282025485194700e-11, 1.227925510235494e-09, -9.801418138726345e+02, -9.769738661252901e+02, -9.589461866025350e+01, -1.986605816766020e+03, 6.754138587322831e+01, 2.518727948808991e+01, 1.029244527606975e+03
4067, 9.220465278661225e-01, 6.217564129872278e-01, -1.166830909090362e-02, -3.875190873126914e-10, 4.889905995353481e-12, 4.908788127357244e-10, -8.056767435459899e+02, -6.771590676976849e+02, -2.150910856887172e+01, -1.156273718793489e+03, -2.187183408778031e+02, 1.905549789519560e+02, 6.620631417393968e+02
4068, 9.037401492832554e-01, 6.139807537503028e-01, -1.281703923339231e-02, -4.132168794415483e-10, 1.834059000880807e-10, 3.723752556401390e-10, -1.029784808928385e+02, -3.806134249511549e+02, -3.919303556290075e+01, -4.684791854531360e+02, 1.421608332504610e+02, 2.930643301153059e+02, 6.573383101048991e+02
4069, 9.195773418359554e-01, 6.019964795147309e-01, -1.168144217798900e-02, -3.650939856599610e-10, 1.203569773316121e-10, 2.815046156579219e-10, -5.535164380521994e+02, -8.396207671148908e+02, 3.388739886028850e+01, -1.104150525525481e+03, 4.320089747027546e+01, -5.523606783039656e+02, 1.073250094843167e+03
4070, 9.012836230385192e-01, 5.942664368100810e-01, -1.283033449033063e-02, -4.554950220237488e-10, 1.935709813790027e-10, 4.071040104929902e-10, -5.422964836168779e+02, -6.898641695243033e+02, 1.130474643247794e+02, -1.232018251632715e+03, 5.406293722101951e+02, -6.528051641344597e+02, 1.609147284369800e+03
4071, 8.953153522639212e-01, 6.852612264655642e-01, -1.389980629400042e-02, -5.892230088212468e-10, 1.509192464010014e-10, 1.461227939741029e-09, -1.023410448498706e+03, -1.005835013344796e+03, -6.842958772700604e+01, -2.425649351705990e+03, 2.732015362260535e+02, 6.340246719678708e+01, 1.497081319989210e+03
4072, 8.879177736487833e-01, 6.260194515637676e-01, -1.394373359603676e-02, -4.686750594999360e-10, 1.092766068389328e-10, 3.582839765220863e-10, -2.876505324726933e+02, -4.099640915412845e+02, -1.202606217662371e+00, -8.196255876275633e+02, 4.406188196157005e+02, -3.917679416997345e+01, 9.055020368256518e+02
4073, 9.171150448753743e-01, 5.822610379528013e-01, -1.169425087940698e-02, -6.553404965037885e-10, 1.606681708813334e-10, 2.183418178221009e-09, -2.045922925196557e+03, -2.042961685247568e+03, 8.348933024872835e+00, -4.585435128892754e+03, 3.531979937646585e+02, -1.618708508486719e+02, 2.628633334294077e+03
4074, 8.988086786385242e-01, 5.744857907517062e-01, -1.284427595742625e-02, -5.023156657565295e-10, 1.159250164355229e-10, 3.646425112479963e-10, -8.271660005880042e+02, -7.733495382769393e+02, -8.229622158007983e+01, -1.440932592524867e+03, 8.349706315921759e+02, 2.681837782305843e+02, 1.655370011658333e+03
4075, 9.146492843724304e-01, 5.625130823467686e-01, -1.170714028922245e-02, -3.863370779937253e-10, 1.339807274278223e-10, 2.615082983679569e-10, -4.036321739431870e+02, -8.745515784412268e+02, -7.453575451883080e+01, -1.046039286738766e+03, 1.670426959717269e+02, 3.928117984863464e+02, 9.461553039157775e+02
4076, 8.963518351230985e-01, 5.547705535692476e-01, -1.285745382752440e-02, -5.375908566676228e-10, 1.766739616494694e-10, 5.594798764995894e-10, -4.964233347231075e+02, -7.588520368294982e+02, 8.954329861155091e+01, -1.362365515697200e+03, -3.523224436319169e+02, -1.046323467782214e+02, 1.010330493275921e+03
4077, 9.121799358212076e-01, 5.427541501728269e-01, -1.172013175967578e-02, -5.892336918501301e-10, 2.934097122013894e-10, 4.428791659855611e-10, -1.178173501470306e+03, -1.384427674185268e+03, 9.699246821722132e+01, -2.731302682809464e+03, 8.263502460246943e+02, -7.267497664872293e+02, 2.407424793535315e+03
4078, 8.938761471194843e-01, 5.349883243923776e-01, -1.287130474425889e-02, -5.163331522217732e-10, 1.539745291545145e-10, 3.534612249432558e-10, -8.041563540401423e+02, -7.309258167974169e+02, 1.004493249560300e+02, -1.545128350003253e+03, -6.421463656608995e+01, 1.195152653906196e+02, 8.331605145571225e+02
4079, 9.097176812058347e-01, 5.230164503336499e-01, -1.173276394058967e-02, -6.745048424248545e-10, 1.718263667153883e-10, 9.170659446086691e-10, -1.945051884027186e+03, -1.641858648062264e+03, -1.321377093180761e+02, -4.157954001790194e+03, 1.441264274560100e+03, -5.462335901975408e+02, 3.583158038701978e+03
4080, 8.914198636824192e-01, 5.152737226846773e-01, -1.288432577882156e-02, -6.792613559825258e-10, 1.426879341450741e-10, 6.179351986685262e-10, -1.140444332548006e+03, -9.488697152504462e+02, -2.318447251979401e+01, -2.466701664096528e+03, 7.982251990758026e+02, -2.540201105501565e+02, 2.038729555021220e+03
4081, 9.072487029318561e-01, 5.032572554983905e-01, -1.174562832207834e-02, -3.126740045570468e-10, 3.734789344721735e-11, 1.967973341517722e-09, -2.046878189016024e+03, -1.983776031153410e+03, -2.139393414210727e+02, -4.205354102331133e+03, 3.285790412667467e+02, 2.336835675405108e+02, 2.328997928773408e+03
4082, 8.889538028903914e-01, 4.955249132811226e-01, -1.289767306412700e-02, -5.440436903840718e-10, 5.673121567978987e-11, 2.979536526427342e-10, -6.089927654338850e+02, -7.003400574392236e+02, -1.279635530183556e+02, -1.377501969058119e+03, 5.645297910123927e+02, 1.587812688254418e+02, 1.268696035578969e+03
4083, 9.047859908320477e-01, 4.835186928044216e-01, -1.175818590409049e-02, -4.564127325843827e-10, 7.009874277715882e-11, 3.381706620135471e-10, -5.598241198341271e+02, -7.849668079195661e+02, -1.363287574747205e+01, -1.171041123170169e+03, 1.960456527536776e+02, 3.050205077220866e+02, 8.256126247933884e+02
4084, 8.864875934800690e-01, 4.757756833344157e-01, -1.291096854127016e-02, -5.727918110736800e-10, 1.140251574100956e-10, 5.708697798451928e-10, -7.265087769554048e+02, -7.886796665873238e+02, 3.987080684136695e+01, -1.509631187753466e+03, -4.089251438661516e+02, -1.489607424127041e+02, 1.068388873376459e+03
4085, 9.023201019521107e-01, 4.637691570795083e-01, -1.177082302912710e-02, -6.759651720848570e-10, 1.661650871745940e-10, 5.359764486576119e-10, -1.299327747626632e+03, -1.331499788255268e+03, 1.502820952581121e+01, -2.798749661871879e+03, 1.005855323610203e+03, -6.680448468009286e+02, 2.564337291335515e+03
4086, 8.840233437950515e-01, 4.559960904329075e-01, -1.292384739906862e-02, -5.802043476280838e-10, 6.480333474888074e-11, 3.631783607692743e-10, -7.282332105292718e+02, -5.629112494188724e+02, -4.296198196217760e+01, -1.204622463862973e+03, -6.787361433751559e+01, 2.486303227256636e+02, 7.333788022013917e+02
4087, 8.998541514239806e-01, 4.440190833772761e-01, -1.178341375946171e-02, -4.508582945024676e-10, 1.136043839188426e-10, 3.226722184414264e-10, -9.917627007339638e+02, -8.146873629978128e+02, -2.677297798628420e+02, -1.394018589710542e+03, 8.104348472535585e+02, 2.144193915200073e+02, 1.608655876572717e+03
4088, 8.815548427220721e-01, 4.362756479347631e-01, -1.293739991370415e-02, -4.318795875399323e-10, 6.643516071410848e-11, 3.522736011231372e-10, -4.776597584051559e+02, -7.803086260706260e+02, 2.878720449730021e+01, -1.136219897300072e+03, 4.129451301677113e+01, -7.735776295690888e+02, 1.459059347685247e+03
4089, 8.973881266625976e-01, 4.242684749685610e-01, -1.179596000476472e-02, -3.337954659037509e-10, 1.306877938477217e-10, 4.907737883495941e-10, -8.883944841719550e+02, -1.044049228840021e+03, -6.057614164277189e+01, -2.108292827595898e+03, -5.654574441749429e+02, -3.286457876803303e+02, 1.617639123620326e+03
4090, 8.780537475576988e-01, 5.470280999577407e-01, -1.400112520414812e-02, -7.175683538090052e-10, 2.819291163700354e-10, 1.825734745128978e-09, -1.199031694744122e+03, -1.236692438188206e+03, 1.873280815620010e+01, -2.539429180205388e+03, 2.123384441122201e+02, -7.673502989347044e+01, 1.378979252237355e+03
4091, 8.681880191175799e-01, 4.680328165322056e-01, -1.405733692089820e-02, -6.499222283797882e-10, 2.459919752131579e-10, 1.921179840824303e-09, -1.353884450992076e+03, -1.330692843786669e+03, -1.695461138971165e+01, -2.897449147938044e+03, 1.535631336847838e+02, -1.422177863830913e+01, 1.578335082305619e+03
4092, 8.790883670019963e-01, 4.165248383896953e-01, -1.295053419945957e-02, -7.458739106996578e-10, 1.296187166763586e-10, 2.492538082168002e-09, -1.875153413091702e+03, -2.003391536704734e+03, 3.273134073162229e+01, -4.300054299241252e+03, 3.435312861690954e+02, -6.453892476642335e+01, 2.440363837334206e+03
4093, 8.949220201982053e-01, 4.045173565926994e-01, -1.180846505733684e-02, -4.553343679488531e-10, 1.359054212194629e-10, 3.271004277384973e-10, -6.193841253883355e+02, -9.043594885031386e+02, -2.249191608676180e+01, -1.227922766593711e+03, -4.189544117045122e+02, 1.363890233887972e+02, 9.284415266489546e+02
4094, 9.076438668065804e-01, 7.839946216391276e-01, -1.382449806614315e-02, -4.056807246079490e-10, 1.433152850021901e-10, 1.355609300026912e-10, 5.439712091425528e+01, -1.016843622646553e+02, -2.604098672642129e+01, -2.717246696814114e+02, 1.280580899189073e+02, -2.735865655969139e+02, 5.963179753243701e+02
4095, 8.766168542121802e-01, 3.967575133116323e-01, -1.296382407898465e-02, -3.974755106358896e-10, 9.351214171492041e-11, 4.222961571120773e-10, -4.650433272528534e+02, -7.092270544135894e+02, 1.585454375908434e+01, -9.383238614912207e+02, 2.288595044730279e+02, 4.461374265150328e+02, 9.607563062009162e+02
4096, 8.924558467433535e-01, 3.847657216777940e-01, -1.182093141119824e-02, -4.472772798111865e-10, 3.571830270195610e-10, 5.846856021841699e-10, -1.195969990256026e+03, -1.362415907178309e+03, -1.903176415388572e+00, -2.422050498707667e+03, -1.641970259490747e+02, -1.067054667659866e+03, 2.196272161999156e+03
4097, 8.607874384223047e-01, 4.087813436115408e-01, -1.409882873619773e-02, -5.395087158352488e-10, 8.924359401683394e-11, 6.169710330334283e-10, -7.810956123163508e+02, -7.885968031868697e+02, -1.735816601364984e+02, -1.485446399692162e+03, 8.064587769441852e+02, 4.760510401161986e+02, 1.792282249862114e+03
4098, 9.224368676684647e-01, 9.024702097565016e-01, -1.372992140565620e-02, -3.538218445090587e-10, 9.796130444522978e-11, -4.644630829270385e-11, 1.343083357201769e+02, 1.151870065905339e+02, -1.929920617695834e+01, 1.503449553998141e+02, 2.607785739089164e+02, 4.027414743779669e+01, 4.592703263265172e+02
4099, 8.741513490851203e-01, 3.770131658649145e-01, -1.297684067280250e-02, -4.608787651210971e-10, 1.095895227504633e-10, 4.466787676237401e-10, -7.224916816516426e+02, -6.285089692649761e+02, 1.780978810255401e+02, -1.312017333077979e+03, 6.678842892736584e+02, -4.707104529604833e+02, 1.584250072586919e+03
4100, 8.899896048065422e-01, 3.650135727267649e-01, -1.183335932623043e-02, -5.716552883018598e-10, 1.842505704402070e-10, 2.937887203546189e-09, -3.252211530114489e+03, -2.875615500229078e+03, 3.656571490498006e+01, -7.406517006859897e+03, 1.764741151194478e+02, -2.135448489491105e+02, 4.381645605853479e+03
4101, 9.132217120957687e-01, 4.122612594944591e-01, -1.064686297917253e-02, -3.851258688020086e-10, 4.631584541723475e-12, 2.996673026559901e-10, -9.169315101278955e+02, -7.963452109056004e+02, 5.502201673038923e+01, -9.253054139094781e+02, 7.509186823547846e+02, -4.545937007363415e+02, 1.528497995956422e+03
4102, 9.481331499400872e-01, 9.693911490336911e-01, -1.255586284846738e-02, -3.897878973681586e-10, 7.074195819089593e-11, 1.180384453150704e-11, 8.329496912032466e+00, 4.911830278171325e+01, -4.118694009877499e+01, 1.058315415978207e+02, 2.148751362715349e+02, -7.100308940189848e+01, 4.073337258448809e+02
4103, 9.150406226677374e-01, 8.432331044774776e-01, -1.377786405487788e-02, -3.868703835966698e-10, 1.042236075688553e-10, 5.532377291661530e-10, -2.082006806545657e+02, -3.394975113727858e+02, -3.778495958315575e+01, -6.326670169007318e+02, 1.833817756831994e+02, -5.102468680343774e+01, 5.046382230148990e+02
4104, 9.353665701149561e-01, 5.899121918503686e-01, -1.054004265178439e-02, -4.324069695343706e-10, 1.484400166122545e-10, 1.923547401271708e-10, -8.788200874488028e+02, -8.545654456510831e+02, 7.895686474471890e+00, -1.436322100903656e+03, -2.599388151169192e+02, -2.191621252893219e+02, 8.196990265851704e+02
4105, 9.526416632073735e-01, 7.281779253373393e-01, -1.045179752933495e-02, -4.157990987698957e-10, -1.403132849795955e-10, 3.975150668309405e-10, -1.270809272318354e+03, -1.241706679811590e+03, -1.387684179847147e+02, -2.316990365255978e+03, 3.882558138217152e+02, 7.707966141031175e+02, 1.848828936238921e+03
4106, 9.674579909457335e-01, 8.466953729533103e-01, -1.037354265146311e-02, -3.780971321266921e-10, -1.868283801258538e-11, 2.485390199829844e-10, -4.922345360313415e+02, -4.764128579412250e+02, 2.919155071165372e+01, -5.667636670922384e+02, 2.816881200766738e+02, -2.744322478083603e+02, 6.881310191973284e+02
4107, 8.716885222727906e-01, 3.572693235641955e-01, -1.298963431194751e-02, -5.773551764941295e-10, 3.180818888182125e-11, 5.418319663736446e-10, -1.185049398155325e+03, -1.069374359855777e+03, -1.453715680860107e+02, -2.379659125445999e+03, 8.268268797847400e+02, -1.210168208969642e+02, 1.933111895268235e+03
4108, 8.875192886733211e-01, 3.452501280313709e-01, -1.184593285385229e-02, -4.398505252724560e-10, -2.763468211215083e-10, 7.736526112809502e-10, -1.402844148126526e+03, -1.479260531740708e+03, -6.282230492475816e+01, -3.446288152312456e+03, 1.068261234038846e+02, 8.530185832504006e+02, 2.500869400635381e+03
4109, 9.058207893258285e-01, 3.529955008450990e-01, -1.068266677444223e-02, -4.624577143574219e-10, 4.556130749859013e-11, 2.582217676474251e-10, -6.064684326719899e+02, -4.346628684316017e+02, 8.760503652573301e+01, -1.219691037457321e+03, -6.604030164596379e+02, 5.121968620350401e+02, 1.621533658824382e+03
4110, 9.033579612457616e-01, 3.332522783514825e-01, -1.069434849752904e-02, -3.992188897109249e-10, -7.868065744341038e-11, 4.246435806806285e-10, -7.489117829201321e+02, -1.199996203691184e+03, 3.806745230751523e+02, -1.499485614483824e+03, -6.931307895816755e+01, -7.197302129056868e+02, 1.559311705093309e+03
4111, 9.206184543304046e-01, 4.715124329105985e-01, -1.061089127066856e-02, -4.049214089654404e-10, 5.611327278783218e-11, 2.763530178475945e-10, -8.434975578996351e+02, -9.599119799913736e+02, -1.265103885776787e+02, -1.496810644116920e+03, 2.064382878618991e+02, -7.266257435822222e+02, 1.457441281824515e+03
4112, 1.046036651128913e+00, 1.347524551112935e+00, -8.972242798656674e-03, -3.552804702432244e-10, 7.402666286217696e-11, 4.722056093210925e-11, -4.573147461464495e+01, -9.039719169901920e+01, -4.059782199691412e+01, -2.279312747845247e+02, 4.709629311180278e+02, -7.972233233601845e+00, 8.352288160498971e+02
4113, 1.018087535995590e+00, 1.261060373827674e+00, -1.015429983906968e-02, -3.822452523340770e-10, 6.116868431295127e-11, -2.147303113454429e-10, 1.765444350709879e+02, 1.796196853515377e+02, -5.860406673051352e+01, 2.109208751489104e+02, 2.865602395250701e+02, 9.900797061340754e+00, 5.079696649694101e+02
4114, 9.280061677200149e-01, 5.307276537606580e-01, -1.057486799013818e-02, -5.491862447792457e-10, -5.947539313476228e-11, 2.758260434480947e-09, -3.767621414774023e+03, -3.761564295396444e+03, 6.841703818469404e+01, -8.334003462287008e+03, 5.911066510946548e+02, -1.976454451282929e+02, 4.696700530363443e+03
4115, 9.216589701799096e-01, 3.409970043990171e-01, -9.523555203111411e-03, -3.845871035659131e-10, 1.515073142208760e-10, 6.504958699817600e-11, -4.719790727297049e+02, -6.108544933327535e+02, -9.421479269244770e+00, -5.805829593109808e+02, 1.994231589033252e+02, -1.225571286146984e+02, 4.250113025070934e+02
4116, 9.191961736825812e-01, 3.212149163975300e-01, -9.534433280595733e-03, -4.496358721466017e-10, 2.390506572104380e-10, 2.862585249018734e-10, -1.110982251012984e+03, -1.300942958769958e+03, 1.833102811829315e+02, -2.157860215825634e+03, -4.131151626319847e+02, -6.262737716295251e+02, 1.650039322566428e+03
4117, 9.452333579155527e-01, 6.689102644435804e-01, -1.049012563540279e-02, -5.821195044502077e-10, 1.477418678052547e-10, 1.708799550028343e-09, -2.196965304436303e+03, -2.044607524316093e+03, 8.150490036407656e+01, -4.323032891474976e+03, 4.460001484561021e+02, 5.283287995668864e+00, 2.341807101104007e+03
4118, 9.728112925469530e-01, 1.166953552795875e+00, -1.239200329329677e-02, -3.023301251893855e-10, 7.663063197716129e-11, 4.847357623497478e-11, 1.810034621244593e+02, 1.858755837228008e+02, -3.528224174910325e+01, 1.798592815130083e+02, 1.949922247493185e+02, 1.169418974770834e+02, 3.985690107728207e+02
4119, 9.703473027718154e-01, 1.147218918431041e+00, -1.240923578615086e-02, -3.306772394139660e-10, 8.450016382235064e-11, -2.623280487404383e-10, 4.150678762827461e+02, 3.245372031643492e+02, -1.146673921376904e+01, 6.691963584439640e+02, 1.003120606782396e+02, 1.017753506422813e+01, 3.559160635691105e+02
4120, 9.600598442613292e-01, 7.874533647089134e-01, -1.041239341056045e-02, -3.872490824413989e-10, 1.357993696425324e-10, 1.872213176920931e-10, -7.973127519947836e+02, -6.968947087532482e+02, 5.684286647472148e+01, -1.136492485364633e+03, 6.554128040811159e+01, -7.330537026631777e+01, 4.448457988100209e+02
4121, 9.540596747776890e-01, 1.438401888435849e+00, -1.517120357109910e-02, -1.475183446141462e-10, 5.563374092362117e-10, -5.076009206186248e-09, 5.238391534947236e+03, 4.832521777650485e+03, 1.314207494819544e+01, 9.812066627159655e+03, -2.399577198896813e+02, -3.747884321345199e+02, 4.851206744680565e+03
4122, 9.564845693030581e-01, 1.457888465124358e+00, -1.512095159674126e-02, -4.895893141785892e-10, 4.575445503190530e-10, -6.950558441623597e-10, 2.369822888672094e+03, 2.323988215199456e+03, -1.793607825399037e+02, 3.088997106766665e+03, 1.199737433305377e+02, 1.146174385502870e+03, 2.152467101461817e+03
4123, 9.384307548533184e-01, 1.450243131502295e+00, -1.601005341622744e-02, -4.214740661732787e-10, 4.535535341495379e-10, -1.170615797953809e-09, 3.243786639952036e+03, 2.586902502050335e+03, -4.255404865734019e+02, 4.448452276975955e+03, -9.176404568913874e+02, 1.271432389053192e+03, 3.254705657567328e+03
4124, 9.408490188079739e-01, 1.469715209471260e+00, -1.594088125270373e-02, -6.517015726007784e-10, 5.941429429415571e-10, -8.686366354128728e-10, 2.279055647727116e+03, 2.578276910738808e+03, -2.027489538388598e+02, 2.843107076386668e+03, 2.509995910156686e+02, -1.431610793968944e+03, 2.588390116011815e+03
4125, 9.227989772657554e-01, 1.462073375594699e+00, -1.673821028464488e-02, -7.233257826862347e-10, 6.175932404948073e-10, -1.113682046920546e-09, 2.571781048608507e+03, 2.351476147306159e+03, -4.308314089250030e+01, 3.676568311346219e+03, 1.841618084452072e+03, 5.843132062369621e+02, 3.566088184734339e+03
4126, 9.251908127599676e-01, 1.481499635583474e+00, -1.664209811703260e-02, -8.044907228910008e-10, 7.427409127008066e-10, -1.182698994918362e-09, 2.346950667729143e+03, 2.308989075516299e+03, -4.772721911046389e+01, 1.426314390805228e+03, -5.606073551580954e+02, -6.769284175263815e+02, 1.771562910996716e+03
4127, 9.071609518586458e-01, 1.473899201595864e+00, -1.733365076416941e-02, -6.479259699116230e-10, 5.272509631153882e-10, -1.639133757670532e-09, 2.778586556290252e+03, 3.887401249442727e+03, -4.082571952187015e+02, 4.942100738675755e+03, 2.148771626475147e+03, 6.134460409997550e+02, 4.357976110890640e+03
4128, 9.432513812887148e-01, 1.489166546920063e+00, -1.586749336493314e-02, -1.854012463852652e-10, 8.658162827519598e-10, -3.897362799765804e-09, 4.282455119512645e+03, 4.611942345778306e+03, -2.286317284181908e+02, 7.234765348895138e+03, 5.932446171695142e+01, -4.896608572173320e+02, 2.956117023478383e+03
4129, 7.033438384904611e-01, 3.981472713348512e-01, -2.400466888108550e-02, -5.600681634110368e-10, 3.056811627796566e-10, -1.071820003254589e-09, 1.186933648469604e+03, 1.023367191920709e+03, -5.720921531883945e+01, 1.848671827307002e+03, -1.579121741689698e+02, -6.497259275554907e+02, 1.387064656795992e+03
4130, 1.028767047962065e+00, 1.488534918550021e+00, -1.108331249230054e-02, -4.149235204149870e-10, 1.961111985894359e-10, -9.241064215339735e-11, 1.014960180127902e+03, 1.188143982564791e+03, 6.949386979690385e+01, 1.253626769763185e+03, 5.116718865125445e+02, 6.988375351226780e+02, 1.520084022867137e+03
4131, 1.046778093981348e+00, 1.496188019878491e+00, -1.000173407126401e-02, -2.757929679519153e-10, 2.339558492670760e-10, -6.515234788028832e-11, 8.624371857914855e+02, 7.564483852012985e+02, 7.833670854879450e+00, 9.378422297209695e+02, -6.500924470507123e+01, -2.549323098897871e+02, 4.824373424921383e+02
4132, 1.855213595964257e-01, 1.417599144851598e-01, -3.729653765460061e-02, -3.400380597596550e-09, 1.201061633100451e-09, -9.678259505354002e-09, 8.783007959199871e+03, 6.784968616431393e+03, 1.168734022595911e+02, 1.444255349241015e+04, 4.730859020167652e+03, 2.327554932354682e+03, 1.143534900067474e+04
4133, 1.830295427960727e-01, 1.220048931212594e-01, -3.802875137469337e-02, -3.017789911060981e-09, 1.365998748158634e-09, -1.084759426551731e-08, 1.170624633843003e+04, 1.042800111533446e+04, -2.084632522855192e+03, 1.638098390513311e+04, 7.524351314185506e+03, -2.575816951542333e+03, 1.523980670478553e+04
4134, 1.988821149858370e-01, 1.100451145027167e-01, -3.933209458705521e-02, -2.205068224724017e-09, 1.006357663737742e-09, -1.003457990879256e-08, 7.191674664485991e+03, 6.480725138450780e+03, -3.943262036915360e+02, 8.579243569948840e+03, -1.818610476056492e+03, -1.435835786991152e+03, 4.471093046324486e+03
4135, 1.805800600859329e-01, 1.022941450387016e-01, -3.871277185748711e-02, -2.119861277020072e-09, 5.033462261561298e-10, -1.055921867521011e-08, 9.058196846111950e+03, 9.353953646057544e+03, 4.693336587759738e+02, 1.531330808310649e+04, 3.840825634433866e+03, 4.838268608992020e+03, 1.234937542143561e+04
4136, 1.647563763589525e-01, 1.142522017794832e-01, -3.707546989986730e-02, -1.890982186185245e-09, 1.490290059138231e-09, -1.003445270857681e-08, 7.060153105409467e+03, 1.239059048989071e+04, 1.100384715198561e+02, 1.431283789984781e+04, -1.408936534332918e+03, -5.304747031160116e+03, 1.152248551025356e+04
4137, 9.095727092430355e-01, 1.493364475070112e+00, -1.721411279880735e-02, -7.296593408981627e-10, 1.303592347429067e-09, -1.311478292514952e-09, 3.678740787001111e+03, 4.149175178108630e+03, 2.483076162032534e+02, 5.055024344872134e+03, 1.453995435996706e+03, 4.252365782725502e+02, 2.921946350201985e+03
4138, 8.915201285316372e-01, 1.485722619717972e+00, -1.783833371886999e-02, -5.502186948775723e-10, 7.204466714439760e-10, -8.489340559841541e-09, 8.465732848373053e+03, 9.300033783060389e+03, -1.090483863335540e+02, 1.814640083002741e+04, 4.198130061746862e+02, 4.355372252212236e+02, 9.352447905813873e+03
4139, 8.890957302890616e-01, 1.466241693904440e+00, -1.797685445008757e-02, -1.988974618761630e-10, 8.755851765415830e-10, -2.854974325929839e-09, 4.734611561476508e+03, 5.124368484414876e+03, -5.257707329010566e+02, 9.627286886287357e+03, -1.439043598081572e+03, -1.197883253407999e+03, 5.790496101553578e+03
4140, 8.733686780032199e-01, 1.478008400334318e+00, -1.838701043079483e-02, -9.189907263639583e-10, 8.203160747389076e-10, -2.803639056261562e-09, 6.833958894155373e+03, 5.392777825880575e+03, 1.268994490179394e+02, 1.053092993761572e+04, 2.092271672895940e+03, -4.384200620848432e+02, 5.901724457151491e+03
4141, 8.709792543526493e-01, 1.458528394051619e+00, -1.855352160973487e-02, -4.519279505483698e-10, 1.126520034156032e-09, -1.616098282122235e-09, 4.137008062963298e+03, 3.324690778462270e+03, -4.161682533368059e+02, 5.054228441782296e+03, 1.772214056545856e+03, -1.917085655827036e+03, 4.818059238809435e+03
4142, 8.552558991192509e-01, 1.470359390783104e+00, -1.882485869022161e-02, -6.956044377188372e-10, 1.026726393771093e-09, -1.105191022911796e-08, 1.061486940450782e+04, 1.104858746092903e+04, 1.709897249082209e+02, 2.484565331183588e+04, 1.104069386091933e+03, -1.152670627589598e+03, 1.429201675219452e+04
4143, 8.528681596243175e-01, 1.450895740489771e+00, -1.903236167565114e-02, -4.023113351304894e-10, 1.438078466744094e-09, -3.051967906373183e-09, 3.168868937933022e+03, 4.613237993914647e+03, 7.528877869352832e+02, 7.313201908829356e+03, 1.921313086205572e+01, -3.123052359177238e+03, 6.651146295904012e+03
4144, 8.577373130884378e-01, 1.489976293969018e+00, -1.859578615135607e-02, -7.142119737040643e-10, 8.033478248312638e-10, -3.488317383132033e-09, 5.490637966831451e+03, 6.548644693525664e+03, 1.500315538635204e+02, 1.027023615691594e+04, 3.778828680430447e+02, 1.705614533372131e+03, 5.303806901941316e+03
4145, 8.692217058902689e-01, 3.375163779576296e-01, -1.300257441606728e-02, -5.422891670302018e-10, 6.177072509895415e-11, 1.526808276415681e-09, -1.165384243883127e+03, -1.358100855243965e+03, -3.732292376368189e+01, -2.589142031232036e+03, 3.669239669279969e+02, 8.543908249360335e+00, 1.482613146674628e+03
4146, 8.533817499525251e-01, 3.495121906906880e-01, -1.413997057940093e-02, -5.014160291154271e-10, 1.223969025492066e-10, 5.380652348088928e-10, -4.807596377268902e+02, -5.717520811286762e+02, 4.248685205206964e+01, -1.147037400999376e+03, 5.045239456460017e+02, -3.135634215190641e+02, 1.206480058620909e+03
4147, 1.023697850545391e+00, 1.020047931225016e+00, -7.962851052774193e-03, -4.497081642902494e-10, 6.666636196740183e-11, 2.151432969140192e-10, -8.588074790866667e+02, -1.088614089150328e+03, 5.901510854771757e+01, -2.251655004911913e+03, 7.227167653091409e+02, -7.072293902955226e+01, 1.806975888047032e+03
4148, 8.443711177886180e-01, 1.584575430701258e+00, -1.618365869003599e-02, -1.170087240363994e-09, 4.178676275212211e-09, -3.150327579635814e-09, 1.359327972540454e+04, 1.537907870693131e+04, -2.588850584060838e+03, 1.657811155101703e+04, 4.518800011817368e+03, -3.318712677978352e+03, 1.100793593697314e+04
4149, 4.966405852464877e-02, 7.586297216588829e-02, -1.210349837909180e-02, 1.805835726451534e-10, 1.643182817330960e-10, -3.725726000833856e-10, 1.583999251935280e+03, 8.391708385129032e+02, -5.940838898425721e+01, 1.864984468367107e+03, -8.889328939528061e+02, -1.440315219931154e+02, 1.812853057510896e+03
4150, 9.547573341307808e-01, 1.698710587267914e-02, -4.628085998517185e-03, -2.436593636581640e-10, -3.500325808357554e-10, -6.955216234397679e-11, -1.952283793703568e+03, -1.713924295547625e+03, -3.108186305180110e+02, -2.805738206037443e+03, 1.074130443161465e+03, 1.519947400246715e+03, 3.416202897703304e+03
4151, 1.622789467380347e-01, 9.452170384647510e-02, -3.786705978851442e-02, -3.598974436172003e-09, 1.213869717566377e-10, -1.138213533530756e-08, 1.272072718896139e+04, 1.188313538283856e+04, 6.958039834384798e+02, 2.037589814548717e+04, 3.444281319650713e+03, 6.418249202829975e+03, 1.504455151676677e+04
4152, 1.036468100800916e+00, 1.268961117390281e+00, -9.012925465274128e-03, -4.731455599438147e-10, 1.478039427945216e-10, 3.702753808183548e-10, -8.769364121309543e+02, -8.254089808238072e+02, 1.441965694475995e+01, -1.709230913185949e+03, 9.905202452962449e+02, -6.738173908840754e+01, 1.922470014129238e+03
4153, 1.134028143005798e+00, 1.583237459836664e+00, -4.942897513005323e-03, -4.044180031073357e-10, 3.923366409389539e-10, 1.649964941902250e-10, -1.029864815497039e+02, 8.109789156155891e+02, -2.687467679427592e+02, -3.145551850956111e+02, 3.976341659697005e+02, -7.267022939994649e+02, 1.829962424666211e+03
4154, 9.545228031809324e-01, 1.159216802244040e+00, -1.349886168723004e-02, -3.152210450143141e-10, 1.059534273217889e-10, -6.767522586360639e-11, 3.230998822363018e+02, 2.817486336725046e+02, -2.808287227644059e+01, 3.338804900971098e+02, 6.609096199838527e+01, 1.327764752162408e+01, 1.351695807109745e+02
4155, 1.061791597081532e+00, 1.335578946572810e+00, -7.847970311014455e-03, -3.616171941217682e-10, 5.834409190587867e-11, 2.872825276732301e-10, -7.943596880242321e+02, -7.910672522412257e+02, 7.303340361162162e+01, -1.664012363400823e+03, 1.026512641493146e+03, -1.069967530055195e+01, 1.984111787231219e+03
4156, 1.064252609623166e+00, 1.355278321184500e+00, -7.834618351849287e-03, -3.126114765327199e-10, 3.957830074528881e-11, 2.186863808960003e-10, -5.973379707814460e+02, -6.688126031624838e+02, 5.739653376133071e+01, -1.356709174253117e+03, 5.495720120633873e+02, 3.383628281001504e+02, 1.336756131850749e+03
4157, 1.033945832659858e+00, 1.249160137297659e+00, -9.030131266957517e-03, -3.345701747609385e-10, 6.273521708094331e-11, 1.196970382784593e-10, -4.282343799721626e+02, -3.439841098219542e+02, -7.937847109903056e+01, -8.397354203420531e+02, 8.607263362157053e+02, 7.401444147191155e+01, 1.571301054314968e+03
4158, 9.752739073320088e-01, 1.186687050158865e+00, -1.237460576054123e-02, -3.058782699335622e-10, 1.216555778450743e-10, 7.144030742407725e-11, 7.674934899850523e+01, 1.325229947523151e+02, 1.529961231690038e+01, -4.752356781725254e+00, 2.214587892597033e+02, -1.800023127760661e+02, 5.092500300625795e+02
4159, 9.520588259049952e-01, 1.139481001011735e+00, -1.351813325449239e-02, -3.376495751758418e-10, 9.602920119880039e-11, -1.236808137651543e-10, 4.255159922879328e+02, 2.789434142888094e+02, 2.065603720440728e+01, 4.953702432888999e+02, 2.221763215633807e+02, 4.780681688404778e+01, 4.391187756047938e+02
4160, 9.187981572640213e-01, 1.293348251682799e+00, -1.644506356901022e-02, -2.757735325318902e-10, 3.757249563083252e-10, -9.936699435296331e-10, 5.970360041322541e+02, 1.231638676100595e+03, 1.791078482239246e+01, 1.316919891714007e+03, 2.631644066368806e+02, 9.381506273388288e+02, 1.820225762489928e+03
4161, 1.158715628278622e+00, 1.414305965846818e+00, -1.882970899252605e-03, 1.174884867827387e-10, -1.256902520751525e-10, -1.913091279237567e-11, -1.143709968702483e+03, -1.870323907404886e+03, -1.739483036645368e+02, -4.820039935671796e+03, -7.114983744621715e+02, 5.952160489612788e+02, 3.747586893874168e+03
4162, 1.037317583638700e+00, 1.418287812481219e+00, -1.005356693575027e-02, -2.293096558921498e-10, 1.715528689294590e-10, -6.102438634457278e-11, 6.443537909695377e+02, 5.863103370445459e+02, -3.685384989500599e+01, 9.944166916615343e+02, -7.647223200158260e+01, -2.296441181564033e+02, 5.710164843516000e+02
4163, 8.508977878800419e-01, 3.296923068446881e-01, -1.415410286039791e-02, -5.012876119495371e-10, 9.953571099459149e-11, 4.355053457420849e-10, -4.974613673079858e+02, -4.701328901269397e+02, -5.952371642933824e+01, -8.492722216579493e+02, 4.682893013502730e+02, 1.280777647669578e+02, 9.229614006131542e+02
4164, 8.350825058158539e-01, 3.417383439446335e-01, -1.528359788583585e-02, -5.479703445982536e-10, 9.066864120308664e-11, 2.337132334176536e-10, -3.288862873462679e+02, -2.981356641047399e+02, 1.252852579078377e+01, -5.958029918890087e+02, -1.158841775787345e+02, -1.636166705378541e+02, 4.488513644408485e+02
4165, 1.062395210857718e+00, 1.484405816859742e+00, -8.915665946861471e-03, -2.946351817221338e-10, 1.721030488308828e-10, -7.041478344489696e-12, 5.039115898228077e+02, 3.981190892537930e+02, -2.693147141133245e-02, 4.702392191507865e+02, 2.493771652162208e+02, -3.258231497918548e+02, 7.168072865285640e+02
4166, 1.064778052978766e+00, 1.503856673792190e+00, -8.903028040700360e-03, -2.452476355081112e-10, 1.351053079324263e-10, -7.407266432305420e-10, 1.003299929618924e+03, 8.968588020158747e+02, -7.642217147026629e+01, 1.671858842110595e+03, 2.143934518806192e+02, -1.293457465053214e+02, 8.573613972845681e+02
4167, 1.080400190090315e+00, 1.492070767135841e+00, -7.800629159660084e-03, -2.326046100181388e-10, 1.253307248025103e-10, -5.527317641737665e-11, 4.217509600513654e+02, 2.603494935628624e+02, -3.103422208651270e+01, 5.294911403071502e+02, 3.714790467298087e+02, -2.969694726174062e+02, 8.581956776974561e+02
4168, 1.082784530116787e+00, 1.511530259682196e+00, -7.789514807618484e-03, -1.865666044505917e-10, 7.885910262792860e-11, -3.615624811775223e-11, 3.766389382448819e+02, 2.806511776417018e+02, -4.604611497630110e+01, 4.717583840707489e+02, 2.923421978993655e+02, 2.946748851405443e+01, 5.410630984678029e+02
4169, 1.148859936220612e+00, 1.335451813365379e+00, -1.920880261576569e-03, -1.474914308923071e-11, 7.520676893272597e-12, 1.147336308984244e-11, 7.660706627263400e+00, 4.367698921769101e+01, 3.652807299687007e+01, 1.566231662974604e+02, 6.361758324700492e+01, 1.630501329834015e+01, 1.872537433028284e+02
4170, 8.713793611086400e-01, 1.329295658704740e+00, -1.883536993057537e-02, 1.446787369148716e-10, 2.470829373812581e-10, -2.267262425295468e-09, 1.806468188031499e+03, 9.822841209992821e+02, -6.084938703229507e+02, 1.900711085937505e+03, 1.745981441429871e+03, -1.197596795438872e+03, 3.914677100412157e+03
4171, 8.738350138080606e-01, 1.348969561233566e+00, -1.872840361186151e-02, -4.190363258297776e-10, 4.664426204423614e-10, -2.103171859658709e-09, 2.707504722868256e+03, 3.003256548967790e+03, -1.958553740904196e+02, 4.717131042287240e+03, 1.490724123992116e+03, 1.070752115834573e+03, 3.708517215481947e+03
4172, 8.555867574398968e-01, 1.341260487965354e+00, -1.941198577053446e-02, -4.296617277041102e-10, 6.854653481139987e-10, -7.115524311139107e-09, 5.134554436957977e+03, 4.119561178755960e+03, -3.476092530977297e+02, 8.119249721824403e+03, -1.299563669224318e+02, -2.518320442363610e+02, 3.683949448020086e+03
4173, 8.580400078045123e-01, 1.360924961763333e+00, -1.928681139176858e-02, -5.107785364157888e-10, 4.814664707208512e-10, -1.924415223816044e-09, 2.652698665202774e+03, 2.677180696253753e+03, -3.227551065480718e+02, 3.873366683704656e+03, 5.961476966631617e+02, 1.526416699433447e+03, 3.135167934091033e+03
4174, 8.397646745016289e-01, 1.353180986839249e+00, -1.990743831355735e-02, -7.397592358008122e-10, 7.164223736291341e-10, -2.685323451877320e-09, 2.985834556680076e+03, 2.593220467895446e+03, -5.427417749252726e+01, 4.039306489272955e+03, -1.059723494228468e+03, 8.987873537527006e+02, 2.734756239929346e+03
4175, 1.033646817264563e+00, 1.099192091698311e+00, -7.909498582131694e-03, -3.259648215677498e-10, 1.102175820585991e-10, 5.156204682651235e-10, -9.506309273173005e+02, -1.150521199123904e+03, -1.032076056813726e+02, -2.331597617275869e+03, 7.058991008442620e+02, -7.286056655206081e+02, 2.188702357869201e+03
4176, 1.015355541177835e+00, 1.091463139344476e+00, -9.064999859916647e-03, -4.768480044871819e-10, 1.119130673918670e-10, 2.200286899295744e-10, -6.639969927821652e+02, -7.877124463182482e+02, -2.110085506703092e+01, -1.819196397346928e+03, 8.577050899701391e+02, -2.874434575778455e+02, 1.913911227235666e+03
4177, 9.374931958852952e-01, 3.289884142397197e-01, -8.356059136999983e-03, -4.024551193749388e-10, 2.539983853984020e-10, 1.429999687697498e-10, -6.848081375632443e+02, -1.055625039872318e+03, 1.097830319920834e+02, -1.220212871963375e+03, 3.716302709276039e+02, -4.336439928448250e+02, 1.113665898869499e+03
4178, 9.399566776879843e-01, 3.487322870360431e-01, -8.345303013931972e-03, -3.835909742624454e-10, 1.095740609101592e-10, 1.617344567253969e-10, -1.177934378352101e+03, -1.043477228821446e+03, -1.576728945927857e+02, -1.514976588091207e+03, 1.338761928844143e+03, 3.081277758620060e+02, 2.431718491356891e+03
4179, 9.350245521311783e-01, 3.092236376421796e-01, -8.366978060244933e-03, -6.704532743321497e-10, 3.670247990809906e-10, 7.821749576027190e-10, -2.409793338226267e+03, -1.854074268699417e+03, 2.954594418289171e+02, -4.609080662004652e+03, 1.108213179281831e+03, -1.670981269852706e+03, 4.323275116396768e+03
4180, 9.167255219983689e-01, 3.014894149749411e-01, -9.546259995155737e-03, -4.839161942412102e-10, 1.197108477027605e-10, 8.782807477818726e-10, -1.537176543722691e+03, -1.265005900558896e+03, 4.154545212402953e+01, -3.278653209157590e+03, -4.762810742475874e+02, 1.934876160927886e+02, 2.092562565592793e+03
4181, 9.325675720707051e-01, 2.894327816800102e-01, -8.376873824517937e-03, -7.455934873858875e-10, -1.016123424342171e-11, 4.886220978307462e-10, -2.198531577293291e+03, -1.706052931602965e+03, -5.546135957767741e+01, -3.128796307553196e+03, 1.675087128468302e+03, 7.440797757193583e+02, 3.413796404052423e+03
4182, 7.178299715655743e-01, 1.407751680883253e+00, -1.185420077260362e-02, -5.812642013798937e-11, 2.900390599005897e-10, -4.715293315747239e-10, 1.376925022635996e+03, 1.759757647432741e+03, 3.344075531268344e+02, 3.312912428054438e+03, -6.744696213688153e+02, -1.604774802962421e+02, 2.220567725339067e+03
4183, 1.070237425338574e+00, 1.114688742364513e+00, -5.567880369109306e-03, -6.081524346985034e-10, 3.685554526638619e-10, 1.155100849650356e-10, -2.728412814161993e+03, -3.068634253309833e+03, 1.035213553117830e+02, -4.933794249228465e+03, 1.806762521851920e+03, -9.847120038702410e+02, 4.118669140863923e+03
4184, 9.707590039957478e-01, 1.540868078060413e-01, -4.640678535082396e-03, -1.575967934324351e-10, 4.949943131348620e-11, 3.908766488943428e-11, -9.469387948633225e+02, -1.568034576568332e+03, -4.239245463494286e+02, -1.765558078135233e+03, 2.788894943543166e+02, 1.405529954856498e+03, 2.691927560783697e+03
4185, 1.121220226327415e+00, 1.248444220508967e+00, -3.141016209980705e-03, -1.942731991815693e-10, 2.694412749487157e-12, 1.976011827434443e-10, -7.276749470074058e+02, -1.229836220489278e+03, -1.115534444855705e+02, -2.629369127021414e+03, -1.135850516297257e+03, -3.692432513970305e+01, 2.612573720315712e+03
4186, 2.636892809669245e-01, 2.122722527176789e-01, -3.843328877901186e-02, -2.549437383226387e-09, 9.540058695068898e-10, -9.812474049545843e-09, 9.237314622115722e+03, 8.177461506550815e+03, -7.992662995487501e+02, 1.496549375115182e+04, 2.882808511236837e+03, 1.293712152595812e+03, 8.477951477143766e+03
4187, 3.578001986019842e-01, 2.707725261902550e-01, -3.794667657569274e-02, -1.356825794142920e-09, 2.598132261938368e-09, -1.774120588285889e-08, 1.199122781121001e+04, 1.120967296026302e+04, 8.542201927760755e+01, 2.425547793741060e+04, -8.564991951582781e+02, -2.408674721689495e+03, 1.342518709162669e+04
4188, 3.602554944658587e-01, 2.905151991156067e-01, -3.768511128305519e-02, -1.594257688294127e-09, 1.008572478980680e-09, -9.233484693302821e-09, 6.792483522621455e+03, 6.589354838420862e+03, -1.433110607440631e+02, 1.267622950480877e+04, -1.588821632685340e+03, 6.019451930314093e+02, 6.676569208274934e+03
4189, 3.419299342585473e-01, 2.827711129302810e-01, -3.788154929711084e-02, -1.158428982389904e-09, 6.536866249805138e-10, -8.882095533637222e-09, 7.358491731198875e+03, 6.299521701145333e+03, 7.547222358897984e+01, 1.364132518977236e+04, -2.988221295656202e+03, 2.126993578127367e+03, 9.360904810882026e+03
4190, 3.443847824363251e-01, 3.025113228070200e-01, -3.756871197711247e-02, -2.470739424592539e-09, 1.313923317493005e-09, -8.477811953384817e-09, 7.472285297525093e+03, 6.770015179289222e+03, -1.033476448732222e+03, 1.202348113358521e+04, 3.586013278886740e+03, -1.212065965786638e+03, 8.401948692452605e+03
4191, 3.260608841081786e-01, 2.947654971777947e-01, -3.761155968161040e-02, -1.770862660143036e-09, 1.061142409678184e-09, -9.014605753234654e-09, 6.201374714815416e+03, 7.431948388943953e+03, -5.402529462210957e+02, 1.101402206010644e+04, 2.282035293437654e+03, -9.876205345806194e+02, 6.178869382967897e+03
4192, 3.285159052199008e-01, 3.145026665418909e-01, -3.723299287346652e-02, -2.582581519090162e-09, 1.420257794175579e-09, -1.877305783488807e-08, 1.482816819702758e+04, 1.484164077734560e+04, -4.516808855275532e+02, 3.095571449635913e+04, 2.400904424154074e+03, 3.506502425320377e+01, 1.666701572511562e+04
4193, 3.468378916638757e-01, 3.222489437689545e-01, -3.723915174866477e-02, -1.445363676300189e-09, 8.648941611914538e-10, -6.987121134137800e-09, 4.304877215744901e+03, 3.412865790786328e+03, 2.190014697066710e+02, 4.883229595277826e+03, 3.020173455235883e+03, 2.083639151088671e+03, 6.494532866461398e+03
4194, 3.309706961848262e-01, 3.342380623218592e-01, -3.683102858178559e-02, -1.729597976996440e-09, 1.306042268726956e-09, -8.057803176658863e-09, 4.768549823615356e+03, 4.734836308178510e+03, 5.849258597021582e+02, 7.237816707140848e+03, 1.814478627102224e+03, 2.890660676878622e+03, 6.492521351957851e+03
4195, 3.492909132156026e-01, 3.419848995734701e-01, -3.688982371591826e-02, -1.253608649765917e-09, 1.336764562433921e-09, -7.230856794942764e-09, 4.252209842095953e+03, 4.372928007910184e+03, 9.349427246575436e+01, 7.924888876647909e+03, -2.023683624180718e+03, -1.277249978059178e+03, 5.501454114900839e+03
4196, 3.334256830161000e-01, 3.539716410213126e-01, -3.640470128834156e-02, -1.057124059792762e-09, 9.593381243383886e-10, -9.016569521033028e-09, 4.153913785602402e+03, 3.721755821245551e+03, -9.382947575869631e+02, 3.882433491397469e+03, 5.085021597796397e+03, -2.705976468412276e+03, 1.011551238120482e+04
4197, 3.517439671858298e-01, 3.617193075423674e-01, -3.652199538004790e-02, -1.631993590941970e-09, 9.150032482574920e-10, -6.856210331821059e-09, 4.351278550474304e+03, 4.203047901615697e+03, -8.243187157804894e+02, 7.119288762301988e+03, -2.146723203576221e+03, 1.327038477829739e+03, 5.407496254884280e+03
4198, 3.358810001700167e-01, 3.737034554899776e-01, -3.595368934166750e-02, -2.075460890492865e-09, 1.306629956004849e-09, -8.449743696299193e-09, 6.515965669359791e+03, 4.838110863318160e+03, -4.499990509102587e+02, 1.082233696256190e+04, 4.589268768226450e+03, 2.505786366424393e+03, 1.054580737056024e+04
4199, 3.541971793402845e-01, 3.814522240431120e-01, -3.613262617523262e-02, -1.809314744772335e-09, 1.144492787211566e-09, -8.409381716982437e-09, 4.792341746269196e+03, 4.815041312305810e+03, -5.630660739775583e+02, 5.540835829148225e+03, 3.653999759054487e+01, -2.740883080340789e+03, 4.902675195962031e+03
4200, 3.101959140300914e-01, 3.067537000619671e-01, -3.708643762828465e-02, -1.146432659276320e-09, 2.070442653952382e-09, -9.657355046843240e-09, 7.030644069607603e+03, 6.026722950397967e+03, -6.080747405385841e+02, 1.210856562093970e+04, 3.590676602778560e+02, -1.770887942597952e+03, 6.541801229178554e+03
4201, 3.383367956316405e-01, 3.934336075841344e-01, -3.547169893308334e-02, -3.191108986320670e-09, 7.120121699112948e-10, -8.837174368406580e-09, 3.967205661880166e+03, 2.863185148417820e+03, 5.935347530209385e+02, 4.232879609612100e+03, -3.406370218298279e+03, -9.392105324357869e+02, 6.332142402300498e+03
4202, 3.566507435823436e-01, 4.011837788186254e-01, -3.571772636446945e-02, -1.774885811830288e-09, 1.346678832771951e-09, -1.903397937762673e-08, 1.007468133052868e+04, 9.099970467952488e+03, 3.383151117188623e+02, 1.688652454344364e+04, 3.318872864336515e+01, -7.488705354818029e+02, 7.484647209659995e+03
4203, 3.725148790488314e-01, 3.891977917094235e-01, -3.616289631666215e-02, -1.511729679854504e-09, 9.100501772538950e-10, -7.657137105387101e-09, 5.115457346307250e+03, 4.555611003165861e+03, -5.594600392121225e+01, 6.245615134105402e+03, 2.671339149164169e+03, -2.293244335217546e+03, 6.278364151319908e+03
4204, 3.749678747981607e-01, 4.089309868495889e-01, -3.580513862080850e-02, -1.039318967347553e-09, 1.031919075887313e-09, -9.651717153173542e-09, 5.570749449567601e+03, 4.897360834789667e+03, -5.396488102153863e+02, 7.483535125529106e+03, 4.027332710636724e+03, -2.414206239651107e+03, 8.509836277489956e+03
4205, 3.908339129028376e-01, 3.969411149275522e-01, -3.606488499360641e-02, -1.189554766483543e-09, 1.088048999071707e-09, -7.941598420203830e-09, 3.375299427789258e+03, 3.391006574163070e+03, -6.247805485199906e+02, 5.004009213726874e+03, -1.593721880593660e+03, 1.225347836535307e+03, 3.990324843822750e+03
4206, 3.932868100496779e-01, 4.166757082351917e-01, -3.575556626195638e-02, -1.251678990941571e-09, 1.098697150615110e-09, -8.019409529575595e-09, 4.380156868056160e+03, 4.803628426070510e+03, -5.256405789634194e+02, 6.704605739893626e+03, 2.442328665737140e+03, -2.277403275343969e+03, 6.235507337642804e+03
4207, 3.774209208377018e-01, 4.286640884017459e-01, -3.542765826459245e-02, -2.219272504487161e-09, 1.395992516518383e-09, -1.756698730991973e-08, 9.635541298249294e+03, 9.461201011433925e+03, 3.655942058632642e+02, 1.852837815542406e+04, 1.203567091808457e+03, -5.358125244062080e+00, 9.241758834998263e+03
4208, 3.957388822693806e-01, 4.364093958586693e-01, -3.542935147066482e-02, -7.964790491809385e-10, 1.799533013819337e-09, -8.818080810294815e-09, 3.822745050168532e+03, 3.630771518164946e+03, 4.076336172472681e+02, 5.245716921209516e+03, 2.771274591837278e+03, 1.677342418547034e+03, 5.857789051662737e+03
4209, 3.798743481209378e-01, 4.483957318318390e-01, -3.502569575958421e-02, -1.522936487798406e-09, 1.468268663040423e-09, -8.286973567934549e-09, 4.417059080771120e+03, 4.437267826255053e+03, -3.507046929296765e+02, 8.677907904439237e+03, -6.673807526186785e+02, 3.514291383005598e+03, 7.538238455232992e+03
4210, 3.981908869119089e-01, 4.561418045906979e-01, -3.508265345889873e-02, -1.282746313819004e-09, 1.316217498029294e-09, -7.112479264851866e-09, 4.474900596110288e+03, 3.745611095627999e+03, 1.816121305403896e+02, 8.219156651552559e+03, -2.439792637390349e+03, -9.935529682653736e+02, 6.180624479217180e+03
4211, 4.140564646968183e-01, 4.441525998208080e-01, -3.530423481795116e-02, -1.418389870111856e-09, 1.965044293966651e-09, -8.585564219997642e-09, 7.104211695946501e+03, 7.422299483293233e+03, -1.739460733336765e+02, 1.630415026044218e+04, -1.872088584195195e+03, -1.329580859811582e+03, 9.885440598581641e+03
4212, 4.164930344636726e-01, 4.638686917849891e-01, -3.500473291656277e-02, -1.017401204816723e-09, 3.271226862775520e-10, -1.649379437190625e-08, 1.180888300013688e+04, 1.094747298800528e+04, -2.558188344835052e+02, 2.681353793329930e+04, -7.340893388065025e+02, 1.127616575107648e+03, 1.563439815221334e+04
4213, 4.323649963631477e-01, 4.518794909243784e-01, -3.506976215792698e-02, -2.262728334224167e-09, 1.219981756536889e-09, -6.634936042923006e-09, 4.892068821021384e+03, 4.459078513966995e+03, -4.019661806371778e+02, 1.018944132331606e+04, 2.847265035094634e+03, 3.347880947610203e+02, 7.462243707957240e+03
4214, 4.348265043589784e-01, 4.716289373736055e-01, -3.480938634721154e-02, -1.635722270947064e-09, 6.993615232263881e-10, -5.984056165323127e-09, 3.180422310415573e+03, 2.278986537359553e+03, 6.384623539864133e+02, 5.038862118107293e+03, 2.683462633246181e+03, 1.434957655708985e+03, 5.911410759030004e+03
4215, 4.506912530766466e-01, 4.596351829393293e-01, -3.474008937946164e-02, -1.478457188526932e-09, 1.355274013667950e-09, -5.719397010209366e-09, 3.869681779322467e+03, 2.282983504529120e+03, 3.003029023906424e+02, 3.648967890685954e+03, -1.123910343281593e+03, -4.483036073557704e+02, 2.622807072853456e+03
4216, 4.531440713206815e-01, 4.793705923320295e-01, -3.451339638508671e-02, -1.347607955597033e-09, 8.340344958898797e-10, -6.000315952666432e-09, 4.294221644069963e+03, 3.203474993739344e+03, -1.317191063046072e+02, 5.956482298499966e+03, -2.266624471795386e+03, 5.434526480302501e+02, 4.702847603159696e+03
4217, 4.690074378774467e-01, 4.673754658989574e-01, -3.432931263332530e-02, -1.207796189891190e-09, 4.937853768057040e-10, -1.160520566320392e-08, 6.994796553592990e+03, 5.924520581967049e+03, -1.454494694267409e+02, 1.295175441941593e+04, -7.456533934322493e+02, 1.570508563326567e+02, 6.694167987637685e+03
4218, 4.714607998342811e-01, 4.871115530514250e-01, -3.413044159625590e-02, -1.285100699120700e-09, 7.532277139658248e-10, -5.679138078724417e-09, 3.512937702152260e+03, 3.557021601645515e+03, -3.301106165253060e+02, 5.434039256082575e+03, -9.047335076004455e+00, 2.734963004038515e+03, 5.135671080152079e+03
4219, 4.555966219523809e-01, 4.991061515380829e-01, -3.427592015610620e-02, -1.159107078158832e-09, 1.092932777855901e-09, -6.156175078325475e-09, 3.315238652923816e+03, 2.484911414369119e+03, -4.336613705991954e+02, 5.210063632416224e+03, 2.779690803304787e+03, -1.094048823164724e+03, 5.760919001352699e+03
4220, 4.739133735764929e-01, 5.068471155068062e-01, -3.392262349766452e-02, -1.145131657158642e-09, 7.352821009227123e-10, -4.820038867401685e-09, 2.912562868666927e+03, 2.635640009607959e+03, -8.426006416353454e+01, 4.117137312575423e+03, 1.306196613195031e+02, -2.675636697602263e+02, 1.465781284802831e+03
4221, 4.580490738937626e-01, 5.188408841468687e-01, -3.402525619655196e-02, -1.419973407622840e-09, 5.662711880082234e-10, -6.301856531769846e-09, 5.058271623475157e+03, 4.336337748431414e+03, 1.478779917414866e+02, 8.417113528704354e+03, 3.476149792778260e+03, 5.065097449671333e+02, 7.163377794631687e+03
4222, 4.763656723806312e-01, 5.265819426659095e-01, -3.370401953569607e-02, -1.347084794660179e-09, 6.914750027052245e-10, -5.941025946063126e-09, 4.008750809117234e+03, 5.388110367851836e+03, -1.002809692934678e+02, 5.595909519057509e+03, 2.643133352122242e+02, -4.499806090244034e+03, 7.950909445487292e+03
4223, 4.605012627861769e-01, 5.385748767795140e-01, -3.376149763879736e-02, -1.626281450031000e-09, 1.093999761939342e-09, -8.430000709038345e-09, 6.337851750909977e+03, 6.608433987372196e+03, 3.936501813077267e+02, 9.400915649843027e+03, 1.235519479613128e+03, -3.355630856512047e+03, 6.888537319359203e+03
4224, 4.788177357692447e-01, 5.463160897112359e-01, -3.347514505246628e-02, -1.202560340654744e-09, 2.019476368816840e-09, -1.432412070291570e-08, 9.749646553032166e+03, 9.536671619374576e+03, -2.918573960509996e+02, 1.963471322957076e+04, 6.614606516601621e+02, -9.196199858857710e+02, 1.019658808116282e+04
4225, 4.922280927696818e-01, 5.145874766856536e-01, -3.348975819961985e-02, -9.311940507722620e-10, 7.811462027274713e-10, -5.624670369467618e-09, 5.008303014607714e+03, 4.584636040155027e+03, -4.084102277532580e+02, 8.103060869698260e+03, -3.095331122226183e+03, 7.014202484658554e+02, 6.464345186479180e+03
4226, 4.629532646866490e-01, 5.583081120200478e-01, -3.348360035651311e-02, -1.095627888234785e-09, 1.600726567140885e-09, -7.363065145508488e-09, 5.443424871298705e+03, 4.481342893642737e+03, 8.595676502228170e+01, 8.115069496341750e+03, 1.702524330682852e+03, 3.215371179317257e+03, 7.096999107166343e+03
4227, 4.812695627018559e-01, 5.660495443288880e-01, -3.323459852697769e-02, -1.278234616004079e-09, 8.765521772817302e-10, -5.846359316543947e-09, 3.501203520759148e+03, 3.672717605897331e+03, -3.838422676473836e+02, 6.357112291576186e+03, 2.565485613947129e+02, 2.221462716574613e+03, 4.810400125178569e+03
4228, 4.653827999130519e-01, 5.780153992734824e-01, -3.318889285640043e-02, -1.292552011867512e-09, 1.400501647670236e-09, -6.275266148840184e-09, 3.703115521423908e+03, 4.424681226290113e+03, 6.114022022076198e+01, 6.047592967308972e+03, 1.271907444868495e+02, -2.699004750515020e+03, 5.122417769556000e+03
4229, 4.837084463666950e-01, 5.857661481547712e-01, -3.298040862178983e-02, -1.496696006421466e-09, 1.313843321810792e-09, -5.537378807542884e-09, 5.235287365456079e+03, 4.472657434178989e+03, -1.156535486654818e+03, 8.770840910577133e+03, 2.979872023775572e+03, -2.289429649293682e+03, 7.883791056766505e+03
4230, 4.995765872834498e-01, 5.737748670526130e-01, -3.288865254125724e-02, -1.024416303108438e-09, 9.224159583336831e-10, -5.458390279517682e-09, 4.102786888986252e+03, 3.900872327120002e+03, 1.878991599313774e+02, 6.960804028336304e+03, -2.372880330537353e+03, -3.040296426741024e+01, 5.078039112726589e+03
4231, 5.020363826281090e-01, 5.935234049920645e-01, -3.266765822214817e-02, -1.348153975075030e-09, 6.947636891883060e-10, -5.735067230673239e-09, 4.948003800869794e+03, 3.601796553215618e+03, -6.898820249070799e+02, 7.487012117867751e+03, -9.811056872019913e+02, 1.345365808992427e+03, 4.628435243026072e+03
4232, 4.861377222159774e-01, 6.054691340556601e-01, -3.271312926401813e-02, -2.752120138941887e-09, 2.786126980408012e-10, -7.099299895906178e-09, 9.152671404994238e+03, 8.427313001483455e+03, -5.132441593600805e+02, 1.948845736544889e+04, 5.144861444737010e+03, 1.561539894608725e+03, 1.422554190611098e+04
4233, 5.044735741266095e-01, 6.132285255185033e-01, -3.243681771936875e-02, -1.935548220402817e-09, 2.899841813915187e-10, -5.367788612511669e-09, 4.726382142795097e+03, 3.907774058770191e+03, -6.900991482577888e+01, 6.354711847912840e+03, 8.519277979474216e+02, -2.246530735292691e+03, 4.689016073921117e+03
4234, 4.886088574617873e-01, 6.252240209444492e-01, -3.242924117394932e-02, -1.260846658721745e-09, 7.687977547099348e-10, -6.852603623994161e-09, 4.862066131095680e+03, 4.976370411946662e+03, 2.004920992853764e+02, 8.964665481705460e+03, -1.453041855126912e+03, -2.535259285088592e+02, 4.798213372184680e+03
4235, 5.069390532720099e-01, 6.329889043658061e-01, -3.219234252481603e-02, -2.269227162263296e-09, 4.282899586002334e-12, -1.469438817711263e-08, 8.215984957291565e+03, 8.287500696985115e+03, 3.118310686979967e+02, 1.650113759562051e+04, 5.433240030809393e+02, 7.976635956231344e+02, 8.434599594560725e+03
4236, 5.203500178406159e-01, 6.012637256560323e-01, -3.226639062763360e-02, -1.264037461351942e-09, 4.528119619863317e-10, -5.058661744288255e-09, 3.873940937356709e+03, 3.376884951069334e+03, -1.784315548747967e+02, 5.191962863082934e+03, 4.743614762862250e+02, 1.364983141211033e+03, 2.999913991381900e+03
4237, 4.910749650645505e-01, 6.449786690555568e-01, -3.212740837728899e-02, -1.771604550089850e-09, 8.854020301544492e-10, -6.085589554966957e-09, 3.311072041337479e+03, 3.547286369581549e+03, -9.051416809004864e+01, 3.099642086472463e+03, -1.953793533327960e+03, 1.609236587969645e+03, 4.404074904462826e+03
4238, 5.093900313224704e-01, 6.527207124427390e-01, -3.193391997633195e-02, -1.035234252678215e-09, 8.158320463328505e-10, -7.492286751538412e-09, 4.995488498928390e+03, 6.027879462917865e+03, 5.122260480830508e+02, 7.234117728665880e+03, -2.312532839430833e+03, 2.615233611909002e+03, 6.412101281964964e+03
4239, 4.935008058417805e-01, 6.646675756648182e-01, -3.180913892351077e-02, -1.012861388091127e-09, 1.253420832085246e-09, -5.860432591464417e-09, 5.259911818715281e+03, 5.002153845376964e+03, -6.305896882882155e+02, 6.599874209777962e+03, 2.624277001817116e+03, -1.701520894637029e+03, 5.722435132785337e+03
4240, 5.118285188599426e-01, 6.724330219247607e-01, -3.166181716108784e-02, -1.298538613368780e-09, 1.326397587708223e-09, -6.203134751956281e-09, 3.163889137544463e+03, 2.917915289338319e+03, -4.151342136908589e+02, 4.672662819647110e+03, -1.839925915374710e+03, 2.165865508433027e+03, 5.239649949820885e+03
4241, 5.277038362525033e-01, 6.604614551895073e-01, -3.163091672079733e-02, -6.042534078247726e-10, 1.031656505063935e-09, -1.269693343308370e-08, 5.745232307954242e+03, 6.871266830590556e+03, 4.242811904572966e+01, 1.254122716587093e+04, 4.776570156387063e+02, 6.388092474227782e+02, 6.458720918473583e+03
4242, 5.301443311450253e-01, 6.801757093728455e-01, -3.139716562329510e-02, -6.732944701147930e-10, 1.208590787263889e-09, -5.181649615347075e-09, 2.910270297186955e+03, 3.044353131128843e+03, 3.954901193343127e+01, 6.340294747797860e+03, 1.564936104864241e+03, 3.421500344402637e+03, 7.334500648954804e+03
4243, 5.142913536904519e-01, 6.921831774311284e-01, -3.137173661489335e-02, -1.060299503836350e-09, 8.624283064705413e-10, -5.479247099166243e-09, 3.354926886846536e+03, 2.618079729330434e+03, -2.530306312867012e+02, 5.068079617537655e+03, 7.022795646605127e+02, -2.049361649555774e+03, 4.360215649042132e+03
4244, 5.326057789603920e-01, 6.999251704528338e-01, -3.114897606837904e-02, -1.187272964873490e-09, 1.073922459597790e-09, -4.616177346993932e-09, 4.692236860594456e+03, 3.915695718988890e+03, -3.052174362127085e+02, 7.364148129752613e+03, 1.473714184189332e+03, -1.305437676406149e+03, 4.660949594575187e+03
4245, 4.006429341720849e-01, 4.758740561842830e-01, -3.471629965792016e-02, -1.414373857153032e-09, 1.404290052199910e-09, -6.656770884633561e-09, 3.829440418660151e+03, 4.045197248211835e+03, -8.081693446560777e+02, 6.341731237389479e+03, -1.946091620908417e+03, 1.451496617514452e+03, 5.045579294512382e+03
4246, 5.167418769356863e-01, 7.119138359632089e-01, -3.106387207763209e-02, -1.098877791294734e-09, 3.880732884448343e-11, -1.315546447452173e-08, 8.638514555599317e+03, 9.436049219925255e+03, -1.348139143509238e+02, 1.850798601165580e+04, 6.436033196682015e+02, 5.313907278454121e+01, 9.564358531280370e+03
4247, 5.350561788412402e-01, 7.196563017286005e-01, -3.088652005849331e-02, -1.790238953961620e-09, 7.162339855394674e-10, -5.876396339119752e-09, 5.432168447342854e+03, 5.145630702011969e+03, 1.533865024677508e+02, 9.411404323361490e+03, 2.923661010925709e+03, -7.693319297620991e+02, 6.674294085882114e+03
4248, 5.460074016836034e-01, 6.681843384892003e-01, -3.123520377122330e-02, -1.218609892407380e-09, 9.773855367159408e-10, -4.873445831944973e-09, 2.792773364102973e+03, 3.094206099696279e+03, 4.245510311956933e+02, 4.136213426104407e+03, 9.893780125181022e+02, 4.536387017756393e+02, 2.363353038748083e+03
4249, 4.446366649093432e-01, 5.505650807255108e-01, -3.361912224599976e-02, -1.772613184744115e-09, 1.510222339721073e-09, -1.609885266083759e-08, 8.253982624807159e+03, 8.654604177605055e+03, -2.856649700804492e+02, 1.421703882479656e+04, 1.657390855920540e+02, 5.729480028155008e+02, 5.885714743274606e+03
4250, 5.191923614662339e-01, 7.316437897063726e-01, -3.073662933719519e-02, -1.296056996186784e-09, 1.478368692363719e-09, -6.320724663933182e-09, 2.915077897998643e+03, 4.837253166684553e+03, -3.461641322559324e+02, 6.335019143083326e+03, 1.509180082919450e+03, 2.748723038749059e+03, 6.218989212114122e+03
4251, 5.375063955320332e-01, 7.393868472379630e-01, -3.060877437979521e-02, -1.383090719581500e-09, 1.074453911439800e-09, -5.572051678582621e-09, 4.033484330519869e+03, 3.441117684896682e+03, 6.442607368228279e+01, 5.832979320936777e+03, -1.707028390801113e+03, -5.794393135514397e+02, 3.796917297868332e+03
4252, 5.533693761169193e-01, 7.273973411462864e-01, -3.059368688551218e-02, -1.153743880086402e-09, 8.754338648443508e-10, -5.158359431243927e-09, 3.962270571913403e+03, 4.510918490060063e+03, 4.185956822125943e+01, 7.195696222049621e+03, 3.914170047207722e+02, -2.765891379603578e+03, 5.691870305797659e+03
4253, 5.558201077804708e-01, 7.471288299976376e-01, -3.035650450649282e-02, -1.414307522720512e-09, 1.093981635454079e-09, -1.269466497054299e-08, 7.737796510864866e+03, 8.252038644579452e+03, -5.282011019705664e+02, 1.547751191718984e+04, -3.845479249510994e+02, -8.710666613842706e+02, 7.729453001082677e+03
4254, 5.399563279854310e-01, 7.591175585189953e-01, -3.031221825592525e-02, -1.566341832475769e-09, 9.408203707484331e-10, -5.585767630887837e-09, 3.975007532409599e+03, 3.302946198438302e+03, 3.185679045465551e+02, 6.666456062640172e+03, -3.384128320813484e+03, 7.115663000636421e+02, 6.759052442452080e+03
4255, 5.582701630366589e-01, 7.668599894894403e-01, -3.010442583566234e-02, -1.385121353011768e-09, 1.484533575687968e-09, -5.460632773431810e-09, 3.525168292257663e+03, 5.698865853351149e+03, -5.206735778898479e+01, 5.726450059254059e+03, 6.737672995528895e+02, 7.374725547541983e+02, 2.790573266327858e+03
4256, 5.424062872585487e-01, 7.788476534189053e-01, -2.999730378650785e-02, -1.114223456488293e-09, 1.160453557162759e-09, -5.758593693047349e-09, 4.631180207948606e+03, 5.543123143854455e+03, 1.049667417374380e+03, 8.233684105315857e+03, 1.148239428939395e+02, -3.898245153006639e+03, 7.710920876381371e+03
4257, 5.607199919717997e-01, 7.865906277451149e-01, -2.983763162000462e-02, -1.858058938325382e-09, 2.555042474494238e-09, -7.831036271799743e-09, 9.002414621795508e+03, 8.668671368099527e+03, 2.280013994475273e+02, 1.771449344296692e+04, 1.312523886467624e+03, -5.121779505814445e+03, 1.276484571659844e+04
4258, 5.448562370315625e-01, 7.985770225841921e-01, -2.966031427025096e-02, -1.671935707796474e-09, 7.744640779674113e-10, -1.729485562354272e-08, 1.563242445388439e+04, 1.455483977641378e+04, 1.127829242023047e+03, 3.432026189393025e+04, -2.079552141785053e+03, 6.313420292372007e+01, 1.968084728142022e+04
4259, 5.631696473616026e-01, 8.063206895621174e-01, -2.955377109376024e-02, -7.576792289603136e-10, 1.484064526182070e-09, -8.974477591694590e-09, 1.039050993131143e+04, 8.982894500239045e+03, 4.874349665419516e+00, 2.220743610017760e+04, 2.405798940413677e+02, -8.525316999668411e+02, 1.267315868825985e+04
4260, 5.473062645736801e-01, 8.183055988575989e-01, -2.929915077183003e-02, -8.616062191782635e-10, -3.433856652517216e-11, -7.954902930055425e-09, 8.100112513639231e+03, 8.520206318412820e+03, -1.980533396074945e+02, 1.824381975065489e+04, -4.741854673083247e+03, 3.889193362565975e+03, 1.455199898225603e+04
4261, 5.656191829940302e-01, 8.260501297920788e-01, -2.925030872570912e-02, -2.145447542614500e-09, 3.477869801578720e-10, -1.684719180826814e-08, 1.440088796687689e+04, 1.425219389732954e+04, 3.838853139324395e+01, 3.102365014054462e+04, 9.757777541404280e+02, 1.734392633127100e+03, 1.704978708064555e+04
4262, 5.814824580238509e-01, 8.140624845359585e-01, -2.931519274923476e-02, -1.115051093813535e-09, 8.363996075079426e-10, -5.819199335832083e-09, 6.096340130749196e+03, 5.594212372456406e+03, -3.730748428479824e+02, 1.035358042465697e+04, 4.457330106377900e+03, 7.163852956657112e+02, 9.059495513179443e+03
4263, 5.839324047248384e-01, 8.337930661281456e-01, -2.905877832547091e-02, -1.434520118479524e-09, 9.261379933711831e-10, -5.697585820929962e-09, 4.554263132784634e+03, 4.411888782596221e+03, 1.033662321717540e+03, 5.983495410055615e+03, 2.728126872407965e+03, 1.495401625345652e+03, 5.874397119693872e+03
4264, 5.680684966256915e-01, 8.457797486087849e-01, -2.892705705114047e-02, -1.157492681265979e-09, 7.264204871028890e-12, -6.277756232777507e-09, 5.483158811887727e+03, 6.901558418670740e+03, -1.738657211119906e+02, 9.389866388407601e+03, 4.536745656063607e+02, 3.695166487773714e+03, 7.307794801516631e+03
4265, 5.863816973634161e-01, 8.535233204135876e-01, -2.878696402209189e-02, -1.123932383359065e-09, 1.441387797179857e-09, -5.699490573189676e-09, 5.067677446037351e+03, 4.433195200099048e+03, 1.228107906471301e+02, 8.623869972068549e+03, -2.672059505202691e+03, -3.369358419860201e+02, 6.091875308744517e+03
4266, 2.812577683592196e-01, 5.371488935961134e-01, -1.294615693752934e-02, -4.828326481692950e-10, 2.259929305902771e-10, -1.948059166711705e-09, 2.071810567192274e+03, 2.947518636642971e+03, 7.633713776106263e+02, 9.340815826854994e+03, -1.059262000699637e+03, 4.104071946571528e+02, 7.270446565394883e+03
4267, 4.727600912296330e-01, 6.372345870820315e-01, -3.219229436335171e-02, -1.721930863490207e-09, 6.650351769051919e-10, -6.543345512447744e-09, 4.908077865302047e+03, 4.880307319292794e+03, -6.749289620181586e+02, 7.426500077025113e+03, 3.720927723722971e+03, 1.194763764050866e+03, 7.321068067032123e+03
4268, 5.705179428467175e-01, 8.655086272405985e-01, -2.857916571604666e-02, -1.802607253075755e-09, 1.210374272419506e-09, -5.557783665379804e-09, 5.683444876568419e+03, 4.445085020079437e+03, -5.404736464588601e+02, 6.542175411921588e+03, 2.731168140928403e+03, -8.118857194388577e+02, 5.344718840400943e+03
4269, 5.888307973197928e-01, 8.732529954540509e-01, -2.849608023853609e-02, -1.384400096886083e-09, 9.880753597266110e-10, -4.393252881149241e-09, 3.581164061900815e+03, 2.309903025445441e+03, -1.034589498767570e+03, 5.151939222940574e+03, -1.869391513458763e+03, 2.220408564884825e+03, 5.879281185511358e+03
4270, 5.997946533517355e-01, 8.218031800445204e-01, -2.896579065432934e-02, -8.402894412489356e-10, 1.047113937124504e-09, -5.365397853300390e-09, 4.061117295468413e+03, 3.649226147246182e+03, 1.019692060303739e+02, 6.170967129702020e+03, -1.315315344677795e+03, -2.063671501941078e+03, 4.846413709160579e+03
4271, 5.716817569308590e-01, 7.351375409156207e-01, -3.020327096119664e-02, -1.426521894033536e-09, 7.378955603407766e-10, -5.592983740092342e-09, 4.376701272423710e+03, 4.262489909861621e+03, -2.255711255069583e+02, 7.937675508113812e+03, 1.985191674186803e+03, -2.140976478358310e+03, 6.231150074626155e+03
4272, 4.482383848707394e-01, 4.398993729550746e-01, -3.495662676053689e-02, -1.384397650371056e-09, 8.362537085101127e-10, -5.160393166532132e-09, 3.552028118968859e+03, 3.071141853353737e+03, -1.725233660940989e+02, 3.053696261110216e+03, 2.133140187334081e+03, 5.580658459366646e+01, 3.740246319630273e+03
4273, 5.008792547306404e-01, 7.238981136258102e-01, -3.071738654405338e-02, -8.130331282392692e-10, 1.057643677822146e-09, -6.546863154801477e-09, 5.201786468665992e+03, 4.945264841322342e+03, 2.532245036892816e+01, 9.166957757330303e+03, -2.839874527035470e+03, 1.102509531944849e+03, 6.681968748571631e+03
4274, 5.729675315736320e-01, 8.852367038625220e-01, -2.820678765763815e-02, -2.170517293925770e-09, 8.590519625416450e-10, -5.803211678470947e-09, 5.940594151188044e+03, 4.962367432585126e+03, -1.272524427874291e+02, 9.439356383564214e+03, 4.780240505032219e+03, 5.548966453710004e+02, 9.281446850626780e+03
4275, 5.912797900709961e-01, 8.929820497269999e-01, -2.818543274273500e-02, -1.821929669125429e-09, 7.461648292696454e-10, -4.239471156842430e-09, 3.679974564174675e+03, 3.663851623545110e+03, -2.101537957237481e+02, 4.822782469767018e+03, 4.370728162838818e+02, -2.120390898446609e+03, 3.939347631617662e+03
4276, 6.071432273118220e-01, 8.809953040064189e-01, -2.827270487099231e-02, -1.440600018845972e-09, 3.399599229699471e-10, -4.513051275096998e-09, 3.746137086690173e+03, 4.204249486706401e+03, -8.255566929257438e+01, 5.464623769416645e+03, 2.054133093136322e+02, 2.822879282952199e+03, 5.140892522512589e+03
4277, 6.095925934430028e-01, 9.007255766331164e-01, -2.801179486210749e-02, -1.346061724652428e-09, 7.708075863950386e-10, -4.786651399574472e-09, 5.545321641433058e+03, 4.240386915056407e+03, -4.259020318691830e+02, 8.075378789021301e+03, -4.845194171913114e+02, -2.229418954294787e+03, 5.250236631070557e+03
4278, 5.937285698140167e-01, 9.127112636241774e-01, -2.785231064012745e-02, -1.865992568863150e-09, 6.069089332344114e-10, -1.202858173389644e-08, 1.084102165972397e+04, 1.046749432106481e+04, -7.225893606300799e+01, 2.205343943041616e+04, 5.641764608381411e+02, -2.272270228382645e+02, 1.145300943705275e+04
4279, 6.120413136774864e-01, 9.204555229902381e-01, -2.773414321682407e-02, -1.939456958832810e-09, 2.031685568942610e-10, -5.463134375029415e-09, 5.234845456930789e+03, 4.826172399017002e+03, 4.182555384385665e+01, 8.760448754291496e+03, 1.205504513253528e+03, 1.860837098511422e+03, 5.365708434682670e+03
4280, 6.279044875138136e-01, 9.084675107049304e-01, -2.771140853218396e-02, -1.396466149340225e-09, 3.753086664764237e-10, -1.108998715643276e-08, 6.725525913712551e+03, 6.315174816905394e+03, 4.657968862067371e+01, 1.189342772259937e+04, 6.627422048007543e+02, -2.246579461438536e+02, 5.520131843983450e+03
4281, 6.303537816543232e-01, 9.281985135599993e-01, -2.747801577407787e-02, -1.528789159044266e-09, 8.415846863855962e-10, -4.957161464942422e-09, 4.688428037974836e+03, 4.920427102805396e+03, 4.308686775636676e+01, 6.565755345240129e+03, 9.395796844909161e+02, 2.664107328590249e+03, 5.204713840818525e+03
4282, 2.463482037681482e-01, 4.671223788414874e-01, -1.307538075519579e-02, -1.798719116313382e-10, 1.203316472441498e-10, -4.560337003038171e-11, 6.602399023595118e+02, 6.573481306703281e+02, 1.741083867027895e+02, 1.452110523559097e+03, -3.532960235440466e+02, 1.702242182027523e+02, 1.087051809810124e+03
4283, 6.144896895828666e-01, 9.401857264432394e-01, -2.743581837863295e-02, -1.456372508897800e-09, -2.558548967794889e-11, -5.991955960504480e-09, 3.015036264721712e+03, 4.678945058063377e+03, 9.329545117749375e+01, 3.700110062792474e+03, -3.973159150538762e+02, -3.768969110134586e+03, 6.724068311432262e+03
4284, 6.328023768234851e-01, 9.479292434424096e-01, -2.722882842467845e-02, -1.323105859256248e-09, 1.131781328991627e-09, -5.341442711146058e-09, 5.350067296720250e+03, 5.654803209877220e+03, -1.737017614403692e+02, 7.185850634586156e+03, 3.375751088043164e+03, -2.590033415128871e+03, 7.570069863220512e+03
4285, 3.175559169358512e-01, 3.659291561525251e-01, -3.560231330005073e-02, -2.621570676728416e-09, 2.730052328319666e-09, -1.984266899974971e-08, 1.052492691682335e+04, 9.512865642200066e+03, -1.415366356520877e+02, 1.924913889780577e+04, 7.323044115064265e+02, 2.063050907616501e+02, 9.368146683988201e+03
4286, 4.588911860532495e-01, 8.928832370367505e-01, -1.247105818617379e-02, -6.194139329813403e-10, 6.263813044761342e-10, -1.096151939363008e-09, 4.013216547703320e+02, 2.851631429815545e+02, 6.038719962795763e+02, 3.275614024023102e+03, -1.206567936683825e+03, 5.210084102730275e+02, 3.858066220240658e+03
4287, 5.265181490479423e-01, 7.907776292717438e-01, -2.961049623034996e-02, -1.415326484599691e-09, 1.075119499815288e-09, -6.121285582450403e-09, 3.933762549609136e+03, 4.773893142860758e+03, 3.246374912186184e+02, 6.007744720831732e+03, -3.417371847117364e+03, -1.363175870375920e+03, 6.647631944957138e+03
4288, 3.962835941885060e-01, 7.686783959141608e-01, -1.213223075050962e-02, -3.861208230095284e-10, 2.385968457847789e-10, -5.473087754706009e-10, 2.489400489403783e+02, 3.815078534394919e+02, 1.365550493749923e+02, 2.073329778182425e+03, -3.036760268476959e+02, 8.651639739604752e+01, 1.859884743587041e+03
4289, 6.462154352363891e-01, 9.162085995428535e-01, -2.730586514344657e-02, -6.705729747698403e-10, 9.530816286453137e-10, -4.626606128840426e-09, 2.391150604544239e+03, 1.812507890248155e+03, 1.075069326698774e+02, 2.974323262323195e+03, 2.757417735068737e+03, 1.012706995152577e+03, 5.189780693055666e+03
4290, 6.169381125621980e-01, 9.599153250708128e-01, -2.711686303239303e-02, -1.785322392735173e-09, 1.869862216317001e-09, -1.559394549714133e-08, 9.372216768851851e+03, 9.791966730885397e+03, 5.337447259708290e+02, 1.724799178244791e+04, 8.093163773371681e+02, -1.437998742751130e+03, 8.241438968912802e+03
4291, 6.352507237642648e-01, 9.676594830377945e-01, -2.696316298217151e-02, -9.765650271073668e-10, 1.270113777583655e-09, -6.039541893871781e-09, 4.523315095779798e+03, 3.956626283687434e+03, -4.813874517949760e+02, 6.965793259725504e+03, 4.528823551909491e+03, 1.789992033097744e+01, 8.360493525567794e+03
4292, 6.193865553527349e-01, 9.796441742936415e-01, -2.677228332344670e-02, -9.038199715665547e-10, 1.616251077664772e-09, -6.027938459713670e-09, 4.554135209054865e+03, 5.431055717082327e+03, -2.993050728099316e+01, 9.159814050297202e+03, 5.176389903349647e+01, 2.020905355604787e+03, 5.495939802732287e+03
4293, 6.376988748543901e-01, 9.873891637878230e-01, -2.667869950818540e-02, -9.199380230376749e-10, 1.337301112480900e-09, -5.862109220426596e-09, 6.480245406556879e+03, 6.308312360023556e+03, -8.812398147070475e+02, 1.347344038418774e+04, -2.021767275551024e+03, -2.429423989494268e+03, 9.079393186215133e+03
4294, 6.535623442210339e-01, 9.754019109008172e-01, -2.667458704949452e-02, -1.253860611048633e-09, 9.526530378238703e-10, -3.905856699926934e-09, 3.881034280093535e+03, 3.684423635769331e+03, -4.253661782776383e+02, 7.094805408215749e+03, 3.515125642357643e+02, -3.035009277012423e+03, 6.288575240990039e+03
4295, 6.560110685180249e-01, 9.951327194501831e-01, -2.643765925258641e-02, -1.695447778226780e-09, -5.269243357236463e-10, -1.399405333152000e-08, 1.077761517439034e+04, 9.720071343436275e+03, -6.629468608531903e+01, 2.212006550424576e+04, 1.027489574848038e+03, -1.190851769148250e+03, 1.221472431361396e+04
4296, 6.401466972169663e-01, 1.007119096751393e+00, -2.637267401978773e-02, -1.690097388579267e-09, 7.739324054592916e-10, -7.301365248408136e-09, 8.840850489707580e+03, 8.271522366337354e+03, -3.097313821049647e+02, 1.456086448314803e+04, -2.203167079428186e+03, -4.263232444117190e+03, 1.027980292487567e+04
4297, 6.584590762552905e-01, 1.014863240472400e+00, -2.618368304865486e-02, -1.078844818621537e-09, 2.397304667749093e-10, -8.917257376670660e-09, 6.709523416774247e+03, 7.186846333990223e+03, -5.735712602912804e+02, 1.063027406262041e+04, 1.387213166946518e+03, -5.965507654509267e+02, 4.642877360977452e+03
4298, 6.425945934340285e-01, 1.026848377796876e+00, -2.604376148533352e-02, -1.575917318889173e-09, 1.517029270052334e-09, -1.844203050366302e-08, 1.207758383930246e+04, 1.321895837115479e+04, -4.911076660145781e+02, 2.403611761410757e+04, 4.738547181843976e+02, -1.600163579521058e+02, 1.149495936405979e+04
4299, 6.609068399662043e-01, 1.034593262399422e+00, -2.591254478093492e-02, -1.369478222110823e-09, 1.297855981562320e-09, -6.463371164491627e-09, 6.703588878978583e+03, 6.976267635125146e+03, -5.805756754349165e+02, 8.597723823692535e+03, 1.694476291825001e+03, 3.991265617950113e+03, 7.782105646071959e+03
4300, 6.767702304022182e-01, 1.022605813144974e+00, -2.586315667587813e-02, -5.837904808582230e-10, 6.457530554950895e-11, -1.308869888580901e-08, 1.008728256694828e+04, 9.284779195576753e+03, 7.923380799274301e+01, 1.765387935818563e+04, 1.347916493317271e+03, 1.350015555028990e+03, 8.654866532842723e+03
4301, 6.792186475921758e-01, 1.042336919016337e+00, -2.563708881225589e-02, -1.100499837917420e-09, 7.687230665526215e-10, -4.767812189594165e-09, 3.473828033707731e+03, 4.414193329088967e+03, -2.809264309564986e+02, 5.480294384517493e+03, 1.816620018561376e+03, 2.681369167719901e+03, 5.893190008660671e+03
4302, 6.633542085922605e-01, 1.054323596837564e+00, -2.562023721066805e-02, -1.143633419426259e-09, 1.097883887287608e-09, -5.808218937650318e-09, 4.244945129835434e+03, 5.201606686154056e+03, -6.458863268859915e+02, 7.127504291207739e+03, 1.583436736761128e+03, -3.050437602709349e+03, 6.569288162538536e+03
4303, 6.816663239355092e-01, 1.062067784514918e+00, -2.539609396795206e-02, -1.400148999544555e-09, 1.050024188409011e-09, -4.883735524535912e-09, 4.989834034774778e+03, 4.556123585401335e+03, -6.172356888496613e+02, 6.784220342548144e+03, 3.340884438024523e+03, -2.598571310511133e+03, 7.685789211669890e+03
4304, 6.658016039060978e-01, 1.074053320904046e+00, -2.530590969284337e-02, -2.129718252337228e-09, 1.653195461257509e-09, -1.344941244201893e-08, 1.050155897205626e+04, 8.396982730729256e+03, 2.458849884767664e+02, 1.745867476770465e+04, 2.121315893243017e+03, -1.607748028032123e+03, 9.429123223591643e+03
4305, 6.841137158652217e-01, 1.081798157949126e+00, -2.513709454245174e-02, -5.091545550496477e-10, 8.198420531151265e-10, -5.145508469612542e-09, 4.073453216494139e+03, 2.737065989432284e+03, 2.391636786551727e+02, 7.257620911535496e+03, 3.426106896504952e+03, 1.416808782744487e+03, 7.588702151373518e+03
4306, 6.682489999851497e-01, 1.093782295845216e+00, -2.496509364191851e-02, -1.646619303133135e-10, 4.726386474207964e-10, -6.791656884826643e-09, 6.008448182207415e+03, 4.822778302141131e+03, -6.401757286574669e+02, 7.341205553291649e+03, 5.151793469001753e+03, 2.972757396265255e+02, 9.267134771629893e+03
4307, 6.865608837125261e-01, 1.101527991881448e+00, -2.485948096537734e-02, -1.021901878395267e-09, 8.059366034601779e-10, -4.731787219429890e-09, 4.151197034482792e+03, 3.725654381311514e+03, 1.918275322484130e+02, 7.166936055204433e+03, -1.862521076743378e+03, -1.271856096373412e+03, 5.092081642598961e+03
4308, 6.706965469808049e-01, 1.113510392694497e+00, -2.459595410627288e-02, -1.186973457383977e-09, 1.017268899435166e-09, -5.023852696946179e-09, 4.442779270152093e+03, 4.187509649428470e+03, -6.116844201392084e+01, 9.252542858376319e+03, 4.215681782614840e+03, 3.634468128919427e+03, 1.083429711762183e+04
4309, 6.890078409843595e-01, 1.121257129152159e+00, -2.455893684176780e-02, -1.044829429861014e-09, 7.407753418716757e-10, -3.869873535664566e-09, 3.090370485282710e+03, 3.529827727803893e+03, 3.736879906788969e+02, 4.194122030280588e+03, -1.385523398559538e+03, 1.319943167778978e+03, 3.511558320204334e+03
4310, 7.048719322422474e-01, 1.109271548606148e+00, -2.459880338933306e-02, -1.291127275813437e-09, 5.810934333734319e-10, -1.229799430507054e-08, 7.728802030197219e+03, 7.163873186736063e+03, 1.558202728385780e+01, 1.433118222386968e+04, 5.426076194384638e+02, -3.501558409071793e+02, 6.992300669334812e+03
4311, 7.073194293144279e-01, 1.129001930576369e+00, -2.435309609825806e-02, -1.240874035985273e-09, 9.138026149078604e-10, -5.053736684015940e-09, 2.666461263135361e+03, 5.196933159168000e+03, -7.873378749826749e+02, 5.097891011897083e+03, -3.083427675070315e+02, 2.023214341471948e+03, 4.537355108754104e+03
4312, 6.914545650269767e-01, 1.140986380565480e+00, -2.423463044025523e-02, -1.040071716408098e-09, 1.151144878566376e-09, -4.058714855369388e-09, 3.057202310562127e+03, 6.356693784902876e+03, -2.644590125807372e+01, 8.382904715196408e+03, -7.451972862167668e+02, -6.368297662627300e+03, 1.204206547547867e+04
4313, 7.097661462744618e-01, 1.148731915123790e+00, -2.408874368414188e-02, -3.077276185498958e-09, 2.275675597291752e-09, -6.732907229998863e-09, 8.110368328473965e+03, 8.455642594344081e+03, -6.333417616170919e+02, 1.673385585445027e+04, 5.725357109931073e+03, -4.753056229282568e+03, 1.545391280972151e+04
4314, 6.939014181346735e-01, 1.160714774796541e+00, -2.388100421773355e-02, -2.472291603488875e-09, 8.926716444050575e-10, -2.505300356068967e-08, 2.479694376291937e+04, 2.565868771059127e+04, 7.160131230498150e+02, 5.770266308742329e+04, 1.323016551187657e+03, -1.404898566758318e+03, 3.267847954132238e+04
4315, 7.122126196937211e-01, 1.168461279813751e+00, -2.380344656405809e-02, -1.340563914022137e-09, 6.348634680022117e-10, -5.893288808303534e-09, 6.634685440052630e+03, 5.226965953695741e+03, 6.132228975574794e+02, 8.835431736956343e+03, 6.540646466248856e+03, 1.244236473635494e+02, 1.180837546616724e+04
4316, 7.280765768338069e-01, 1.156475531158037e+00, -2.379213208033455e-02, -1.446036186113864e-09, 1.081597451912240e-09, -4.896830157307776e-09, 5.102257777804448e+03, 2.832536462803389e+03, -2.660645047294551e+01, 5.674194828088866e+03, -3.659225706561421e+02, 1.305338020410915e+03, 3.506055944574405e+03
4317, 7.305237166276983e-01, 1.176206102594647e+00, -2.355953041680564e-02, -9.331653123564568e-10, 7.743900343064695e-10, -4.140138131797836e-09, 5.702311096219994e+03, 5.362842788758537e+03, -2.108933362213108e+02, 7.720843094685419e+03, 1.289285922189660e+03, -4.019195567571564e+03, 7.645713792582948e+03
4318, 7.146589432006524e-01, 1.188190422201102e+00, -2.349414074567820e-02, -1.599944187618656e-09, 1.766357955779314e-09, -7.874380772873385e-09, 9.062668619209540e+03, 7.934602727734215e+03, -5.478862867995689e+01, 1.547161064284534e+04, 1.769533930068872e+03, -2.873382711460797e+03, 9.151421769604962e+03
4319, 7.329695195157893e-01, 1.195935659177121e+00, -2.330855876311076e-02, -1.428238560589299e-09, 6.615713853400639e-10, -1.424470999920581e-08, 1.075686155988593e+04, 9.114401828472748e+03, -8.892216208151542e+01, 2.063662798682587e+04, 5.001856540482261e+02, -2.113559220102225e+02, 1.083710614637512e+04
4320, 7.171052114822609e-01, 1.207918048850998e+00, -2.315765708895154e-02, -1.244064683809880e-09, 1.540718114815224e-09, -6.220204928730717e-09, 6.918533608825837e+03, 6.964451126044805e+03, -2.898087527256380e+02, 1.170184351165914e+04, 2.990505433374626e+03, 3.747985714010475e+03, 9.585721185595905e+03
4321, 7.354148267063676e-01, 1.215663832632334e+00, -2.303820980073467e-02, -1.091650441134654e-09, 3.410016472237390e-10, -5.041178526536058e-09, 6.890825167165674e+03, 5.461438804352832e+03, 6.748328729085624e+02, 1.079073954470417e+04, -1.399842265293347e+03, 2.923268776941783e+03, 7.463801732537182e+03
4322, 6.010759295260790e-01, 9.718957693388020e-01, -2.668788078764903e-02, -1.355923477885018e-09, 1.621505533355180e-09, -5.404256483022467e-09, 6.935380885186467e+03, 5.474424193871690e+03, 8.122900259106170e+02, 7.484149457459599e+03, -1.402499019981540e+03, 1.656149780808534e+03, 4.398433876802449e+03
4323, 5.546578972266785e-01, 8.774874778235411e-01, -2.804480127972536e-02, -1.697221559343641e-09, 5.141790896555451e-10, -1.591093384854718e-08, 1.288187035122048e+04, 1.257606544758108e+04, 3.733313167030667e+01, 2.424864921446175e+04, 7.487130770703955e+02, 8.059628369477491e+02, 1.167937577385857e+04
4324, 6.950802902829891e-01, 1.030347578561298e+00, -2.543435738767244e-02, -6.881857933260265e-10, 6.113426569723218e-10, -3.387526099338655e-09, 2.475611358223335e+03, 2.215507036737840e+03, 2.279430301844909e+01, 3.050437963908343e+03, 2.426722135468719e+03, 8.033011881023001e+02, 4.489094883647911e+03
4325, 7.463716686287758e-01, 1.164193948064750e+00, -2.337502863161125e-02, -8.500287014697029e-10, 1.084906451277593e-09, -4.441335098353696e-09, 3.126578390277498e+03, 3.424703197510792e+03, -1.337888941245780e-02, 4.166749864623735e+03, 7.629411405783623e+01, 2.097620834298461e+03, 3.752097552830680e+03
4326, 7.195515276101645e-01, 1.227643845231539e+00, -2.279045619038386e-02, -1.346722012989392e-09, 7.755589025594325e-10, -4.668065964427282e-09, 6.913519677746242e+03, 5.104556495060652e+03, -7.257832452682036e+02, 1.225066827531869e+04, 4.539488142240742e+03, -2.311088042474109e+03, 1.099257630496971e+04
4327, 7.378596887720057e-01, 1.235390347780171e+00, -2.274417106341525e-02, -4.864801773076254e-10, -2.362544654418718e-11, -4.390734390919480e-09, 4.946431499726159e+03, 4.903405367223902e+03, -2.087657600783930e+02, 9.296533569282292e+03, -1.365266658379048e+03, 2.946584139874041e+03, 7.133168313234817e+03
4328, 8.407340695439915e-01, 1.222858178204132e+00, -2.008470204832979e-02, -3.692100514131214e-10, 2.113310067119224e-10, -1.806346278417599e-09, 2.531305752539688e+03, 2.192724505289178e+03, -2.563116348504506e+02, 2.986602563820732e+03, -1.004968933275052e+03, 5.871074015650000e+02, 2.176498873311321e+03
4329, 7.219988610541812e-01, 1.247365617464736e+00, -2.238707368296689e-02, -7.233600391836599e-10, 2.400115555777088e-10, -3.883856389907312e-09, 5.619085824217118e+03, 4.644165359712392e+03, 8.321776867319258e+01, 8.127396595238093e+03, 4.202202537207400e+03, 2.354070999722290e+03, 8.905545532730839e+03
4330, 7.403017380671768e-01, 1.255111756605935e+00, -2.242503367080722e-02, -9.091539965930794e-10, 5.373163566700367e-10, -3.774567473713589e-09, 4.101476952994419e+03, 5.256980637557566e+03, 5.190851367969732e+02, 8.721875207264988e+03, -1.333432471702118e+03, -3.463713251824542e+03, 7.712249001830856e+03
4331, 7.245734826212887e-01, 1.266956027562811e+00, -2.195058610209731e-02, -9.526534715673953e-10, 2.969718879366038e-10, -2.443784946553475e-09, 4.016385566051656e+03, 3.928518302557460e+03, 4.146326017630754e+02, 4.832394383659761e+03, -2.422418489452354e+03, -7.902448905471217e+02, 4.553992431566210e+03
4332, 7.427431909974735e-01, 1.274827556065175e+00, -2.207496849958530e-02, -1.387609024303941e-09, 2.400355035137776e-10, -1.324398661229462e-08, 1.013000215441934e+04, 9.934719357195263e+03, 6.018442894677062e+02, 2.177602826083339e+04, 2.823197046659971e+00, -4.345006585884653e+01, 1.179129616620086e+04
4333, 7.585960345030527e-01, 1.262855624626926e+00, -2.226283360388539e-02, -6.544233626025580e-10, 7.887265306929248e-10, -2.966989647423254e-09, 4.336442172014331e+03, 3.866181928952525e+03, -2.473480567523652e+01, 5.327224790182735e+03, 2.643643291031542e+03, -2.037944567770511e+03, 5.924251829042221e+03
4334, 7.610380693734442e-01, 1.282568284602447e+00, -2.198537718546704e-02, -4.538781924273193e-10, 7.206274336982866e-10, -4.455405143411468e-09, 5.537857036941647e+03, 4.057826479149777e+03, -3.138931327929022e+02, 7.846691733728160e+03, 4.483642157214096e+03, -1.218642991793245e+02, 8.460947607316015e+03
4335, 7.537424394052497e-01, 1.223411071303212e+00, -2.275551855486847e-02, -5.654585451057379e-11, 6.489496888532241e-10, -1.207163990460793e-08, 1.027714220876085e+04, 9.180095022685111e+03, 1.969209731867213e+02, 2.234072846718651e+04, -5.175774127807276e+02, 1.909166984367069e+03, 1.310811572149245e+04
4336, 6.519103781557990e-01, 1.105111813265067e+00, -2.442790653574915e-02, -1.545218665620476e-09, 2.284895164483597e-09, -1.668460675781052e-08, 1.187919857335868e+04, 1.041902367193648e+04, 4.001997159623596e+02, 2.173136678273590e+04, 1.606793314714136e+03, 5.935712051837692e+02, 1.108449511461834e+04
4337, 7.231819997029563e-01, 1.117013954968354e+00, -2.421288914110387e-02, -2.091737216967142e-10, 7.979112052330265e-10, -4.810478678684217e-09, 2.946710319075461e+03, 2.360811321856363e+03, -5.428202887255628e+01, 2.981526195396315e+03, 2.866921896721868e+03, 4.249928568922718e+02, 5.057005858620681e+03
4338, 6.999769570581270e-01, 1.069810536493469e+00, -2.504266372778392e-02, -8.560542283374926e-10, 3.825583938997970e-10, -3.737553778776547e-09, 4.384221922866970e+03, 3.590538455881747e+03, -9.134563657491313e+01, 5.684426758550243e+03, -1.394722729835394e+03, 3.440009997910264e+02, 3.093252941673197e+03
4339, 3.651589509067941e-01, 3.299932489924779e-01, -3.712341708819371e-02, -1.963599447749771e-09, 6.962507280167584e-10, -6.410687965258747e-09, 1.714800264729969e+03, 3.294966092423815e+03, 1.738909995771346e+02, 4.354737784125291e+03, -3.461549294997121e+01, -2.118636395430944e+03, 4.342214246017731e+03
4340, 7.768866170675623e-01, 1.270594808565165e+00, -2.194351153845574e-02, -4.478033279485002e-10, 4.808339728443872e-10, -3.523154809799218e-09, 3.792059732831805e+03, 3.425989198925633e+03, -1.119454105668191e+02, 6.603234334411601e+03, -1.829871913262178e+03, 6.163025189010330e+02, 4.504239539562144e+03
4341, 7.793287547362540e-01, 1.290303778286296e+00, -2.171972955904004e-02, -8.374086713765122e-10, 5.030289072502094e-10, -3.452776270415182e-09, 3.395873922889758e+03, 4.205639525915713e+03, -5.076011096222732e+02, 5.332640734332193e+03, 2.625960537545217e+02, -2.629975202350801e+03, 4.956673711826569e+03
4342, 7.634837654959952e-01, 1.302271594321811e+00, -2.168228785171895e-02, -1.534578767651073e-09, 4.787676203959455e-10, -3.830370215393637e-09, 3.010894324383973e+03, 2.983698747108318e+03, 3.275216366330599e+02, 4.850401424580821e+03, -1.318820536520647e+03, -1.525722762722402e+02, 3.007334603446279e+03
4343, 4.860653019889980e-01, 3.249711635872071e-01, -3.440987015534514e-02, -1.068544972004436e-09, 7.146855301181613e-10, -5.090230298439461e-09, 3.096013071873469e+03, 3.061573003568666e+03, -4.756829796373751e+02, 6.071404396343112e+03, 1.035084896842548e+03, -1.447700273242888e+03, 4.374602347447094e+03
4344, 6.301230128719708e-01, 3.671692015440255e-01, -2.803423835992894e-02, -8.505736425017996e-10, 5.317599045288889e-10, -2.171686989130255e-09, 2.052876832573645e+03, 2.238003876501992e+03, -5.500195375789208e+01, 3.354722840879186e+03, -1.851262090369609e+02, -1.087231156338836e+03, 2.268517951235473e+03
4345, 3.615606900308531e-01, 4.406460322101899e-01, -3.481119274812822e-02, -1.574729016730926e-09, 1.980850346027465e-09, -8.036300379127267e-09, 5.491168013579789e+03, 4.609524601066256e+03, -6.107313365161364e+02, 7.828016857227456e+03, -1.097752519509522e+03, 1.693951824019510e+03, 4.651989191593389e+03
4346, 6.533549424079076e-01, 4.144106019373841e-01, -2.697760197242024e-02, -4.546162094725453e-10, 4.110186426242110e-10, -5.004937189264229e-09, 3.896204523490688e+03, 3.577974630659647e+03, 5.009377658182914e+01, 7.548424332775858e+03, -3.586343624925929e+02, 4.641453023409341e+02, 3.954984434966091e+03
4347, 6.631855736581965e-01, 4.933743410046658e-01, -2.679372707232918e-02, -8.895845558707516e-10, 4.773176522154000e-10, -1.904538926135444e-09, 1.828157128835743e+03, 1.559028195013448e+03, 5.330017693934860e+01, 1.792014834609296e+03, -6.471084060555897e+02, -4.945041686358088e+02, 1.436100074467136e+03
4348, 7.795844229980275e-01, 1.010131799099238e+00, -2.254863323586035e-02, -1.049450536665228e-09, 3.191560830478256e-10, -6.662642985037216e-09, 5.757582023843681e+03, 5.306199671775316e+03, -2.858259653473516e+02, 1.140979669809404e+04, 8.763009800552788e+02, -2.880064154843707e+02, 6.123743092426934e+03
4349, 6.730433025622631e-01, 5.723713318889900e-01, -2.658229839389928e-02, -7.949576015151192e-10, 3.821943036089205e-10, -2.464078209437255e-09, 2.784590556909600e+03, 2.609197618186686e+03, -2.164060580374988e+02, 3.311163716365388e+03, -1.276259486434086e+03, 1.215687398288168e+03, 3.140238257867963e+03
4350, 7.465358031737862e-01, 8.839592073614411e-01, -2.384756602460498e-02, -5.357271720370405e-10, 4.216822651701615e-10, -1.875337089124583e-09, 1.385734951581168e+03, 8.873944585071392e+02, 1.501790766724851e+02, 1.669897902910636e+03, 1.450425245376409e+03, 7.894356360771026e+02, 2.952827297394154e+03
4351, 7.183993422041963e-01, 7.972615786756145e-01, -2.498851862440789e-02, -2.739918452854185e-10, 5.397508594067909e-10, -6.407336984597797e-09, 4.476445849561408e+03, 4.239369539251148e+03, 1.780051092011286e+02, 8.098662159330734e+03, -5.529519612764976e+02, 1.028426486148981e+02, 3.883227105359802e+03
4352, 9.213846548705366e-01, 1.955751583420427e-01, -8.391502320512436e-03, -6.641234089178447e-10, 2.927350613824304e-11, 9.305369396669178e-10, -2.198716330905751e+03, -2.324664508903822e+03, 1.710051853615457e+02, -5.319166115943519e+03, 1.062488159085248e+03, 5.671155644017046e+01, 3.583863142793764e+03
4353, 6.828629687114794e-01, 6.512798721982858e-01, -2.633971470517847e-02, -8.290364538295122e-10, 4.701473997079266e-10, -2.240981874774848e-09, 1.421127162214986e+03, 1.905487967102595e+03, -2.464720739658624e+02, 2.164881795305603e+03, 1.948667051867429e+02, 1.534543644521373e+03, 2.790728917283331e+03
4354, 7.563474355454505e-01, 9.628680479254051e-01, -2.351869718856156e-02, -1.242429624921936e-09, 3.282913234513424e-10, -6.729807612005926e-09, 4.480194817497195e+03, 4.234759164060261e+03, -2.744603474210170e+02, 7.670331168537145e+03, 2.945239852465724e+01, 8.936260705667369e+02, 3.693842476110820e+03
4355, 5.175376614859057e-01, 1.789295640074895e-02, -3.260381506410533e-02, -1.627483454439518e-10, -1.569811157477175e-10, -7.625328556098997e-10, 4.950524374132255e+02, 3.989250261839048e+02, -2.745838245298575e+02, 5.426848239102818e+02, 1.719655789550239e+02, -1.068516971275546e+03, 1.938086418678390e+03
4356, 8.132537674634391e-01, 1.742889056495787e-02, -1.427113434279991e-02, -1.429701622693149e-10, 1.086457492487761e-11, 7.241578323309873e-11, -1.180029207397996e+02, -1.480346581318562e+02, -2.344625610975822e+02, -1.847276600464956e+02, 4.476874423075849e+01, 1.541899129370158e+02, 4.955851319821883e+02
4357, 6.561466554690805e-01, 1.724269766408477e-02, -2.444151974409033e-02, -1.541165575661951e-10, -5.779038369891415e-11, -3.021900004345518e-10, 3.112627144168400e+02, 5.140973790043727e+02, -1.874303795395565e+02, 6.243515516987756e+02, 2.772439597927886e+02, -7.984373396443553e+02, 1.524516608356747e+03
4358, 9.027038561437875e-01, 7.444859232690799e-01, -1.385542476840810e-02, -4.358631776026455e-10, 1.296036285181591e-10, 1.597928674917780e-10, -6.065928319505700e+01, -2.582822301077138e+02, -1.331602350741660e+01, -4.313161585687477e+02, 1.163877067747107e+02, 1.350270693589039e+02, 4.461594077158806e+02
4359, 4.873225388348983e-01, 4.751154360125076e-01, -3.384890737408026e-02, -6.538570236884993e-10, 1.213499176244319e-09, -5.707374682089728e-09, 1.464561733661398e+03, 1.930892478539986e+03, 2.925356320904691e+02, 2.881186948218085e+03, 2.162474701334943e+03, 1.381143052962500e+03, 4.644563021289212e+03
4360, 1.120189453789324e+00, 1.098406350216310e+00, -1.966234315181432e-03, 7.323759087119006e-11, -2.903730255336876e-11, -2.754563032088722e-12, -3.312084759700759e+02, -5.174048811527433e+02, -2.507950849705635e+01, -8.476269939909132e+02, -7.057935569973650e+01, 2.178815337403418e+02, 6.036971800994337e+02
4361, 8.829859125877533e-01, 5.865241359871523e-01, -1.397259103983451e-02, -4.846848949713799e-10, 1.033212309790403e-10, 3.041386520086634e-10, -2.342209286175069e+02, -2.903491248202158e+02, 3.429112660843688e+01, -6.423537862126927e+02, 3.391043759882841e+00, 2.026407317084648e+01, 3.893701097412323e+02
4362, 3.570635924534352e-01, 1.563758211802533e-02, -3.954228110052029e-02, -2.234862429376309e-10, -2.243227757550024e-10, -8.753727140314776e-10, 4.603590336361151e+02, 3.386719312652041e+02, -3.634040300972397e+02, 4.718035552841959e+02, 2.254482331601295e+02, -1.498771087200372e+03, 2.702580966205774e+03
4363, 6.910346761609965e-01, 2.993952541584032e-01, -2.413748327516229e-02, -6.997804658242463e-10, 1.169887409024183e-10, -7.807334723592833e-10, 9.985588348219544e+02, 8.205117345021315e+02, -1.162976552936725e+02, 9.128058505355250e+02, -2.151673582711860e+02, 1.986496633039554e+02, 5.671311579514041e+02
4364, 7.543997674348588e-01, 2.513609343120743e-01, -1.984933814169683e-02, -5.972932990287571e-10, 9.145925978197480e-11, -1.314055472830139e-10, 2.882068469741046e+02, 2.994756951058422e+02, 2.411064179397658e+01, 4.179006789276831e+02, 1.343654590886969e+02, -2.040121146300702e+02, 4.430067771130721e+02
4365, 8.731212544969515e-01, 5.075310894668414e-01, -1.402935692284131e-02, -6.186764405592705e-10, 8.648450090260030e-11, 3.773679963710701e-10, -2.836949279640948e+02, -1.548853377481802e+02, -5.434698756262635e+01, -6.427189632426205e+02, -2.412329430080726e+01, -9.473961932803249e+01, 4.788207168320803e+02
4366, 9.931557382312883e-01, 9.136921098379652e-01, -9.180230659147545e-03, -5.461260500611391e-10, 2.506677305579099e-10, 2.019984563725114e-09, -1.684902632537558e+03, -1.730719564243077e+03, 7.854312626417047e+01, -3.361113609511108e+03, 4.859430442255236e+02, -1.812067004561444e+02, 1.886907572276835e+03
4367, 6.474902669766911e-01, 1.066305546581756e+00, -2.530192969068841e-02, -1.999439406779928e-09, 1.184519687104505e-09, -7.982425603302538e-09, 1.054816604401816e+04, 9.601707474294057e+03, -4.495861074432048e+02, 2.107827256808223e+04, 1.334464900534851e+03, -3.761286352959372e+03, 1.304361278922832e+04
4368, 7.940616937773026e-01, 8.479635743802634e-01, -2.123683343337981e-02, -4.853048899694025e-10, 1.019933509140151e-10, -1.085318411137074e-09, 1.386433234350319e+03, 1.542167322540246e+03, -5.877597885063878e+01, 2.701608949097981e+03, -1.860750333891824e+01, 1.132422734034569e+03, 2.325439503927520e+03
4369, 8.271127864980397e-01, 9.741382351199537e-01, -2.000839850419252e-02, -6.083898979535896e-10, -1.083992510835252e-10, -1.387608772392476e-09, 9.068791290923832e+02, 1.103868388439856e+03, -2.954709563280194e+02, 1.153375260295817e+03, 8.036176879032659e-01, -1.166013301209032e+03, 2.095633620643705e+03
4370, 4.375350209914681e-01, 1.588702337447482e-02, -3.650950147140713e-02, -6.691715353917489e-11, -3.797854225576656e-10, -2.062301442236128e-09, 6.928604223463240e+02, 9.280861890258075e+02, 8.175535865983402e+01, 2.097533277691074e+03, -6.982480396879367e+02, -3.727709000623011e+03, 6.698370526724418e+03
4371, 3.253552354636077e-01, 6.263223753568198e-01, -1.244336688593689e-02, -3.671739021700957e-10, 1.395723817646459e-10, -3.541383298598379e-10, 3.711659323489085e+02, 4.338080266481790e+02, -8.127026498382835e+01, 1.392635392496933e+03, -2.224603258039716e+02, -2.421581058157466e+02, 1.152188745807623e+03
4372, 7.156473277051905e-01, 4.968790950138792e-01, -2.385646783701566e-02, -5.119418335362267e-10, 4.157086303316441e-10, -2.756576131066469e-09, 2.381657308776340e+03, 2.287661976996073e+03, -1.997033102990264e+02, 4.438620932602598e+03, 3.195173007389504e+02, -4.290528980705612e+02, 2.326253806294221e+03
4373, 3.640162325089689e-01, 4.603738160106568e-01, -3.431050131574891e-02, -1.387516593576683e-09, 1.504348896320839e-09, -7.369817104281389e-09, 5.361616650247632e+03, 4.241386893341312e+03, -1.603576568888977e+02, 8.314478270984438e+03, 4.483301435080618e+02, -4.440217103550788e+03, 8.550375265574734e+03
4374, 3.457124321481730e-01, 4.526166983786929e-01, -3.382401080647125e-02, -2.543534579807565e-09, 1.517887884883606e-09, -9.224688810777652e-09, 8.070006446921519e+03, 5.541058344686401e+03, 4.063804536809777e+02, 1.025049177141074e+04, 5.227825857216730e+03, 1.246483168145091e+03, 1.018879358130247e+04
4375, 3.481730496345822e-01, 4.723387373704466e-01, -3.319604310484869e-02, -1.759296764799844e-09, 1.671485969702961e-09, -8.308727477425119e-09, 5.163007766017538e+03, 4.079293337476651e+03, 5.070104540332260e+02, 7.088682731804764e+03, -2.204650653476448e+03, -1.089870669991344e+03, 5.087792185873201e+03
4376, 7.254888055931710e-01, 5.758541643252718e-01, -2.372362064452799e-02, -5.272305309079671e-10, 1.813910101738939e-10, -1.302949127370973e-09, 1.397755100439278e+03, 1.474300560215631e+03, 5.748266659642007e+01, 2.276292614707227e+03, -3.180836732616807e+02, -3.443854596134813e+02, 1.174601118793810e+03
4377, 6.718730219830533e-01, 9.831434139728401e-01, -2.627497497246924e-02, -1.055212181210157e-09, 9.402221750849876e-10, -3.888423273813353e-09, 3.648474975148285e+03, 2.850875962966700e+03, -4.593386822328688e+02, 4.473233941962712e+03, 1.861734210860552e+03, -2.137802826148451e+03, 5.168748410970476e+03
4378, 1.754418818009179e-01, 3.222027317952047e-01, -1.460521315304869e-02, -4.740363941150256e-10, 4.384426533665085e-10, -6.623670142618301e-10, 1.343725087043989e+02, 1.147340964497816e+03, 1.942234669925651e+02, 2.646282335675029e+03, -6.402263590305691e+02, -6.464970782803107e+02, 2.718091923979901e+03
4379, 9.402975164564989e-01, 6.294115910572398e-01, -1.051533751309561e-02, -5.040594832445365e-10, 5.948239792152998e-11, 2.392729325597542e-10, -1.138132742891621e+03, -9.710402450461015e+02, 5.249758691018398e+01, -1.316277303043820e+03, 6.912833742052546e+02, -5.419854210444960e+02, 1.553239420310925e+03
4380, 8.784565676526737e-01, 1.108049782715112e+00, -1.778582987683009e-02, -4.810852220812541e-10, -4.216907884501740e-11, -3.659472124346893e-09, 3.430512864319644e+03, 3.344490897976263e+03, -7.000354012312927e+01, 7.136225309193169e+03, 3.136968622521605e+02, 5.928433116726655e+02, 3.927185430003295e+03
4381, 5.571096410917360e-01, 8.972118214670282e-01, -2.755584540701358e-02, -1.997791447039977e-09, 1.585812126744294e-09, -7.027917814546349e-09, 6.831430677813111e+03, 6.902865506062351e+03, -1.011768069001355e+03, 9.348342825054773e+03, -7.643605415474257e+02, 3.792758314766201e+03, 7.357918618476537e+03
4382, 1.006794143366648e+00, 1.897442650320923e-01, -2.396797193858904e-03, -6.196735474772276e-11, -1.069812297877200e-10, -1.366071706135662e-11, 7.897450467016893e+02, 9.133699894354861e+01, 4.418961337370533e+02, -1.071459349945261e+02, 3.713034203930545e+02, 4.196092405531079e+02, 1.481020718267534e+03
4383, 9.323395193915534e-01, 1.786518657686196e-01, -7.506553597304735e-03, -4.857165416836733e-10, -1.336097113714281e-10, 5.768336223326110e-10, -1.995954998546525e+03, -2.034949327512461e+03, 8.332331278294406e+01, -4.805196302588442e+03, 1.858691031870592e+01, 6.382480160335609e+01, 2.796050489786658e+03
4384, 8.369462424755085e-01, 1.053092528599412e+00, -1.983051811015794e-02, -3.712784008396973e-10, 2.726844239120227e-10, -1.358738834209991e-09, 1.729823572865489e+03, 1.680795977671578e+03, 3.376016641757001e+01, 2.541074961332984e+03, 1.173985579369520e+03, 1.225436068769861e+02, 2.209864860127621e+03
4385, 7.427079934844236e-01, 7.140438313737891e-01, -2.344970430837301e-02, -5.752397988694892e-10, 3.540898988734387e-10, -4.503422200893747e-09, 3.020790907966182e+03, 2.842684451834004e+03, -6.054930117896454e+01, 5.355481400549996e+03, 1.412637136426179e+02, -2.906538182402256e+02, 2.494519782612630e+03
4386, 6.437652708636323e-01, 8.964763997513425e-01, -2.749405924307318e-02, -1.075213297781985e-09, 6.646024078426867e-10, -4.498002450888122e-09, 3.389094809282499e+03, 3.022859485624307e+03, -2.982374320807216e+02, 5.075548338250869e+03, 1.345670758542370e+03, -1.418530018951892e+03, 3.915597142780956e+03
4387, 6.620746145653366e-01, 9.042170904912106e-01, -2.697620181433219e-02, -1.028526758487754e-09, 7.272113162516933e-10, -3.344467204988132e-09, 3.539452251605921e+03, 3.162329173479894e+03, -4.834510115342863e+02, 4.105348947759411e+03, -1.232632830640931e+03, 1.726670070871294e+03, 3.857378373823040e+03
4388, 6.596234781617114e-01, 8.844837000966177e-01, -2.713164411396984e-02, -6.223902177886890e-10, 7.701183996482686e-10, -4.995328480089014e-09, 4.747087909142884e+03, 5.116117241063706e+03, -1.414993670190339e+02, 8.970753838711214e+03, -1.125460071855304e+03, 1.067598658337606e+03, 4.867877148680281e+03
4389, 7.708220622220445e-01, 8.007157484985035e-01, -2.230417117351501e-02, -5.531777429200497e-10, 2.806367372655932e-10, -1.335644728806073e-09, 1.507515361667434e+03, 1.388424562654857e+03, 2.974317174689646e+01, 1.783229452559103e+03, 8.870602747318071e+02, 3.405910876988491e+02, 1.683545223208200e+03
4390, 5.765827565969182e-01, 7.746011031415632e-01, -2.978347163911400e-02, -1.431237756934515e-09, 1.121332085023802e-09, -4.463476264222377e-09, 3.901898489237404e+03, 5.328996234063846e+03, -5.609673639512291e+02, 6.011795112151422e+03, 9.864254970329525e+02, -3.791004437335000e+03, 7.103206732583633e+03
4391, 8.038975018616794e-01, 9.269204678439282e-01, -2.106871530126951e-02, -4.387160858962089e-10, 2.570541429649622e-10, -1.343847738080000e-09, 1.280172237173126e+03, 5.986615700063900e+02, -2.485614710272918e+02, 1.448949902018391e+03, -5.245254020645084e+02, 3.773594795892494e+02, 1.430348246393994e+03
4392, 5.494962784463465e-01, 2.769488277014512e-01, -3.183742276394377e-02, -4.644969278614471e-10, 2.826998546854684e-10, -4.396996947218215e-09, 3.326172229611841e+03, 3.053129955294053e+03, 4.533038548527834e+01, 4.586269239165802e+03, 3.011090284924478e+02, 1.976611165551206e+03, 3.742405093306969e+03
4393, 5.653496683067222e-01, 2.649420316760075e-01, -3.103216909137123e-02, -1.492855700148288e-10, 3.942181479302563e-10, -6.523971621352734e-09, 4.003321525006716e+03, 4.852757759683236e+03, 8.111268176793050e+01, 9.146800753757265e+03, 4.644592245693110e+01, 2.168503358788201e+02, 4.793239462122111e+03
4394, 5.470350442136198e-01, 2.571977214121809e-01, -3.190922808327629e-02, -2.649070349861889e-10, 5.610763406462114e-11, -5.049618836872924e-09, 4.481165729459158e+03, 4.033971206961373e+03, -9.633116792801850e+01, 6.496856038315387e+03, 4.277806651616488e+02, 7.195300040078359e+01, 2.399324009870884e+03
4395, 5.628889994781076e-01, 2.451901077166440e-01, -3.109289789370412e-02, -2.887586966500504e-10, 3.488126059572407e-10, -4.005849990427277e-09, 2.127034948769610e+03, 2.340283312941998e+03, 5.248739302165018e+02, 4.358623072736808e+03, 4.717637129679676e+02, -1.171592984744987e+03, 3.187731042466542e+03
4396, 5.445735165674601e-01, 2.374452322701455e-01, -3.197877148009976e-02, -5.164592930761925e-10, 9.065057373211148e-11, -7.846358944752919e-09, 4.777732652737772e+03, 3.836141895346215e+03, -6.327603624533830e+01, 9.080938935435399e+03, -4.190467061832866e+02, -6.622936545257223e+02, 5.030978769528248e+03
4397, 5.604280725790864e-01, 2.254367764951355e-01, -3.115186391882457e-02, -7.847619603369799e-10, 4.042736815423475e-10, -3.116164520087040e-09, 1.724857057108350e+03, 1.703060771113663e+03, -6.868307552742507e+01, 3.358896449197749e+03, 8.545985300919732e+02, -1.320378549760001e+03, 3.184578839406616e+03
4398, 5.420983213558189e-01, 2.176679835227551e-01, -3.204676784458715e-02, -7.010626525594224e-10, 4.181684076742979e-10, -2.887549813170696e-09, 1.916287879185356e+03, 2.197136987990851e+03, 6.823942745961452e+01, 2.805755110980066e+03, -7.503103119303950e+01, -1.299974818316908e+03, 2.391837057383321e+03
4399, 5.579668970059197e-01, 2.056819547174470e-01, -3.120905388532097e-02, -6.986169539805452e-10, 3.736184063437893e-10, -2.540322203465579e-09, 1.772552674135347e+03, 1.723750878895112e+03, -8.767433031814903e+01, 2.620617911935430e+03, 9.451444728912338e+01, 1.160550751182311e+03, 2.203060783071556e+03
4400, 5.396494649214674e-01, 1.979358947488428e-01, -3.211127298400810e-02, -6.254799728826639e-10, 3.214608732469829e-10, -3.294972188551908e-09, 2.429293788172893e+03, 2.029367649625862e+03, -1.289336340797080e+02, 3.711121666105596e+03, -4.364259536665014e+02, 9.429450875212941e+02, 2.367355253817205e+03
4401, 5.555054125101230e-01, 1.859256041395062e-01, -3.126439502919387e-02, -4.506026779992076e-10, 6.765633708049176e-10, -6.800773361319832e-09, 3.833320908383184e+03, 3.370845608075826e+03, -1.501912359841864e+02, 7.288477299814901e+03, 2.502002488133813e+02, -4.328031993855030e+02, 3.816718764357060e+03
4402, 5.738221422082802e-01, 1.936724464478795e-01, -3.032477440501591e-02, -4.864793370612546e-10, 3.909500678265124e-10, -2.406409698136086e-09, 1.580370276127675e+03, 1.322358334688293e+03, -1.938744704377623e+02, 2.177338366660513e+03, 1.318337238757283e+03, 2.760448203364788e+02, 2.476362118855878e+03
4403, 5.371869186055358e-01, 1.781789197677892e-01, -3.217424238908287e-02, -7.427698367961545e-10, 4.581518250549724e-10, -3.146285907521764e-09, 2.641374642498224e+03, 2.078636841070393e+03, 1.762898814925514e+02, 3.592206436332354e+03, -1.195956571697101e+03, -8.347641764561223e+02, 2.868882770086882e+03
4404, 5.713601055473483e-01, 1.739148941749593e-01, -3.037204653521488e-02, -3.234457710018546e-10, 2.167703126664155e-10, -2.247937014546799e-09, 1.045505479372479e+03, 1.160283195875920e+03, -2.317775627874097e+02, 1.448512712513321e+03, 1.099809035078607e+03, -7.956950336437939e+02, 2.412182936816386e+03
4405, 5.896762303291997e-01, 1.816623840730633e-01, -2.939984259984403e-02, -4.613058783472365e-10, 2.276858906138853e-10, -1.814491923341859e-09, 1.231218491535533e+03, 1.210914497928801e+03, -1.926356303245617e+02, 1.673825411440685e+03, -6.920609035070690e+02, 3.256935944061244e+02, 1.439339820469296e+03
4406, 5.872136705536657e-01, 1.619036550985249e-01, -2.944047024614671e-02, -5.471723648664954e-10, 2.115492118579168e-10, -2.012443364635047e-09, 1.006839737108484e+03, 8.110547729850456e+02, 1.141852168275250e+00, 7.741579594722286e+02, -9.307604368980815e+02, 5.893172083583818e+01, 1.629811245408301e+03
4407, 6.055235199512791e-01, 1.696431992984277e-01, -2.844041197637778e-02, -4.159934937807501e-10, 2.631477210801118e-10, -4.594036931297320e-09, 2.686526359048498e+03, 2.690408452998112e+03, 6.008403589573188e+01, 5.608447153469016e+03, -3.032599600319810e+02, 4.655765844829421e+01, 2.969768671015995e+03
4408, 6.030663101863256e-01, 1.498918646068336e-01, -2.847528070723507e-02, -4.564746115433205e-10, 3.151217543864443e-10, -1.946101033015745e-09, 1.569636402792875e+03, 1.475564483320117e+03, 1.333646881435781e+02, 2.339376905134209e+03, 9.476488622628224e+00, -9.784603943180958e+02, 1.897246160865076e+03
4409, 6.213816718219614e-01, 1.576405573807306e-01, -2.745064368601765e-02, -5.274732652015183e-10, 3.146263189603989e-10, -1.460107527631386e-09, 1.213652119834719e+03, 1.219744456701491e+03, -2.054097093851547e+02, 2.093343385344428e+03, 7.513344979448256e+02, -6.438211839526572e+02, 1.957585667067478e+03
4410, 6.238446858669172e-01, 1.774011126580428e-01, -2.741925884722884e-02, -5.764492416316134e-10, 3.018560743381425e-10, -1.788721402988130e-09, 1.123067427768140e+03, 1.008260427648715e+03, -7.588759749675802e+01, 1.985414977877587e+03, 1.016328068192297e+03, 1.007918691901773e+02, 2.000587286617878e+03
4411, 6.396957282345622e-01, 1.653899849348140e-01, -2.640828317820245e-02, -5.387807678514797e-10, 2.069232403326463e-10, -1.336283995326422e-09, 1.185774002318340e+03, 9.848316652482231e+02, -1.477165737372560e+02, 1.481580277335373e+03, -5.942616419993715e+02, 2.595500049349229e+02, 1.230576714593254e+03
4412, 5.847497449053997e-01, 1.421432019796519e-01, -2.948010495710991e-02, -7.070285343917205e-10, 5.256952964773421e-11, -2.448430569789116e-09, 2.011731199646929e+03, 1.784098514630474e+03, -8.560498793268772e+01, 3.530150849111677e+03, 9.896010238700964e+02, 7.789273730159490e+02, 2.735535701004382e+03
4413, 6.372327086096233e-01, 1.456290662128301e-01, -2.643583043201383e-02, -4.022451486125303e-10, 2.655326729317858e-10, -1.502154333979140e-09, 1.305440804808645e+03, 1.270592000144722e+03, -7.487585494460518e+01, 2.100588645062801e+03, -1.002143609488827e+03, -9.638600269902721e+00, 1.921238613430341e+03
4414, 6.555465258385575e-01, 1.533789108164705e-01, -2.537488737992764e-02, -4.474551431490386e-10, 4.258219437623609e-10, -3.548448796273817e-09, 2.317876605696725e+03, 2.390260689001149e+03, -5.208868212567918e+01, 4.596439476436098e+03, -6.820232412013625e+01, 3.769648665812409e+01, 2.249114040141127e+03
4415, 6.530811799680653e-01, 1.335897822206251e-01, -2.539929405891527e-02, -4.706127294834128e-10, -1.294266491218910e-11, -1.515890061982727e-09, 9.164676800034574e+02, 1.224544711744745e+03, -9.141976971086596e+01, 1.637951004696052e+03, -4.864148923221543e+02, -5.258634347060025e+02, 1.399158792044898e+03
4416, 6.713924254463933e-01, 1.413555366612096e-01, -2.432274745484607e-02, -3.788873545194805e-10, 1.193919534046004e-10, -1.423551996962817e-09, 1.202800496509002e+03, 1.318023905571698e+03, -1.804964076017739e+02, 2.006984846600884e+03, 1.098691920649293e+03, -9.825269623458638e+00, 2.070441092457676e+03
4417, 6.580094987033029e-01, 1.731403925543934e-01, -2.534997829679944e-02, -4.402539926985098e-10, 2.812349674217788e-10, -1.100541592276130e-09, 9.097707803740916e+02, 1.122624427040590e+03, -7.005615745732678e+01, 1.522555654184543e+03, 1.089779014071067e+02, 5.617063202492509e+02, 1.134580361481594e+03
4418, 6.689296676430130e-01, 1.215927460649723e-01, -2.434465115210545e-02, -3.838840639745709e-10, 1.787059731273694e-10, -2.489301063481534e-09, 2.059678651017439e+03, 1.920642910130478e+03, -1.078669504916799e+02, 4.120648286343619e+03, 9.241136444984896e+01, -3.675596633000481e+00, 2.148031927851403e+03
4419, 6.872473113170403e-01, 1.293552176731514e-01, -2.325409120487109e-02, -4.731819801476657e-10, 1.644287923668008e-11, -7.670572007669224e-10, 1.078842759415574e+03, 9.581003962949917e+02, -5.913163572128563e+01, 1.856438967808833e+03, 5.975931482090183e+02, 6.049663416016888e+01, 1.343854633856271e+03
4420, 5.213281016716501e-01, 1.901902152243792e-01, -3.297959631708351e-02, -7.607445873676517e-10, 5.329492741251273e-10, -3.839723848012989e-09, 2.590009028615995e+03, 2.668119333105529e+03, -2.766701297033533e+02, 5.180398062525403e+03, 1.783544520272827e+03, -2.252641136423430e+02, 4.054484492825402e+03
4421, 5.188660717920346e-01, 1.704326818427804e-01, -3.305129867355983e-02, -6.407128568956545e-10, 3.495537279132895e-10, -3.967995104701423e-09, 2.242883363546261e+03, 2.827198376284078e+03, -9.368707660650743e+01, 4.128247703119273e+03, 5.759929016236575e+02, 1.507330644387910e+03, 3.260697521484583e+03
4422, 5.030048884771392e-01, 1.824442305311526e-01, -3.381052180651169e-02, -5.653628315135742e-10, 5.712930115862549e-10, -4.024545979377304e-09, 2.360674269857648e+03, 3.346749483294211e+03, -1.085017823683975e+02, 4.695616877324152e+03, -3.645468275165122e+02, -1.548308574428130e+03, 3.427484745455216e+03
4423, 5.005433066209717e-01, 1.626864893464262e-01, -3.389223723479556e-02, -6.728703339067378e-10, 4.176701430508846e-10, -5.331761460841741e-09, 4.059013246098295e+03, 3.494323028756260e+03, -3.970213247892839e+02, 8.534120798968403e+03, 5.624988653413324e+02, 1.950750098338252e+03, 5.975858320276625e+03
4424, 4.846796764130233e-01, 1.746982211830680e-01, -3.460036334228619e-02, -6.184779701978652e-10, 5.559698137810360e-10, -4.154122348262218e-09, 2.552823766059851e+03, 2.452948839904770e+03, -1.023152299935136e+02, 3.275188478358627e+03, 1.905396650885774e+01, 1.488869164698071e+03, 2.699374084727438e+03
4425, 4.822185889809864e-01, 1.549403039254947e-01, -3.469366449226301e-02, -4.107303134867855e-10, 9.681490539018423e-10, -9.087822340548542e-09, 5.493554732436079e+03, 4.498711791363128e+03, -2.620165541760317e+02, 9.591214156248512e+03, -6.175004830727974e+02, -1.614892709400420e+02, 4.825470723289167e+03
4426, 4.980763621015493e-01, 1.429168893460688e-01, -3.397165630822995e-02, -3.789169689549792e-10, 4.201138042465163e-10, -4.359960296373449e-09, 2.475413851293077e+03, 2.848463759296866e+03, -2.471987575176598e+02, 4.299920663490164e+03, 4.528201072017719e+02, -2.466181482483774e+03, 4.672469623488621e+03
4427, 4.797564126480226e-01, 1.351810175039196e-01, -3.478357591911526e-02, -6.603019849827966e-10, 8.527202719075556e-10, -4.206955434791511e-09, 3.164404126034029e+03, 2.921759430772868e+03, 6.816214576955790e+01, 3.876195255987197e+03, -6.243998216161249e+02, -2.069369819318033e+03, 3.843003174081307e+03
4428, 4.638898750474748e-01, 1.471944115346777e-01, -3.545069986449313e-02, -1.022851998668985e-09, 6.508575239750044e-10, -4.004815110541910e-09, 2.440205018097468e+03, 1.812564696849652e+03, 5.145947573670951e+01, 9.966350728112159e+02, -7.350956421273497e+02, -6.352440685128748e+02, 2.100340443233473e+03
4429, 4.614282519355395e-01, 1.274346061304067e-01, -3.555268940540714e-02, -6.808504146641274e-10, 5.175716620940001e-10, -4.048796531187254e-09, 2.300685023275323e+03, 1.950304615107264e+03, -2.488469997141120e+02, 2.992425679011778e+03, 1.481760029690851e+03, 4.470174269206634e+02, 2.866309565104727e+03
4430, 4.455584381290811e-01, 1.394356204855685e-01, -3.616531166506542e-02, -1.170854473415051e-09, 7.553865710013234e-10, -4.319329042972993e-09, 2.131798339110026e+03, 2.805900908796101e+03, -4.671308895273866e+02, 4.003337593839513e+03, 4.561997096149025e+02, 1.316321751176092e+03, 3.028623651501990e+03
4431, 4.430981273052996e-01, 1.196881546369454e-01, -3.627920293878401e-02, -2.386690776381297e-10, 1.048696924008728e-09, -9.906827168563474e-09, 5.606581659098897e+03, 5.683069092770859e+03, -1.152131289768764e+02, 1.134674835635676e+04, -2.355817792611122e+02, -5.895530103494038e+02, 5.810796003626097e+03
4432, 4.272274632564715e-01, 1.317018065597713e-01, -3.685234457530690e-02, -6.110914156038034e-10, 5.150033946188049e-10, -5.310905914469294e-09, 3.506644475902028e+03, 3.293907053788904e+03, -2.405892675705590e+02, 6.509218564859946e+03, -1.279279776261361e+03, 1.818609638501035e+03, 4.970393457106624e+03
4433, 4.956204946096094e-01, 1.231675394101741e-01, -3.404786646642612e-02, -5.231233036531218e-10, 7.755019332890867e-10, -3.967548324580318e-09, 2.010235043144436e+03, 2.361975259150046e+03, -4.963319258441757e+02, 2.834466935432885e+03, -3.086363632561836e+02, 1.302846361317870e+03, 2.574916536044428e+03
4434, 6.506187047387926e-01, 1.138535118911057e-01, -2.542342997833365e-02, -3.867641824546110e-10, 9.827538018645126e-11, -1.354252778839671e-09, 1.231467842378319e+03, 1.058264990962533e+03, -9.121642043319949e+01, 2.121243768220153e+03, -2.542858879921350e+02, -7.693880664029166e+00, 1.093130818057921e+03
4435, 4.247664799718541e-01, 1.119415604009595e-01, -3.697121522020747e-02, -9.193817600918289e-10, 4.387890718370092e-10, -5.264330542422644e-09, 2.450946867004932e+03, 2.866631532475062e+03, 2.350280043160996e+02, 3.132857375096015e+03, -1.424311848537074e+03, -1.781199184916914e+03, 4.015476903662802e+03
4436, 4.088947426736980e-01, 1.239552848269057e-01, -3.751906406734356e-02, -7.880740202611495e-10, 7.335599610597495e-10, -5.496524513140511e-09, 4.181255282263993e+03, 3.247183578851778e+03, -2.060214704943175e+02, 6.848248125467049e+03, 2.490774328482894e+03, -1.911649674287195e+02, 5.415287643363815e+03
4437, 5.812028086117897e-01, 2.529351019554275e-01, -3.017433794742348e-02, -7.574119038693567e-10, 3.895407003646208e-10, -3.214918621414069e-09, 2.195298858172381e+03, 2.530970780577518e+03, -1.954600828304816e+02, 4.716768364707612e+03, 9.366622339652827e+02, -2.536846027367513e+02, 2.926394980497588e+03
4438, 6.847788316254372e-01, 1.095771383026815e-01, -2.327423043369452e-02, -4.219810838822102e-10, 1.278532153240891e-10, -8.558417893934467e-10, 8.593611738194893e+02, 7.183527493408225e+02, -1.268293783131765e+02, 1.613364266533708e+03, 6.734786615857979e+02, -4.098583613321412e+01, 1.452150798122208e+03
4439, 7.030974249515528e-01, 1.173426346312019e-01, -2.217201374004756e-02, -3.976235115720898e-10, 1.163889926474010e-10, -5.049066639934667e-10, 3.167506303261674e+02, 2.776402850905524e+02, -4.507847676872201e+01, 5.530072455201135e+02, -4.394605806265636e+01, 6.952013303171326e+01, 3.049196731323308e+02
4440, 7.055611408058393e-01, 1.371068910867162e-01, -2.215350944800281e-02, -4.719039927732650e-10, 1.467263199972902e-10, -5.939009493310044e-10, 5.459153476786720e+02, 6.112359968296702e+02, -4.023326167210015e+01, 1.003838573697729e+03, -2.292615628196557e+00, -4.123606070947428e+02, 8.360887219024912e+02
4441, 7.214058729475702e-01, 1.250840639690023e-01, -2.106133834870667e-02, -4.711091088885532e-10, 9.075459568334713e-11, -3.417310675302759e-10, 4.606477339331617e+02, 5.032840928362775e+02, -6.092844402358389e+01, 9.409281785720684e+02, 1.447252289721097e+02, 1.681135272518703e+02, 6.089082286379274e+02
4442, 7.238741425698452e-01, 1.448584203640554e-01, -2.104386126063275e-02, -3.871762623429844e-10, 2.090957757969982e-11, -5.666222468103832e-10, 3.787559740330457e+02, 2.184118552207961e+02, -9.739592030632218e+01, 4.406481046389205e+02, 4.767846095546218e+02, -2.678501430014688e+02, 9.824075510352874e+02
4443, 7.397226148640440e-01, 1.328249285938885e-01, -1.994229443230474e-02, -4.597487183145643e-10, 6.503418922172845e-11, -1.271987776947284e-10, 2.328467067254884e+02, 1.694450183451102e+02, -1.566989083466807e+01, 3.883578775452146e+02, -4.463013369071725e+01, -9.300510623396015e+01, 2.659421016387222e+02
4444, 7.372589578717365e-01, 1.130823252071791e-01, -1.995855059662096e-02, -4.652472462826954e-10, 8.914509527319817e-11, -1.381660791105392e-10, 2.678134075310755e+02, 2.678052628196002e+02, -5.022871330849237e+01, 3.947969809569699e+02, 2.380599978259857e+02, 8.901982811216206e+01, 4.663538466002776e+02
4445, 7.555710981716990e-01, 1.208343125792371e-01, -1.883192073713045e-02, -4.504219765169385e-10, 8.079841560777473e-11, -3.855338810120602e-11, 2.469535660017186e+02, 2.564289382163427e+02, -3.227804383758755e+01, 3.734319775891509e+02, -2.273992720071418e+01, -2.023539948564263e+02, 3.773678419813606e+02
4446, 4.064339993526547e-01, 1.041948609915233e-01, -3.764525954460018e-02, -4.848258030399277e-10, 5.671481860479439e-10, -5.870502661795358e-09, 3.323399770298739e+03, 4.093223812350663e+03, -3.306808138279998e+02, 6.238146909952952e+03, 4.794493899583065e+02, 2.148999171436888e+03, 4.660128151697227e+03
4447, 3.905609208280595e-01, 1.162086314198504e-01, -3.815920022173738e-02, -7.715377757824669e-10, 7.941680862438917e-10, -6.287430686904863e-09, 3.705450827552742e+03, 4.267411366872720e+03, -1.745837724600349e+02, 7.011686974023461e+03, 1.813872386155790e+02, -1.790457078950188e+03, 4.381366793878123e+03
4448, 7.580345267294930e-01, 1.405985171274290e-01, -1.881669692483362e-02, -4.787885852033804e-10, 9.988057464369254e-11, -5.124323237055371e-10, 4.892333922777821e+02, 5.464453689112568e+02, -8.967367314192425e+01, 1.149123438153165e+03, 1.370365273749183e+02, -2.340130420478497e+01, 6.950384626875830e+02
4449, 7.738823609153804e-01, 1.285867373974425e-01, -1.769887341395535e-02, -4.740562666941882e-10, 3.042500757463741e-11, 9.349173503537350e-11, -1.544101461394416e+02, 7.255878608312521e+00, -1.298718368322168e+02, 4.567888791548626e+00, 5.966316493961344e+02, 5.378062493560152e+01, 1.073728874653246e+03
4450, 7.714190564900006e-01, 1.088225215301829e-01, -1.771326193992252e-02, -4.582518060422028e-10, 4.369805808247397e-11, 5.351013879838932e-11, 8.523600690366963e+01, 9.796985295548467e+01, -9.104957138535546e+01, 2.510481106430535e+02, 1.350797639317165e+02, 8.778110989737520e+01, 3.581489212095540e+02
4451, 7.897303526206295e-01, 1.165750910431257e-01, -1.657359607030402e-02, -5.065625643664748e-10, 2.336238196702372e-11, 2.388690377263500e-10, -1.202564308134294e+02, -2.495913207915975e+02, -4.909303043115549e+01, -3.534060801196405e+02, 1.654575076391186e+02, 2.521404969864044e+02, 5.665821357673129e+02
4452, 4.406372942862163e-01, 9.992705825007350e-02, -3.638993823608418e-02, -8.274213892843012e-10, 3.585160112178108e-10, -4.305925669852387e-09, 1.674867729884336e+03, 2.327340327983296e+03, -1.243278022452228e+02, 2.535200108770349e+03, -1.135309778002133e+02, -1.842801139502581e+03, 3.298080830755895e+03
4453, 4.848685478312417e-01, 4.553784415446410e-01, -3.401873177108379e-02, -1.282826759708640e-09, 8.317248478149583e-10, -4.852948993785219e-09, 2.344950948628572e+03, 3.093744999113230e+03, -2.039557170324046e+02, 5.168007226953967e+03, 1.774499593302736e+03, -2.000079318626920e+03, 5.290438885486055e+03
4454, 5.031826880907178e-01, 4.631183535646173e-01, -3.346171379613987e-02, -1.484106280930895e-09, 6.321029260287818e-10, -4.364903200281379e-09, 2.761420525000116e+03, 2.472283554186964e+03, -1.488363640215120e+02, 3.851611005322405e+03, -9.412104234722344e+02, 8.145444600590195e+02, 2.510351738328390e+03
4455, 5.007279002653188e-01, 4.433800502521043e-01, -3.360903519713240e-02, -1.346533700826594e-09, 7.393558645791028e-10, -5.061540293942527e-09, 3.094243645786299e+03, 3.053989839191632e+03, -5.327936449342192e+01, 4.651784257185838e+03, -2.274882371111982e+03, 1.725472638943390e+02, 4.255978526461545e+03
4456, 5.190413651213310e-01, 4.511202147060841e-01, -3.299291283857836e-02, -9.495456093569729e-10, 1.079981769629701e-09, -9.438311159038352e-09, 5.010982930181363e+03, 4.738989324068647e+03, 5.631160134827164e+01, 7.202719507857655e+03, -4.533083653735355e+02, 9.574437458933409e+01, 2.475339865673057e+03
4457, 5.165858875091132e-01, 4.313806562986409e-01, -3.312379999778223e-02, -1.292058131485611e-09, 2.014407912769549e-10, -4.728978418809244e-09, 2.638833016219461e+03, 2.751594074085171e+03, -1.703698744643983e+02, 2.603623860000264e+03, -1.558132493268010e+02, -1.504933589988512e+03, 2.640513450402025e+03
4458, 5.348989654803139e-01, 4.391211819880694e-01, -3.246352119461394e-02, -5.905924123522907e-10, 1.515608511893277e-10, -4.915055219019117e-09, 3.198450164938535e+03, 3.082330857432622e+03, -7.872609664252508e+01, 3.930497016542500e+03, -9.645120139804828e+01, -1.860056746690816e+03, 3.325705377863502e+03
4459, 5.373233278966150e-01, 4.588221316875403e-01, -3.234285731675648e-02, -7.204819333076561e-10, 8.585833123022070e-10, -5.303449893663447e-09, 3.879584207186906e+03, 4.302657840562736e+03, -5.112812238181127e+02, 6.224622366082952e+03, 2.026853592644343e+02, 2.226696307066147e+03, 4.524165151430771e+03
4460, 5.532047051921297e-01, 4.468403564815805e-01, -3.177898282929385e-02, -8.101264223627150e-10, 1.267318334355494e-10, -9.239424598557047e-09, 8.994735151420722e+03, 8.675984730525906e+03, 3.442175981916336e+00, 1.914296061556529e+04, 9.902443659063999e+01, 3.245454699505683e+02, 1.032803347152852e+04
4461, 5.556673837241287e-01, 4.666031070984717e-01, -3.166262584441942e-02, -8.511941178588399e-10, -2.267132924910510e-11, -4.164314645857160e-09, 3.308551518596567e+03, 3.769440453962534e+03, -4.476695334250337e+02, 6.655057383502372e+03, 6.763262484579107e+02, 2.282552244079644e+03, 5.241446598669951e+03
4462, 5.715230966603041e-01, 4.546034356253427e-01, -3.106296148163422e-02, -7.866860191237995e-10, 3.388988107310788e-10, -3.127153407476013e-09, 2.634524369639371e+03, 1.720580146390474e+03, 6.196774841351416e+01, 3.697944289786246e+03, 1.841169356074599e+03, 1.105464785239175e+03, 4.097005422948293e+03
4463, 5.739795584592506e-01, 4.743447152050699e-01, -3.095916415215790e-02, -1.199010021142723e-09, 3.636939774201981e-10, -3.332540896614898e-09, 1.514170333277381e+03, 1.444956459401948e+03, 8.892033148765776e+00, 1.070007785375776e+03, -7.970913166214281e+02, -4.098289828523475e+02, 1.606707506095123e+03
4464, 5.507554981692887e-01, 4.271210614310507e-01, -3.189245893147338e-02, -8.556636723620233e-10, 5.778475567960642e-10, -3.407753733406438e-09, 3.125535692386240e+03, 3.282498367070465e+03, 2.039650930726575e+02, 5.359539452044631e+03, -1.713970770802829e+02, -1.226998460881905e+03, 3.065006801743245e+03
4465, 5.581232033351257e-01, 4.863441928142820e-01, -3.154548811829561e-02, -1.142265375596958e-09, 3.628513000824953e-10, -3.972677458316664e-09, 2.548205108597445e+03, 2.936220388220256e+03, -3.830377382222513e+02, 3.938012938917671e+03, 1.618892811375043e+03, -7.136967030832357e+02, 3.372467860689673e+03
4466, 5.764296461683318e-01, 4.940713647456647e-01, -3.085180176135928e-02, -9.236405261961255e-10, 4.572170891410555e-10, -3.619380980312540e-09, 2.982665335847950e+03, 2.714844552839872e+03, -1.992085222502440e+02, 3.719415554952054e+03, -7.882563614631561e+02, 7.782175100991539e+02, 2.147512453274811e+03
4467, 5.605741742239247e-01, 5.060434682811841e-01, -3.142701286847475e-02, -1.046927571207118e-09, 7.179200311921585e-10, -4.151196701062993e-09, 2.498274181806497e+03, 2.631978796083823e+03, 1.316119697676159e+02, 3.797838458028669e+03, 1.712691096716883e+03, 5.452216720543804e+02, 3.358077428640162e+03
4468, 5.788907889142932e-01, 5.138257955676098e-01, -3.073957153073337e-02, -1.029977706872184e-09, 7.144917981994440e-10, -3.703322588249592e-09, 2.400689662024456e+03, 2.973409159294210e+03, 1.763637786202826e+02, 4.168415436849505e+03, -1.991904659505275e+02, -2.564814605672010e+03, 4.731555344416358e+03
4469, 4.029539701350661e-01, 2.150159709674650e-01, -3.742859303493958e-02, -9.438794462016578e-10, 8.089139790954405e-10, -1.187540819888871e-08, 7.087600707725927e+03, 6.344664668860633e+03, -4.158740899075864e+02, 1.227396526527096e+04, 5.492796515130839e+02, -4.863180967942810e+01, 5.721410819326337e+03
4470, 4.982717768607907e-01, 4.236401602847011e-01, -3.375166451329856e-02, -1.407453894222077e-09, 4.723262578814502e-10, -4.899787378973058e-09, 4.670276056797968e+03, 4.540829974096587e+03, 2.153285743244634e+02, 9.119065387113094e+03, 2.367425206556767e+03, 2.019751696326318e+03, 7.041005425402499e+03
4471, 5.630311447627041e-01, 5.257947240794068e-01, -3.130600510707752e-02, -1.085505324375907e-09, 6.161577103417411e-10, -4.151393202202724e-09, 2.584535457562381e+03, 1.372461557774712e+03, 3.598169388059557e+02, 2.650848532918707e+03, -1.347182052447448e+03, -1.041306641398870e+03, 3.261894941639378e+03
4472, 5.813461026290145e-01, 5.335654363727051e-01, -3.062445657798754e-02, -3.756902344116303e-10, 8.267424746799085e-10, -9.597738166681748e-09, 6.397726201468638e+03, 6.691281280534160e+03, 4.508944590519669e+02, 1.423288732990028e+04, -2.144423131816179e+02, -1.261629168603216e+03, 8.043560877015493e+03
4473, 2.762207896089257e-01, 1.598279198986090e-02, -4.167398123560589e-02, -4.019693990285983e-10, -2.542153614323108e-10, -1.469999538596423e-09, 8.917933913446230e+02, 6.261422518974205e+02, -5.437714008914229e+02, 9.862413765136782e+02, 1.266189770438935e+02, -2.424640964139616e+03, 4.321619104565741e+03
4474, 9.799236910862874e-01, 1.584322485484533e+00, -1.434339115687119e-02, -8.385521291457008e-10, 2.343460398686716e-09, 1.803489556180568e-10, 3.165510641488852e+03, 4.665074283599937e+03, -5.088404484198444e+02, 2.450936592591657e+03, 9.944047026397612e+02, -1.591454400727335e+03, 3.895165686327718e+03
4475, 8.422298023712280e-01, 1.372841370433744e+00, -1.975556809286533e-02, -7.040679241678673e-10, 9.060137264940480e-10, -3.166237301508069e-09, 3.484580537313999e+03, 3.928806953920331e+03, -7.526926839741270e+01, 5.385986911712391e+03, 7.174645544559407e+02, -2.749295803135165e+03, 5.215857854467415e+03
4476, 8.238524499799772e-01, 1.364908502050610e+00, -2.027342606921816e-02, -7.243273581944097e-10, 2.751449595864578e-10, -2.854368163013119e-09, 4.361704543945265e+03, 3.535864044968243e+03, 8.454065012498120e+00, 6.460809752842191e+03, 3.296378290337783e+03, 1.244776180394269e+02, 6.282261475435758e+03
4477, 8.263945406468843e-01, 1.384699978012147e+00, -2.007486316731451e-02, -9.969726645331257e-10, 5.357626745613249e-10, -3.801111684871157e-09, 2.859521210698193e+03, 2.835103120724351e+03, 6.067907423669951e+02, 2.823431797631370e+03, -1.128849302984586e+03, -1.462285528318869e+03, 3.367987769414211e+03
4478, 8.081309025496093e-01, 1.376989903428576e+00, -2.042704447183590e-02, -9.331707933648065e-10, 9.082785570846230e-10, -4.406089949856417e-09, 4.667316257688496e+03, 4.591416983323908e+03, -2.849499632303346e+02, 9.112324318993764e+03, 4.480639298184703e+03, 1.703827243725412e+02, 8.981107730984844e+03
4479, 8.106525823804617e-01, 1.396786360521682e+00, -2.015890393744801e-02, -8.969502503946446e-10, 7.298507922424142e-10, -3.886785852530719e-09, 5.965434245641663e+03, 5.585341622063578e+03, 5.871985915656051e+02, 1.012912011491828e+04, 4.680048313279656e+03, 1.047602847819474e+03, 9.439211571328624e+03
4480, 9.604147089964945e-01, 9.511728299692587e-02, -4.878322067802345e-03, -2.086373486456077e-10, -5.236016241539696e-11, 1.468344302058313e-10, -8.057377247918474e+02, -1.850066255854451e+03, -1.009062960321618e+02, -1.336403833634408e+03, 3.076066385059376e+01, -1.873959097525097e+03, 3.374402441408379e+03
4481, 3.881004758592135e-01, 9.644806220529925e-02, -3.829421092970914e-02, -3.051331704621715e-10, 8.382713474029393e-10, -6.629674118821583e-09, 4.376935590796320e+03, 3.648884407902657e+03, -4.855058053067525e+01, 5.725810058737026e+03, 1.511254880014916e+03, 2.272858666076692e+03, 5.068330639247062e+03
4482, 3.722258396268012e-01, 1.084618121318954e-01, -3.876685189237651e-02, -6.991907270817653e-10, 4.166713109675896e-10, -7.434180728243451e-09, 4.171270814662551e+03, 4.466166457416208e+03, -3.589218594939617e+02, 7.966882339471213e+03, -1.384947814394185e+03, 2.939096747450592e+03, 6.740171074179144e+03
4483, 8.370422205257269e-01, 1.462944497686371e+00, -1.911351484733882e-02, 1.183697330244574e-10, 8.055513736124788e-10, -5.286621447069406e-09, 6.699127288330475e+03, 6.466281515346242e+03, 2.339741914187046e+02, 1.138799438242499e+04, 1.607125218532148e+03, -5.164947431326579e+03, 1.053917960464670e+04
4484, 1.964317279705693e-01, 9.031658194745215e-02, -3.988822138810920e-02, -1.709269664708640e-09, 1.184651117525966e-09, -8.730462300979593e-09, 7.326707687863166e+03, 5.516927411805510e+03, 5.270643311168698e+00, 7.421918996206910e+03, 3.696127304472149e+03, 1.037035526370821e+03, 6.904141071070610e+03
4485, 7.872669379786574e-01, 9.681023305364457e-02, -1.658730068966029e-02, -4.006071676377538e-10, 3.940031991507404e-11, 2.239135236719558e-10, -3.025575392674335e+02, -1.998784574586625e+02, -7.100105568665832e+01, -2.448311451240635e+02, 4.980702489386889e+02, -1.971648069276373e+02, 9.401676919076488e+02
4486, 8.055784663253600e-01, 1.045631101653320e-01, -1.544146360767785e-02, -4.669632098400610e-10, 5.541318202623259e-11, 3.809355194239342e-10, -2.077790634970438e+02, -3.193278032222981e+02, -1.325900753540517e+00, -6.231416900256208e+02, 6.577189103202633e+01, -2.759502926998127e+02, 6.164939954649390e+02
4487, 7.689549120806430e-01, 8.905719989524907e-02, -1.772762416624057e-02, -3.854908135399813e-10, 4.503846318334147e-11, -2.192516960413898e-10, 2.234081338448092e+02, 1.887834812504851e+02, -6.001937186238827e+01, 4.465047898525098e+02, 9.821671851818986e+01, -7.131759277486696e+00, 3.139980271517721e+02
4488, 7.012457874303155e-01, 1.219892698991317e+00, -2.261074825996490e-02, -1.208802281403491e-09, 2.189641564473526e-09, -7.454215401476765e-09, 8.717270312949611e+03, 9.039884273427626e+03, 2.277606585047866e+02, 1.945876279365703e+04, 9.461594960542465e+02, -2.908056103287811e+03, 1.184187629044319e+04
4489, 6.755925210563400e-01, 1.152964174923249e+00, -2.375309725488397e-02, -1.236186332070522e-09, 1.330346355842258e-09, -4.033086378796033e-09, 4.747668670611928e+03, 3.992269419963596e+03, 6.732718723409675e+02, 9.007985181025542e+03, -6.440488619349125e+03, -3.516394950140742e+03, 1.359536064407831e+04
4490, 7.006333096470789e-01, 9.757794065902786e-02, -2.219032518484153e-02, -3.824343462594787e-10, 1.162516496415162e-10, -4.692711379500669e-10, 6.267656172627177e+02, 6.134991808215277e+02, -7.337314597410285e+01, 1.034077774005188e+03, -6.757555307466410e+01, -5.406045657169996e+01, 4.583673121742783e+02
4491, 8.939304683256800e-01, 1.505186146339900e+00, -1.769202510166938e-02, -6.874520209895708e-10, 9.001446469607353e-10, -2.030949485796191e-09, 3.667607770885485e+03, 4.949388362188332e+03, 2.145135030991455e+00, 6.519513374698397e+03, 1.016610046555980e+03, 1.913425999618352e+03, 4.494987067750025e+03
4492, 3.298892351749507e-01, 4.645686374647816e-01, -3.235557795809894e-02, -2.184701489208370e-09, 1.398225434164659e-09, -8.133690967211872e-09, 7.669912032100057e+03, 6.232838054178728e+03, -9.594783906889661e+01, 8.515249499466921e+03, 1.687964466825562e+03, 2.457641670123530e+03, 5.539845426734712e+03
4493, 1.464869180081798e-01, 1.064594909017442e-01, -3.582867181057747e-02, -1.479595923047105e-09, 1.385761179055822e-09, -7.019142523592767e-09, 4.562210262415416e+03, 7.668090615638201e+03, 1.303916436411587e+03, 7.761273334445603e+03, -1.251246318817831e+03, 5.455962348061017e+03, 1.044244281114818e+04
4494, 5.388108352649006e-01, 8.894535543439034e-01, -2.706340272270450e-02, -1.902402832349550e-09, 1.571554126912084e-09, -6.808332526471641e-09, 1.010546936100663e+04, 8.053180229133239e+03, -1.334307305056516e+03, 1.420085779493182e+04, 2.154610234081741e+03, 1.179727677691926e+02, 6.978462204275007e+03
4495, 5.412690840220779e-01, 9.091714223648437e-01, -2.641408397519759e-02, -3.315972010235733e-09, 1.006494027138899e-09, -6.927004214447840e-09, 8.310126728749863e+03, 7.360308200159613e+03, 1.236719822715633e+02, 1.320867976367039e+04, 4.273522920342406e+03, 1.351668635972203e+02, 9.189145905999569e+03
4496, 6.823185180239991e-01, 8.982615759386121e-02, -2.329378373314838e-02, -3.352224435610537e-10, 9.734266809455394e-11, -8.456489258334858e-10, 6.833689955155278e+02, 8.933991512961206e+02, -9.845841564414465e+01, 1.281909128306506e+03, 2.507553325352151e+01, 4.835365386058016e+02, 1.004511203524175e+03
4497, 9.119356818648183e-01, 1.512739001889158e+00, -1.709154855939710e-02, -6.617672553753050e-10, 1.424296472125640e-09, -1.997534607778977e-09, 4.089854474455946e+03, 4.207686159341217e+03, -3.889889664441095e+02, 6.299581894495291e+03, -1.894532942867845e+03, -6.404368028781288e+02, 4.133834059335081e+03
4498, 1.031172729899232e+00, 1.507967346402690e+00, -1.106335298374188e-02, -3.225857772487578e-10, 2.869929576636147e-10, -4.316227604009599e-11, 7.075701232813927e+02, 8.321335597384705e+02, -1.216537557376710e+02, 6.674563949094077e+02, 4.540024936107770e+02, -3.014743393476058e+02, 9.785376324321400e+02
4499, 3.323611548221044e-01, 4.842813772034139e-01, -3.155039921479520e-02, -2.462308152647094e-09, 1.536870620677309e-09, -7.528410658832202e-09, 9.149689670846079e+03, 5.999857971849802e+03, -4.543328138232199e+02, 9.262644073475232e+03, 5.647136296583057e+03, -1.814895599433392e+03, 1.079172015349048e+04
4500, 3.506349885000407e-01, 4.920571280551159e-01, -3.251929637597105e-02, -1.937422892727127e-09, 1.453848040585779e-09, -7.480664636092350e-09, 5.362475120787820e+03, 4.519483869334020e+03, 1.443756311228962e+02, 9.932488540130302e+03, -3.826146276901263e+03, 2.993425325059980e+03, 9.813798588211606e+03
4501, 1.098407972363809e+00, 1.499713993052451e+00, -6.673190297841480e-03, -1.788636170884191e-10, 4.111176602626611e-11, -2.516907410371071e-10, 3.046596026877178e+02, 2.762460041615460e+02, -2.196178896879544e+01, 6.059124490370278e+02, 2.484418700211767e+02, -8.066438955502120e+01, 5.534054278154881e+02
4502, 1.096037517158088e+00, 1.480246812189828e+00, -6.682007372167370e-03, -1.846848989402406e-10, 9.936211647057910e-11, 2.226464366337717e-11, 7.101729979213610e+01, -5.397743076670314e+01, -3.172942304780179e+01, -1.725780033594690e+01, 2.588058659311536e+02, -2.973605937704626e+02, 6.939840915893272e+02
4503, 7.923980378486454e-01, 1.389077599967938e+00, -2.027275502844740e-02, -3.445669616439021e-10, 3.777112127202611e-10, -1.720074863110679e-08, 1.213442844779404e+04, 1.135498336466744e+04, -4.506598497570078e+02, 2.497918929190510e+04, -5.724084008470770e+02, 1.276391051619485e+03, 1.349396016173500e+04
4504, 7.948476208572391e-01, 1.408740210797461e+00, -1.989688824010034e-02, -7.657931133720021e-10, -1.704800217863202e-10, -6.609024916272972e-09, 6.941765986335731e+03, 6.761884431162061e+03, 3.516415277781879e+02, 1.367368953600489e+04, 1.966949390409859e+03, 1.835338111118802e+03, 8.285235294290542e+03
4505, 3.697657393118886e-01, 8.870105234136896e-02, -3.891242273572810e-02, -1.105295957185700e-09, 3.282827442455483e-10, -1.376752180571025e-08, 9.263568994793457e+03, 9.540342830406134e+03, 9.406721605657634e+01, 1.803927258040421e+04, -7.375536843773864e+01, 3.418818719909984e+02, 8.663383124779259e+03
4506, 3.538738800996922e-01, 1.006950086061717e-01, -3.933584020263404e-02, -5.390484314560909e-10, 6.222227390323010e-10, -6.793433531909956e-09, 4.972399694769206e+03, 4.734689065623286e+03, -4.309176044813732e+02, 7.637227695702763e+03, -1.671306604353657e+03, 1.691679536648235e+03, 5.031250218922090e+03
4507, 6.243863348425847e-01, 1.017772049906612e+00, -2.603165139837137e-02, -1.919813156668994e-09, 4.997109639934600e-10, -7.718528839647799e-09, 1.112952989314358e+04, 1.083414744287253e+04, 7.441757604183549e+02, 2.304420018500943e+04, 5.278759998019194e+02, -2.564818693548874e+02, 1.217623522314629e+04
4508, 7.268941198506631e-01, 1.286790725807375e+00, -2.145192422616261e-02, -6.809293473512246e-10, 7.835336055201205e-10, -2.489082417047647e-09, 4.130310397949067e+03, 3.759387429324288e+03, -4.335080425717724e+02, 6.309899438206433e+03, -2.271830048218775e+03, 1.771673199016712e+03, 5.582163793323559e+03
4509, 1.489576721063542e-01, 1.261535759496280e-01, -3.482839324699402e-02, -1.264646804939801e-09, 1.635496499701807e-09, -7.432375381764494e-09, 4.695087283303546e+03, 6.864247560040586e+03, 4.522263874052070e+02, 1.277947439723988e+04, -6.513023550271382e+03, -2.461514746107904e+03, 1.409167690079232e+04
4510, 1.439979644645907e-01, 8.673720253393358e-02, -3.675691779515215e-02, -4.148921296516008e-09, 3.368111527408533e-10, -2.584398780006134e-08, 2.114671310605753e+04, 2.270973487357582e+04, -1.134589129790570e+03, 4.806905391606335e+04, 7.770473523110763e+02, 2.673290070622994e+03, 2.668872405466114e+04
4511, 1.108260486963325e+00, 1.280446951628538e+00, -4.295868602407490e-03, -2.085386586425642e-10, -3.037624700473892e-10, -5.134233263420675e-11, -1.191890924018474e+03, -1.735303792824430e+03, -2.212729470545742e+02, -2.867684551781135e+03, 2.709926574618289e+02, 2.181702904648730e+03, 4.103609741555847e+03
4512, 8.370316899877748e-01, 1.333126901195874e+00, -2.006099625544429e-02, -8.159542383752029e-10, 5.675834481353983e-10, -2.496514665158011e-09, 3.302408387037405e+03, 3.250855274546715e+03, 5.016320405500583e+01, 4.256457558817276e+03, -7.005502827323546e+02, -1.257219237941830e+03, 2.680245049177630e+03
4513, 7.951708993143463e-01, 1.278331214114446e+00, -2.149895395151709e-02, -4.888909448652752e-10, 5.306006146157737e-10, -3.409659056555295e-09, 2.382390056398166e+03, 3.053428094565680e+03, -4.278387685811284e+01, 3.688603341716834e+03, 7.606766537509359e+02, 2.231565124805602e+03, 4.238041223111242e+03
4514, 1.100802256246386e+00, 1.519212221056243e+00, -6.662929882347653e-03, -1.841194964628617e-10, 5.951552177948244e-11, -1.096826468483225e-11, 5.150752804501391e+01, 8.808979954219815e+01, -3.562417226396357e+01, 1.075551926716617e+02, 2.461897542922018e+02, 2.557664884159343e+01, 4.359210681024490e+02
4515, 7.898981600289242e-01, 1.369332623792067e+00, -2.061473603721265e-02, -6.467048209047275e-10, 1.281072644513368e-09, -7.146915039662399e-09, 8.513749734487732e+03, 8.757925115826300e+03, 1.432378551742109e+02, 1.800958474803311e+04, -6.632482188274366e+02, -1.857065248293119e+03, 9.981942443423404e+03
4516, 1.013191065069351e+00, 1.500329376042889e+00, -1.211567690280133e-02, -2.917759935115382e-10, 3.409773617268527e-10, -3.182663337574859e-10, 1.087432154001818e+03, 1.411494706039264e+03, -1.454648885565104e+02, 1.756785634596597e+03, 2.088834312325914e+02, -2.638286904652578e+02, 8.598441260817516e+02
4517, 9.142584090885330e-01, 2.817347171407229e-01, -9.557592095441152e-03, -5.829408980438338e-10, 5.043249731640411e-12, 4.616217264623965e-10, -1.543233152693385e+03, -1.104962438445171e+03, -1.485542077768881e+02, -2.095022507730884e+03, -6.175278870399894e+02, -8.573223063138386e+00, 1.396006252947720e+03
4518, 9.300910949863868e-01, 2.695783178582687e-01, -8.387568416534713e-03, -6.426367754819988e-10, -4.414220935274501e-12, 3.281749484678808e-10, -1.344701886964984e+03, -1.278523077408354e+03, 2.192437345604583e+02, -2.613785196435059e+03, 1.334124881931104e+03, -6.707850264659595e+02, 2.921072954625865e+03
4519, 8.882562816960805e-01, 1.186966031855609e+00, -1.763217321297384e-02, -5.804685595364283e-10, 2.492511731356036e-10, -8.690320374294549e-10, 1.851317291899659e+03, 1.729811074541723e+03, -1.446531430299987e+02, 2.597014269501863e+03, -2.255226068274123e+02, -3.418011981803800e+02, 1.107823845868142e+03
4520, 7.894104793687111e-01, 1.089084658225436e+00, -2.217823802155466e-02, -5.438847174120995e-10, 3.893886369081174e-10, -2.026278738066651e-09, 2.816105221703893e+03, 1.978718336959932e+03, -1.433122802589285e+01, 3.387242832173107e+03, -7.191270435970823e+02, -2.473728845626269e+02, 1.800362576833716e+03
4521, 9.557897814478424e-01, 3.367227716718368e-01, -7.168595471171630e-03, -3.560773406952881e-10, 4.373148175549155e-11, 2.660813217901098e-10, -1.681887966868141e+03, -1.879467133351689e+03, -1.864996835407618e+02, -3.133913750847003e+03, 3.765779675751183e+02, 1.096789865626436e+03, 2.449316166024836e+03
4522, 9.582580030841766e-01, 3.564757150617874e-01, -7.158029935414855e-03, -1.013810095163678e-09, 3.537303050169120e-10, 4.440412480557478e-09, -5.404847336561184e+03, -5.389566038042157e+03, -3.615805625365084e+02, -1.047494845527097e+04, 4.963461000411003e+02, 4.465640234063125e+01, 5.188537274246381e+03
4523, 5.972006504533178e-01, 5.215669658375510e-01, -3.001643945167876e-02, -9.411019882678378e-10, 6.975791570061641e-10, -3.093827253645081e-09, 2.796180050583182e+03, 2.602478975866002e+03, -3.176924668607041e+02, 3.250832827276296e+03, 1.665971632612796e+03, -1.504020117651872e+03, 3.968336613820249e+03
4524, 5.996499148040209e-01, 5.412923874414958e-01, -2.991504000747930e-02, -9.342428134218522e-10, 8.789351487020712e-10, -3.712501775030285e-09, 4.717888197021115e+03, 4.590114681736227e+03, -2.926991326977607e+02, 8.186292180559760e+03, 1.977746094668925e+03, -1.771777621620741e+03, 5.822230452914812e+03
4525, 5.837996548147198e-01, 5.532621731884411e-01, -3.050786147683350e-02, -9.354001963115977e-10, 6.758643376256479e-10, -5.974146550149809e-09, 5.581795293409489e+03, 5.725541377392514e+03, 1.446000390206559e+02, 1.215314683888350e+04, 7.692288997681226e+02, -5.530797362030025e+02, 6.709267949492805e+03
4526, 6.021035947548301e-01, 5.610280476595434e-01, -2.980986523623990e-02, -6.192429822467127e-10, 8.565651847916765e-10, -8.633676796826614e-09, 1.024222145062379e+04, 1.003960351530371e+04, 7.144487337041699e+01, 2.147862101575289e+04, 8.291700089915696e+02, -1.738319420721175e+02, 1.143428877319199e+04
4527, 5.862564779868339e-01, 5.730445518977003e-01, -3.038980997177487e-02, -2.265585287967513e-10, 2.977593099809391e-10, -4.929553576336160e-09, 4.707906477120372e+03, 3.979497868029998e+03, -1.790040255754071e+02, 8.626409512871567e+03, 7.886225476646124e+02, 2.727394300242799e+03, 6.558769655014470e+03
4528, 6.045668717536974e-01, 5.807856533782728e-01, -2.969979114174271e-02, -9.000090632029360e-10, 2.096184337209517e-10, -3.331378356578027e-09, 2.588169423635716e+03, 2.842612564108180e+03, -1.064297872029004e+02, 5.927807150626284e+03, 5.670988607232023e+02, 1.725330958224049e+03, 4.505248000555373e+03
4529, 5.887115281185604e-01, 5.927833308355210e-01, -3.026977916597680e-02, -1.019493142566952e-09, 4.589087323173215e-10, -3.370374050049052e-09, 3.122944002026517e+03, 3.956423275221651e+03, -6.437639612296375e+02, 4.204550790417107e+03, 4.223226270520081e+02, -1.543419960784260e+03, 3.144497566703493e+03
4530, 6.070216903818254e-01, 6.005242530535186e-01, -2.958606382853506e-02, -1.110526802974522e-09, 5.445095775509369e-10, -3.162313879936458e-09, 3.072380529335624e+03, 3.068599280212136e+03, -1.626658831897491e+02, 4.728300992675638e+03, 2.290216031348136e+03, -1.563906219073047e+03, 5.089244078653871e+03
4531, 5.922761958690934e-01, 4.820613211573384e-01, -3.020899320682870e-02, -6.586593784280486e-10, 5.687478282441406e-10, -6.792310815636292e-09, 4.134795264079261e+03, 3.706724015368991e+03, -1.672648954204449e+02, 6.528738370822433e+03, -1.617804633133748e+02, -2.529184043434178e+02, 2.700618698697946e+03
4532, 7.918661496932169e-01, 1.108821505451502e+00, -2.207305194422715e-02, -6.790984023118588e-10, 3.021181070327929e-10, -1.824034484495426e-09, 2.856380416353211e+03, 2.452448296922240e+03, -3.645136530777194e+02, 3.912324237743201e+03, -1.524712088618872e+03, 1.301739998346146e+03, 3.763129107016954e+03
4533, 3.930245901054009e-01, 1.359634239356030e-01, -3.802097194799026e-02, -8.951980379356689e-10, 6.874332661263090e-10, -1.211217227989847e-08, 8.197442661987809e+03, 7.553140652866871e+03, -2.799004234537412e+02, 1.622819480094735e+04, 4.450357998278132e+02, 6.646085423556339e+02, 8.499214764229369e+03
4534, 1.034691920576019e+00, 9.686106120013558e-01, -6.822698408794975e-03, -4.429656263657903e-10, 3.471650962399581e-12, 3.780110520090617e-10, -1.277180477407191e+03, -1.501580678099052e+03, -2.935682037736071e+01, -2.678741864436834e+03, -3.045765039101832e+02, 6.576103648372026e+02, 1.810651623003718e+03
4535, 1.078020567164244e+00, 1.038211504736871e+00, -4.421574469159832e-03, -2.779019000672658e-10, -1.900497676877620e-10, -3.057497926582811e-10, -1.460269554108646e+03, -1.819784422193756e+03, -2.554178062300177e+02, -2.892335239309358e+03, 1.087087316189129e+03, 7.282792955366847e+02, 2.645255682235204e+03
4536, 5.911664003392358e-01, 6.125216359560611e-01, -3.014706810463669e-02, -1.147552719805384e-09, 2.813581019886530e-10, -9.662870011247883e-09, 6.593993623928563e+03, 6.426573866768003e+03, -8.321573485964407e+00, 1.365627514921698e+04, 1.696670476452858e+03, 1.144552565441699e+02, 7.730575337935007e+03
4537, 6.094763719985496e-01, 6.202623845149933e-01, -2.946991567700526e-02, -8.806480306291659e-10, 7.075343324895639e-10, -2.740400123468468e-09, 2.807169472734285e+03, 2.176257728008764e+03, 2.824768854545945e+02, 3.246793749207849e+03, 1.797109588526176e+03, 6.118809832386610e+02, 3.452544924878606e+03
4538, 5.139452453644708e-01, 1.309151400010041e-01, -3.318809209069074e-02, -5.528515725231858e-10, 5.629684404408588e-10, -3.083851934872744e-09, 1.886396070031128e+03, 2.115178403283488e+03, 1.003587924976001e+01, 3.811872536005466e+03, 2.514485181661197e+01, -7.925822887843516e+02, 2.281675914616450e+03
4539, 5.114830218145574e-01, 1.111535601118879e-01, -3.325328091462797e-02, -6.265655558592078e-10, 4.567384504946457e-10, -4.126695948052635e-09, 3.534475110904166e+03, 4.389857780708558e+03, -6.631346832166366e+01, 7.497462199241333e+03, 1.600880053753938e+03, 7.807873721827029e+02, 4.751589810531912e+03
4540, 5.262542783384079e-01, 2.297006998293319e-01, -3.282854891219689e-02, -7.720887708666008e-10, 5.565516754975416e-10, -3.366536070220363e-09, 2.393855467021592e+03, 1.973174466473444e+03, 9.279278901074649e+01, 2.086791461378195e+03, -4.600914439602154e+02, -6.304037700657716e+02, 1.412513883149597e+03
4541, 4.480207252113271e-01, 1.592074622162029e-01, -3.604917681752048e-02, -1.392194460923801e-09, 9.870383153880395e-10, -5.103075324432735e-09, 3.625646654277996e+03, 3.333093246939591e+03, -3.785944523630475e+02, 6.008470395495938e+03, 2.318784259703579e+03, -1.671200535621237e+03, 5.603530670965129e+03
4542, 5.141300338301351e-01, 4.116401917017891e-01, -3.325170510337226e-02, -1.193021088231939e-09, 5.321690385467100e-10, -3.974562307818488e-09, 3.172623509790528e+03, 2.047418250590122e+03, -6.190352894388400e+02, 4.408566960563382e+03, -8.886963855630946e+02, 9.899187520161877e+02, 3.262377726805244e+03
4543, 4.958154808277218e-01, 4.038993790232352e-01, -3.389051878634795e-02, -1.060175852066990e-09, 7.266440879284641e-10, -4.819524373889682e-09, 3.378903221288059e+03, 2.014984359699134e+03, -3.388929675124702e+02, 5.296217567595413e+03, 2.507794457599920e+03, -8.210891459498426e+02, 5.420852034123644e+03
4544, 9.508737264794865e-01, 2.971210084596343e-01, -7.187507239354627e-03, -1.069437461814972e-09, -1.242130549045827e-10, 4.357025627762060e-09, -5.969180911665228e+03, -5.782560036270456e+03, 2.097142415098664e+02, -1.178128116350053e+04, 6.042211872244275e+02, -6.735918466281587e+02, 6.122774189162742e+03
4545, 8.080416812137967e-01, 1.243282301193103e-01, -1.542832464720970e-02, -4.739149387965231e-10, 1.947904154333630e-11, 3.950759982263655e-10, -3.992392171423455e+02, -3.860429714415653e+02, -1.742503384251909e+01, -9.761302384289302e+02, -6.906428120529412e+01, 2.597360693011669e+02, 7.471272878952142e+02
4546, 8.238891587786675e-01, 1.123164395967060e-01, -1.429015603916522e-02, -4.509281536428923e-10, 2.663912612999477e-11, 3.402659737921024e-10, -5.193785346618671e+02, -3.783091083135015e+02, -8.838136131614334e+01, -8.406882089646296e+02, 4.790318924797322e+02, 1.900534637215465e+02, 9.943223197861807e+02
4547, 8.214260737576095e-01, 9.255134624286360e-02, -1.430272429932733e-02, -4.531435988000363e-10, 4.179141152610809e-11, 2.620425734859132e-10, -3.137226877392926e+02, -3.615514583606567e+02, -8.147356825428459e+01, -7.049152670225667e+02, -1.552804470038286e+02, -1.261515378142412e+02, 5.259291543147319e+02
4548, 8.397281662859405e-01, 1.002849463619866e-01, -1.314573430610253e-02, -4.056576600856511e-10, -2.733540995064214e-11, 5.991485402099492e-10, -5.658512158996244e+02, -7.518580929555804e+02, 1.128407016064567e+01, -1.591460897077540e+03, 5.922405971013247e+02, 1.993466250082788e+01, 1.396253651796032e+03
4549, 7.763457504463573e-01, 1.483505599488871e-01, -1.768439952348505e-02, -5.844656458741226e-10, 8.761227746069577e-11, 3.465762116633441e-10, -3.844583585043600e+02, -3.526820159947993e+02, 3.723339997980685e+01, -1.015925134392298e+03, 5.897724509396231e+02, -2.389602395824378e+02, 1.280150509797837e+03
4550, 7.604987654927929e-01, 1.603350056614486e-01, -1.880112108502558e-02, -5.389833106162913e-10, 9.108123981922322e-11, 2.807160097710451e-11, -1.222313603820924e+01, 7.461095216720864e+01, 1.913191709828903e+01, 3.841564036875506e+01, 3.034678184428623e+02, 9.997291085506532e+01, 5.595241393673789e+02
4551, 9.889519330495415e-01, 1.304690209402999e+00, -1.233009775661913e-02, -2.002137447928050e-10, 1.153476456903691e-10, -1.313638190568389e-09, 1.257712966519624e+03, 1.172345643958553e+03, -5.501561891513262e+01, 2.485697610478766e+03, 1.456403969276976e+02, -6.223926743985935e+01, 1.305526076576633e+03
4552, 9.998498812162477e-01, 1.253340812259532e+00, -1.127636918066745e-02, -3.408170892571231e-10, 6.205948006645205e-11, 5.882766933060966e-12, -2.883654336635807e+01, 5.151734282184327e+01, 2.710869046607822e+01, 1.662656331659276e+02, 6.238577489060576e+01, -4.334451063932979e+01, 2.199118597420016e+02
4553, 9.840443656194603e-01, 1.265306149258596e+00, -1.236821484166033e-02, -3.102432125570103e-10, 7.406502548042391e-11, -1.029246299672503e-10, 2.600780291522209e+02, 4.095375880193995e+02, -7.374386221840437e+01, 5.004469697314971e+02, 2.085359188977489e+02, -1.600642141582439e+02, 5.175207913950517e+02
4554, 1.009381400496355e+00, 1.182430889468130e+00, -1.014081358697157e-02, -3.796374282188483e-10, 1.378053925578084e-10, 2.055310870690253e-10, -1.266048765416758e+02, -1.945485821095841e+02, -6.019674345378487e+00, -6.270099257894703e+02, 2.266557833219682e+02, -5.552559836379663e+01, 6.200795957832596e+02
4555, 8.685720429937863e-01, 1.438977948868615e+00, -1.870966326264343e-02, -7.250514691667015e-10, 8.292802337710196e-10, -2.282559759846929e-09, 3.291936633248318e+03, 3.920486928825243e+03, -2.495775693521582e+02, 4.449271608454450e+03, 8.221844464034168e+02, 1.419963392151008e+03, 3.044794453554978e+03
4556, 3.348388730379822e-01, 5.039892849967753e-01, -3.066881831159352e-02, -1.272744239868164e-09, 1.327861547319227e-09, -5.513139939102751e-09, 5.134235611045663e+03, 2.686403638455081e+03, 3.566390413934923e+02, 4.366051752332680e+03, 2.833229376844485e+03, 2.056762384165178e+03, 6.469587130132082e+03
4557, 3.531002811980548e-01, 5.117722797107296e-01, -3.178612613892402e-02, -1.239441437060919e-09, 1.320374974785521e-09, -5.186457893814742e-09, 2.041526543865599e+03, 2.378870241105566e+03, 3.486660009303284e+02, 5.170689602064899e+03, -4.413882657713048e+02, 5.535599784338677e+02, 3.273884462349612e+03
4558, 3.373230758280683e-01, 5.236923582976342e-01, -2.971764739719663e-02, -1.987519262861020e-09, 1.089281740988864e-09, -3.957314302745289e-09, 2.494542619783203e+03, 1.616095142402628e+03, -3.118415157004854e+02, 2.154664313191848e+03, -5.721075385023048e+02, -2.742195984937131e+01, 1.365479543599505e+03
4559, 3.555692456143422e-01, 5.314840873723927e-01, -3.099781453971386e-02, -2.019611408725734e-09, 6.523270302772505e-10, -5.919808204084009e-09, 4.955728177261580e+03, 5.019186208125732e+03, -9.765205980788098e+02, 7.401366346988801e+03, -1.325036110331358e+03, -5.550646728686886e+03, 1.031440519045867e+04
4560, 8.064223084615882e-02, 1.874237331244526e-02, -3.386852487076066e-02, -1.809405147601956e-10, -9.829089474397615e-11, -9.825155102940115e-10, 1.426093377347436e+02, 1.024791780279513e+03, -1.176922022816705e+02, 4.564163443440245e+02, -3.291378906983178e+02, -1.509427772571860e+03, 2.793125827151468e+03
4561, 4.039736303686695e-01, 8.443334655198810e-02, -3.776907138443522e-02, -6.866816061036595e-11, 7.962145098652827e-11, -1.121034432221719e-08, 6.791236512691871e+03, 7.138580047669046e+03, -1.846511833269416e+02, 1.293809366947320e+04, 4.985701922299017e+02, 2.118192686303223e+02, 6.062345786844390e+03
4562, 3.514225789739161e-01, 8.094084637038518e-02, -3.949428290201722e-02, -9.669543394189089e-10, 4.818999357161490e-10, -6.636679588792540e-09, 4.663824349503836e+03, 4.987296347191800e+03, -8.835296910547051e+01, 7.224941277153852e+03, -4.995138743828188e+02, -6.721471848718871e+02, 2.821845323441729e+03
4563, 3.355438734700772e-01, 9.295450940020991e-02, -3.985841447911997e-02, -9.403833387021838e-10, 6.102269539658195e-10, -7.443655796022361e-09, 5.485509057945199e+03, 6.218185463276086e+03, -4.505424012831403e+02, 9.752240471862540e+03, 2.748346006376263e+03, -3.209471690087567e+01, 6.236020456147508e+03
4564, 3.380111287979883e-01, 1.127274497822548e-01, -3.967758367329783e-02, -1.373208326566516e-09, 6.580639276241210e-10, -8.044005914310697e-09, 6.138449500809996e+03, 6.243599596156162e+03, -3.763788296125807e+01, 1.067229026839353e+04, 2.375760820671995e+03, -1.507883002192137e+03, 6.621792549308650e+03
4565, 3.196659579519825e-01, 1.049680651764867e-01, -4.012801275366015e-02, -1.261612965166819e-09, 5.836741776925140e-10, -1.467481900545951e-08, 8.545506239402812e+03, 9.448161837676873e+03, -2.039904814655056e+02, 1.805259192039117e+04, -4.865016918913136e+02, -3.581594867975863e+02, 9.156285483410200e+03
4566, 3.172135775367293e-01, 8.522143521188036e-02, -4.032842167811205e-02, -6.883805024045169e-10, 4.731415478787843e-10, -6.734870169508292e-09, 4.204310545279048e+03, 4.923335233226536e+03, -2.767654402186140e+02, 6.270828925741798e+03, -2.200565129528913e+03, -1.877618996992795e+03, 5.351189986649427e+03
4567, 1.080032752778368e+00, 1.343346671101959e+00, -6.697101844320908e-03, -3.408210772569397e-10, 6.190079337013294e-11, 1.524440638147603e-10, -8.550822330918513e+02, -7.836096203701959e+02, 5.444104537915761e+01, -1.084845762491772e+03, 2.919501943363013e+02, -5.557079066768011e+02, 1.124878427377912e+03
4568, 1.082461144671041e+00, 1.363014350692685e+00, -6.686612887847868e-03, -3.489542359905465e-10, 5.473525338635682e-11, 1.964613670865059e-10, -1.167725912267063e+03, -9.882515759285886e+02, 4.435160681857935e+01, -1.511136987716135e+03, 3.031536401544301e+02, 4.377387882301044e+02, 1.033551644991687e+03
4569, 6.779339683529521e-01, 8.921372209806588e-01, -2.653184222555375e-02, -9.405658107653598e-10, -9.985272113692446e-11, -1.012049297444882e-08, 7.356675073532389e+03, 6.846238964974444e+03, 2.018668120073705e+02, 1.596205966587176e+04, 5.557455893360170e+02, 1.035597382060472e+03, 9.108890379717537e+03
4570, 6.803831248996746e-01, 9.119587943935248e-01, -2.639369794599894e-02, -8.760908837687852e-10, 3.859979046167228e-10, -3.380446636119935e-09, 3.265113147345996e+03, 3.772169868806436e+03, -1.768511862809333e+02, 4.636820973448845e+03, -1.975465705966637e+02, 2.755521249807119e+03, 4.942949549531218e+03
4571, 8.092967162395333e-01, 2.745790616612302e-01, -1.646989425261853e-02, -5.657514688139344e-10, 7.783174599097625e-11, 2.310044818834775e-10, -2.318012854372752e+02, -2.550679627192062e+02, -3.463833251927614e+01, -3.311531915622991e+02, 1.777116140881608e+02, -1.059135558192798e+02, 3.742957257152672e+02
4572, 1.071269776128445e+00, 9.841537539485382e-01, -4.449282398135577e-03, -2.173018783217317e-10, -1.751043663903300e-10, 3.230058936587944e-11, -1.316829349144175e+03, -1.751117235795073e+03, -1.534129679678299e+02, -3.115831874269721e+03, 1.777027789984569e+02, 1.350793946491125e+03, 2.878021083318886e+03
4573, 4.871383996293528e-01, 1.944291287048301e-01, -3.450374143797867e-02, -6.572341047955488e-10, 7.866285223335525e-10, -3.933466428354825e-09, 2.921246978384705e+03, 2.414842798473852e+03, -1.662172863287711e+02, 2.850239350941043e+03, -1.301944364985283e+03, -6.081128604404827e+02, 2.550096942807656e+03
4574, 1.015591268973340e+00, 1.519733303355364e+00, -1.209017178118636e-02, -4.099107609650741e-10, 3.137685558184895e-10, -1.362956912537060e-09, 2.294953535846070e+03, 2.390793982338754e+03, -2.115316986439485e+02, 4.011305038895539e+03, 3.961977548186175e+02, -4.222343729939885e+02, 1.982562114383769e+03
4575, 1.033529362266636e+00, 1.527327434650453e+00, -1.104523888963268e-02, -3.851241777290228e-10, 3.744388916025338e-10, -2.199171743654809e-10, 1.119570375753420e+03, 9.226549002602508e+02, -1.298643194941199e+02, 1.167881981696034e+03, 6.743120388602659e+02, -3.230306386040069e+02, 1.333549324446944e+03
4576, 6.373397722203943e-01, 1.248271921362601e+00, -1.224313321448803e-02, 3.385237968230589e-11, 4.216977945223818e-10, -1.413896301158735e-09, 2.507573829370499e+03, 2.834465950180153e+03, 2.693377217933875e+02, 9.060667539033959e+03, -9.682355367053566e+02, -3.118132644621015e+02, 6.650525697274267e+03
4577, 1.307795624458110e-01, 1.183497086745703e-01, -3.304256860566959e-02, -1.371716623227105e-09, 1.515990872793387e-09, -3.755036796032791e-09, 1.469419887988258e+03, 1.861625718505289e+03, 2.538410786395967e+02, 1.024547000293251e+03, -1.770853194472879e+03, 6.538505328898281e+02, 3.377846886244351e+03
4578, 8.372735601430819e-01, 8.053919262235337e-02, -1.315737984722659e-02, -3.445290098016605e-10, 3.789120551511509e-11, 5.537249318347796e-10, -5.681046838735824e+02, -5.231602616334213e+02, -2.462128042264083e+02, -7.975330278691531e+02, 6.381137554274351e+02, 1.909084673102720e+02, 1.256079913321573e+03
4579, 8.555807540104080e-01, 8.827274253677725e-02, -1.199378092635534e-02, -5.132365240756016e-10, -1.204265502524226e-10, 2.085337522866234e-09, -1.688070462057324e+03, -1.489350214859455e+03, 4.718749928921630e+01, -3.163681639453531e+03, 1.176257231411325e+02, 1.064465871305245e+02, 1.610072029966131e+03
4580, 7.848036485419582e-01, 7.704419909333052e-02, -1.660092837942535e-02, -3.719672193896625e-10, 6.369279385635241e-11, 2.928287718506233e-10, -2.703272011702641e+02, -1.263452072748302e+02, -9.323028259192155e+01, -1.826117205440640e+02, 5.998422973262078e+02, 4.781487994810085e+00, 1.058948516196667e+03
4581, 1.052409690086936e+00, 1.257300862108731e+00, -7.873824497661960e-03, -4.226752616634555e-10, 1.823637719004078e-10, 2.147568758093588e-09, -2.284962006798925e+03, -2.215289712192635e+03, -9.174180781606162e+01, -4.629771085738180e+03, 2.166409952322965e+02, 5.234220018137674e+01, 2.416737642435417e+03
4582, 1.049794853811063e+00, 1.237265783713658e+00, -7.894369417962037e-03, -2.777086995165463e-10, -4.522436318734969e-11, 1.953936339555202e-10, -5.689706933320782e+02, -5.461056446544080e+02, -5.857666899995090e+01, -1.277852529255128e+03, 2.258505004859660e+02, 3.972602029466861e+02, 1.075179480894312e+03
4583, 1.114080655837091e+00, 1.487879360191186e+00, -5.539193367947870e-03, -1.626508922894608e-10, 5.178658383370599e-11, 4.144676380696945e-13, -1.665161894775603e+02, -4.831231530233600e+01, -3.913930296788769e+01, -4.973700923802073e+01, 2.353164570614487e+02, -1.828979479657363e+02, 5.337395613898753e+02
4584, 1.111804724452462e+00, 1.468462641742281e+00, -5.540947836471950e-03, -1.696892721595970e-10, 4.940096758396746e-11, 3.301879229160653e-10, -3.841609441424578e+02, -3.952293791976242e+02, -7.395596404202539e+01, -8.140261262737339e+02, 1.515586776847351e+02, -8.079088784097860e+01, 5.338995271430958e+02
4585, 7.819698866742797e-01, 1.310302282577681e+00, -2.147289468115147e-02, -6.157116651047304e-10, 1.272739092126977e-09, -9.997780356935623e-09, 8.029538302720390e+03, 7.445640962352188e+03, 2.882604413201969e+02, 1.465360020158907e+04, -3.692088608172876e+02, -5.431072867336994e+02, 7.044858312190153e+03
4586, 7.662603673219518e-01, 1.322376957883076e+00, -2.134569725739432e-02, -8.733933007267867e-10, 6.589003114449857e-10, -3.986029941350615e-09, 5.136681076371332e+03, 5.280428057511578e+03, 2.008692516044793e+02, 9.483469251149130e+03, -8.532395771565178e+02, 1.512324847047955e+03, 5.239930436464743e+03
4587, 8.967520455318754e-01, 1.115792042161482e+00, -1.676157108558791e-02, -3.779893301227933e-10, 1.529496483926080e-10, -7.979373542275417e-10, 1.154546435275341e+03, 9.184680941575988e+02, 1.914696494840206e+02, 1.758817838704931e+03, 1.009539235691275e+03, 3.915632075837433e+02, 2.047190226743719e+03
4588, 8.942926354958464e-01, 1.096052060816883e+00, -1.679082167187428e-02, -4.932874995283401e-10, 2.643124909655744e-10, -1.319738052584013e-09, 1.967342358082084e+03, 1.877483431005972e+03, -7.005070636629671e+01, 4.417413664939190e+03, 8.338511150054235e+02, -4.833263329146464e+02, 3.005418805590110e+03
4589, 9.125864785280962e-01, 1.103794482155167e+00, -1.573462154943636e-02, -4.290772141834256e-10, 2.013746748620682e-10, -3.896063314308556e-10, 1.010904841531345e+03, 9.321106023150671e+02, 5.475571555510874e+01, 1.532157370756408e+03, 2.247201337236824e+02, -2.197109097841683e+02, 7.901234461347373e+02
4590, 9.101152937967213e-01, 1.084025031020125e+00, -1.575919964462559e-02, -4.806721085377438e-10, 1.938786360183904e-10, -4.212255268179490e-10, 7.924269257009995e+02, 8.408832081879528e+02, 1.397512505444198e+01, 1.408129627435826e+03, 9.291136111501290e+02, -1.932419495475464e+01, 1.715536550866488e+03
4591, 9.284857581977404e-01, 1.091937231346402e+00, -1.467419497235923e-02, -4.467318511598253e-10, 1.756859790001159e-10, -1.899103927411380e-10, 4.734852741191689e+02, 4.111925525810242e+02, 1.394306580090256e+01, 5.094357593288535e+02, 1.109324465650730e+02, -2.920507560663406e+02, 5.484473145335434e+02
4592, 9.259598190252695e-01, 1.072055406352718e+00, -1.469777832416048e-02, -4.624484400877331e-10, 1.568781263232280e-10, -1.025915860742742e-10, 4.830876372423159e+02, 3.652102913728918e+02, -3.589750207128672e+01, 3.908897462509412e+02, 1.736263679660669e+02, -9.678239307426458e+01, 3.659674997036460e+02
4593, 9.076662070980800e-01, 1.064312210845204e+00, -1.578214699263181e-02, -4.849930747357250e-10, 1.666853967156817e-10, -3.792085066012977e-10, 9.366831124474111e+02, 1.030725669760403e+03, 2.871101857827709e+01, 1.857609408353415e+03, 7.566845245991022e+02, -4.319739215829739e+02, 1.746520759957743e+03
4594, 9.442524160203112e-01, 1.079798809874512e+00, -1.359701107622264e-02, -3.952930191318491e-10, 1.287908676346794e-10, -2.541453393815957e-11, 3.631597563960446e+02, 2.194633478356884e+02, -5.437356236988542e+01, 1.820204089600533e+02, 1.058332767031789e+02, -4.372294272091036e+01, 2.750229712865116e+02
4595, 9.234930084792152e-01, 1.052297982887611e+00, -1.471809904205715e-02, -4.735206436794024e-10, 1.582543906887991e-10, -4.699067294173288e-11, 4.938969440096135e+02, 3.408429467577376e+02, -1.334670213673216e+01, 4.707403453590565e+02, 2.419323566450077e+02, -2.561802397415001e+01, 4.455497643988122e+02
4596, 9.052057741297845e-01, 1.044570144349953e+00, -1.580504646543731e-02, -5.144419253871865e-10, 1.095811796119523e-10, -4.201101908795852e-10, 1.021679430436196e+03, 9.453959520872685e+02, -9.769180546580155e+01, 1.807770362055729e+03, 4.334471456726194e+02, 2.513644168416680e+02, 1.210593422008044e+03
4597, 9.678782183486914e-01, 1.127466432015522e+00, -1.242640968068419e-02, -3.223627035910480e-10, 1.097688514940700e-10, -4.190229937490887e-11, 2.424926046693728e+02, 1.217652542843160e+02, 1.225045137035632e+01, 2.706303923917042e+02, 1.009473244447370e+02, -1.211858563029166e+02, 3.063383288194873e+02
4598, 9.976313937177413e-01, 1.512105784716533e+00, -1.310299871219646e-02, -2.481004430037963e-10, 3.675968880087831e-10, -7.957012275691413e-10, 1.873668497443159e+03, 2.208587841554580e+03, -4.097908943027204e+02, 1.978702025389946e+03, 9.146515784627118e+02, -1.161829800330856e+03, 2.674157617771828e+03
4599, 8.431272290729884e-01, 1.242587615048452e+00, -1.998834363498399e-02, -3.221597779285828e-10, 3.100303415506689e-10, -2.469090372352662e-09, 2.271629486428728e+03, 2.311507498920354e+03, -1.485981709039122e+02, 4.319249135639237e+03, 1.372587631323402e+03, -1.398231933653235e+03, 3.961827074570628e+03
4600, 7.927305667960183e-01, 1.258620995706562e+00, -2.167062612264262e-02, -1.054676710690348e-09, 2.125632174523288e-10, -1.092371011623974e-08, 7.080844237648089e+03, 6.902558345795841e+03, 8.118125528051969e+01, 1.568112840249895e+04, -6.973157610519729e+01, 4.790513094228513e+02, 8.732285614079257e+03
4601, 8.992107823174166e-01, 1.135532033832403e+00, -1.673136482013755e-02, -3.915131283473427e-10, 1.671939345729554e-10, -8.358559962042037e-10, 1.374873677320641e+03, 1.220311461447248e+03, 1.587955132774934e+02, 1.789799297293125e+03, -4.955881755026037e+02, -4.146369434617789e+02, 1.260328100450830e+03
4602, 9.210391955125976e-01, 1.032571244718226e+00, -1.473739828818389e-02, -4.588613836920979e-10, 1.705095456583290e-10, -1.299751998416176e-10, 3.665094948701897e+02, 3.116191780175481e+02, -1.563286193603954e+01, 4.455509446228524e+02, 4.259207485702723e+02, 6.717600060971375e+01, 7.563699917125665e+02
4603, 9.027452758284819e-01, 1.024827719794008e+00, -1.582744661036569e-02, -3.695035076489293e-10, 2.155417952185284e-10, -1.244570093839885e-09, 1.383990285866962e+03, 1.225801325106268e+03, -1.150451802461805e+02, 2.541761985693675e+03, 2.890455557451421e+02, -2.445726442828259e+02, 1.420704499041260e+03
4604, 8.604843269971213e-01, 1.380577831466490e+00, -1.915741727156498e-02, -6.159160315882053e-10, 5.320640774369716e-10, -1.984255760811327e-09, 2.917448554163166e+03, 3.151473108400576e+03, -2.645824170605966e+02, 4.666825298244016e+03, 2.235553333976554e+03, -1.904881248049800e+03, 5.366052065803999e+03
4605, 6.754665018137315e-01, 8.724573637512036e-01, -2.666558119955715e-02, -1.104921041927394e-09, 7.645479818600735e-10, -3.392673207506595e-09, 3.924916774472113e+03, 4.337603674415092e+03, 3.164892820333019e+02, 8.049806577986695e+03, 1.887160692913222e+03, -1.416242006967966e+03, 5.699525023136773e+03
4606, 6.571604594689968e-01, 8.647288894524439e-01, -2.728165177832687e-02, -5.046408959695739e-10, -2.493654428488920e-10, -1.107523859004965e-08, 8.357573632133748e+03, 8.515141317781377e+03, -1.889438626208738e+02, 1.785835984913612e+04, -5.025844075483717e+02, 1.205433607304331e+02, 9.471072491325562e+03
4607, 6.730174617844948e-01, 8.527334639242810e-01, -2.679456326559996e-02, -1.098303567305551e-09, 7.670306592124780e-10, -3.758150634006289e-09, 3.670341271184712e+03, 3.691948675414701e+03, -1.781085705469184e+02, 7.453489646734922e+03, 1.387988861091462e+03, -1.895073071286461e+03, 5.556936886084565e+03
4608, 9.740922472585855e-01, 3.444788198265212e-01, -5.971027697971982e-03, -1.688142583195006e-10, -6.980398340948105e-11, 3.495813046391915e-11, -9.953773914478061e+02, -1.883590683948315e+03, -3.817499440453353e+02, -2.596514098527301e+03, -4.389044436133016e+02, 7.489989789962310e+02, 2.151399429258084e+03
4609, 7.741325868138881e-01, 1.381362835515206e+00, -2.015138060895168e-02, -8.051093305675964e-10, 4.541506886579240e-10, -4.599368784193736e-09, 7.784804923194892e+03, 6.778150741869051e+03, 1.772332825727763e+02, 1.255227962116057e+04, -3.817401059784178e+03, 1.874952621072005e+03, 9.104921495129380e+03
4610, 3.221318754901567e-01, 1.247382847527040e-01, -3.991934941157525e-02, -4.448513219177046e-10, 9.895185120559184e-10, -8.612004965261304e-09, 6.338945983747869e+03, 6.710882628384784e+03, -1.206879311531601e+02, 1.219430950792929e+04, -2.606474661012267e+03, 1.430537559333336e+03, 7.668763585956332e+03
4611, 9.765364510125331e-01, 3.641991598554633e-01, -5.962271914963419e-03, -7.751401209134593e-10, -2.014718359340528e-10, 6.003277668954582e-10, -3.359622515734343e+03, -3.207257283814834e+03, -2.705754909095550e+02, -8.211762557824615e+03, 4.982950568188894e+02, 7.799344474213918e+02, 5.205304602171662e+03
4612, 4.004967690803666e-01, 1.952651885294098e-01, -3.758225120194869e-02, -1.119645211451362e-09, 7.331468484433322e-10, -6.303597471747270e-09, 4.133660552360885e+03, 4.600922271998616e+03, -5.401223719050820e+01, 6.468733308058854e+03, -2.533288733029351e+02, -1.822616889357628e+03, 3.840167141322871e+03
4613, 9.983549729731783e-01, 2.610136355670890e-01, -3.585575844077813e-03, -1.268673361401724e-10, 1.368678016081716e-10, -2.103926924084676e-10, 4.648240291165916e+02, 1.199861592729787e+02, -2.149159181789922e+01, -5.446535508986082e+02, -7.339626495808241e+02, 7.198193918070987e+02, 1.990417315952771e+03
4614, 1.031183194430342e+00, 1.079445060393881e+00, -7.921645419525426e-03, -1.319653836134162e-10, 2.411474593710536e-11, 2.502291354279891e-09, -2.758442907852513e+03, -2.838336678725645e+03, -9.583030233645990e+00, -5.887177612330106e+03, 6.362824154705575e+02, -1.216260263789832e+02, 3.287037809794590e+03
4615, 1.012813456014277e+00, 1.071505654743633e+00, -9.081502583213550e-03, -5.126848549336494e-10, 1.859668539579569e-11, 2.315699863966795e-10, -5.828052037910038e+02, -6.821675886964526e+02, -5.556539389193166e+01, -1.646687847901362e+03, 7.864730635286991e+02, 9.532228828865520e+01, 1.711183929650033e+03
4616, 9.203694064302130e-01, 1.442592513739507e+00, -1.682907094485007e-02, -8.866115769834738e-10, 8.754292987327651e-10, -1.618198757815457e-09, 3.546901495820186e+03, 3.233412811324094e+03, -2.751474598229022e+02, 6.081420012783837e+03, 1.523589699439961e+03, -1.395647115745907e+03, 4.511229305808106e+03
4617, 4.188029662828900e-01, 2.029824273723434e-01, -3.698578237413142e-02, -1.081440297043476e-09, 8.652022057327274e-10, -6.425397696451308e-09, 3.662170587792843e+03, 3.665283538726000e+03, 9.061163986564111e+01, 7.202556045109651e+03, 2.757378775441203e+03, -5.758651311001506e+01, 5.947042205307239e+03
4618, 2.453796657247461e-01, 2.045304609428742e-01, -3.806476170640147e-02, -2.433082675529507e-09, 6.617253261080891e-10, -1.778337240225112e-08, 1.091158482382359e+04, 1.145456142783156e+04, -2.843563928906835e+02, 2.194228203850165e+04, 1.712205289589958e+02, 9.434831016346351e+02, 1.090791915505863e+04
4619, 2.478405725934800e-01, 2.242644025741006e-01, -3.749921416646958e-02, -2.398980094101210e-09, 2.471411228804532e-09, -8.764115682898908e-09, 3.394834194614251e+03, 4.938056113418597e+03, -3.520053300366756e+02, 4.727826468897824e+03, 1.193119460235039e+03, 3.334094170488132e+03, 6.331838327693843e+03
4620, 2.295362981406358e-01, 2.164999202996170e-01, -3.685068290617414e-02, -1.916554260799406e-09, 1.468947640925593e-09, -8.820477092258945e-09, 6.581355059341558e+03, 6.149550228489200e+03, -5.332735939039844e+02, 9.257248085521012e+03, -2.485265859523832e+03, 3.186418133414996e+02, 5.309397480514185e+03
4621, 2.320041229595928e-01, 2.362259372123691e-01, -3.614612020389753e-02, -3.045586203993316e-09, 2.049046627651575e-09, -8.311407823968146e-09, 8.343367025270687e+03, 7.177419907337974e+03, -3.974501761437219e+02, 1.377366801312344e+04, 4.371468844585790e+03, -2.116344815398225e+03, 1.041244020030251e+04
4622, 2.503007369750963e-01, 2.439937965207248e-01, -3.689497244422283e-02, -2.143215018823240e-09, 1.817252542804891e-09, -7.457615890989151e-09, 4.764228062376445e+03, 4.352206593165182e+03, 1.143486621848950e+01, 9.130300134331797e+03, -2.546540983679371e+03, -2.127187884852678e+03, 7.352622155662104e+03
4623, 2.344743271913474e-01, 2.559481741028053e-01, -3.539472550106806e-02, -2.564325448548887e-09, 1.245406667349666e-09, -7.865150660670252e-09, 7.534465315938498e+03, 5.629916874331156e+03, 4.869801077075851e+02, 1.033562714657033e+04, 3.673972442933284e+03, 3.216145449580630e+02, 7.637063435891533e+03
4624, 2.137252031635239e-01, 2.284467461981155e-01, -3.513773605508914e-02, -2.751088003786861e-09, 2.416578337122481e-09, -9.626740312888922e-09, 9.062325446230030e+03, 8.722907945671524e+03, -1.246786602339612e+02, 1.697099238274851e+04, 4.110202981280128e+03, -3.456188124920080e+03, 1.232518583747319e+04
4625, 2.527625649144482e-01, 2.637202091655886e-01, -3.625409252289380e-02, -1.595389543729775e-09, 1.565966241446028e-09, -1.018788094508268e-08, 6.821636195088621e+03, 6.764138963402970e+03, -7.313305949407957e+01, 1.477044777617064e+04, -2.822077688659174e+03, -1.506689418308991e+03, 9.714046424106053e+03
4626, 2.369482636138074e-01, 2.756662605450246e-01, -3.458918289571545e-02, -2.165317671357944e-09, 1.478946209849536e-09, -8.740852920726077e-09, 8.251438085503944e+03, 6.887196947206829e+03, -1.267332127620531e+03, 7.794229487009523e+03, -3.493974550491976e+02, -2.538740016696392e+03, 5.095751302224146e+03
4627, 2.186968990158698e-01, 2.678725977850648e-01, -3.329473241380026e-02, -2.978457950363718e-09, 1.045394648821731e-09, -8.370036997112336e-09, 6.550085715369051e+03, 7.152467165090507e+03, -1.679915988082433e+02, 9.789090346632940e+03, 5.361340932681779e+02, 1.216795065530482e+03, 3.780430085464365e+03
4628, 2.211931246466071e-01, 2.875745804020566e-01, -3.225522810904147e-02, -4.431659787906209e-09, 2.743851507686126e-09, -1.454039841591293e-08, 9.629646210818519e+03, 9.050264569342962e+03, 5.281789474052738e+02, 1.715930189502632e+04, 5.867195268057653e+02, -2.916382719857561e+02, 7.969864436436565e+03
4629, 2.394258723396726e-01, 2.953777183925597e-01, -3.371314184432857e-02, -2.742374552598465e-09, 1.990760138084733e-09, -8.617998932631737e-09, 6.587368166013199e+03, 4.754515840123761e+03, 3.303314858525698e+02, 9.313872039421236e+03, 2.358229444465945e+02, 3.546327233371431e+03, 7.349418655895480e+03
4630, 3.077215809000565e-01, 2.869962756176677e-01, -3.752369013832960e-02, -1.992328605596505e-09, 1.712328445713863e-09, -1.609226946400209e-08, 1.019293785407088e+04, 1.081922580749852e+04, -5.039408968198370e+02, 1.904097691983645e+04, 6.029655471213750e+02, -8.289429827532429e+02, 8.777962330350507e+03
4631, 3.404477073691823e-01, 1.324570777105255e-01, -3.949077551533221e-02, -5.895189813479784e-10, 8.166802466134541e-10, -1.501494530614295e-08, 1.157743865056517e+04, 1.225049661731574e+04, -2.396528328232475e+02, 2.641612477367572e+04, 1.889684630904055e+02, 1.490298448412290e+03, 1.475109192746484e+04
4632, 5.936211079025857e-01, 6.322594748924518e-01, -3.002136717029314e-02, -1.035583550367780e-09, 6.245387084299758e-10, -3.769035354494513e-09, 2.606431501841180e+03, 3.192624908422960e+03, 3.756717589033586e+02, 4.786188376946084e+03, 1.033958382238366e+03, 1.847919107811201e+03, 4.206211637959514e+03
4633, 6.119309593578425e-01, 6.400000567556052e-01, -2.935264520301447e-02, -7.261781790341898e-10, 4.402501035594671e-10, -3.332120057589899e-09, 2.522396929419409e+03, 1.897036340827630e+03, 1.071943470873090e+02, 4.594685836664799e+03, -2.135579332813551e+03, -4.309824262272775e+01, 4.438865453191657e+03
4634, 5.960756637915574e-01, 6.519968537238033e-01, -2.989294584971786e-02, -2.827707461533366e-10, 1.987963401998654e-10, -3.580577898853803e-09, 3.103856592288507e+02, 8.464271077297185e+02, -4.925783318883569e+02, 2.201785412901407e+03, 1.044080554095841e+03, -1.219016382926783e+03, 3.362600254868748e+03
4635, 6.143731631201048e-01, 6.597160100006882e-01, -2.923398969392026e-02, -1.040307313807032e-09, 4.248024365278954e-10, -3.184111117613153e-09, 2.711240834282944e+03, 2.604669835344008e+03, -2.850399635244373e+02, 4.259857377241561e+03, -5.139800150629159e+02, 5.464487798638800e+02, 2.122898185031688e+03
4636, 5.985196509117661e-01, 6.717177596344008e-01, -2.976138629644808e-02, -1.295950063216766e-09, 4.805412473156752e-10, -4.529833973508231e-09, 4.132532093626792e+03, 4.686769833969895e+03, -4.117827428160701e+02, 8.083960129772560e+03, 2.088875767713003e+03, 3.962496532417392e+02, 5.272653489043193e+03
4637, 6.168397720612357e-01, 6.794740864431354e-01, -2.911182217112743e-02, -1.111096875839800e-09, 4.060075748316592e-10, -3.698268236504103e-09, 2.547276296760058e+03, 3.287920420190248e+03, -5.901930132399661e+01, 4.229368981375806e+03, 4.831138464624543e+02, -2.591769429812529e+03, 4.795269605239499e+03
4638, 5.753009973668146e-01, 6.245025269369558e-01, -3.065685614952873e-02, -6.812943608539102e-10, 3.788213673663796e-10, -5.484521019220995e-09, 5.041888162225418e+03, 4.464173160709814e+03, 1.849901877120850e+02, 1.016282623450205e+04, 3.456271081415766e+02, 2.347907408111899e+03, 6.820208948613782e+03
4639, 1.077847776975511e+00, 8.979649967780121e-01, -3.284688064663129e-03, -7.670924675929303e-10, 2.790899316963385e-10, 5.234951774998980e-09, -1.110835559812470e+04, -1.165869915057176e+04, -4.358542497186677e+02, -2.258001384785828e+04, -1.973751889453534e+02, 3.495061947266806e+02, 1.125351986215281e+04
4640, 1.061392907133057e+00, 9.052886908203601e-01, -4.491401744309479e-03, -5.949009497787726e-10, 1.335685387763567e-10, 6.944493978311067e-11, -3.175773437013796e+03, -3.076998446991432e+03, 6.926538698270673e+01, -5.189509928749541e+03, 2.040579701780415e+03, -8.946906645660105e+02, 4.378527349911385e+03
4641, 1.062550815370795e+00, 8.856549447328820e-01, -4.251135000052093e-03, -1.405537787565132e-10, -1.313046414473531e-10, 2.579729348861984e-11, -1.766347057042315e+03, -1.766757770023610e+03, -4.913109599459010e+02, -3.920591382549139e+03, 5.714294607714613e+02, 1.797856844514890e+03, 4.005060045824885e+03
4642, 4.397316981795183e-01, 5.110986801904075e-01, -3.424748011764943e-02, -1.531077407014122e-09, 9.562803949035840e-10, -1.421113257601403e-08, 9.010963899510825e+03, 8.094762127752705e+03, -3.337968318579399e+02, 1.671060773910574e+04, 5.236119009301943e+02, -2.163010677369016e+02, 8.274992203615830e+03
4643, 1.060794980408868e+00, 7.613176280483648e-01, -3.349762809517601e-03, -4.370944068626285e-11, 3.979660540722085e-10, 3.219828456021847e-10, -3.026864825426055e+03, -3.288575398247617e+03, 2.048665585644471e+02, -6.659040708095372e+03, -5.047473079906625e+02, -2.040737299055743e+03, 5.068990221161089e+03
4644, 1.044092236604145e+00, 7.676725798137979e-01, -4.568886292529655e-03, -2.108826756059588e-10, 5.508558736893144e-11, 3.960081839726554e-10, -1.926856504014698e+03, -2.327848496783293e+03, 2.994749958800166e+02, -4.161073367208537e+03, 8.009675803025650e+02, -1.380165886297281e+03, 3.487820685248952e+03
4645, 1.046597446119309e+00, 7.867584241279044e-01, -4.550842764832747e-03, -2.983364529000255e-10, 1.578048368662230e-11, 4.195539781441476e-10, -2.511206104314626e+03, -2.863414745173106e+03, -1.710401876732870e+02, -5.517505307292055e+03, 1.465218894570885e+03, 1.912347772811934e+03, 5.059903827661184e+03
4646, 1.045488819812484e+00, 7.477836289412425e-01, -4.309140272601224e-03, -8.167244813351776e-10, 9.884212398302447e-11, 4.376561576815448e-09, -8.570923525356517e+03, -8.697052302907301e+03, 1.652479836447448e+02, -1.740516992594787e+04, 4.950047981316603e+02, -4.691008603991764e+02, 8.855661580384411e+03
4647, 1.026263855073912e+00, 7.593315030049385e-01, -5.731529794309295e-03, -4.181919512895017e-10, 3.465687219678700e-11, -1.518343521178610e-10, -1.507193643730180e+03, -1.567195676363135e+03, 1.905505499056524e+02, -2.966934629879764e+03, 1.288191850291162e+03, -3.612656379068349e+02, 2.743289706420536e+03
4648, 1.023665555347581e+00, 7.394147643430253e-01, -5.749632734319958e-03, -6.875535404520320e-10, -6.699152089726959e-11, 4.495453367987227e-10, -2.814693802427496e+03, -3.137854454984045e+03, 1.742770252696548e+01, -5.479441951086955e+03, 9.108823294964682e+02, -1.744092405590564e+01, 2.972392527751635e+03
4649, 5.410069824718271e-01, 3.481677005181970e-01, -3.230652013691102e-02, -8.954414725472384e-10, 6.935030839005896e-10, -3.533569550260229e-09, 2.680139725352710e+03, 2.648732712788317e+03, -8.214210777376252e-02, 2.657616158236565e+03, -3.173788559159896e+02, -1.552203939549605e+03, 2.744264119615310e+03
4650, 4.127675635390450e-01, 2.939806022947337e-01, -3.676269186307290e-02, -1.094810733524005e-09, 1.432956320969091e-09, -6.036215623980910e-09, 3.460159695211973e+03, 2.801273704861194e+03, 4.163333427519955e+02, 2.891172127553762e+03, -1.546713874065930e+03, -1.143429769330279e+03, 3.464425833689288e+03
4651, 1.043503265119775e+00, 6.227652933068313e-01, -3.415442733325419e-03, -1.692708868457448e-10, -2.132673901751486e-10, -8.968883865792189e-11, -7.975154736215528e+02, -1.735700498291225e+03, -1.865774168820505e+02, -3.697452243409373e+03, -3.683732486668712e+02, 8.845856782299700e+01, 2.665361488149994e+03
4652, 1.026852594512138e+00, 6.293996637015958e-01, -4.636084662683194e-03, -5.639843645838435e-10, 9.447914972588605e-11, 7.965310974456467e-10, -3.517198179736294e+03, -4.166530463084820e+03, -4.100974761262954e+02, -7.170330934041576e+03, 1.449043204818678e+03, 9.940366231256517e+02, 4.600321638153418e+03
4653, 1.028556643505537e+00, 6.422225862699218e-01, -4.622556260388948e-03, -1.162418180386527e-09, -3.438723614130222e-10, 7.897847336263932e-09, -1.236556625520474e+04, -1.291346730028012e+04, 1.877984594312923e+02, -2.508509845334529e+04, 4.033363626330555e+02, 1.141977145997498e+03, 1.263423249607193e+04
4654, 1.028343002101023e+00, 6.094820662055803e-01, -4.368736644410919e-03, -8.217285361532932e-10, -7.770536571615568e-11, 4.001812175885235e-09, -6.802306715211092e+03, -7.101222546580403e+03, -2.246523158136892e+02, -1.416827126359354e+04, 6.315313504052311e+02, -3.800933870427718e+01, 7.314179150360972e+03
4655, 1.011063935384829e+00, 6.405895290493877e-01, -5.819232394644143e-03, -1.011714807216489e-09, -8.382017494825902e-11, 4.451330454453334e-10, -4.552446033542885e+03, -4.247484681358445e+03, -1.475617035564875e+02, -7.443945434521574e+03, 3.843651528283554e+03, 1.362016327767553e+03, 7.699813360878591e+03
4656, 1.017106592136430e+00, 6.589676400084802e-01, -5.551654471793784e-03, -3.247569029401078e-10, 3.990894483675169e-10, 1.748242932949230e-10, -2.345839312039162e+03, -2.255466490520079e+03, 3.666346952721135e+02, -5.406199661811230e+03, 1.076825781374278e+03, -2.285210829029118e+03, 5.403613236156433e+03
4657, 6.780415085975008e-01, 1.172688537729252e+00, -2.326860998821841e-02, 2.866800777188760e-10, 8.599165516142853e-11, -6.570604573539919e-09, 9.271074432666277e+03, 9.379556458759447e+03, -2.561837415077225e+02, 2.195706183169836e+04, -6.081846151770204e+03, 4.086975188363259e+03, 1.791210176843807e+04
4658, 6.597452511219835e-01, 1.164927374652557e+00, -2.275275549559337e-02, -1.158907903545985e-09, 9.008969574675046e-10, -2.250311354434633e-09, 3.386088906591539e+03, 1.745001858857241e+03, 2.446255190328015e+02, 3.122626247000714e+03, -1.146398214918618e+03, -1.065052794564147e+03, 3.139337193396481e+03
4659, 1.026221320603985e+00, 4.842239432388057e-01, -3.480191177353471e-03, -3.882085425368469e-10, -1.252828813887316e-10, 5.755981793258128e-12, 3.024962277583024e+02, -5.365606703411103e+02, 1.052805373891462e+02, -8.408578143567972e+02, -7.377471754156455e+02, -9.014610525163259e+02, 2.270659946939278e+03
4660, 1.009594122271049e+00, 4.911070529650159e-01, -4.703790532820432e-03, -3.074488952895942e-10, 1.580129219666852e-10, 4.190891393464272e-10, -2.809948068108025e+03, -2.979043647636741e+03, -1.079691214985712e+02, -5.467554435585364e+03, 7.447958082293407e+02, -1.961355282130511e+03, 4.458918415971270e+03
4661, 1.012090498114202e+00, 5.102041219469707e-01, -4.686588575201967e-03, -5.693736963980544e-10, -6.163040112217776e-11, -3.073803322704436e-11, -2.861570469654231e+03, -2.474265692225852e+03, -3.771388398609439e+02, -4.299454304258992e+03, 2.232790363997122e+03, 8.455138720267252e+02, 4.505757966935757e+03
4662, 1.011178670483555e+00, 4.711405440482980e-01, -4.428732415512817e-03, -6.238937135737833e-10, -5.103031707550719e-11, 4.532601358984826e-09, -8.797055555108112e+03, -9.030188780138824e+03, -2.416262246135499e+02, -1.760374590809559e+04, 5.234161521343358e+02, 6.772080658633172e+00, 8.749639686045066e+03
4663, 9.937787489341472e-01, 5.024269018344797e-01, -5.892915328969820e-03, -2.570684775972715e-10, 1.671477753277288e-10, -2.199109822086779e-11, -1.168119301451462e+03, -1.240738915268340e+03, 1.423308882109783e+02, -1.848649925730012e+03, 4.049601514089967e+02, -8.408822064045191e+02, 1.758686083647041e+03
4664, 9.962730688994512e-01, 5.220658799506683e-01, -5.879921077301957e-03, -3.477305241872760e-10, 1.461888034952718e-10, 5.306311534776443e-11, -9.081279429785301e+02, -8.325245940100566e+02, 1.138808763941316e+01, -1.158526996814821e+03, -2.319563491497221e+02, 5.315006802975637e+02, 1.047199020439329e+03
4665, 7.080251801540142e-01, 1.568703525135735e-01, -2.213478944163098e-02, -5.670838087406288e-10, 1.356581268362543e-10, -1.727113194034102e-09, 1.197293050370489e+03, 1.086995491149105e+03, -1.020743631665472e+02, 1.997827429375160e+03, 1.111831193388854e+02, 6.893371270906870e+01, 9.076981804457484e+02
4666, 9.249017684760532e-01, 9.222152668857664e-01, -1.371364507189573e-02, -3.780564758837739e-10, 9.464233115241820e-11, 3.212962229634983e-11, 1.706363546961955e+02, 1.004820939787137e+02, -2.445049053575063e+01, 6.316389048443471e+01, 1.867774816262255e+02, 1.545617261017430e+01, 3.407344153322211e+02
4667, 9.066055606217709e-01, 9.144738288449153e-01, -1.482981038560899e-02, -3.839494342728948e-10, 1.221041207582586e-10, -9.497140442738555e-11, 3.566701368692251e+02, 2.513534910380462e+02, -4.245060966110374e+01, 4.168153901319403e+02, 1.590143571772355e+02, 1.552532882894806e+02, 4.178719354501068e+02
4668, 9.090647331190542e-01, 9.342039107946992e-01, -1.481209049861635e-02, -4.009383100434646e-10, 8.429992762847397e-11, -9.901810008158768e-11, 3.889158695164277e+02, 2.566400291638371e+02, -1.997930450124533e+01, 2.709912797961726e+02, 3.345161339826502e+02, -1.670158761715820e+02, 6.605967686777105e+02
4669, 8.907739416219034e-01, 9.264770580266358e-01, -1.591395255051310e-02, -4.482590714961428e-10, 5.684489174968718e-11, -2.100319335267969e-10, 3.609681253519323e+02, 4.293709008157459e+02, 1.299391900623836e+01, 4.749542642707309e+02, 7.430771776453724e+01, -1.229416351039729e+02, 2.688683409551571e+02
4670, 8.883015808200124e-01, 9.067181493336448e-01, -1.593432500760105e-02, -3.817703295403392e-10, 1.170524787032967e-10, -4.371640091657284e-10, 5.765902733522797e+02, 2.756050771488899e+02, 1.185291384391600e+01, 9.317715079587862e+02, 6.470250246464946e+02, 3.066044748984992e+02, 1.364556567415039e+03
4671, 8.932111574122799e-01, 9.461588380781232e-01, -1.589486553207796e-02, -4.016365820123112e-10, 1.283747378874767e-10, -8.298379435652106e-10, 6.647549153848706e+02, 7.129141393075638e+02, -4.846025516105084e+01, 1.113912656014724e+03, 1.080137200840032e+02, -1.406919143038061e+02, 5.327847811549557e+02
4672, 8.724773220188833e-01, 9.187365013608160e-01, -1.700128057957434e-02, -3.884049270317875e-10, 7.765309619903402e-11, -4.941482901006258e-10, 6.761249951055893e+02, 7.424276294982155e+02, -1.864770836819474e+02, 1.132607136703857e+03, -8.905685997811258e+01, 6.248494048019523e+02, 1.217345815112332e+03
4673, 8.700130548313900e-01, 8.989937029321468e-01, -1.702384397158534e-02, -4.324342526921377e-10, 1.030412518789816e-10, -2.065014240155603e-09, 1.763250909643628e+03, 1.613355436260854e+03, 5.055088442907162e+01, 3.667182618189773e+03, 3.265036921102009e+01, 1.730247569029452e+02, 2.008355636726620e+03
4674, 5.033305266068562e-01, 7.436253129794858e-01, -3.030027416686410e-02, -1.765304120803648e-09, 1.327980335641976e-09, -7.155619031175284e-09, 6.273058235055936e+03, 8.033064622548567e+03, 2.442830406984448e+02, 1.487115925141666e+04, -3.603056366155659e+03, -5.213444891859443e+03, 1.351137823942567e+04
4675, 4.850229784638171e-01, 7.358740570440071e-01, -3.002506410520346e-02, -8.637346294461955e-10, 5.727073448689009e-10, -5.877893028417952e-09, 5.864106005671126e+03, 4.646306392735908e+03, -3.114190984464947e+02, 9.016155111946224e+03, 2.752848237310917e+03, 4.774070178521667e+02, 6.242293796908480e+03
4676, 4.874551405740482e-01, 7.555490953062010e-01, -2.949057986330401e-02, -1.136450201882176e-09, 9.255892804912013e-10, -5.514591760102693e-09, 6.348130352824676e+03, 6.223059974535648e+03, -1.101209640464255e+02, 9.895986497821712e+03, -2.022903637507058e+03, -1.489261488890657e+03, 5.658016802931243e+03
4677, 4.691834855753019e-01, 7.478353375541174e-01, -2.887598958343342e-02, -1.780038202349737e-09, 1.487341150592919e-09, -7.670944486718987e-09, 8.311984742559893e+03, 8.124753883030587e+03, -1.413200410006824e+03, 1.242491080419685e+04, 4.088955603706741e+03, -8.599127660125266e+02, 8.722941748297528e+03
4678, 4.667241590738536e-01, 7.281173042322096e-01, -2.952227167988701e-02, -1.003431764259082e-09, 2.405065139441247e-09, -1.637470276241904e-08, 1.067640044358389e+04, 1.033335735569665e+04, -4.799030455982413e+02, 2.158971969535829e+04, 1.084505866784422e+03, -2.160176527978537e+03, 1.188193679529588e+04
4679, 4.716462281119067e-01, 7.675506671910094e-01, -2.816759248363519e-02, -1.690780523577085e-09, 1.364089031013594e-09, -6.876635827149210e-09, 5.655268355403235e+03, 3.400476019967250e+03, 4.703569895128862e+02, 6.932623885395275e+03, 4.360669528397279e+03, 1.995292217958248e+03, 8.902218458909987e+03
4680, 4.509085351576304e-01, 7.400615263116812e-01, -2.795543761660444e-02, -1.160045658635393e-09, 1.013700834158839e-09, -8.587398528893487e-09, 9.201366153667108e+03, 8.204840370853293e+03, -7.799448864587594e+02, 1.441027094379682e+04, -5.838111612771884e+02, -8.106911318900895e+02, 6.175408448017532e+03
4681, 4.484400796497267e-01, 7.203504182845526e-01, -2.874237303675423e-02, -2.032983514663839e-09, 1.177177413149453e-09, -6.626820682308118e-09, 5.950334539067562e+03, 5.867340724447780e+03, 1.623364873195169e+01, 7.059350658131507e+03, -1.295949255574242e+03, -4.578443044100035e+03, 8.321929604432646e+03
4682, 9.607244626901544e-01, 3.762278294400296e-01, -7.147561681704042e-03, -5.944164288439956e-10, 1.236255603573724e-10, 5.009138909381306e-10, -2.622576873737206e+03, -2.486780875744980e+03, 1.263239959433149e+02, -4.874425676627355e+03, 9.835497997810776e+02, -5.512380562004289e+02, 3.042470986760088e+03
4683, 9.790250335775351e-01, 3.839851332151226e-01, -5.950968158227338e-03, -8.150880846970423e-10, 3.422501945476976e-10, 1.387288119950145e-09, -4.507414050185551e+03, -4.658898928502524e+03, 6.699575807567537e+02, -9.103666881058987e+03, 2.292303772248294e+03, -3.455702600275323e+02, 6.158001347803520e+03
4684, 9.631927586893688e-01, 3.959930165919188e-01, -7.137055580282120e-03, -6.505975152605668e-10, 3.553362007025548e-10, 4.050043440378162e-09, -5.121044860538319e+03, -5.199192038732634e+03, 3.709814592328634e+02, -1.034756828585745e+04, 3.997887280407244e+02, -4.188457790491579e+02, 5.322864474114002e+03
4685, 3.274213952317105e-01, 4.448528633389753e-01, -3.310245503984260e-02, -3.623800651909537e-09, 1.787037587210586e-09, -2.045958162181953e-08, 1.205633905321909e+04, 1.119901812860833e+04, -1.533813607426667e+02, 2.261034086962230e+04, 1.349170692693782e+03, -3.644624973664570e+02, 1.127386273818788e+04
4686, 3.116296259068929e-01, 4.567839865942538e-01, -3.120102794968342e-02, -3.422799073271768e-09, 2.092879196826601e-09, -7.932551438838403e-09, 6.376387879727844e+03, 6.868188294349642e+03, -8.895426628996386e+02, 1.294308115620904e+04, -1.405246253207355e+03, 2.516810791902903e+02, 6.972938075145993e+03
4687, 3.091497106694798e-01, 4.370767186610585e-01, -3.209822743077350e-02, -2.302169150588655e-09, 1.518435988312312e-09, -7.552422381292038e-09, 3.542742734085788e+03, 4.838882840119109e+03, 7.219949416691334e+02, 6.712623100755584e+03, -2.109946947070358e+03, -2.194665942713209e+03, 6.081829156179592e+03
4688, 5.363550576180560e-01, 8.697336132165265e-01, -2.766080287749759e-02, -2.886560387853892e-09, 1.735216130873095e-09, -1.018263643430648e-08, 1.032707509426843e+04, 9.397080832527310e+03, -3.130491103300424e+02, 1.900671518099799e+04, 4.568259796017527e+03, -1.099573812602120e+03, 1.228011549102522e+04
4689, 8.375500654031398e-01, 3.615340733379476e-01, -1.526968067380230e-02, -5.077659294532762e-10, 1.216778990562963e-10, 3.376200244487143e-10, -3.100482351540228e+02, -3.439530581806361e+02, 1.735460791957347e+00, -5.808191182329856e+02, 1.609495848041853e+02, 2.992566372285979e+02, 6.416174218884502e+02
4690, 8.192441676323343e-01, 3.537770044684274e-01, -1.640698649349856e-02, -5.193967304554573e-10, 1.654349296306507e-10, 3.095675484152084e-10, -2.126235462567026e+02, -3.034914398848604e+02, 6.040167111748305e+00, -6.453431187158038e+02, 9.918470273996979e+01, -2.259355461811505e+02, 5.821904895428612e+02
4691, 8.217101830730422e-01, 3.735311844712236e-01, -1.639206251155670e-02, -5.371538276298701e-10, 1.058660880511490e-10, 3.249401297031924e-10, -2.858012707719821e+02, -3.542132158371946e+02, -7.368560209907967e+00, -7.274407654272784e+02, 5.201776431172240e+02, 1.461856847841081e+02, 1.022516607279839e+03
4692, 8.033945358158512e-01, 3.657423350325453e-01, -1.752216893957084e-02, -5.459173250979691e-10, 1.070268084229140e-10, 1.566379127866705e-10, 4.070333391051427e+01, -3.971602586197184e+01, -2.169540772473074e+00, -9.533173538617318e+01, 1.537829585081697e+02, -3.092633614263611e+01, 2.964186074304619e+02
4693, 8.058778982082463e-01, 3.855505940695376e-01, -1.750553654866549e-02, -5.461555240919135e-10, 1.056817841828568e-10, 1.548104700632698e-10, 2.663733811116491e+01, -2.609296394955218e+01, -2.402758194279823e+01, -1.085353932227953e+02, 1.434153979759639e+02, -3.890420817988637e+01, 2.861834526178328e+02
4694, 7.875471557471119e-01, 3.777559089092450e-01, -1.862810956467850e-02, -5.619349070916482e-10, 1.206399753534332e-10, 5.249770000825808e-11, 1.388746907547089e+02, 7.669495549304511e+01, -3.496986595528271e+01, 2.681569084443856e+01, 1.162284337363245e+02, -2.081440251258303e+01, 2.344168915565801e+02
4695, 7.900274978205063e-01, 3.975178402418331e-01, -1.861014970331325e-02, -5.680948509014055e-10, 1.260053601748288e-10, 4.419950211629900e-11, 2.011366267963248e+02, 1.176182490220695e+02, -4.566553975169931e+01, 8.385650167432316e+01, 1.481678822720133e+02, -4.352594588961073e+01, 2.978852360380452e+02
4696, 7.717120248546843e-01, 3.897733160799487e-01, -1.972242404535804e-02, -5.766464705342917e-10, 1.281400051587809e-10, -1.523860717857183e-10, 2.791179097256723e+02, 2.138735299110975e+02, -2.812377168696614e+01, 3.632272056870261e+02, 2.917368602655679e+02, -1.545949535534400e+02, 5.884060563278127e+02
4697, 7.742056906641250e-01, 4.095653580241835e-01, -1.970233018812288e-02, -5.839873976009989e-10, 1.404549515238498e-10, -1.919249424430774e-10, 3.267968013328502e+02, 2.915656703280947e+02, -1.860673005628855e+01, 4.404728076556942e+02, 3.489236680590339e+02, 3.643654175229643e+01, 6.232439936383815e+02
4698, 7.924994670754576e-01, 4.172823650303077e-01, -1.859256719024728e-02, -5.672802016262153e-10, 1.213551262846298e-10, 1.421774586844924e-11, 2.231459652179676e+02, 1.371694158198822e+02, -1.885574623183474e+01, 1.355255884165821e+02, 1.123102099317556e+02, -1.150937323210355e+02, 2.935695296590854e+02
4699, 7.766717977517690e-01, 4.293147316518000e-01, -1.968345626753657e-02, -5.918248561108103e-10, 1.420206594285783e-10, -1.599077466655467e-10, 3.711726408390204e+02, 3.314723749679238e+02, -2.834607198993361e+01, 4.431324730064215e+02, 5.752862573367248e+01, -7.200197970340344e+01, 1.936572642497564e+02
4700, 7.949621236089705e-01, 4.370233558040449e-01, -1.857525277309170e-02, -5.540651969320961e-10, 1.406892176978568e-10, -2.645152067515270e-10, 3.038959704232877e+02, 3.286997011049686e+02, -6.524388614365702e+01, 5.015728251787738e+02, 1.288335496150263e+02, -2.079184864922862e+01, 3.140854787502172e+02
4701, 7.791360211959395e-01, 4.490280475392385e-01, -1.966424362650703e-02, -6.129747055572191e-10, 1.564450083947150e-10, -1.409515074643102e-10, 3.413637049128236e+02, 3.912412586959614e+02, -9.776481240729555e+01, 5.422689041175887e+02, 1.586260712012208e+02, -3.359824766562110e+01, 3.746693253098725e+02
4702, 7.974319806813925e-01, 4.567848146140104e-01, -1.855746426812684e-02, -6.300305922876116e-10, 1.698460281167142e-10, 4.020838822401222e-11, 1.846756719106364e+02, 1.196652341158751e+02, -4.672996387759543e+01, 2.518222084449123e+01, 2.914589220381866e+02, 3.192252410783940e+00, 5.298323589413918e+02
4703, 7.816036640769745e-01, 4.688116330770752e-01, -1.964507259740601e-02, -7.045379795834514e-10, 2.043900933067675e-10, -3.655799338855358e-10, 6.865067624334403e+02, 6.995260309186488e+02, 1.697866889205930e+01, 1.453597955386063e+03, 4.688657961840841e+02, -2.108654922496852e+02, 1.171483858623254e+03
4704, 7.999039387672411e-01, 4.765535105671863e-01, -1.853941722567188e-02, -5.981380938756867e-10, 1.450623348833170e-10, 7.119931164743932e-12, 3.355165243022790e+02, 1.644647215848796e+02, -1.818530393788664e+01, 1.432687945782444e+02, 2.897721211952849e+02, -8.949898228656410e+01, 5.570094739358307e+02
4705, 7.840694442442901e-01, 4.885592362687708e-01, -1.962552013548499e-02, -6.196071181691663e-10, 1.535133202828559e-10, -1.708087100146514e-10, 5.180171708073810e+02, 4.837058157676809e+02, 1.446039717821534e+01, 9.107220041604614e+02, 4.798007984050685e+02, 1.569576197471741e+02, 9.664519652247023e+02
4706, 8.023693160653280e-01, 4.963008936919833e-01, -1.852144579601301e-02, -5.846923079541874e-10, 1.666778862428898e-10, -7.309659098502896e-11, 2.690819046661879e+02, 2.636918413839721e+02, -3.930851988197801e+00, 3.669525497230971e+02, 1.440352296183995e+02, -2.438410944718461e+02, 5.007948480982884e+02
4707, 7.865351316298859e-01, 5.083063156896689e-01, -1.960569616001022e-02, -5.900248590332567e-10, 1.827088044839967e-10, -1.463746605954895e-10, 5.340819454815665e+02, 3.700413497799129e+02, -5.177339539009031e+00, 4.297027881387316e+02, 1.853155927497405e+01, -4.657902129221510e+01, 1.682301775889584e+02
4708, 8.048346321812254e-01, 5.160477682030702e-01, -1.850326262920406e-02, -5.429771220210893e-10, 1.790257410569752e-10, -5.355174866695314e-10, 6.185783582006779e+02, 5.796152660430225e+02, -3.094804488966146e+01, 1.217743105279751e+03, 3.274880131062638e+01, -1.866336296162541e+01, 6.252979991262679e+02
4709, 7.889986177148938e-01, 5.280210510006633e-01, -1.958549146937325e-02, -5.984725434109565e-10, 1.558376109949076e-10, -1.367552457157681e-10, 3.766343783857893e+02, 2.544852537626115e+02, -4.532331355772062e+01, 3.189724358141618e+02, 8.047668171294891e+00, 1.092349490031117e+01, 1.338537404228870e+02
4710, 8.072955807143704e-01, 5.357809660609303e-01, -1.848502907347552e-02, -5.666349173705981e-10, 1.259456203665955e-10, -5.986794979430044e-11, 3.040964646068988e+02, 2.971559265223946e+02, -3.503102869991400e+01, 4.136953280789538e+02, 1.663745933395803e+02, 9.028894410724580e+01, 3.521364396867691e+02
4711, 7.914633360084123e-01, 5.477706653882770e-01, -1.956512329667408e-02, -5.811088342252634e-10, 1.885783784959248e-10, -1.902766202251734e-10, 3.429290165104459e+02, 4.336945677496399e+02, -2.349873891275360e+01, 4.382087993410800e+02, 6.081159011039655e+01, -3.491265653837954e+02, 6.221634005100467e+02
4712, 8.097604982482531e-01, 5.555260804129974e-01, -1.846637424927670e-02, -6.028745129686404e-10, 1.695314707683739e-10, -1.662216387298273e-10, 4.024702586870789e+02, 4.099354087523577e+02, -6.323940839719339e+01, 7.684486573973347e+02, 4.186434877735555e+02, -3.190722368004045e+02, 9.871524137134753e+02
4713, 7.939316300026882e-01, 5.675448048661638e-01, -1.954440178982757e-02, -5.572505066472811e-10, 1.780729337090699e-10, -1.259733043327330e-09, 1.241673646927250e+03, 1.170928324281878e+03, -2.177874417264303e+01, 2.557809486633840e+03, 1.532175998890715e+01, -1.588808520981898e+01, 1.353962114572317e+03
4714, 8.122261568870127e-01, 5.752727517535112e-01, -1.844744918260926e-02, -6.123334540558056e-10, 1.272763687574213e-10, -2.188946530009307e-10, 4.499578920165044e+02, 4.648984911758266e+02, 2.494016656105682e+01, 9.355412165427515e+02, 4.140860144584354e+02, 2.355225731336857e+02, 9.546935874677466e+02
4715, 7.963969673097580e-01, 5.872901842465404e-01, -1.952337464272555e-02, -5.284675723315851e-10, 1.442873530324145e-10, -2.513575263144265e-10, 4.823390824665003e+02, 4.421940759635547e+02, -5.452272029429679e+01, 6.721017950985973e+02, 1.878241375527022e+02, 2.586169065087910e+02, 6.005327201817527e+02
4716, 8.146936460651767e-01, 5.950183037663817e-01, -1.842817235127862e-02, -5.274852821390604e-10, 1.404554123392129e-10, -1.570701439212277e-10, 4.588866096047336e+02, 3.370725969474494e+02, 1.440138643851460e+01, 5.360828823280251e+02, -2.966417648227193e+01, -7.112180692783014e+01, 2.205414475781254e+02
4717, 7.988622297316844e-01, 6.070352276254837e-01, -1.950201828067129e-02, -6.305576651906552e-10, 1.570879186080076e-10, -4.501899504504270e-10, 7.180768182362605e+02, 5.823538815243365e+02, -2.409883153190151e+01, 8.145025631906808e+02, 4.002818422297755e+02, -3.682411053484389e+02, 9.643802573800909e+02
4718, 8.171604718203438e-01, 6.147758593349359e-01, -1.840876767276175e-02, -5.066430765754253e-10, 1.268473750035541e-10, -2.425202292560999e-10, 4.670200231192990e+02, 3.567548212119760e+02, 1.249937815618353e+01, 2.875170953329564e+02, 1.454953219874874e+02, -5.773257760205840e+01, 3.139447568180583e+02
4719, 8.013274201352698e-01, 6.267799623353523e-01, -1.948029457527873e-02, -4.895221693219609e-10, 2.047363028530382e-10, -5.310870096861551e-10, 6.726984026085069e+02, 7.003026354368936e+02, -2.380722419733115e+01, 9.847235761786103e+02, 5.284509878318654e+02, -1.546548949035966e+02, 1.000372224733497e+03
4720, 8.196204797360317e-01, 6.345083370577603e-01, -1.838934124984979e-02, -5.295546509173161e-10, 1.936420497207881e-10, -2.977552424630185e-10, 5.086129711273515e+02, 4.778705000107449e+02, -9.214260797467607e+01, 8.592325286693052e+02, 3.856739178092056e+02, -2.266468381354046e+02, 8.720483623287648e+02
4721, 8.037925429768586e-01, 6.465244083420874e-01, -1.945816262432261e-02, -5.220661891173953e-10, 1.743149872747115e-10, -1.262485441468810e-09, 1.247035706697025e+03, 1.087815432243002e+03, -3.405118604269586e+01, 2.471350749438288e+03, -2.489584462538652e+00, 1.728245291442509e+01, 1.312869867977995e+03
4722, 8.220905062680450e-01, 6.542647813317813e-01, -1.836914295740813e-02, -5.446943507300406e-10, 1.287455315761077e-10, -2.884113863344551e-10, 5.082963218953739e+02, 4.864422368051929e+02, 6.240969339962700e+01, 9.248416258855714e+02, 4.187463150265139e+02, 2.203229358540869e+02, 9.308317434178873e+02
4723, 8.062576033074765e-01, 6.662685763976199e-01, -1.943558206972210e-02, -5.193660024934487e-10, 1.300236608691657e-10, -3.123151752470416e-10, 5.484959017741486e+02, 5.489434248818893e+02, -5.945442503817941e+01, 7.500155611122822e+02, 1.568601659713204e+02, 2.026842280018244e+02, 4.981793838468933e+02
4724, 8.245529340231403e-01, 6.739959741219782e-01, -1.834891443085607e-02, -4.896970267391648e-10, 1.891977036062638e-10, -1.975055903791328e-10, 5.795873180885501e+02, 4.711793417831925e+02, -1.301021640901547e+01, 7.491035563166382e+02, -1.529996536054159e+02, -6.647243235979568e+01, 3.779618878689644e+02
4725, 8.087209329464509e-01, 6.859566742984888e-01, -1.941233341933863e-02, -6.278593816465738e-10, 1.264570905545760e-10, -3.614256595283294e-10, 6.573232022324689e+02, 7.283669642751129e+02, -1.307485172162344e+02, 9.523236050985711e+02, 5.283504444017757e+02, -4.774273444563175e+02, 1.282058198233551e+03
4726, 8.270203423627613e-01, 6.937525939234529e-01, -1.832821362026397e-02, -5.345662242002058e-10, 1.667334267710836e-10, -1.430284428338753e-10, 5.895128355308148e+02, 3.375709959083399e+02, -1.061200426248061e+01, 2.218082674342217e+02, 2.682427854803472e+01, 5.026675605887218e+01, 3.407607439009525e+02
4727, 8.111875382513787e-01, 7.057561075672620e-01, -1.938918780518309e-02, -5.307284846459706e-10, 2.295171465570832e-10, -3.697618593582405e-10, 6.257987007741549e+02, 4.438025877950198e+02, 1.194669638922575e+02, 7.567769945774845e+02, 5.802320795485101e+02, 2.390554286205174e+02, 1.139466014236175e+03
4728, 8.294851974341617e-01, 7.134961152018949e-01, -1.830727672019861e-02, -4.783498172814127e-10, 2.052358954656698e-10, -3.069088291539609e-10, 5.186474141958358e+02, 5.319242688039021e+02, 1.411246779237653e+01, 6.395881741987478e+02, -1.000604179974936e+02, -4.241775142393070e+02, 7.639441518602015e+02
4729, 7.854938690525610e-01, 6.387841061430721e-01, -2.053246350164329e-02, -4.896922024022583e-10, 2.204598062814682e-10, -7.170560267992154e-10, 1.054250855278530e+03, 9.748329498143437e+02, -2.047680948373006e+01, 1.786480328503438e+03, -4.294615433566130e+02, 4.867995648315004e+02, 1.366056490800163e+03
4730, 7.584352098633182e-01, 4.216145924951588e-01, -2.077792804109231e-02, -5.815906216671642e-10, 1.590060330488345e-10, -3.109551196942886e-10, 4.643646845618114e+02, 4.435989069193570e+02, -1.510860482652023e+01, 5.401833030403443e+02, 8.717434753387602e+01, 1.521032570620898e+02, 3.172431651770355e+02
4731, 8.136130723065215e-01, 7.254214229032868e-01, -1.936721783750413e-02, -4.740159663835375e-10, 1.521298326382344e-10, -3.782500708251601e-10, 5.309733778405290e+02, 4.692259579463508e+02, 1.197600548023380e+02, 6.321175890433450e+02, -2.274154538187612e+02, -2.068686993226668e+02, 5.889423093702351e+02
4732, 8.319358911095870e-01, 7.332069038116125e-01, -1.828665664037741e-02, -5.073091942219554e-10, 2.509491546047729e-10, -1.544034079683815e-09, 1.269089859606443e+03, 1.321495694265870e+03, -4.938489478052394e+01, 2.722919595763414e+03, 1.035738091917483e+01, -1.406876770944670e+02, 1.451618272632056e+03
4733, 8.160544901087243e-01, 7.451404476047649e-01, -1.934408103167773e-02, -4.393646740576310e-10, 2.653417976942066e-10, -4.433474228633549e-10, 7.402737127672235e+02, 7.505816808020377e+02, -1.028645353739512e+02, 7.414772321712819e+02, 5.384385631346031e+01, 1.085364261936319e+02, 2.754570470296300e+02
4734, 8.344147589028990e-01, 7.529824182798279e-01, -1.826432673936301e-02, -4.684444830447635e-10, 1.321906038096883e-10, -3.820951796879698e-10, 6.905688552368191e+02, 8.444947785519468e+02, -7.999360646596628e+01, 1.501435772099821e+03, 1.012936260453350e+02, 5.374448852052952e+02, 1.213632584032757e+03
4735, 8.185037981808665e-01, 7.648600470808766e-01, -1.931986651802558e-02, -4.711140165682238e-10, 2.731945979536706e-10, -4.901900855889382e-10, 7.250229228060846e+02, 7.565098154540749e+02, -1.711345121868394e+02, 1.210618626407888e+03, 5.555747940254477e+02, -3.890522772150670e+02, 1.299784926150380e+03
4736, 8.368636028906440e-01, 7.726946745428165e-01, -1.824300544519631e-02, -4.997078929321489e-10, 2.517266189536625e-10, -3.510824866885630e-10, 6.911347996859313e+02, 6.316246647252360e+02, -1.265336129320804e+02, 7.717861271789679e+02, 2.033505138995106e+01, -1.623312677106150e+02, 3.783818100185810e+02
4737, 8.210169242744388e-01, 7.846563157646100e-01, -1.929167305441726e-02, -5.722019429721225e-10, 2.703405451767991e-10, -6.839206819281319e-10, 8.588766772954007e+02, 8.326356583317788e+02, 1.103033568964613e+02, 1.922543243906593e+03, 8.158613837173458e+02, 7.643243893403454e+01, 1.791899128763601e+03
4738, 8.393274710599542e-01, 7.924313279284203e-01, -1.822043465627847e-02, -5.509110782582217e-10, 2.433583830383269e-10, -6.217960828554578e-10, 9.579884462762152e+02, 9.214453348200150e+02, -2.793495822347965e+01, 1.875585640203225e+03, 9.561522197830712e+01, -4.749366161639993e+02, 1.258298109210155e+03
4739, 7.850501661357925e-01, 3.579259298948628e-01, -1.864648521809820e-02, -5.240755797377017e-10, 1.250175941807318e-10, 2.516917283936089e-11, 1.277736492496855e+02, 9.971844117172759e+01, -5.784027801357182e+00, 1.013655208765266e+02, 2.157442407277547e+02, 3.778229679745964e+01, 3.804775964709263e+02
4740, 8.132729027328847e-01, 4.447995990219700e-01, -1.745714056790012e-02, -6.258716321403507e-10, 1.474168743769651e-10, 2.594234389229122e-10, -1.589388244996282e+02, -1.961800545075424e+02, -1.734855112944546e+01, -5.818797136335045e+02, 4.555091539889217e+02, -1.559581635654528e+02, 9.278214252279249e+02
4741, 8.403875220177806e-01, 6.620052597673540e-01, -1.726749567967672e-02, -5.282957782567206e-10, 1.748361033916273e-10, -2.406119503382386e-11, 2.564856301812234e+02, 2.789679195911215e+02, 6.047713895451548e+01, 3.184949072825244e+02, 2.203653357834895e+02, -2.640708106027125e+02, 6.072987477018611e+02
4742, 9.906904964137562e-01, 8.939451449816450e-01, -9.192681740712893e-03, -4.504715776746426e-10, 9.601518063828377e-11, 3.277815037075395e-10, -8.182743235361388e+02, -7.646673379433126e+02, -4.221776059770096e+01, -1.460626159452929e+03, 4.574729413097161e+02, 2.952394879507608e+02, 1.159575221958956e+03
4743, 8.984227940504047e-01, 2.937444595129828e-01, -1.071808404961478e-02, -4.981893793972005e-10, 1.457651464107767e-10, 1.250407197544583e-09, -8.248110766115153e+02, -1.483389690773440e+03, -2.669952299363060e+02, -1.486973876186965e+03, 1.535076981622444e+02, 2.255145435783847e+02, 9.344638740939080e+02
4744, 8.959557013741943e-01, 2.739892252454579e-01, -1.072985978227731e-02, -5.992606110902151e-10, 4.477740304884906e-10, 2.901967360669702e-09, -2.595229834536266e+03, -2.646325633175712e+03, -2.193786979588051e+01, -5.654807313702827e+03, 5.403520158017955e+01, -9.117955936257682e+01, 3.040137814709092e+03
4745, 4.091531536872571e-01, 4.046830260789978e-01, -3.585605087629647e-02, -1.558392483763526e-09, 5.206455374700278e-10, -7.595352222577087e-09, 5.234290028275438e+03, 6.529387540238235e+03, -2.947468964604236e+02, 1.238028590088722e+04, 1.005197533142092e+03, 3.653800843830188e+03, 9.318285698652275e+03
4746, 4.067000612281192e-01, 3.849469015153549e-01, -3.611260460036651e-02, -2.279782259808213e-10, 6.698890527316918e-10, -1.478901299478731e-08, 9.545764724413977e+03, 8.906938859617587e+03, 1.585617805124146e+02, 1.939081010681415e+04, -1.468563496654098e+03, -3.212070569742989e+02, 1.051081682666034e+04
4747, 4.250191934495191e-01, 3.926877373523286e-01, -3.577574652488309e-02, -1.460388131439351e-09, 1.051922053115874e-09, -6.836907152198065e-09, 5.190445973011234e+03, 4.642585015067098e+03, -2.288223814727979e+02, 8.678742105700014e+03, 5.920340169679679e+02, 2.068214472134385e+03, 5.331096321225808e+03
4748, 4.225653476428440e-01, 3.729498546691534e-01, -3.599029883661508e-02, -1.332431364280814e-09, 7.757904068132768e-10, -6.213046127192073e-09, 4.029541578201226e+03, 4.744529059216224e+03, -2.827598909946146e+02, 5.730049661310733e+03, 9.306178253239369e+01, -2.284588556910368e+03, 4.255698347511065e+03
4749, 8.801192335185737e-01, 2.859992876252495e-01, -1.188299940065813e-02, -5.433684705413749e-10, 1.051327249892382e-10, 8.317730747225785e-10, -1.404222406606630e+03, -1.214147166148151e+03, 1.459466601283195e+02, -2.124702412739362e+03, 8.282122457568090e+02, -2.386423576219948e+02, 1.727635327871647e+03
4750, 5.921383417802691e-01, 2.014206303504072e-01, -2.935807229810956e-02, -6.354015844358011e-10, 2.299540052359275e-10, -2.272647485300429e-09, 6.841936431887918e+02, 9.354798677913280e+02, 5.137879252291145e+01, 1.247524340875325e+03, -3.750529559333548e+02, -1.401464189505664e+03, 2.561473818143241e+03
4751, 8.477745643326364e-01, 7.212213472431470e-01, -1.721172761703303e-02, -4.897618877711482e-10, 1.757670970711191e-10, -2.545602172914318e-10, 3.972543825592089e+02, 3.173771775112828e+02, -7.805586246760103e+01, 6.320831595588995e+02, 4.845729933990586e+02, -2.546101959100828e+02, 9.987354780626172e+02
4752, 6.006031994864237e-01, 1.301305460356381e-01, -2.850960052070798e-02, -3.828558935870859e-10, 3.831578098756993e-10, -2.059181263542749e-09, 1.502194340299247e+03, 1.095207529827112e+03, -8.342259440301905e+01, 1.497918058511059e+03, -3.400504481657273e+02, 7.026481639817595e+02, 1.418746064982490e+03
4753, 5.822855132054525e-01, 1.223812917507221e-01, -2.951878703010272e-02, -4.784690247544202e-10, 2.920663269858297e-10, -2.621343471565875e-09, 1.392835152270894e+03, 1.278246043104750e+03, -3.270318442456949e+02, 2.256414613495605e+03, 1.152268137705587e+03, -2.624367843098726e+02, 2.317000477597710e+03
4754, 5.981398501940223e-01, 1.103677697750078e-01, -2.854316901968385e-02, -3.251706544365848e-10, 1.047703826410050e-10, -2.538718667358461e-09, 2.142408684606821e+03, 1.955345000733331e+03, -1.336587844526620e+02, 3.188669627880518e+03, -6.852188631941527e+02, 6.549304534369336e+02, 2.018500084101730e+03
4755, 5.798210438434124e-01, 1.026179204754473e-01, -2.955660542858411e-02, -4.432244637742465e-10, 1.254486728435219e-10, -2.075833983967009e-09, 1.373556894453973e+03, 1.342548305069645e+03, -1.187501216756496e+02, 1.407023370133788e+03, -8.540974847534292e+02, 3.555490034731478e+02, 1.616513805077186e+03
4756, 5.956716665000436e-01, 9.059339930856142e-02, -2.857627073528757e-02, -4.287753731025489e-10, 2.507318847169086e-10, -5.310208141837275e-09, 3.024396946449523e+03, 3.170002951267714e+03, 1.152690954257955e+02, 5.978281669624788e+03, -5.417079126697387e+02, -2.476510831948861e+02, 3.069320636763606e+03
4757, 5.773563245621492e-01, 8.285306782489754e-02, -2.959355860328957e-02, -4.271812173798929e-10, -2.562927130102551e-11, -1.765461768042427e-09, 1.400764187172268e+03, 1.317997472337800e+03, -2.736918037493151e+01, 1.685202140227952e+03, -1.155100346980269e+03, -4.537437790858781e+02, 2.175767720882462e+03
4758, 5.403947750198546e-01, 1.018678317471620e+00, -1.863090782551097e-02, -9.219889618734210e-10, 3.332235890632678e-10, -1.359811383734364e-09, 8.312914015771102e+01, 1.815527686094090e+03, 7.504251803721637e+02, 3.638147989108072e+03, -1.955389232911003e+03, -1.278821982878468e+01, 4.758276986464595e+03
4759, 5.599648196516430e-01, 1.019973435310033e+00, -2.186339034974756e-02, -2.288825088995654e-09, 1.661856355693914e-09, -7.674501240772287e-09, 5.217205669426316e+03, 6.364897560654144e+03, 6.622036520285326e+02, 1.047962699469283e+04, -1.558686006383604e+01, -9.491600886237255e+02, 5.195153616687903e+03
4760, 5.510191614671731e-01, 1.002222871999049e+00, -2.201792820888334e-02, -1.527925173476951e-09, 5.054450920396269e-10, -3.457979342278740e-09, 2.186935240283631e+03, 3.445451807348448e+03, 2.658545601930945e+02, 6.168931976868925e+03, -1.571146859545473e+03, -1.269436570572861e+03, 4.988056136531592e+03
4761, 5.688746660767321e-01, 1.037743296638360e+00, -2.170179212737484e-02, -1.242617929313637e-09, 1.303581405257593e-09, -3.282799506776335e-09, 2.024920065015579e+03, 1.929565024659136e+03, 1.096092083104883e+03, 8.227508362536699e+03, -2.064101774282455e+03, 2.347775247218612e+03, 8.484962582815120e+03
4762, 4.931574100067070e-01, 1.034053174884760e-01, -3.412181883192129e-02, -1.073089616344302e-10, 1.912629393792935e-10, -7.421984451434453e-09, 5.238438461291185e+03, 5.893064188954751e+03, -3.389298298925951e+02, 1.008375352380605e+04, -1.311791394532976e+02, 7.424437764298572e+02, 4.773222964824600e+03
4763, 5.090206671456325e-01, 9.139038631506044e-02, -3.331639113119324e-02, -4.085804309767620e-10, 2.607267072454232e-10, -3.936349597868027e-09, 2.050737720151245e+03, 2.492561687757076e+03, -2.406986014512606e+02, 4.154461226634086e+03, 1.090179983964440e+03, 4.288978268412664e+02, 2.825337187635999e+03
4764, 4.906939632026794e-01, 8.364148450844963e-02, -3.419345394967443e-02, -1.019180712721104e-10, 5.073464166336027e-10, -5.086081744128655e-09, 3.365066948946302e+03, 3.786508863865773e+03, 1.265125541834581e+02, 5.840797540419230e+03, 3.131181725909818e+02, 6.817984042349009e+01, 2.370563082676678e+03
4765, 6.547189443468240e-01, 8.450141679691806e-01, -2.742473112698325e-02, -7.650303396673328e-10, 8.116461066980327e-10, -3.127802973690566e-09, 2.576804182601518e+03, 2.477472391281518e+03, -1.790677715282921e+00, 4.561076715157084e+03, -9.931965459359598e+01, -2.181479181207944e+03, 4.295400177914044e+03
4766, 6.705666638936483e-01, 8.329999742745827e-01, -2.692043801299881e-02, -8.243895132310687e-10, 5.096915637212836e-10, -2.811744600216852e-09, 1.779803430862972e+03, 1.933927872392021e+03, -3.588271001631586e+02, 2.192201541758425e+03, -3.794899862676076e+01, 1.086146621919405e+03, 2.014944270361593e+03
4767, 6.522664166012975e-01, 8.252788920964609e-01, -2.756343985381323e-02, -8.306579686089532e-10, 6.532313230521052e-10, -3.275313411579778e-09, 2.823970930227226e+03, 2.733605074562541e+03, -4.975943921682207e+02, 3.632916016680719e+03, -1.101358685849794e+03, 1.183191600752150e+03, 3.052418655755435e+03
4768, 6.681214643795752e-01, 8.132843930804823e-01, -2.704277602549098e-02, -4.291178976141114e-10, 3.852750032638072e-10, -7.821899509126267e-09, 4.527113701213222e+03, 4.381518515090307e+03, -9.892228974786440e+01, 8.433034259131678e+03, -1.162537021395224e+02, 2.525408773997065e+02, 4.013393689371553e+03
4769, 6.498137027929727e-01, 8.055432864432591e-01, -2.769786288701018e-02, -1.148821254069362e-09, 5.593884352203261e-10, -3.261177747716060e-09, 2.443526639945242e+03, 1.586716073951279e+03, -7.415955783194133e+01, 2.379077548388544e+03, -1.761754886004820e+03, -8.132366907327473e+02, 3.463373914174991e+03
4770, 5.679454226452445e-01, 5.653033871329585e-01, -3.105561364091861e-02, -9.451621437054673e-10, 5.238514488091816e-10, -1.073071830897713e-08, 6.607781305704074e+03, 6.078506057618621e+03, 4.310437654697380e+01, 1.210379195152572e+04, -8.834228988537208e+02, 1.157930530730373e+03, 6.305906680545685e+03
4771, 2.147492175219633e-01, 9.806110874434669e-02, -4.024399002373617e-02, -2.417916943796378e-10, -1.669220004229549e-10, -9.937685401093874e-09, 9.976783924716095e+03, 9.187059327121870e+03, -1.153975570623641e+03, 1.536666945875846e+04, -5.432882473699477e+03, -3.367071829252092e+02, 1.126120713545207e+04
4772, 2.123000390126264e-01, 7.832541515174629e-02, -4.070182397751215e-02, -9.999422281179306e-10, 6.240612115463253e-10, -7.878963248579522e-09, 6.508197251559031e+03, 4.668232603047161e+03, -2.547306479067538e+02, 4.715211721654759e+03, -2.470215926186483e+03, -1.548056620249404e+03, 5.384351233092188e+03
4773, 2.306120428693067e-01, 8.605735494238599e-02, -4.084502270401189e-02, -3.327250819506848e-10, 5.578426993020402e-10, -1.885160834147518e-08, 1.412794992947663e+04, 1.532107742717376e+04, 1.530884326519205e+02, 3.134536498078082e+04, -1.042291843842306e+03, -1.835992726167411e+03, 1.705175638686926e+04
4774, 4.408839322534259e-01, 3.806903214817531e-01, -3.555080469025779e-02, -1.223865924762349e-09, 1.082646247078436e-09, -1.238847002725275e-08, 5.908601933748157e+03, 6.904695058331723e+03, -2.751021909637070e+02, 1.112226075102157e+04, 5.249294729351883e+02, 6.345425190793787e+01, 4.903766501507554e+03
4775, 3.713736786949099e-01, 5.195271246090785e-01, -3.259060487111415e-02, -1.244739636784492e-09, 1.074089860509663e-09, -5.872624475149546e-09, 2.009104723887682e+03, 1.138633365072969e+03, -3.776308553577185e+02, 5.103641540368364e+03, -2.322848671053420e+02, -8.597273727410906e+02, 3.979279029692334e+03
4776, 3.738442595190379e-01, 5.392587300929071e-01, -3.193055953516800e-02, -2.071596619138239e-09, 3.514779036999584e-10, -9.651978634697883e-09, 4.879216571856557e+03, 5.541800436979382e+03, -4.538395780742514e+02, 7.738214628953666e+03, 3.354444640189052e+03, -6.786879304292092e+03, 1.338949442581758e+04
4777, 3.580440872269895e-01, 5.511922573721272e-01, -3.013355113158868e-02, -3.462711243121340e-09, 1.106105275827239e-09, -2.144475390254934e-08, 9.862840489013464e+03, 9.926591937526033e+03, -4.607890050809353e+02, 1.776524202365672e+04, -1.110992189290831e+03, -1.322300681921413e+03, 8.457751028092140e+03
4778, 3.763075428320993e-01, 5.589739455703534e-01, -3.121263438549289e-02, -1.166347371661545e-09, 1.707430344374044e-09, -1.184397552861101e-08, 9.016319353927271e+03, 9.781886398583458e+03, -3.497870348516949e+02, 1.326272068574867e+04, 2.001114577263713e+03, -5.955902247282276e+03, 1.158299868572646e+04
4779, 3.602983091013541e-01, 5.712085635966628e-01, -2.915413854284460e-02, -2.926473776774662e-09, 1.912580295265941e-09, -9.737980908541010e-09, 6.793850378169196e+03, 7.067221505196139e+03, 2.751277628807285e+02, 1.391446633991985e+04, -4.780011280669402e+03, 4.366746267926913e+03, 1.322154911235082e+04
4780, 3.787255594653434e-01, 5.787030240230689e-01, -3.043574022849186e-02, -4.477181343779245e-09, 3.169667164516348e-09, -2.422525778153507e-08, 2.495136359992789e+04, 2.324396300440847e+04, -5.378746336506338e+02, 4.875921061101926e+04, -2.908558397367947e+02, 5.941274385756544e+02, 2.474992947918825e+04
4781, 9.814913399792614e-01, 4.037377945873116e-01, -5.940921783114105e-03, -1.768016793174775e-10, 2.018035298298426e-10, 2.176435923814290e-10, -1.171915217264498e+03, -1.527372517446088e+03, -1.872422297902345e+01, -2.867653874422155e+03, -9.579275149957659e+02, -1.059279392226706e+03, 2.918777561697596e+03
4782, 9.656583680987628e-01, 4.157324836713240e-01, -7.126510198487380e-03, -1.761973644087472e-10, 4.528829710903299e-10, 3.992901098554813e-10, -1.664075554232421e+03, -2.009735824374735e+03, 1.577103712979210e+02, -3.480977522897837e+03, -1.086072168576672e+02, -1.631977903032837e+03, 3.300400408291695e+03
4783, 7.787979445916546e-01, 1.680879445323859e-01, -1.767037831355731e-02, -5.295490821920159e-10, 9.672303840721886e-11, 3.649071261998112e-10, -2.862658052837392e+02, -3.245477657451369e+02, 3.715146611678774e+01, -7.335132498467442e+02, 2.088732585590534e+02, -9.921291463532154e+01, 5.907018640516576e+02
4784, 8.263440877987729e-01, 1.320596783371026e-01, -1.427791782318933e-02, -6.117256207448085e-10, 1.762122372314814e-10, 4.971299535735499e-10, -7.752152616779437e+02, -7.691788534217771e+02, 2.629764235113369e+01, -1.689398372652787e+03, 4.736512998558215e+02, -3.562136189059311e+02, 1.377338508690659e+03
4785, 1.059925347875303e+00, 1.316524441957698e+00, -7.826812921050749e-03, -4.068548896160726e-10, -1.917630995527839e-12, 1.338295077666590e-10, -7.943469041887281e+02, -7.802639477944944e+02, 1.269225141761482e+01, -1.624947174280993e+03, 7.230722742106680e+02, 7.960467782595566e+01, 1.513204209897964e+03
4786, 3.821689894873727e-01, 1.875208649141415e-01, -3.813743318349052e-02, -1.207760906690776e-09, 5.436093754529401e-10, -6.525969749487212e-09, 3.509816316844934e+03, 4.420931110413573e+03, -6.188851629338400e+02, 6.528925250606714e+03, -8.791019014915466e+02, 2.589054407831153e+03, 5.547208242213473e+03
4787, 3.013333314853683e-01, 9.723343909227269e-02, -4.051403523322494e-02, -5.700832764599487e-10, 8.416778001671911e-10, -7.570369267522692e-09, 4.440480728633826e+03, 5.287297716353925e+03, -2.766680090413914e+02, 6.825498750545546e+03, -2.113026016411684e+03, -1.344723946444258e+03, 4.840956111633542e+03
4788, 2.988743150518104e-01, 7.747454084779121e-02, -4.073882615783104e-02, -4.656401489061231e-10, 2.725891439650199e-10, -6.406812244276629e-09, 2.802909707706632e+03, 3.137002629580456e+03, 1.440365378621064e+02, 2.994592623303374e+03, 2.089645133980588e+03, 7.069136462555547e+02, 3.839998848390969e+03
4789, 9.815977792204200e-01, 1.245601142395875e+00, -1.238618288285619e-02, -3.094610016000721e-10, 7.187711772866600e-11, -1.331917867616558e-10, 4.528448144937896e+02, 5.010778370202004e+02, -6.528972519900303e+01, 9.123710084260122e+02, -3.277094076728435e-01, 4.080578374731124e+02, 8.388376321483257e+02
4790, 1.007636176399993e+00, 7.513751813466657e-01, -6.940046940090686e-03, -5.037117094976283e-10, 8.489581376178328e-11, 5.369102730263740e-10, -1.869411955379529e+03, -1.738388437526125e+03, 1.152351308769595e+02, -3.404725135137552e+03, 9.323858287424376e+02, -8.524815538632447e+02, 2.720947934471201e+03
4791, 1.005093413646889e+00, 7.316185033291380e-01, -6.956109195695843e-03, -7.355965381565061e-10, -1.244495655337212e-10, 2.599089689390150e-09, -4.222349321466021e+03, -4.073996041993201e+03, -1.219221215704785e+01, -7.037434605854660e+03, 7.727013210175136e+02, -4.742158651931461e+02, 3.290992402432383e+03
4792, 1.020986210248161e+00, 7.195999819180775e-01, -5.774107799188188e-03, -8.259652841822524e-10, 4.706795434893175e-10, 3.332897964452728e-10, -3.456851114010257e+03, -3.438603300977367e+03, -2.953837381062215e+01, -6.316907882546123e+03, 1.674487291848074e+03, -9.337101994303551e+02, 4.388875973518622e+03
4793, 1.002626703228603e+00, 7.118512774810297e-01, -6.966892447849204e-03, -2.516104406815708e-10, 1.299443122336289e-10, 3.892657447430914e-10, -1.859978161031504e+03, -1.740576117925945e+03, -1.591535970256140e+02, -3.178147235144380e+03, 5.974197115948375e+01, 7.058539104587123e+01, 1.418048814545166e+03
4794, 1.010073435822362e+00, 7.711183840494267e-01, -6.931022013396858e-03, -3.595925312342817e-10, 2.039961037442267e-11, 3.593485710668566e-10, -1.239279226065358e+03, -1.253456146195108e+03, 1.833532673484883e+02, -2.130841354113322e+03, -2.492636178153024e+02, 6.327719090681926e+02, 1.506949763698965e+03
4795, 9.895443390700259e-01, 5.146884513989459e-02, -2.471776000678098e-03, -5.623327962713158e-11, 6.598333860677247e-11, 2.624828851225188e-11, 6.303028473228173e+02, 4.760304992550297e+02, -3.016736746347107e+02, 1.480452826982531e+02, 2.680531363257934e+02, -1.490230523759329e+02, 8.585891853216596e+02
4796, 7.629587718611776e-01, 1.801116169700510e-01, -1.878600844722264e-02, -5.310510029198385e-10, 9.846397188149341e-11, 5.169241340531049e-11, 2.222626232527071e+01, -1.988804004731104e+01, -9.363042543762841e+00, -2.185209528085820e+01, 1.884357960599562e+02, -4.457855152268238e+01, 3.385396224493231e+02
4797, 9.657803238549192e-01, 1.257495616897120e+00, -1.345956196558342e-02, -2.553706251442827e-10, 1.624916629278841e-10, -2.483002731650034e-10, 3.497390193506370e+02, 5.230698256703351e+02, -1.197277814174144e+01, 8.296666190348467e+02, 1.540199571270757e+02, -3.526859955170113e+02, 7.886358790093126e+02
4798, 9.393324373181140e-01, 1.040314841061077e+00, -1.363220795470151e-02, -4.152288622906203e-10, 1.375440356664234e-10, 1.719309545276753e-11, 1.769975151711118e+02, 1.038743724185282e+02, -2.507647841178850e+00, 7.647488651845573e+01, 1.076585998184947e+02, -5.683044338877653e+01, 2.293040502857258e+02
4799, 2.223142138146125e-01, 3.094006397367368e-01, -3.076177504747383e-02, -2.379711264942108e-09, 1.456275779849782e-09, -4.955956780261830e-09, 2.507674291937445e+03, 3.009289081287568e+03, 6.721103108385614e+02, 4.318983577144757e+03, -3.456874600004276e+01, 1.858763317436192e+03, 3.787831069777475e+03
4800, 2.419089050895071e-01, 3.150843199671031e-01, -3.277494485924733e-02, -2.477686263750972e-09, 1.723932647151544e-09, -5.847094978848094e-09, 4.670148708907348e+03, 6.054817578991794e+03, -6.162758843670732e+02, 8.229565247939543e+03, -1.053359422103347e+03, -3.927241746320609e+03, 7.771480554974340e+03
4801, 5.205281205053336e-01, 8.816843458123353e-01, -2.626877178102601e-02, -2.517276299527648e-09, 2.725742173202490e-09, -1.058780699287056e-08, 6.279973411283509e+03, 1.002262936642701e+04, -8.143827798916114e+02, 1.345635256257221e+04, -1.616795186744042e+03, 3.565016134933277e+03, 9.306391956385452e+03
4802, 5.180645312136233e-01, 8.619707657582426e-01, -2.700452999907831e-02, -1.890558346543401e-09, 6.221364332867356e-11, -2.456000312547817e-08, 1.855195709171240e+04, 2.032177385928058e+04, -7.566473587515702e+00, 4.026749786416510e+04, -3.421035554800694e+03, -1.605234118461788e+02, 2.171295378589415e+04
4803, 9.633548421285397e-01, 1.237902816292331e+00, -1.347975315614861e-02, -2.872108469095018e-10, 1.653907498080063e-10, -2.107567153274627e-10, 5.551452840569615e+02, 5.702127753294525e+02, -1.256143642159573e+01, 8.150606133542688e+02, 1.397299847271096e+01, 1.491481002529765e+02, 3.628516312245169e+02
4804, 7.665737334475360e-01, 6.940024078407307e-02, -1.773730410108981e-02, -3.691857558892715e-10, 5.534580590358543e-11, 3.289965008844486e-11, 1.202882928244372e+02, 1.222150831322318e+02, -5.910891474512593e+01, 1.519475160560908e+02, 1.279214478180883e+02, -7.713047598310673e+01, 2.799386201845968e+02
4805, 6.981654845006271e-01, 7.780233745772279e-02, -2.220859344612673e-02, -3.003779308934119e-10, 1.164832234802796e-10, -6.965248282218758e-10, 5.414338562472217e+02, 5.309931216018217e+02, -4.846546390214677e+01, 7.041391350338628e+02, 5.001363009417020e+02, 2.098934017160532e+02, 9.580721067386827e+02
4806, 8.963570663585596e-01, 1.524609000248629e+00, -1.753628290595141e-02, -9.139368457018751e-10, 1.533612213996719e-09, -1.526279472626431e-09, 3.607878765870124e+03, 4.930926440746382e+03, -4.966930396012582e+02, 6.071203831383351e+03, 1.642834231316702e+03, -1.755154729894654e+03, 4.757925836656882e+03
4807, 6.723883110936730e-01, 1.318888196572818e+00, -1.184256930612633e-02, -9.845044824375742e-11, 6.545243866475719e-11, -1.021344721458865e-10, 3.259734505266470e+02, 7.127732865023286e+02, 7.754795262129110e+01, 4.041330874194878e+02, -3.786476859221966e+02, 3.857020944386655e+02, 1.009926972217818e+03
4808, 1.597776020724016e-01, 7.484743218599431e-02, -3.860668171811942e-02, -1.534319530189699e-09, 8.258048335813214e-10, -1.191544233873730e-08, 1.365068346539538e+04, 1.179076556139356e+04, -9.667652829224069e+02, 2.485673581515945e+04, -6.879328418503565e+01, -2.092068135267404e+03, 1.287732858190044e+04
4809, 9.144806251961539e-01, 1.532475766763781e+00, -1.695632053088996e-02, -1.117569966421999e-09, 1.443083733691112e-09, -1.262243199565612e-09, 3.410244068828920e+03, 4.160699341074133e+03, -7.110538635893881e+02, 4.490756349868254e+03, -4.259638870383972e+02, -5.158495755762311e+01, 1.728850855505826e+03
4810, 7.066109366851949e-01, 1.259457104374607e+00, -2.154528145350485e-02, -1.111025301446997e-09, 1.315547186634512e-10, -3.214050467050531e-09, 4.326946025421137e+03, 5.679144580778914e+03, 2.449228034633497e+02, 8.557970184347270e+03, 7.625977478685439e+02, 4.804449752275288e+03, 9.229391171236068e+03
4811, 6.798802540104373e-01, 7.008520220553893e-02, -2.331177697341537e-02, -4.116254398199600e-10, 2.279031097593919e-11, -1.969217516389341e-09, 1.454520675983061e+03, 1.538902660320994e+03, -6.392498398795551e+01, 2.898664956853822e+03, 4.995565169940031e+01, 1.091818730170773e+02, 1.423489100587936e+03
4812, 5.932124801260376e-01, 7.083777290090013e-02, -2.860827951403529e-02, -4.225952788884221e-10, -1.384861636195427e-11, -2.287915403096053e-09, 1.747510100982496e+03, 1.656240535244922e+03, 1.436657409392988e+02, 2.702593737002863e+03, -1.246641980075973e+03, -1.387514731964442e+03, 3.392277194334752e+03
4813, 6.115323551036840e-01, 7.858895406940486e-02, -2.756940484208740e-02, -2.693814735102520e-10, 1.194647577015079e-10, -2.521797820993319e-09, 2.107942503454359e+03, 2.129214522642138e+03, -1.985189798745367e+02, 3.057350818205194e+03, 5.683481187526902e+02, -1.081296689324433e+03, 2.340198392111727e+03
4814, 3.673060343695822e-01, 6.893905763636297e-02, -3.905415724651159e-02, -5.173993372849572e-10, 2.928185288011404e-10, -5.554791700476011e-09, 3.565201048151433e+03, 4.075357433153108e+03, -1.614125705221675e+02, 5.481889687712946e+03, 6.216224554241954e+01, -2.898776896165541e+03, 5.315507586294972e+03
4815, 1.000013346079349e+00, 1.531448696230292e+00, -1.306930983599355e-02, -4.629047665460161e-10, 6.729922923345958e-10, -1.471810654524946e-09, 2.656378532559778e+03, 2.928323230847576e+03, -2.423058470494850e+02, 4.237165035436113e+03, 2.796007688085357e+02, -3.634587343419464e+02, 1.717534940846076e+03
4816, 9.820883667167388e-01, 1.523866831806371e+00, -1.402775271829430e-02, -5.512344565621556e-10, 1.007502626659349e-09, -3.852557798726957e-09, 3.723881873503342e+03, 3.858894963754089e+03, -1.778009978521025e+02, 5.949905776482388e+03, 6.303104955818850e+01, -5.252342552623695e+02, 2.367961143663420e+03
4817, 1.173205436639180e+00, 1.553739853562534e+00, -2.022444619723658e-03, 1.767922152676983e-10, -8.912255277834889e-12, -2.275326702857611e-11, -1.083789302466719e+03, -1.673832520464970e+03, -1.468014773547029e+02, -2.998480220278309e+03, -9.963056651753348e+02, 2.935724159607460e+02, 2.487071202462728e+03
4818, 6.622025792658730e-01, 1.184643443894299e+00, -2.207012277923699e-02, -1.419527265383547e-09, 1.070259877482774e-09, -2.985983866194575e-09, 8.297963396575064e+03, 6.077551194272541e+03, -1.985977523773540e+03, 8.816463805102565e+03, 2.199837567220895e+03, -2.088483350692528e+03, 6.766522143272729e+03
4819, 5.065526681085388e-01, 7.161508680772304e-02, -3.337786110881540e-02, -3.438733249159325e-10, 3.113545236596832e-10, -6.561704108442105e-09, 3.881255800870845e+03, 4.057089756434892e+03, -5.760628681126803e+01, 6.657278181395485e+03, 4.785613757270734e+02, -2.072937135169510e+02, 2.841659605942604e+03
4820, 3.626357574795762e-01, 5.912383629182432e-01, -2.807504795337733e-02, -1.691904096247715e-09, 3.524272725341552e-10, -7.872439707771870e-09, 7.413187676818455e+03, 7.215101947944413e+03, 1.144747967774593e+03, 2.133459062468763e+04, -4.500642382058354e+03, 4.467067720665991e+03, 1.792107978299751e+04
4821, 3.812465543639545e-01, 5.983941171229320e-01, -2.959546948237265e-02, -2.037235484380219e-09, 9.558181039219777e-10, -8.276458579130663e-09, 7.005940918222868e+03, 7.216040774979201e+03, 1.277034794992253e+03, 1.466112142304870e+04, -1.892791570797544e+01, 2.589977128742360e+03, 9.058424320312784e+03
4822, 3.970504272519472e-01, 5.864590619826496e-01, -3.133628309444234e-02, -1.967656414245053e-09, 1.498954758165267e-09, -1.019107190914181e-08, 1.117697288111508e+04, 8.961763660841847e+03, 1.905618217339254e+03, 1.432602583184847e+04, 1.211782840324053e+03, 2.181035052833387e+03, 7.167261299816025e+03
4823, 3.995122350191920e-01, 6.061745199298476e-01, -3.063534357356854e-02, -1.865955363874813e-09, 1.511544650723101e-09, -9.987621456839984e-09, 8.050687221481739e+03, 7.588024315461525e+03, -6.647265578709585e+02, 1.434273376302412e+04, -5.396413533211085e+02, 2.321957987584170e+03, 7.815925564668869e+03
4824, 3.837275830388422e-01, 6.182901707052311e-01, -2.866270993796311e-02, -3.058658721777196e-09, 1.068925616518369e-09, -1.353799052529530e-08, 7.732821000188190e+03, 9.272658161869098e+03, 4.417866690130567e+02, 1.565715882125916e+04, -1.934958787366153e+03, -8.058568203187818e+01, 8.049921961979863e+03
4825, 4.019769538729632e-01, 6.258872108200584e-01, -2.987842816439671e-02, -2.200919712459931e-09, 1.716419900817031e-09, -1.068116031655348e-08, 8.533888568712453e+03, 9.629721892455125e+03, -1.825053681233249e+03, 1.655092441489187e+04, 4.321269493225292e+03, -6.365984809822705e+03, 1.562940306309028e+04
4826, 4.177986448069546e-01, 6.139411286120431e-01, -3.136547026071282e-02, -1.932389192748835e-09, 8.956701306525956e-10, -7.791688013548571e-09, 6.571106615196041e+03, 5.671483039242682e+03, -7.252913339224062e+02, 1.016907648220145e+04, 1.652829497355943e+03, 3.345573220996811e+03, 7.768126375809636e+03
4827, 4.202556148218456e-01, 6.336598327577679e-01, -3.073657171409149e-02, -2.437437022650102e-09, 8.808086670776951e-10, -7.756632167505412e-09, 9.117446000790060e+03, 6.339755753319717e+03, -1.643373219057609e+03, 7.426450884567704e+03, 5.975616978526353e+03, -3.324838509947130e+03, 1.242045255762912e+04
4828, 4.044465772776130e-01, 6.455969802749481e-01, -2.905311027181150e-02, -5.632579021440205e-09, 9.253932280733410e-10, -2.683958665932268e-08, 1.874551683917250e+04, 1.826861042264447e+04, -1.358163406835901e+02, 3.869730350940148e+04, 3.488246689187599e+03, 1.438585978198439e+03, 2.122696134937277e+04
4829, 4.227148495992881e-01, 6.533761676885705e-01, -3.005408680208361e-02, -2.021961013340984e-09, 1.057624809839514e-09, -8.280807141930581e-09, 8.921372228999362e+03, 4.382904537347027e+03, 6.329056456307917e+02, 7.386537923451754e+03, 7.291048247376631e+03, 2.790185098550511e+03, 1.414294419079514e+04
4830, 4.069231300952199e-01, 6.653019232328969e-01, -2.814695185191073e-02, -2.149878496258318e-09, 2.192339616567187e-09, -7.076377452298181e-09, 3.754090742288749e+03, 3.967030028843366e+03, 2.064450279526918e+03, 7.890597173044593e+03, 9.346218618877315e+02, 8.950900201855911e+03, 1.649355832069216e+04
4831, 3.166153898025370e-01, 4.961835795328554e-01, -2.916262768230102e-02, -3.516877859016591e-09, 2.310697825381380e-09, -1.973322643460678e-08, 1.234011023005781e+04, 1.126534059447681e+04, 6.125384897594869e+02, 2.583457825784467e+04, 1.859445576123180e+03, 5.000144283865070e+02, 1.449163581687379e+04
4832, 1.416239637411418e-01, 6.655548498693128e-02, -3.766146905771060e-02, -1.271757167820848e-09, 1.017892477167058e-09, -9.015558635567424e-09, 9.181058994128560e+03, 1.033967458825025e+04, -4.291542662135109e+02, 1.993496269384125e+04, -2.459080259939667e+03, -4.762692600497473e+03, 1.383013608396783e+04
4833, 1.256981595617999e-01, 7.884322893825982e-02, -3.533623424229382e-02, 1.472886106042598e-10, 1.357077925013367e-09, -8.360881739785430e-09, 6.336623124518412e+03, 7.716870766174142e+03, -5.482597748398155e+02, 1.839397645782163e+04, -5.918260536266625e+03, -1.181899646814892e+03, 1.551813679042853e+04
4834, 4.326662440324831e-01, 7.322680567261176e-01, -2.664904692435771e-02, -2.914183972098232e-09, 1.619798424558697e-09, -1.189820870575483e-08, 8.448911198767062e+03, 8.716855339266573e+03, -1.981657529767768e+02, 1.555236841487025e+04, -1.047231126193378e+03, -2.425504188091532e+03, 8.347734335519110e+03
4835, 1.085135370883680e+00, 1.530894854529556e+00, -7.779728680104864e-03, -2.122962712828159e-10, 9.061256540643859e-11, -2.663485960113683e-11, 1.491306311719107e+02, 2.409813130401745e+02, -7.974588506770229e+01, -1.174620252924898e+02, 3.305970586734087e+02, -1.216739479557823e+00, 6.715361606412885e+02
4836, 1.103136996546449e+00, 1.538589131879047e+00, -6.655573637095144e-03, -1.892136874007952e-10, 7.596278617395899e-11, 1.522645304565425e-11, -2.797232685747156e+01, 3.482158834178051e+01, -9.760502603376295e+01, -2.516301420561647e+02, 1.368876062761188e+02, 5.578319679307447e+01, 4.026666272206784e+02
4837, 1.118752686207853e+00, 1.526852888188506e+00, -5.528473814998879e-03, -2.052201885633902e-10, 1.786141558394972e-11, 2.067642630305064e-11, -1.990657932046801e+02, -8.629436420480377e+01, 9.400449849340671e-01, -1.295825146143201e+02, 2.895493639164538e+02, -2.820952918890136e+01, 5.134355642943688e+02
4838, 1.098216666027407e+00, 1.351059160861016e+00, -5.538228497866302e-03, -4.160853316794011e-10, 1.612715214266051e-10, 4.157966934276226e-11, -1.924691649811942e+03, -2.004233212637233e+03, 1.790125317622062e+02, -3.346525112165354e+03, 1.679303146069328e+03, -5.358537258970108e+02, 3.366388818105180e+03
4839, 1.100664027267774e+00, 1.370729548257061e+00, -5.527379748013542e-03, -4.085006385564186e-10, -4.750639506864056e-11, 1.220418949974211e-09, -2.204268900678857e+03, -2.179898439658705e+03, 8.407724081420429e+01, -4.109486200402576e+03, 5.155779961845470e+02, -4.712235760306982e+01, 2.121840806929382e+03
4840, 1.084884841912096e+00, 1.382627391922432e+00, -6.675945669277592e-03, -2.360354768836998e-10, 9.603267951958928e-11, 2.509751595582303e-10, -9.972339328795587e+02, -8.866350612209162e+02, 8.431158728070584e+01, -1.768920470100164e+03, 6.637156035853528e+01, -6.413899508846417e+02, 1.400629848689697e+03
4841, 1.103092912647441e+00, 1.390423497862169e+00, -5.517902498352258e-03, -1.742989537024837e-10, 1.655098282790068e-10, 1.281251467720230e-11, -8.306710495753003e+02, -5.847551549847394e+02, 1.332231202891934e+02, -1.262619208994431e+03, 2.963405715074572e+02, -4.903126643866358e+02, 1.179489163390145e+03
4842, 6.439433846088165e-01, 1.176858291056798e+00, -2.097505714487096e-02, -1.209970820573853e-09, 6.897580151833505e-10, -2.115046101227833e-09, 3.085553558947774e+03, 3.981695008279509e+03, -6.802370509248814e+01, 5.823321573917072e+03, 3.559820035917550e+02, -3.538442973685240e+03, 6.618217514724423e+03
4843, 6.414705309717470e-01, 1.157153319987994e+00, -2.186402798444540e-02, -1.545971729440196e-09, 7.188843919589857e-10, -2.122206675410162e-09, 4.650960655501920e+03, 2.555812471157295e+03, 3.696947349091883e+02, 7.102448427655509e+03, 3.645867317875623e+03, 4.984677892198310e+02, 7.521179885266698e+03
4844, 1.067990632874060e+00, 1.244912250746094e+00, -6.741070246546294e-03, -2.536903728794103e-10, -6.774690724001792e-12, 7.069194046133960e-11, -7.131859543379861e+02, -4.867561204351534e+02, -1.418146373533481e+01, -1.215171356353977e+03, -7.289230663593361e+01, 2.961041961356707e+02, 8.345661007177044e+02
4845, 3.259900407415524e-02, 3.990060395170689e-02, -1.303750570351839e-02, 2.819745722777711e-10, 1.438420401225950e-10, 1.218253794107661e-10, 1.093126552951335e+03, 4.572944759030710e+02, 1.488263296264496e+02, 3.830616882244913e+02, -1.653546005593112e+02, -2.834643000700585e+01, 7.796648932559765e+02
4846, 1.333160115802463e-01, 1.380381057703872e-01, -3.174320048487161e-02, -1.265847782557773e-09, 1.111486692978834e-09, -3.050209605475790e-09, 2.650309873309720e+03, 1.339724890740082e+03, -9.210737465661978e+01, 2.551522260468196e+03, -2.176687215595167e+03, 3.326009999782527e+02, 4.021087627955689e+03
4847, 2.934096501730061e-01, 4.489763149734085e-01, -2.965600468429490e-02, -1.976335410141700e-09, 1.128119213187454e-09, -5.027429048525825e-09, 3.113699851262367e+03, 5.316871189671179e+03, 2.231302032397063e+02, 8.073457362839603e+03, -7.250906933119320e+02, -1.596313613423249e+03, 5.281784280491338e+03
4848, 2.909092845362308e-01, 4.292821924492188e-01, -3.074557483629070e-02, -2.915102079502992e-09, 9.986074958214231e-10, -7.449070050740573e-09, 4.630060473306502e+03, 6.065945093400434e+03, 1.641216433497248e+03, 1.397451276793073e+04, 1.947616703960991e+03, 6.891042939333466e+03, 1.542345042434665e+04
4849, 1.155560744409975e-01, 1.305782783590831e-01, -2.920286606878834e-02, -1.398194113060440e-09, 9.937833955333212e-10, -1.979400290490030e-09, 3.548918020335399e+03, 1.742933771976441e+03, -1.294760268757611e+03, 1.006687535039095e+03, 1.066494830673199e+03, -1.413386885794761e+03, 4.423541605159277e+03
4850, 8.503424636017926e-01, 1.431309323747411e+00, -1.922800773051774e-02, -5.747225413394775e-10, 5.056374913002121e-10, -3.270466864014568e-09, 5.576961783966110e+03, 5.249694737726297e+03, 1.499632013558644e+02, 7.463822284452186e+03, 2.207560516754798e+03, 1.688500957080653e+03, 5.246465206916313e+03
4851, 9.970477609835389e-01, 1.083645726395064e+00, -1.021186599034500e-02, -4.090118284445128e-10, 9.759577216773822e-11, 1.181019896397930e-10, -3.530593853385989e+02, -1.762181191115835e+02, -1.479884527841713e+00, -4.140190517147446e+02, 2.256880189013352e+02, 4.718808316305800e+01, 4.530574580949813e+02
4852, 9.943775186853676e-01, 1.063573777641822e+00, -1.023676426478112e-02, -4.178813380756877e-10, -3.509009350538169e-11, 1.906767150931666e-10, -4.691475453784319e+02, -2.444319537186611e+02, -4.795673689555510e+01, -2.769431676400833e+02, 1.113988663187161e+02, -3.743516463417510e+02, 7.132982776807665e+02
4853, 9.951332892644842e-01, 1.492573073232107e+00, -1.314053618481579e-02, -2.553185193753081e-10, 3.080978635807064e-10, -5.250015029691931e-10, 1.738166086960303e+03, 1.920105083359421e+03, -1.298416785320404e+02, 2.426135091382775e+03, 2.427604307520010e+02, 1.108397889423669e+03, 2.072256467656384e+03
4854, 6.939628215887468e-01, 8.803245758730794e-01, -2.600022256854187e-02, -9.861991901685423e-10, 8.597157327680277e-10, -3.154348713325296e-09, 3.028977968745366e+03, 1.764750347257439e+03, -2.911333513090550e+02, 2.539444969216882e+03, 1.625816907532106e+03, -7.175742142591523e+02, 3.308759418727910e+03
4855, 7.953031731929007e-01, 7.175978252765719e-01, -2.042967649555909e-02, -5.251612486165791e-10, 8.995557380421820e-11, -6.653249241084479e-10, 8.883427570175750e+02, 7.900690082445847e+02, 2.801336794620161e+01, 1.703870328475281e+03, 2.710621882418663e+02, 6.416350213755701e+02, 1.487532446429940e+03
4856, 7.904820767494796e-01, 6.782094473857234e-01, -2.047726661120539e-02, -5.454373883266719e-10, 2.364863384199714e-10, -6.170534874700747e-10, 8.090046454990085e+02, 9.554376524662902e+02, -1.558467495976786e+02, 1.379859775331012e+03, 2.029697052401488e+02, -7.459856712175113e+02, 1.459337098953775e+03
4857, 7.780792970907373e-01, 5.794528424695153e-01, -2.060588260399682e-02, -5.772656749257836e-10, 1.555313238698518e-10, -4.238163809197578e-10, 7.403914314381022e+02, 4.521027178729620e+02, -1.113715984829060e+02, 6.647012394510770e+02, 4.104710212958709e+01, 6.394109085964651e+01, 3.486397013841454e+02
4858, 7.735583818941510e-01, 1.101081589777647e+00, -2.276596067803257e-02, -7.640112551709766e-10, 4.357701974388992e-10, -2.711394762554986e-09, 2.948050369059064e+03, 2.816206333108972e+03, -1.526542055760526e+02, 4.402525121885936e+03, 2.071243984403954e+03, 4.968725202744355e+02, 4.000669347805075e+03
4859, 6.302231337766555e-01, 6.477142393772691e-01, -2.865973638331779e-02, -7.038666007662105e-10, 7.246266671699243e-10, -6.710144061405452e-09, 5.775828327421596e+03, 5.683276914859035e+03, -1.149484829690381e+02, 1.174333263582954e+04, -1.235938045264014e+02, -5.128391588943789e+02, 6.086579675277414e+03
4860, 7.731734516436775e-01, 5.400471638553099e-01, -2.065122554247121e-02, -6.136523641709402e-10, 2.102620148910837e-10, -3.164076286334310e-10, 6.858265790286808e+02, 4.902685366037711e+02, -4.444529903880161e+01, 7.826186547403946e+02, 5.250698197570680e+02, 7.987895553248990e+00, 9.485529204168239e+02
4861, 6.253302425315459e-01, 6.082651819857485e-01, -2.886927562126289e-02, -7.707254395872766e-10, 6.040301085861240e-10, -2.449963843684763e-09, 2.840508823748872e+03, 2.401464685845011e+03, -1.351086685203609e+02, 3.843071056577438e+03, -5.408495671152172e+02, 3.277305813295072e+02, 1.700764439426886e+03
4862, 7.682348203921114e-01, 5.005456368501168e-01, -2.069637568425632e-02, -6.561797213643843e-10, 1.910873501862599e-10, -3.869222735261357e-10, 4.632850523090433e+02, 6.272866554909538e+02, -1.127084654723076e+02, 7.656137216306653e+02, 1.884860600267330e+02, 2.824071386052641e+02, 6.728065981614842e+02
4863, 8.325882304380789e-01, 3.219502172054769e-01, -1.529925139056512e-02, -5.158927436608873e-10, 1.099438349181315e-10, 4.688115901933139e-10, -4.132530140272523e+02, -5.305807346773889e+02, 3.659322066309553e+01, -1.113029285532356e+03, 4.774716888828398e+01, -2.217232257340003e+02, 7.613734980871740e+02
4864, 6.204201191484321e-01, 5.687878727424321e-01, -2.906393596967836e-02, -1.178194211804505e-09, 3.534213218566653e-10, -2.584479753674370e-09, 3.010580835174374e+03, 2.410890765178513e+03, 4.613261278545114e+01, 4.732963848259545e+03, 1.611796792464969e+03, 5.668105854969091e+02, 3.622568355114241e+03
4865, 6.155088993172705e-01, 5.293081921523752e-01, -2.924255229162588e-02, -6.640043309641451e-10, 3.429082980858533e-10, -2.732392320898282e-09, 2.720175736728163e+03, 2.274031273097258e+03, -5.275745373613815e+02, 4.113527448407141e+03, -1.069568523532581e+03, 6.494590738424143e+02, 2.880006328070032e+03
4866, 7.633027835650141e-01, 4.610698273880164e-01, -2.073973497120427e-02, -5.545426528548190e-10, 9.107140921398972e-11, -6.895735401720006e-10, 9.885919979635039e+02, 1.132525272040198e+03, 1.160779811338132e+01, 2.115460962888017e+03, 5.385005240189200e+02, 1.587181493298958e+01, 1.414024370894773e+03
4867, 8.541802408507349e-01, 9.109963336837670e-01, -1.807110354493916e-02, -4.082472832746383e-10, 1.988648189426599e-10, -3.661971995024880e-10, 1.022369347327328e+03, 7.857310773916648e+02, -1.629903066270426e+02, 6.685116240334512e+02, 5.959750028353881e-01, 2.310633264050302e+02, 5.808149858940027e+02
4868, 8.517162530060003e-01, 8.912541787015900e-01, -1.809687293124586e-02, -4.741304080464004e-10, 1.221633541627168e-10, -4.869444865188761e-10, 6.902984994168037e+02, 6.801724224628358e+02, 9.305557533072421e+01, 7.940315635536097e+02, -2.448480929037907e+02, -7.242946830978411e+01, 4.831990943234360e+02
4869, 8.675424744570785e-01, 8.792375436231292e-01, -1.704619944029951e-02, -4.829636627634820e-10, 2.638855718843468e-10, -4.911584424333199e-10, 1.033831277169192e+03, 9.609985719982102e+02, 1.298284723108200e+02, 1.821468016304268e+03, 1.119056419136397e+02, -6.303806443064695e+02, 1.401183833432941e+03
4870, 8.492518073702563e-01, 8.715120233981882e-01, -1.812207646842321e-02, -6.116855215923219e-10, 1.160048061106676e-11, -6.745440941308141e-10, 1.395508011110807e+03, 1.224711540659530e+03, 1.109791127873124e+02, 2.311035750514260e+03, 8.217567412982751e+02, 4.937862633143134e+02, 1.953972241351589e+03
4871, 8.650782455590695e-01, 8.594841990528460e-01, -1.706771740479877e-02, -4.896739493217490e-10, 1.951753484437160e-10, -3.668390029447126e-10, 7.682072186618492e+02, 6.152349400562399e+02, 2.802062643940625e+01, 1.007201891436150e+03, 3.605333566463310e+01, 7.217797304336712e+01, 3.727767512049693e+02
4872, 8.467770799380399e-01, 8.517435781259095e-01, -1.814709337377809e-02, -5.134381097370364e-10, 1.352835128023529e-10, -4.394907672397278e-10, 7.623333335877433e+02, 5.160966859268295e+02, -2.168278065594957e+02, 1.284474740157776e+03, 6.586390637303477e+02, -4.835377138993758e+02, 1.614224206503252e+03
4873, 8.626037607193823e-01, 8.397237404585275e-01, -1.708941743491506e-02, -4.473075266986880e-10, 1.773984926807514e-10, -3.376195780795112e-10, 6.570447960811158e+02, 5.103521498490960e+02, 2.374285048912254e+01, 8.148106342473507e+02, -2.106813756597358e+02, -1.795274173240359e+02, 5.487196516867815e+02
4874, 1.087316902908898e+00, 1.402345634479414e+00, -6.665457961748026e-03, -2.178096665421497e-10, 6.203493329740026e-13, 1.746686802991918e-10, -8.183561260851517e+02, -1.073276086389654e+03, -5.651945956148776e+01, -1.465222110814326e+03, 3.026111751080293e+02, 8.290096819877394e+02, 1.632358972018163e+03
4875, 1.105508384104488e+00, 1.410074769730324e+00, -5.508933415884142e-03, -2.578855499279609e-10, 1.924225740566540e-10, 1.544000363743487e-10, -3.635371390469526e+02, -7.436732002805697e+02, 2.863093436126059e+01, -9.188426701670478e+02, -5.753387784730148e+02, 3.754330397538031e+02, 1.288460020268206e+03
4876, 4.301813791316972e-01, 7.125678741786527e-01, -2.761841466347764e-02, -1.741977755284219e-09, 1.195722244232134e-09, -4.523513647429094e-09, 3.323107875629351e+03, 4.178077276138103e+03, -4.431727358703087e+02, 4.774515216984683e+03, -8.119029869744458e+02, -2.219317203138507e+03, 4.351955793489159e+03
4877, 4.459753675759924e-01, 7.006371747769504e-01, -2.946830453833605e-02, -1.958572458972800e-09, 1.193606913211397e-09, -6.249656836657417e-09, 4.499147564451477e+03, 3.278162871165759e+03, 4.586859360942728e+02, 4.795107149226860e+03, -8.171944948932924e+01, 3.875088826373365e+03, 6.902167096350106e+03
4878, 9.779621305744992e-01, 5.143068241302771e-01, -7.074151376718864e-03, -3.053485014683422e-10, -9.554956827921081e-11, 2.633219449348604e-10, -1.330975985204514e+03, -1.519718180661726e+03, -1.405220201768850e+01, -2.552034409239173e+03, 2.178606951288618e+02, 1.060009685231995e+03, 2.193168001423015e+03
4879, 9.804413989685650e-01, 5.340713494143255e-01, -7.062742576979668e-03, -5.507551897796755e-10, -1.894390640882982e-11, 3.479679158792292e-09, -4.065277909538317e+03, -4.126390702786454e+03, 1.039041098008980e+02, -8.171701804012625e+03, 1.493225320086840e+02, -8.425528374617360e+01, 4.090974657275497e+03
4880, 9.987377042611979e-01, 5.418166494145654e-01, -5.869862193687817e-03, -1.932709016677976e-10, 8.936086886361675e-11, 1.616136242298491e-10, -1.392811781614125e+03, -1.364735973590158e+03, -1.462435003393992e+01, -2.493579569683528e+03, -5.692441211045209e+02, -5.552999127428008e+02, 1.772347347925517e+03
4881, 9.829016589977130e-01, 5.537900400875121e-01, -7.052242080589723e-03, -2.179543534033068e-10, 1.005754669872636e-10, 1.430686692286114e-10, -1.560456270343201e+03, -1.665134145811324e+03, -3.724251564479661e+01, -3.428662683099097e+03, -4.635988512885239e+02, -5.445839637959646e+02, 2.200963552761724e+03
4882, 9.755185093719153e-01, 4.945926982296753e-01, -7.083503858469292e-03, -3.891040633993973e-10, 6.822270624613860e-11, 3.673877798864775e-10, -1.452150745906862e+03, -1.373785629104889e+03, 2.395082798476100e+02, -2.482066689437071e+03, 5.043931623570961e+02, -8.676123870206540e+02, 2.083545349364769e+03
4883, 9.800562117183640e-01, 2.532662499125272e-01, -4.808975954838451e-03, -1.493621837090997e-10, -4.350665124411221e-10, 4.876633806096592e-11, -2.145855666451060e+03, -2.461786427604523e+03, -2.187428056105277e+02, -4.892018213500475e+03, 3.367958904673645e+02, 2.230368303779012e+03, 4.709680639804772e+03
4884, 9.775917553511663e-01, 2.334821977992985e-01, -4.818191679973612e-03, -1.908975517104383e-10, 1.326895687038200e-10, 3.213223124690225e-12, -2.680243165855847e+03, -2.973082067794596e+03, 5.940635903150362e+02, -3.045028278954513e+03, 1.112232538291577e+03, -1.072085374507239e+03, 2.886177227004297e+03
4885, 8.551759679836842e-01, 7.804650087011920e-01, -1.715284725968853e-02, -4.594313940148939e-10, 2.524771524464344e-10, -7.396387128296789e-10, 6.573320675750989e+02, 6.368649595060053e+02, -1.090475801277227e+02, 1.029286327276593e+03, 1.520933719126719e+02, -1.417767328477371e+02, 5.583501887867859e+02
4886, 9.955593967483078e-01, 6.523255056930952e-01, -6.974628856875737e-03, -4.109276405903725e-10, 1.250767142873210e-10, 3.060963467847463e-10, -7.838025218847786e+02, -5.484896439906543e+02, 2.968676781869542e+02, -1.807123926784678e+03, -2.925867955097696e+01, 7.107070989156006e+01, 1.274940059957245e+03
4887, 9.928459216070757e-01, 6.327828631371212e-01, -7.003900807780933e-03, -5.526407598560339e-10, 6.684778419077610e-11, 3.314986308902668e-10, -1.811356169231831e+03, -1.586844948604802e+03, -7.139046434596031e+01, -2.740078211137104e+03, 1.295261268592608e+01, -5.858125693254269e+02, 1.471992066358804e+03
4888, 8.354577725273169e-01, 6.225165968754699e-01, -1.730366032655548e-02, -5.068073275080129e-10, 1.822209324837495e-10, -8.452168766820001e-11, 2.076761838219168e+02, 1.801045729667357e+02, -5.360734822908263e+01, 1.842682114191813e+02, 2.007372449401959e+02, 1.343781072692807e+02, 4.293515184577618e+02
4889, 8.305279080067509e-01, 5.830267581882318e-01, -1.733899391047500e-02, -5.574797192593038e-10, 1.207324407391972e-10, -5.072262120393056e-11, 2.834324726289878e+02, 2.074542856082814e+02, 7.797878252314277e+01, 2.940233999054422e+02, 9.092459564924668e+01, -2.442150151870301e+02, 4.781802702732281e+02
4890, 8.255979848741557e-01, 5.435355479793073e-01, -1.737361938345519e-02, -5.676227988887592e-10, 1.211476234135542e-10, 9.649753879458250e-11, -3.216526395275278e+01, 1.563120869661801e+01, -7.079853262293828e+01, -4.624023438760839e+01, 3.353211162709237e+02, -9.997630003142306e-01, 5.962519516314253e+02
4891, 8.206680162975479e-01, 5.040426883737494e-01, -1.740750815992748e-02, -5.595712121184456e-10, 9.977975445728919e-11, 1.086882295996336e-10, 1.680252709345305e+02, 1.106960731161119e+02, -7.219429873873069e+01, 6.025708592085267e+01, 3.258834512924382e+02, -1.931358756775834e+02, 6.744352276072548e+02
4892, 3.921362105541161e-01, 5.470215411946384e-01, -3.258146313990641e-02, -1.620655904923122e-09, 1.130826680525581e-09, -7.553365481567068e-09, 4.688453285969432e+03, 6.383607948814704e+03, 4.930035989019325e+01, 8.435784363220557e+03, 1.431274398063704e+03, -3.999278836149144e+03, 8.043591125647550e+03
4893, 1.063874051662173e+00, 9.248841937116941e-01, -4.479088885792056e-03, -5.107111548168457e-10, -6.046167735220895e-11, 5.670584149679869e-10, -1.648720921332143e+03, -2.294348056824096e+03, -1.576751042940497e+02, -4.380365866044450e+03, -8.636554797618217e+00, 1.644906652556703e+03, 3.782466942866097e+03
4894, 1.001200145458932e+00, 5.615501580885972e-01, -5.859796623702774e-03, -4.210172269953360e-10, 9.802991729934014e-11, 1.576195254518435e-10, -2.831036221353170e+03, -1.434980916470400e+03, -1.343999229428751e+02, -2.942250534191352e+03, 2.478770072775643e+03, 6.126506106248902e+02, 4.661514337649390e+03
4895, 9.853677879692566e-01, 5.735457745693041e-01, -7.041612427506759e-03, -4.017048137401731e-10, 5.509624162466964e-11, 4.117355884993753e-10, -1.034778053651311e+03, -1.076527648293521e+03, -1.925851071103662e+01, -2.045850633098126e+03, -3.435177895230342e+02, -6.167811389804496e+01, 1.161179389362007e+03
4896, 2.576899790418881e-01, 3.031614889608225e-01, -3.482605845182699e-02, -2.134672420853619e-09, 1.888823999759832e-09, -8.131581461177251e-09, 4.448624780403969e+03, 5.107797271657056e+03, 2.753326862240625e+02, 6.073453996131741e+03, 4.011122026028592e+02, 2.344484595048432e+03, 4.382174910054860e+03
4897, 2.601601499295558e-01, 3.228768607091024e-01, -3.403598299687521e-02, -3.160027899270098e-09, 2.064110540241424e-09, -8.443943491712252e-09, 6.213643489290196e+03, 6.019489722574421e+03, -1.213110680556935e+03, 8.383614657502061e+03, 2.093956231608600e+03, -3.832326427764995e+03, 8.172932573338231e+03
4898, 2.452729264537554e-01, 3.345629091119642e-01, -3.187280386823657e-02, -4.087304364619470e-09, 2.286038099411243e-09, -1.855200240243391e-08, 1.368732076594879e+04, 1.327381052915140e+04, -1.933037952309489e+02, 2.908591950853369e+04, 5.031203439479616e+02, -1.102794380990691e+03, 1.575357952393476e+04
4899, 2.626348647353138e-01, 3.425879796211758e-01, -3.317641245641319e-02, -2.553124241403835e-09, 2.451212079896304e-09, -9.104630294335774e-09, 9.260539503912436e+03, 9.087276658194722e+03, 6.927592307171562e+02, 1.494650535235846e+04, 2.340564128696048e+03, -4.854528945995190e+03, 1.104170346940721e+04
4900, 2.476376942151664e-01, 3.541427325744527e-01, -3.075390469707087e-02, -2.559742115008867e-09, 1.126906401160994e-09, -7.489369604481362e-09, 1.020267306863682e+04, 8.585465407049385e+03, 1.495277127656667e+03, 1.597054591184810e+04, -2.339400610715794e+03, 2.951286744804117e+03, 9.719454355937678e+03
4901, 2.651150186786314e-01, 3.622945263840939e-01, -3.225143648076265e-02, -3.831043706294871e-09, 2.282267968502126e-09, -2.147053290603152e-08, 1.340998253746977e+04, 1.255209526475341e+04, 3.634068593161220e+02, 2.819796038566798e+04, 1.043466086722690e+03, -3.670868156642235e+02, 1.536794044906437e+04
4902, 1.008986319885255e+00, 9.016877013875124e-01, -8.029867918734408e-03, -4.111123819711194e-10, 1.068113517170979e-10, 3.116991035208670e-10, -1.253728153271400e+03, -1.251003813972034e+03, -6.319964839742986e+01, -2.491620683547989e+03, 3.934690795036460e+02, 3.067019890136211e+02, 1.514725204204237e+03
4903, 1.006520929145502e+00, 8.819399313438953e-01, -8.041614318352345e-03, -4.152016437138348e-10, 1.794395125169446e-10, 3.132314797525277e-10, -1.235021043472256e+03, -1.257688829318158e+03, 7.143588860116515e+01, -2.141561081872843e+03, 4.227151225704284e+02, -8.703067220600096e+02, 1.904062569551148e+03
4904, 5.447224262305542e-01, 5.180835223569791e-01, -3.195967811955673e-02, -1.085583794428857e-09, 5.476087936046420e-10, -5.431118582692293e-09, 4.144072560730841e+03, 4.087637463742893e+03, -4.771110688299415e+02, 6.841685731953349e+03, 2.609003143276645e+03, 5.912397620445319e+02, 5.439194084809708e+03
4905, 1.032995329646295e+00, 6.739215560742022e-01, -4.573373965266006e-03, -2.950278080679521e-11, -3.713260855461271e-11, 3.361142450852890e-11, 1.559284796017524e+02, -3.493408795311058e+02, -1.932487153438245e+02, -1.075563415779369e+02, -7.143520710413520e+01, 2.055674284809299e+02, 6.676141377149371e+02
4906, 4.970025966319188e-01, 2.734560132771704e-01, -3.408290110223194e-02, -8.353144731286167e-10, 7.596586190584675e-10, -4.093068254216782e-09, 2.784347822154283e+03, 1.829927266140047e+03, -3.225537755676660e+02, 2.858972317884529e+03, 1.208277329099052e+03, -1.139966617980455e+03, 3.094867907130308e+03
4907, 8.869106717863952e-01, 1.036826924147486e+00, -1.687341441605835e-02, -5.253843867125538e-10, 2.817611431080080e-10, -8.891637438824949e-10, 1.676397784415819e+03, 1.580740455546063e+03, -3.788735728790859e+01, 3.682067968809512e+03, 8.972961359551919e+02, 5.780905042526916e+01, 2.579432756794697e+03
4908, 8.844504766858590e-01, 1.017084939724361e+00, -1.689929540865270e-02, -5.087008622959453e-10, 3.274780399238578e-10, -6.770184719978090e-10, 1.431668482456990e+03, 1.562178209082599e+03, -4.635084875344221e+01, 2.692699848238017e+03, 3.574549523487811e+02, -7.266478094229002e+02, 1.848370764929713e+03
4909, 9.002780230882024e-01, 1.005070470428087e+00, -1.584961870628306e-02, -4.608296959529010e-10, 2.696365928320699e-10, -4.726475314595636e-10, 9.356690844114718e+02, 9.849438140243450e+02, -5.020667864005697e+01, 1.714093046379902e+03, 2.845612635569459e+02, -6.179263391511126e+02, 1.402141784926381e+03
4910, 8.819898552999725e-01, 9.973428817249753e-01, -1.692456204318018e-02, -4.673996912769863e-10, 1.889922201777119e-10, -4.364434473547391e-10, 9.428289814927321e+02, 9.652291663981405e+02, 6.705666478139278e+01, 1.290788706950705e+03, 1.916610809260344e+02, 2.448035165582781e+02, 6.459577079752266e+02
4911, 6.694233982706594e-01, 9.634113492958051e-01, -2.646423380490365e-02, -8.593252878060066e-10, 1.352142271669722e-09, -4.467436899413714e-09, 2.315188306563351e+03, 2.403106870574735e+03, -3.489762881637373e+02, 2.558395517227122e+03, 8.395784176479756e+02, 2.425648740674641e+03, 4.491863927051861e+03
4912, 6.877324033012515e-01, 9.711524230068327e-01, -2.594702772207658e-02, -9.139559882918130e-10, 4.048319212779000e-10, -2.782429099121124e-09, 2.946883251323713e+03, 2.612043604353245e+03, -2.739747936817602e+02, 4.212643847496236e+03, -2.159117740588004e+03, -9.188946062898484e+02, 4.345313684357900e+03
4913, 1.011451678322702e+00, 9.214354345648765e-01, -8.018079558783959e-03, -5.020533550334897e-10, 1.537017206026701e-10, 3.217395382394964e-10, -1.263727867528986e+03, -1.441909452632379e+03, -3.143105008502914e+01, -2.513827894123611e+03, 6.122129558443871e+02, -7.134179786553273e+02, 2.006496306732430e+03
4914, 6.656684918286624e-01, 7.935485629621908e-01, -2.716245537975635e-02, -7.912175171543237e-10, 3.847744417952036e-10, -3.073911407746120e-09, 2.551262398263342e+03, 2.554097895857433e+03, -5.556290526070026e+02, 4.468685170687767e+03, 4.191202196369328e+02, -1.830194623523043e+03, 3.895263093598000e+03
4915, 6.473607999665223e-01, 7.858073506245897e-01, -2.782793572136628e-02, -7.068734897473590e-10, 6.935987399530999e-10, -3.166222271537076e-09, 2.182802761786097e+03, 1.856837387209607e+03, -7.866542314232930e+01, 2.969695133861531e+03, 1.721306450002454e+03, 9.899399260431126e+02, 3.581780046268282e+03
4916, 4.042455072674314e-01, 3.652089027563208e-01, -3.635618903278126e-02, -1.395643565110689e-09, 1.188847249881407e-09, -6.170486896288921e-09, 4.892498358980144e+03, 4.459643910846339e+03, 5.369337050298134e+01, 6.907512178391136e+03, -1.687540122496659e+02, -3.455076895560409e+03, 6.405201254233521e+03
4917, 4.201109993159289e-01, 3.532109197135253e-01, -3.619518514096472e-02, -1.312634538250390e-09, 3.929820713871944e-10, -5.818702565704802e-09, 3.775381261141522e+03, 4.111392848660114e+03, -4.365384247991291e+02, 6.754585486111755e+03, 3.269617870687309e+02, 2.417640168637602e+03, 5.139540430278850e+03
4918, 7.759503956872091e-01, 1.120695671443894e+00, -2.264713374313925e-02, -6.437518965359575e-10, 7.564664199810264e-10, -2.623519347586888e-09, 2.851608162441258e+03, 3.261575514845910e+03, 6.686132934458044e+00, 5.441968771385203e+03, 3.614894405543149e+02, -2.390256131377284e+03, 4.831998459701931e+03
4919, 5.692302695787196e-01, 7.154049005182396e-01, -3.039807721761387e-02, -1.464299765811079e-09, 8.051817672452605e-10, -4.439805401952028e-09, 3.091194256549625e+03, 3.816468275523076e+03, -5.080603656910678e+02, 6.184718848750495e+03, 1.587195534573090e+02, 1.705161200238570e+03, 4.174319063425236e+03
4920, 5.875413049835314e-01, 7.231446835069896e-01, -2.990121322820264e-02, -1.523644554255184e-09, 7.271040032648217e-10, -4.303069247699298e-09, 3.481237800598257e+03, 2.035445962365887e+03, 5.642558795312671e+02, 2.452517823442037e+03, -1.619807300640611e+03, -1.635867196571592e+02, 3.250850180341725e+03
4921, 5.664298679476117e-01, 1.343949088485868e-01, -3.046299470712922e-02, -2.856392743771230e-10, 6.526746143058144e-10, -6.314672512746553e-09, 3.818464477252213e+03, 3.939520611315647e+03, -2.881411905412907e+02, 8.086664807225369e+03, 4.743755895273455e+01, 8.723953446196171e+01, 4.241951912174368e+03
4922, 5.614989123282489e-01, 9.486844685894674e-02, -3.054944344301013e-02, -3.725295614086835e-10, 5.658472928205186e-11, -2.167149446924343e-09, 8.886066851485388e+02, 1.067404150518970e+03, -9.497987678791152e+01, 1.936181636014842e+03, 7.580199388987799e+02, -7.774563433305156e+02, 2.122790469393487e+03
4923, 5.590504659649791e-01, 7.509048745674252e-02, -3.058991257935452e-02, -3.145632243515830e-10, 2.511016003687327e-11, -1.776435689363856e-09, 1.829818541176672e+02, 6.103065155773151e+02, -2.543465561564535e+02, 6.102429230379111e+02, 2.894668423391687e+02, -1.196535973024476e+02, 8.191335764360182e+02
4924, 5.116739977963684e-01, 3.918988312197910e-01, -3.337722235068789e-02, -8.348401683427069e-10, 9.271797012862349e-10, -4.485482063456761e-09, 3.769436825356529e+03, 3.333993073362705e+03, -2.162221757374966e+02, 5.334743436847663e+03, -2.131539472582876e+03, -3.129882920656466e+02, 4.169642874797061e+03
4925, 4.933589528532203e-01, 3.841576947936496e-01, -3.402600408487799e-02, -1.037446245550881e-09, 1.087910007235260e-09, -4.348112369586466e-09, 2.798822865502624e+03, 3.155208555112701e+03, -2.870881997988701e+02, 3.549133243839131e+03, -7.266278663176300e+01, 1.570880221691899e+03, 2.844058561242400e+03
4926, 8.234654314716320e-01, 8.043785367119665e-01, -1.926638140111068e-02, -4.177930810913473e-10, 2.509982629992230e-10, -6.928550321710252e-10, 1.141885230198013e+03, 8.645602177582958e+02, 3.900881048204538e+01, 1.594741015079883e+03, -5.220086961182716e+02, 6.722698508690112e+01, 1.114979130534745e+03
4927, 1.065536102059110e+00, 1.225168040506490e+00, -6.752299668588299e-03, -2.691693953685375e-10, 8.313312080007509e-12, 4.937572392149864e-11, -3.621867704079206e+02, -3.796097882706860e+02, 5.017961417777244e+01, -4.430049133446117e+02, 2.141529788515269e+02, -2.309223703071910e+01, 3.900836681462669e+02
4928, 8.565224867982131e-01, 9.305569234513753e-01, -1.805092557759552e-02, -4.626943604162621e-10, 2.428441235137107e-10, -4.455027628352819e-10, 1.018321313562458e+03, 7.563918277268674e+02, -1.486892010738480e+02, 1.272152773339718e+03, 7.169365425839082e+02, -2.965633531758415e+02, 1.439337462319468e+03
4929, 9.975414384004206e-01, 1.233849809191382e+00, -1.128463382940287e-02, -3.174324741917013e-10, 8.957900716792732e-11, -7.699471435943274e-11, 2.154015394442093e+02, 7.911188941484076e+01, 3.835822147516813e+01, 4.109292164400067e+02, 5.603470775312053e+02, 6.711667735837923e+01, 1.021444509673287e+03
4930, 1.048474972722863e+00, 1.367203959871458e+00, -8.959006957043623e-03, -3.812426363164667e-10, 5.699908384060066e-11, 1.156733085198816e-10, -2.310955559837913e+02, -2.731025796610763e+02, -3.082553464666759e+01, -7.826155386477240e+02, 5.794850326318481e+02, 3.762420668075674e+01, 1.138980799233428e+03
4931, 8.580472641140373e-01, 1.080585767881937e-01, -1.198211693085028e-02, -2.145394672380227e-10, -2.675641630699000e-11, 6.211475932680792e-10, -1.046091443834461e+03, -9.474876147477651e+02, 2.841033747657729e+01, -2.032913964367870e+03, -4.053694955142692e+02, 4.138300920131721e+01, 1.257528634725585e+03
4932, 8.738921266994469e-01, 9.603658887640161e-02, -1.082378960282125e-02, -4.992160272586128e-10, -2.810524068277055e-11, 5.215124214612319e-10, -1.259682388255142e+03, -9.364499556331582e+02, 1.918932404293369e+02, -1.505317839030110e+03, -3.400730372372406e+02, -1.656450350983997e+02, 8.854073732250522e+02
4933, 8.714288880859714e-01, 7.626616536561324e-02, -1.083488895117877e-02, -5.644213740241116e-10, 4.892712511561159e-11, 6.684071308167640e-10, -7.937156484295766e+02, -4.434941198178161e+02, 2.200958168368749e+02, -8.711810714783020e+02, -6.509525596814231e+01, 2.185110089666948e+02, 6.760665172014021e+02
4934, 8.897392884360212e-01, 8.402509550059861e-02, -9.657871270929295e-03, -5.775163235402198e-10, 1.667819795873810e-10, 6.763251146063489e-10, -1.336265338204762e+03, -1.467118443485400e+03, 5.413745775105136e+01, -2.590491673607915e+03, 9.895713121887017e+02, -6.590938272218322e+02, 2.382403740517078e+03
4935, 9.839527356731541e-01, 4.234698764787706e-01, -5.931035123701586e-03, -1.683313164589540e-10, 8.853490626879657e-11, 3.972695261539570e-11, -6.877554010888399e+02, -5.805119232300208e+02, -1.128920625108097e+02, -8.025882750621212e+02, 1.468544449059939e+02, -8.877309052283780e+01, 4.044469697850895e+02
4936, 9.681199867386249e-01, 4.354746909803998e-01, -7.116242596970439e-03, -1.347991337883052e-10, 2.432768781152035e-10, 1.862194803476276e-10, -8.640873416246327e+02, -1.548544817810001e+03, -1.797270703023024e+02, -1.711881884857639e+03, 2.474998259756489e+02, 7.577224200717294e+02, 1.615568648949052e+03
4937, 1.096256980586478e+00, 1.331803043019455e+00, -5.519386456020376e-03, -5.965578923487014e-10, 1.816744496512789e-12, 1.746783890362540e-10, -2.463466951546883e+03, -2.714846520145754e+03, -5.431241550369973e+01, -4.292887965577325e+03, 1.332819203915682e+03, 3.469615191856343e+02, 2.940971159768843e+03
4938, 2.829922055625990e-01, 8.948584058491846e-02, -4.082781884265300e-02, -7.735865586907623e-10, 4.467677561372785e-10, -7.489360463666943e-09, 4.045896278432360e+03, 5.050105832739849e+03, -6.132814353797388e+01, 6.276237399384805e+03, -2.103772346265303e+02, 2.272887659880848e+03, 4.402867541861919e+03
4939, 2.805335623418497e-01, 6.972684479631928e-02, -4.108018390510002e-02, -1.003027665403522e-09, 3.462095651226056e-10, -1.374781680764934e-08, 7.941084137758196e+03, 8.780319749035352e+03, 7.100200052996094e+01, 1.485554478396816e+04, 2.686958483942964e+02, 5.173469097597442e+02, 6.614066868147978e+03
4940, 3.489684987552213e-01, 6.119104071224248e-02, -3.964844577300831e-02, -7.925515661083908e-10, 2.649065908337478e-10, -5.551348759868346e-09, 3.735086224660368e+03, 4.516812382597710e+03, -3.312128798576225e+02, 5.898906100172328e+03, 1.266595640786581e+03, -4.788822392658960e+01, 2.958120510563020e+03
4941, 2.496667343223203e-01, 3.738097935234024e-01, -2.948549827185003e-02, -2.718268766099578e-09, 1.994626101461867e-09, -5.138300395882618e-09, 5.082049356385413e+03, 4.782878125303024e+03, -1.294308086598688e+02, 7.522100928087052e+03, -3.855421879510161e+03, 3.022335370489110e+03, 8.878061286988177e+03
4942, 2.675728403856706e-01, 3.819420979393651e-01, -3.124814980361879e-02, -2.746269058180408e-09, 1.242056439153489e-09, -7.784247723099806e-09, 5.836301391158793e+03, 5.058578651285917e+03, -7.571478159555031e+01, 1.004759972393851e+04, -6.909503100188593e+02, 3.542563280677783e+03, 7.791906554598903e+03
4943, 1.047581726250185e+00, 1.217656485172452e+00, -7.891442271092350e-03, -2.977612229081992e-10, 7.266535785648040e-12, 1.250160235134114e-10, -2.625671852200250e+02, -4.315739978195213e+02, -2.930640969562556e+01, -7.162336354965802e+02, -2.159342337007426e+02, -1.638525824425276e+02, 6.170139489393924e+02
4944, 2.277417710220110e-01, 6.672766916044408e-02, -4.121322155896872e-02, -3.982020933414912e-10, 6.233396510928983e-11, -7.124772584165969e-09, 3.211723782380714e+03, 5.391420341263506e+03, -7.549063090314448e+02, 6.260825071189372e+03, -9.182708299097496e+02, -3.196516016338246e+03, 6.503417459834131e+03
4945, 2.098384932835038e-01, 5.857210501848070e-02, -4.113619349547541e-02, -5.097599696403696e-10, 2.647503297369398e-10, -6.497866844519126e-09, 4.060175387850019e+03, 4.098344937114545e+03, -1.867466209082882e+02, 1.649664796070156e+03, 1.374129715111684e+02, 9.864664384101845e+02, 2.997439625441882e+03
4946, 2.030140942011299e-01, 2.797412739031417e-01, -3.035940633474256e-02, -2.978748098310834e-09, 1.636600432964190e-09, -6.934069468933182e-09, 5.407152096738239e+03, 5.013774069374949e+03, 8.701417886441928e+02, 1.229362684950882e+04, -9.447348802523301e+02, 1.991080697519706e+03, 8.193258683681872e+03
4947, 4.882637621466367e-01, 6.375162542099755e-02, -3.426104642379057e-02, -3.276788793987021e-10, -7.713579754284386e-11, -5.108348620042913e-09, 3.713692127405614e+03, 4.277313163414716e+03, -3.609564725723276e+02, 7.035346383263069e+03, -8.126579539796063e+01, -1.854922410212437e+02, 3.161139775928186e+03
4948, 5.022745234076867e-01, 8.738970757871519e-01, -2.509119480450875e-02, -1.100390933883545e-09, 3.794445432405817e-10, -7.992042433994618e-09, 1.336570826368550e+04, 1.206129600826423e+04, -1.060381772541231e+03, 2.405088348546550e+04, -1.015254026979549e+04, 2.090710388929187e+02, 2.103660896534491e+04
4949, 4.997962247866985e-01, 8.541936187707604e-01, -2.600784132282475e-02, -2.032211408055577e-09, 2.083082411135910e-09, -6.023167039146852e-09, 6.827366501309053e+03, 5.753415672394007e+03, 1.927804676561729e+02, 1.305965889134496e+04, -6.039979652369386e+03, -2.549765715397069e+03, 1.325697874840371e+04
4950, 3.419787798253521e-01, 5.634202513777432e-01, -2.743854392834100e-02, -3.182239385204076e-09, 2.357651718561259e-09, -6.208119440208369e-09, 3.091221229110562e+03, 4.043030278016432e+03, -3.338722360334687e+02, 5.858902738971739e+03, -3.467103205680410e+03, 2.038649926857273e+03, 7.402486312000637e+03
4951, 4.351637782018140e-01, 7.519604009206267e-01, -2.556252218833777e-02, -2.434648879505216e-09, 1.885259691396912e-09, -6.818212393531119e-09, 5.889501134232616e+03, 5.855219306184785e+03, -1.881993568895907e+02, 1.232905152495461e+04, -2.342797187052111e+03, 5.755722519727599e+02, 7.697788465662329e+03
4952, 8.868003016095632e-01, 6.527813486550504e-02, -9.708911620064114e-03, -6.765741794785159e-10, 9.863057616223979e-11, 1.121537903642019e-09, -1.871718061135366e+03, -1.733688837985794e+03, 4.375705175673191e+01, -4.117020662094057e+03, 1.109323458936364e+03, -6.965761215863334e+02, 3.244001809174726e+03
4953, 9.055728640381687e-01, 7.216039457438797e-02, -8.485499524337210e-03, -5.230295208235823e-10, 1.372868632623087e-10, 3.085778479256508e-09, -3.011067917395183e+03, -3.290730481634222e+03, -5.744954885481087e+01, -6.587253804826440e+03, -4.665945981883885e+01, -3.313574293277834e+02, 3.494712755191694e+03
4954, 5.047630066792317e-01, 8.935941277186338e-01, -2.407300351385117e-02, -2.580206382149915e-09, 1.351677453121300e-09, -7.952699465070865e-09, 9.964790447996784e+03, 8.681762372018378e+03, 3.726121275620234e+02, 2.160525419307649e+04, -9.319450380729359e+02, 1.631611923000180e+03, 1.277067560872267e+04
4955, 5.797042468479965e-01, 1.021173068474689e+00, -2.387980764447105e-02, -2.088000787062187e-09, 1.987537836534460e-09, -6.382750417060009e-09, 7.323372340578789e+03, 7.500090051422636e+03, -4.415453325508707e+02, 1.243803945690339e+04, 9.242232318948332e+02, -2.793226139255667e+03, 7.200068470500198e+03
4956, 5.885634339536652e-01, 1.038931597510361e+00, -2.368109137628266e-02, -2.716545933911558e-09, 2.143914726568466e-09, -1.229839138851740e-08, 1.211675111371655e+04, 1.056987657338694e+04, -2.351800035057151e+02, 2.546709399336958e+04, 2.303511057903947e+03, -3.190906355106144e+02, 1.475349641060871e+04
4957, 5.778564783889745e-01, 1.055475577388416e+00, -2.155157698307341e-02, -8.790802746639353e-10, 5.157817469865916e-10, -1.840748688928633e-09, 1.483013511680776e+03, 1.600216720004314e+03, 2.132173757182318e+02, 6.952230948309913e+03, -1.137539764879048e+03, 2.256981542566031e+03, 6.970318377161586e+03
4958, 5.976039716401256e-01, 1.056671557603031e+00, -2.349633452841803e-02, -1.670604663848588e-09, 5.721309747684026e-11, -3.759617437246467e-09, 4.975078692435044e+03, 3.980854653896327e+03, 1.094774414822344e+03, 9.453085797529888e+03, 1.795089142172202e+03, 2.307671378680961e+03, 7.398097126947771e+03
4959, 3.886592988156062e-01, 6.574722936178024e-01, -2.653518627886314e-02, -2.670298834552849e-09, 1.687378883381478e-09, -6.561515128280943e-09, 5.049749858532145e+03, 4.901197877864397e+03, -1.328509686533195e+02, 1.368190548844120e+04, -5.267227644920918e+03, 2.803367831175706e+03, 1.351588418294092e+04
4960, 3.912289537944211e-01, 6.771689241797449e-01, -2.530678651169965e-02, -1.352008455696734e-09, 4.185111009123871e-10, -2.828706386287271e-09, 4.249042723048980e+03, 3.157112056240411e+03, 5.148402493913266e+02, 5.829289038675387e+03, 1.034446818218351e+03, 2.004193206527596e+03, 4.633659865153229e+03
4961, 2.964158151716870e-01, 5.771397767495103e-02, -4.095469641693451e-02, -8.722537737332000e-10, 6.965110159500116e-11, -6.875970115690942e-09, 4.697825244711235e+03, 4.735176363963234e+03, -2.167717731030810e+02, 6.152944618761747e+03, 2.876878824886762e+03, 5.671248887530397e+02, 5.291462406934230e+03
4962, 6.957346847826468e-01, 5.805063273786434e-02, -2.222448647363116e-02, -3.036763453724699e-10, 6.251166883564698e-11, -9.081829351098181e-10, 1.020324322773415e+03, 1.029191070755741e+03, -1.659592414538169e+02, 2.125884182244773e+03, 2.693873521849710e+02, -7.275197446634373e+01, 1.236427554218413e+03
4963, 7.140214148679288e-01, 6.579759579278352e-02, -2.111185456471960e-02, -3.339772073798395e-10, 5.331242513578040e-11, -4.540480230491651e-10, 4.995553007739822e+02, 5.919059054711778e+02, -9.450120859696126e+01, 8.453872283568328e+02, 9.558588397380136e+01, 9.949991771705076e+01, 4.243732890850371e+02
4964, 1.232407403683850e-01, 5.921529269657456e-02, -3.635019268651535e-02, -1.669125153130876e-09, 8.045647228647978e-10, -7.759743672175058e-09, 8.209960225082588e+03, 7.202659051494039e+03, 4.778644531104211e+02, 1.325751075546325e+04, 4.430002156411853e+03, 2.554600848591603e+02, 9.556799975567565e+03
4965, 1.073658227733457e-01, 7.128476462984637e-02, -3.347702932950605e-02, -8.536806028550940e-10, 1.403870215307384e-09, -4.751582212113576e-09, 5.153220527289994e+03, 5.115567741027355e+03, 1.312688419696062e+03, 7.631279560453641e+03, -4.390632471033060e+02, 5.911416544822641e+03, 1.080822923040453e+04
4966, 2.522276221022284e-01, 3.925067170732466e-01, -2.823398854237255e-02, -3.041523132535386e-09, 1.719971891565266e-09, -5.878043695129726e-09, 6.986761604527918e+03, 4.816785501575714e+03, -2.500050252430964e+03, 4.298797740342035e+03, 4.105104717313550e+03, -2.475321787523260e+03, 9.684481944915929e+03
4967, 2.752551674721001e-01, 4.411323592852477e-01, -2.761488564674480e-02, -1.589722844911548e-09, 7.922779144696507e-10, -2.958881130629499e-09, 1.949552233644631e+03, 3.691091721518747e+03, 2.416688347991907e+02, 4.463233241035596e+03, -1.166994720279798e+03, 4.403220176279667e+02, 3.133108553289944e+03
4968, 1.390303592645283e-01, 4.727413257776299e-02, -3.843417881263284e-02, -1.026064945160109e-09, 7.089707992083152e-10, -6.450662859821782e-09, 6.442272869160348e+03, 7.135561219889762e+03, -3.720414794746230e+02, 1.127447533234084e+04, -2.900050103235900e+03, -2.648846124010448e+03, 8.196096233181739e+03
4969, 1.071025498609960e+00, 1.265092265457970e+00, -6.694332130105370e-03, -3.833758293344030e-10, 7.685309434703418e-11, 3.142306138149537e-10, -9.883024897822968e+02, -1.010043586201695e+03, -1.144098559833370e+01, -1.728187758348378e+03, -3.153851387892366e+02, 1.451822336070283e+02, 9.454346395063552e+02
4970, 8.987806877662667e-01, 1.543988861397146e+00, -1.736938407003106e-02, -1.297995177646926e-09, 1.893756142483509e-09, -3.832151572938485e-09, 5.107438188139181e+03, 7.798570339610678e+03, -3.668406566640439e+02, 1.060656796024712e+04, 2.725455791828462e+03, -3.435485311066510e+03, 8.987739290932624e+03
4971, 8.807999839314113e-01, 1.536399012644281e+00, -1.779942502030406e-02, -7.229933210702202e-10, 1.660416133567091e-09, -7.616217019527863e-09, 7.059097188448625e+03, 9.541104872381517e+03, -4.197047014182651e+02, 1.260825029080228e+04, 4.456633697613715e+02, -1.521300491424065e+03, 5.589972346921009e+03
4972, 1.083803773070911e+00, 1.232919987683552e+00, -5.583080630278443e-03, -3.537242296093449e-10, 4.047669142065849e-11, -5.008014720987867e-11, -1.501613689987666e+03, -1.110352079980277e+03, 4.327468391306792e+01, -2.133834492085951e+03, 1.428867379864676e+03, 1.557987880316250e+02, 2.646427094889304e+03
4973, 7.824266774769718e-01, 5.735199536997797e-02, -1.660938389109283e-02, -3.582278444937605e-10, 3.368071198161124e-11, 1.885355193034626e-10, -2.321682895728989e+02, -1.532042976295395e+02, -8.672182929295761e+01, -3.073450830801854e+02, 1.546083263561486e+02, -1.339506759463332e+02, 4.073385613290774e+02
4974, 1.129705751397826e+00, 1.476258511174555e+00, -4.394781632054287e-03, -2.088981625292045e-10, -2.235107537992467e-11, -2.029615600377634e-10, -1.269829151056363e+03, -8.866428368581639e+02, -1.987776676932356e+02, -1.572345202284848e+03, 1.048479436532417e+03, 2.033113613228388e+02, 1.973509392488225e+03
4975, 1.127862956485929e+00, 1.457503631097985e+00, -4.371271078179242e-03, -1.198457547833767e-10, 1.250775905756803e-11, 3.193289111830648e-11, -9.631212021570015e+01, -1.736757430651830e+02, -1.500362701306086e+01, -2.948214785562487e+02, 2.853083765309379e+02, 1.702940632565710e+01, 5.251491502655552e+02
4976, 1.041367951430266e-01, 4.982740296993173e-02, -3.471771060872701e-02, -1.948161427922181e-09, 9.559515457503336e-10, -1.934412332520201e-08, 1.758329977159912e+04, 1.808218516147261e+04, 5.083577768466035e+02, 3.850111730968026e+04, 1.835642490059010e+02, -4.800334945806183e+02, 2.071077136388296e+04
4977, 8.940290355964811e-02, 6.323532916668349e-02, -3.118751277907606e-02, -6.464538520929747e-10, -3.243444417468311e-10, -6.708945752823928e-09, 7.515392375248493e+03, 8.298256320416162e+03, 3.514180815495213e+02, 2.080361366298813e+04, -4.255107050393340e+03, 5.201098656931661e+03, 1.739624687567550e+04
4978, 8.130564388538497e-01, 1.416377144079057e+00, -1.986826301739034e-02, -6.824804293315276e-10, 7.617367782503205e-10, -4.291447772251140e-09, 6.558032844801056e+03, 6.616239973760670e+03, 7.529375332277377e+02, 1.257678269758412e+04, 3.947105171885113e+02, -3.008970690330209e+03, 8.075162631250648e+03
4979, 7.973048329181411e-01, 1.428391120431374e+00, -1.947808606029452e-02, -4.978138052400298e-10, 1.023901555862263e-10, -1.330967727762645e-08, 9.533455243851546e+03, 9.751456991195493e+03, 2.438631654915972e+02, 1.658541373738423e+04, -6.968678650701332e+02, 4.814885636024754e+02, 7.111334613682481e+03
4980, 7.790575256721377e-01, 1.420681362085521e+00, -1.910678883243305e-02, -1.839410897690476e-09, 1.153691341003368e-10, -3.991518766108645e-09, 6.385399034288579e+03, 3.800959858474509e+03, -4.681821983691507e+02, 5.352970594869033e+03, -3.408376996210786e+03, -9.409032130499048e+02, 6.575832065787046e+03
4981, 7.815225528848517e-01, 1.440334770472379e+00, -1.848219569965353e-02, -1.450485455508241e-09, 8.982004361375607e-10, -4.001463084601468e-09, 3.910577737678981e+03, 4.088097316892666e+03, 4.700254632308386e+00, 4.469054024432280e+03, -3.253453466103584e+03, 2.723739721903496e+03, 7.365832427631964e+03
4982, 1.121275212587888e+00, 1.398143120352982e+00, -4.347701231101995e-03, -2.913748125208156e-10, 2.549992572373272e-10, -1.550288842683947e-10, -1.127535510991766e+03, -1.029801972043701e+03, 1.298376293550250e+02, -1.929685813645131e+03, 1.060781569608002e+03, -9.597043797791733e+02, 2.630748462981667e+03
4983, 7.997191478346308e-01, 1.447982245118885e+00, -1.901039580215778e-02, -7.533430981175236e-10, 1.171021026882344e-09, -4.056783008819367e-09, 4.030435432867073e+03, 4.549043736009609e+03, 2.517804593323943e+02, 5.401735237267196e+03, -4.058671455146997e+02, 3.942234313800197e+03, 6.981851404478422e+03
4984, 7.839699032878370e-01, 1.459940839536420e+00, -1.776820141537708e-02, -8.141769222885279e-10, 4.556594865717300e-10, -1.813953950765182e-09, 3.409854893202167e+03, 2.461538389333274e+03, 2.111452159382881e+02, 4.176046929358014e+03, 1.105624883177160e+03, -1.298923251727798e+02, 2.462626460256821e+03
4985, 8.021816679952799e-01, 1.467549366421058e+00, -1.848692824942453e-02, -9.911192717040200e-10, 1.016917835783746e-09, -2.908351381180771e-09, 3.512766505175858e+03, 3.422651162109745e+03, 2.007113595677152e+02, 4.399540471972075e+03, -3.901193105720830e+03, -1.331857113962470e+03, 7.209348721865967e+03
4986, 1.116501925281923e+00, 1.358773628405374e+00, -4.359302139157267e-03, -2.356169609668325e-10, 7.630394434759821e-11, 2.957271686502766e-10, -3.640944787418932e+02, -1.250749757284352e+03, -1.763539027177722e+02, -2.288203274937989e+03, -7.582546208826323e+02, -9.847146550000479e+02, 2.740341618215820e+03
4987, 9.361323460695203e-01, 1.151344080405472e+00, -1.459500812931935e-02, -3.499861810707461e-10, 8.881120632618146e-11, -3.233445200682908e-10, 6.280453518998770e+02, 5.865295903818936e+02, -3.796079663913885e+01, 8.820585698337227e+02, 5.582714054717469e+02, 2.506338591714328e+02, 1.097528028049313e+03
4988, 9.384243237650419e-01, 1.170808730502847e+00, -1.458121168517078e-02, -3.253589403368706e-10, 1.511614141332524e-10, -3.266029950899042e-10, 6.742159603240615e+02, 6.259604883053702e+02, -4.228096348485804e+01, 7.667988949584992e+02, 4.603725584765123e+01, -3.881908994265418e+02, 6.922179376231622e+02
4989, 6.090195371024039e-01, 5.786180197100546e-02, -2.759489995872603e-02, -3.574121212826314e-10, 5.865402409728609e-11, -1.681506645663405e-09, 1.304980445410046e+03, 1.531332129379884e+03, -2.872578366805078e+02, 2.336880195275945e+03, -1.760053971184565e+02, 5.945711163668873e+02, 1.511128473505796e+03
4990, 6.272937068418390e-01, 6.635078441425396e-02, -2.654469015039205e-02, -2.954797812559331e-10, -1.054754382579172e-10, -1.684017800582019e-09, 1.295450237261455e+03, 1.497328853141547e+03, -1.466947097607773e+01, 2.143237463746071e+03, 2.231994459767718e+02, -8.294616081637146e+02, 1.674057132101045e+03
4991, 5.907473992945235e-01, 5.107040753044109e-02, -2.863982098020887e-02, -3.027532519093327e-10, 9.459955162950949e-11, -1.114559072229015e-09, 1.096134185013923e+03, 1.176168253812425e+03, -1.292008474947985e+02, 1.525900902411829e+03, -7.540316403656979e+02, 2.895842864583331e+02, 1.471073010564910e+03
4992, 2.300834835608379e-01, 3.627884933555467e-01, -2.713563806909101e-02, -3.241904931198353e-09, 1.197629922454140e-09, -5.416793019864000e-09, 7.580963122366090e+03, 5.344853418935076e+03, -4.347455639902362e+02, 8.546370790518580e+03, 1.776969961644999e+03, 1.462630294157476e+03, 4.954664066128345e+03
4993, 8.681682581275038e-01, 5.684678003420080e-02, -1.090248764581859e-02, -4.279097200164969e-10, -1.620454634518629e-10, 4.789304568635489e-10, -1.545918252690477e+03, -1.055034462534357e+03, -5.069952491648841e+01, -2.221348764082919e+03, 1.309186696463038e+03, -7.100889279715358e+02, 2.773270769601893e+03
4994, 1.089680725326378e+00, 1.421838019347480e+00, -6.657695222576899e-03, -5.388267755352789e-10, -1.781596949204802e-10, 2.867521259877438e-09, -3.372528641043652e+03, -3.236349668215083e+03, 3.400095029063679e+01, -6.676892269217265e+03, 3.795014591348126e+02, -4.615926961004390e+02, 3.530167738532019e+03
4995, 8.026367079326466e-01, 7.768153493314736e-01, -2.034751095328912e-02, -3.470114615675451e-10, 1.187293281517395e-10, -2.698355408343991e-09, 2.042142485593978e+03, 1.935468776505117e+03, -7.714266800804833e+01, 4.292711176876500e+03, 8.849864045646662e+01, 2.044760853983996e+01, 2.314977006388053e+03
4996, 7.716776798437566e-01, 1.361686130029166e+00, -2.059189101934391e-02, -9.044564436619802e-10, 1.237769712894244e-09, -1.117992592107203e-08, 8.296876832857793e+03, 7.845770125816019e+03, 4.299132005147079e+01, 1.474480947783277e+04, -9.804931519180733e+02, -1.016074220177998e+03, 7.118630767526779e+03
4997, 7.556453503294753e-01, 1.373369857922037e+00, -1.971907367688786e-02, -1.113677637368683e-09, 7.810205798854626e-10, -2.825037500157780e-09, 5.251160971390571e+03, 4.281211542901486e+03, -4.563627296154252e+02, 5.918043861994810e+03, -1.109026663873939e+03, 6.184384442537150e+02, 2.737589621675749e+03
4998, 7.875006369979343e-01, 1.349726464360845e+00, -2.092312250260214e-02, -2.473219571830759e-10, 1.474623568216767e-10, -4.595056813594056e-09, 3.027058000009670e+03, 3.764461578110834e+03, 1.392441675223046e+02, 4.311667742233519e+03, -7.913121106630254e+02, -3.972841768131621e+03, 7.108714154773686e+03
4999, 9.299397859695986e-01, 1.520443140359876e+00, -1.643051465708123e-02, -5.480201559789321e-10, 1.231206155120431e-09, -4.817397558462496e-09, 5.985340942622298e+03, 6.292151220596303e+03, -6.762286143609227e+02, 1.046695458052206e+04, -6.462613922780874e+02, 3.293780064827761e+02, 4.664147790498957e+03
5000, 9.324244556310335e-01, 1.539917895456578e+00, -1.631295270600747e-02, -8.878961964789567e-10, 1.482458532480463e-09, -8.721054271402693e-10, 2.921049163756190e+03, 3.807848644747754e+03, -6.270404881022071e+02, 3.093760229954567e+03, 5.061948208394028e+02, 6.394110694894616e+02, 1.959045891871169e+03
5001, 1.069130793679780e+00, 1.394615015550088e+00, -7.810037365819324e-03, -2.573947631447290e-10, 5.256894628556008e-11, 7.815307775530134e-11, -1.985668248962295e+02, -3.390588307710335e+02, -4.475992706527708e+01, -5.058184566916117e+02, 3.292950037708612e+02, -4.443625738232163e+02, 9.973291400930850e+02
5002, 9.368614153348578e-01, 1.020557892624683e+00, -1.365003598470771e-02, -4.343639806148110e-10, 1.156253121611690e-10, 6.233745922072136e-11, 1.196544075761661e+02, 1.483810579914112e+02, -3.382485278509901e+01, 3.378124808612071e+01, 2.827650588215114e+02, -7.169127745875022e+01, 5.190238756140294e+02
5003, 7.257732236903459e-01, 8.564788532693726e-01, -2.474927644987438e-02, -7.194531218129291e-10, 6.004733953132796e-10, -4.235934591191908e-09, 4.302084566403756e+03, 4.295646169579687e+03, -1.060984846715800e+02, 9.199991621213965e+03, -2.629980139097239e+02, -3.032470759249749e+02, 4.953606821117406e+03
5004, 6.975064025577956e-01, 7.695925494228585e-01, -2.589745910025599e-02, -8.179730280195522e-10, 2.464970407191031e-10, -1.971584020265236e-09, 2.443799452461455e+03, 1.921066610017255e+03, -1.666666888475161e+02, 4.072302415705248e+03, 1.232349070285126e+03, 6.376426130641271e+02, 3.104141405182214e+03
5005, 6.632077589853308e-01, 7.737940191562462e-01, -2.728023296160085e-02, -7.862161303475114e-10, 6.004901133744026e-10, -2.453889385351326e-09, 2.258165982440478e+03, 2.023940919146890e+03, -2.104379659613324e+02, 2.679353347764495e+03, -1.043699283319246e+03, 8.495337215471809e+02, 2.428335323010294e+03
5006, 6.449077418995012e-01, 7.660710855294626e-01, -2.795471658711738e-02, -9.753565134014132e-10, 4.302871322616961e-10, -2.729359292724199e-09, 2.654857353284275e+03, 2.219072228719584e+03, -6.321547997908777e+01, 2.442608729391969e+03, 1.302572455974221e+03, -6.444771114565777e+02, 2.547663478880951e+03
5007, 6.290516808300455e-01, 7.780660716516765e-01, -2.845576866526901e-02, -7.527667765033764e-10, 5.773040079344981e-10, -8.809367045617882e-09, 4.887640821140147e+03, 4.368849681890849e+03, 8.217334903416821e+00, 7.836226861000714e+03, -1.729621036798164e+01, 2.369418424443029e+02, 3.265352745413392e+03
5008, 6.265991636709911e-01, 7.583303415193610e-01, -2.859515188784526e-02, -1.210665017656039e-09, 7.631254510393361e-10, -3.757984840860099e-09, 2.929555989098823e+03, 2.692396394547057e+03, -8.534272128159799e+01, 4.654306916610360e+03, 3.676923100495811e+02, -1.260829247032656e+03, 2.938803477823266e+03
5009, 6.424543704472103e-01, 7.463353027569921e-01, -2.807849261550416e-02, -1.042692647012551e-09, 7.789624174388442e-10, -3.993030041463084e-09, 3.059570312055207e+03, 3.039517570626716e+03, -4.386679614696791e+02, 3.667378811936078e+03, 3.338582828347185e+02, 2.781891518760220e+03, 4.950803528561242e+03
5010, 9.972579428793947e-01, 3.916476290915339e-01, -4.746823813493421e-03, -1.410821987208725e-10, 1.022086438360799e-10, 5.522803654203315e-12, -1.059263408060687e+03, -1.986057780783799e+03, 1.310307235852337e+02, -2.240106887179779e+03, -1.365227274549176e+02, -1.921776574889248e+03, 3.513692953042298e+03
5011, 9.617637891487617e-01, 2.454919171996938e-01, -6.018920877480855e-03, -9.561829951661380e-11, -2.314013773375246e-10, 2.851645794659959e-10, -2.183383305689995e+03, -2.650152892541724e+03, -2.753880163100087e+02, -4.318918151397978e+03, -1.251206426155411e+03, 1.104725604674640e+03, 3.516660977804754e+03
5012, 9.592904480994033e-01, 2.257626470691357e-01, -6.029548523769604e-03, -2.080741593603416e-10, 2.014842384073638e-10, 2.220757028439788e-11, -7.843268331776926e+02, -1.144826679099534e+03, 6.899800179824287e+01, -1.059312446311917e+03, 1.380277341436692e+02, -3.978304905592942e+02, 8.078919431246786e+02
5013, 9.434512761730574e-01, 2.377412636616196e-01, -7.219251056074847e-03, -3.081161385490128e-10, -8.042080642291041e-11, 1.150382379495405e-10, -9.053995924668075e+02, -1.554779613786111e+03, -1.796516059560781e+02, -2.705124819125382e+03, 4.453129081744304e+02, 1.266421195252081e+03, 2.827578908887020e+03
5014, 9.596444559770485e-01, 5.065893327346856e-01, -8.258994968817062e-03, -3.271139169592943e-10, 1.187814764513232e-10, 3.824080736702546e-10, -1.314694167365484e+03, -1.343576771082183e+03, -1.725401606450904e+02, -2.888690670946111e+03, -6.042625577369914e+02, -4.365143493454397e+02, 2.046749239532136e+03
5015, 9.670742014738343e-01, 5.658274940738058e-01, -8.223311870703841e-03, -5.947342242051478e-10, 1.315666976312964e-10, 2.776494579827929e-09, -2.695996408619978e+03, -2.774792581182525e+03, -1.557440800466189e+02, -5.279585495586479e+03, 2.844913165456692e+02, -8.604242343616477e+01, 2.610622330871750e+03
5016, 8.110165345509559e-01, 1.266358979090119e+00, -2.110258039917517e-02, -5.840863621641987e-10, 4.811825758815373e-10, -4.211897660203631e-09, 4.794236002863741e+03, 3.541363679237219e+03, -1.021650664269653e+01, 8.013389729070005e+03, 1.822964833077158e+03, 1.519299302027127e+03, 5.732412665507640e+03
5017, 8.134567864340506e-01, 1.286072310321097e+00, -2.095763222295243e-02, -3.131031390145826e-10, 3.794059858380308e-10, -2.306739268035452e-09, 3.286141069607763e+03, 3.759140914789487e+03, -3.478907696681998e+01, 4.488482387213159e+03, 6.909783611797005e+02, -1.543770394591281e+03, 3.112283962078973e+03
5018, 8.085745527499102e-01, 1.246643869450045e+00, -2.124103490336934e-02, -8.326476743802910e-10, 8.523634127819803e-10, -4.570324386479714e-09, 5.102544428789904e+03, 5.419841420107441e+03, -3.520090169931838e+02, 9.971170163097420e+03, 8.260463718738345e+02, -7.305843153110858e+02, 5.126347902653571e+03
5019, 2.809004293654234e-01, 3.503707916893448e-01, -3.425362679528551e-02, -2.414616004835795e-09, 2.080868086768226e-09, -7.714453484016767e-09, 6.946501623714532e+03, 6.251848118670920e+03, -1.502989699469038e+03, 8.361922734186748e+03, 2.968015505935607e+03, -1.833089174285521e+03, 6.837698271402667e+03
5020, 3.245903523894184e-01, 1.444942357434512e-01, -3.970173056605896e-02, -1.148923027202201e-09, 8.695294256090480e-10, -6.651621103626527e-09, 3.818649649743207e+03, 3.015034350557592e+03, -9.671347709242708e+02, 6.059365100424144e+03, -1.786361663909273e+03, 2.274208471749494e+03, 5.946651326122299e+03
5021, 9.825278277166434e-01, 2.729931456224936e-01, -4.798780277957496e-03, -1.127393268158779e-09, 2.264776506927067e-10, 5.774809462108064e-09, -9.299759993183625e+03, -9.526141797125394e+03, -9.906541028614629e+01, -1.942211001324189e+04, 1.149380675899247e+03, 2.609020308652239e+02, 1.021854109362607e+04
5022, 8.776548934588265e-01, 2.662156360770622e-01, -1.189486407535179e-02, -3.981669945119872e-10, -4.481280053239117e-11, 5.319701921400499e-10, -1.367242354935516e+03, -1.010705769228785e+03, 5.249551676821922e+01, -2.208167578323345e+03, 9.885520768499993e+01, 1.396721661485742e+01, 1.082711328000298e+03
5023, 8.618148193703716e-01, 2.782539886072315e-01, -1.304151465794737e-02, -4.447566529234083e-10, 9.508231049947833e-11, 7.641415496916013e-10, -1.075717187538434e+03, -1.270550238696730e+03, -6.641401296000549e+01, -2.812646181895184e+03, -1.517033543468486e+02, -7.687963410765201e+02, 2.138197535850118e+03
5024, 8.934825467832883e-01, 2.541629061573546e-01, -1.074145666657812e-02, -5.734681024660613e-10, 5.319698396165601e-11, 4.443984561290293e-10, -1.272663575072165e+03, -1.052310702179396e+03, -1.009148484395615e+01, -2.121590387589622e+03, 1.518058367371945e+02, 8.620734548143510e+02, 1.804230600146563e+03
5025, 8.576352168509526e-01, 8.001936588817904e-01, -1.713293647569547e-02, -5.412610108267580e-10, 2.091502929523487e-10, -3.513251052154008e-10, 8.331593613937850e+02, 7.560900794444253e+02, 2.825639233396639e+01, 1.356170507471416e+03, 5.200120760309272e+02, -1.123111733591925e+02, 1.082248942888130e+03
5026, 9.917271665045883e-01, 7.633740418434337e-01, -8.110693950696628e-03, -4.746842471566248e-10, -9.543217066780448e-11, 5.071069109841279e-10, -1.516237674986211e+03, -1.867573749877103e+03, 9.879490774397280e+01, -3.283521966512394e+03, 8.943610306017392e+02, 7.944084799685768e+02, 2.635906075355719e+03
5027, 3.980391760247667e-01, 1.755126637681516e-01, -3.773170170766835e-02, -1.417983960422275e-09, 6.617791859646232e-10, -6.439899070038465e-09, 4.176788627788315e+03, 3.741461885453949e+03, -3.268248944546874e+01, 7.497316738890144e+03, 2.534520419153644e+03, 7.942924229325199e+02, 5.816203061680185e+03
5028, 4.360980284486924e-01, 6.216986431112239e-01, -3.184156629327403e-02, -1.147248770199557e-09, 1.276324484668401e-09, -8.086896649008454e-09, 6.445383734118100e+03, 5.605278592714209e+03, 5.562783230873558e+01, 8.710346704586864e+03, -2.292362600383133e+03, 6.699663267275912e+01, 4.850378215278135e+03
5029, 1.014479636176831e+00, 1.371364209765660e+00, -1.117883531065294e-02, -2.935881374506501e-10, 1.797571980919277e-10, -1.513356997980801e-10, 6.044585601757207e+02, 5.234012081775477e+02, 3.817382744193523e+01, 1.062674034027600e+03, 3.361817746667093e+01, -4.762991243687561e+02, 9.705762640008525e+02
5030, 1.028637173474944e+00, 1.059542885735710e+00, -7.938038388112524e-03, -3.663434376518424e-10, -3.689386916948139e-11, 4.068539808943743e-10, -9.333468074783382e+02, -1.260687607685418e+03, 6.832526492885452e+01, -2.371469837379572e+03, 7.158206692120177e+02, 6.593786151192642e+02, 2.135447657128226e+03
5031, 1.047004744370905e+00, 1.067384828345411e+00, -6.767135185804960e-03, -3.304380523034041e-10, 3.660946925378096e-11, 3.040835021239397e-10, -1.351178385738797e+03, -1.178104220013762e+03, -2.149820540346141e+01, -1.926505838981758e+03, -4.184658838931823e+01, 5.494566528369645e+02, 1.171698951826692e+03
5032, 9.981771418100727e-01, 6.721362169831024e-01, -6.953997579205710e-03, -2.745711194931920e-10, 3.944695839493821e-11, 1.480589256646576e-10, -9.407499654697590e+02, -1.406707844609416e+03, 1.068717822690677e+02, -2.447419923372061e+03, -2.123942367934551e+02, 3.130968105964752e+02, 1.499604573363405e+03
5033, 1.103302285600369e-01, 9.106827939248079e-02, -3.221656941354846e-02, -8.164517312432569e-10, 8.656037337161745e-10, -3.723801686963605e-09, 2.007570276318618e+03, 1.573681727633863e+03, -3.199512218852215e+02, 2.294182085659160e+03, -1.831621427757148e+03, 1.154078329836397e+03, 3.842144072667336e+03
5034, 2.112489191702461e-01, 2.087284302283974e-01, -3.595927565820507e-02, -2.670780863066173e-09, 1.515830525173727e-09, -7.953943293140626e-09, 5.825716903220362e+03, 6.139359353406437e+03, -6.746549122186958e+02, 5.541608571581402e+03, 2.264515177271570e+03, -2.462764705816492e+03, 5.934087315551349e+03
5035, 1.954749285828284e-01, 2.206516218235605e-01, -3.381078718318323e-02, -3.962851916598133e-09, 2.535073699004527e-09, -1.712967126585694e-08, 1.092900272048399e+04, 1.124760450000724e+04, 1.014355943569846e+03, 2.086966149391569e+04, 1.452306715329705e+03, -9.711644073139300e+02, 1.039206002743985e+04
5036, 6.864162956869109e-01, 8.209980899025924e-01, -2.635810028644075e-02, -7.991563647400014e-10, 4.907684914584265e-10, -2.836407720447335e-09, 1.751706902371286e+03, 2.041158510537962e+03, 1.818568411422556e+02, 2.356278065934485e+03, 1.231078626380259e+03, 5.705592522480532e+02, 2.428330186716188e+03
5037, 9.682438089367645e-01, 1.277198361347693e+00, -1.343714805538503e-02, -1.685419642301929e-10, 1.993316103946486e-10, -9.855030468070933e-10, 1.032025861566275e+03, 1.157241719905483e+03, -1.021517900890826e+02, 1.615185474000195e+03, -8.552712270897335e+01, -2.359517251759581e+02, 7.092267578048665e+02
5038, 1.979746856996183e-01, 2.403538727549233e-01, -3.275263757432421e-02, -2.056907189446306e-09, 1.576102892968419e-09, -9.011037972782319e-09, 9.314635860620201e+03, 7.509054454860819e+03, 5.184268812226497e+02, 1.772758561710642e+04, -2.598790784087357e+03, 2.330055776462050e+03, 1.125091254708045e+04
5039, 1.798592307860863e-01, 2.321449962498233e-01, -3.086756806130162e-02, -2.060480764950913e-09, 1.324899926211236e-09, -5.697498392149638e-09, 5.374204296727964e+03, 5.140664411072311e+03, 9.482377187460914e+02, 1.277820464324486e+04, -3.851541239267781e+03, 2.695244218087451e+03, 1.120698396787626e+04
5040, 1.772167900604618e-01, 2.127423403937939e-01, -3.208756202521955e-02, -3.331205897660579e-09, 1.306191486465940e-09, -6.384877189441855e-09, 4.106783974970755e+03, 4.607399214094736e+03, 8.682510327876857e+02, 1.020576005155186e+04, -3.543558906153570e+03, 1.172174316724763e+03, 8.857136729873919e+03
5041, 1.619079903545256e-01, 2.244267884556198e-01, -2.838610254357696e-02, -2.208285640807858e-09, 1.286006170370742e-09, -3.687902691498519e-09, 3.919438404805467e+03, 3.262155829996781e+03, -1.669000198456000e+02, 5.070826386533442e+03, 2.936591161771877e+01, 1.308241989820709e+02, 1.628496471637381e+03
5042, 1.591137145660631e-01, 2.049247409337926e-01, -2.985870650245741e-02, -2.385954148880032e-09, 8.943656970816243e-10, -4.468756804171843e-09, 3.813107032254931e+03, 4.292319119614203e+03, 5.865823883856406e+02, 1.094453838836313e+04, -2.064327457762482e+03, 2.364691227231001e+03, 8.846545278224328e+03
5043, 1.824239987608259e-01, 2.508400433963647e-01, -2.955590420701009e-02, -2.715500987641874e-09, 4.804212875005869e-10, -4.829149716890560e-09, 3.676086147730438e+03, 3.787702433504209e+03, -9.671611553208528e+02, 4.237355408278891e+03, -1.840206798347415e+03, -1.125357616969726e+03, 4.126670470155971e+03
5044, 4.336465322350922e-01, 6.019745083027099e-01, -3.233424277317314e-02, -1.450324874771786e-09, 8.140551965207950e-10, -7.479468249861843e-09, 4.721376563617717e+03, 2.618396840530307e+03, -6.448094697372554e+01, 7.227532444013196e+03, 2.650396035033088e+03, 1.173057916634414e+02, 6.091082725043569e+03
5045, 9.498271657097338e-01, 4.277531784463072e-01, -8.301287676407865e-03, -2.657281132930825e-10, 4.167436763150475e-11, 1.610923303793197e-10, -5.095831719728005e+02, -1.165222825781522e+03, 1.064435163345648e+02, -1.234371127163995e+03, 1.948668483923961e+02, -2.776205372583028e+02, 9.268822104503292e+02
5046, 5.435647782901170e-01, 6.484682575659207e-01, -3.142867356010270e-02, -1.061716347582970e-09, 7.180498432959008e-10, -4.942275480825986e-09, 3.839357564744893e+03, 3.387687294276096e+03, -1.218264472792474e+02, 3.743021268527919e+03, 2.067621284843152e+03, -1.208595909906807e+03, 4.173917234078278e+03
5047, 8.833798456805027e-01, 8.672491568602695e-01, -1.597293030343356e-02, -4.956279500927474e-10, 1.737013661576605e-10, -1.958001784805576e-10, 4.689382479863178e+02, 4.375657788401367e+02, -9.796161541290621e+01, 5.757911721642110e+02, 1.894445329241250e+02, 1.215678805393022e+02, 4.433366615525239e+02
5048, 3.785804149307758e-01, 2.982582149854545e-01, -3.739512774967466e-02, -1.651426219947174e-09, 1.672421945396929e-09, -1.454437941039005e-08, 1.071522808040160e+04, 1.022068608863833e+04, 7.998588520332513e+01, 2.077368689413519e+04, 1.042854821141672e+03, 7.075954034826761e+02, 1.054397464287186e+04
5049, 1.017976396905625e+00, 5.494339124670671e-01, -4.598407291050023e-03, -2.515028620057891e-10, -2.592392270811161e-10, 1.853013267536187e-10, -1.619744951555982e+03, -1.964553737237734e+03, -3.570216560894659e+02, -5.036107809315274e+03, 4.795240179550964e+01, 1.528278518330062e+03, 4.243658059052378e+03
5050, 1.019722251578391e+00, 5.693117912358808e-01, -4.639912686129836e-03, -1.858510388794632e-09, 9.476154753814228e-10, 6.604061142618588e-09, -1.108117691045111e+04, -1.126642812535834e+04, -6.342080693588557e+02, -2.346178653203156e+04, 7.332294021425795e+02, -1.627655898315770e+02, 1.240642185510486e+04
5051, 9.522922134362178e-01, 4.474933692168150e-01, -8.290278703529639e-03, -5.988468025895135e-10, -1.261507258796772e-10, 3.904808001417009e-10, -1.995280426288994e+03, -1.836306214991488e+03, -1.615762596485179e+02, -3.012277730086670e+03, 1.703013376799159e+03, 7.411858031959655e+02, 3.412973218814750e+03
5052, 8.241799729265321e-01, 3.932939334365588e-01, -1.637685709621567e-02, -5.334241102445411e-10, 9.822801700800926e-11, 2.820408725930853e-10, -1.922655392362463e+02, -2.712676615597934e+02, -1.698372165403578e+01, -4.666031636255397e+02, 4.129966660945801e+02, -2.193520939719832e+02, 8.466045802712695e+02
5053, 9.114523124919897e-01, 9.538508977971450e-01, -1.479806144541646e-02, -4.460814533113692e-10, 1.314502327471084e-10, -1.297131115697959e-10, 5.049601825790970e+02, 3.608740670997598e+02, -1.199269837123849e+01, 4.356271150699582e+02, 3.389795796221256e+02, -5.083861964959011e+01, 6.070293130823006e+02
5054, 7.446518662922833e-01, 1.723730574901362e-01, -1.990975946791979e-02, -4.495211013298236e-10, 9.278877196424106e-11, -2.413553448691501e-10, 2.373260206700795e+02, 3.228068108278221e+02, -3.125445538796803e+00, 6.070442249428321e+02, 2.267486736380492e+02, -1.795930159976591e+02, 6.028514362796378e+02
5055, 7.471123144832638e-01, 1.921239685615788e-01, -1.989340136767814e-02, -4.936251015333679e-10, 1.085802337421125e-10, -1.508170658049469e-10, 1.493281134126268e+02, 1.421988154967441e+02, -3.747252675783567e+01, 3.307862062896931e+02, 3.578073498268578e+02, 1.195466379966478e+02, 6.822291408953716e+02
5056, 7.288055023658805e-01, 1.843838349543509e-01, -2.100862755488655e-02, -5.105014461736985e-10, 6.238654528866602e-11, -9.331454138311621e-10, 7.865128861924809e+02, 7.715558385849093e+02, -5.033925904391526e+01, 1.373361111066099e+03, 7.236158349597099e+01, 7.253509085521185e+01, 6.264876747916366e+02
5057, 7.312689039030580e-01, 2.041445789196499e-01, -2.099089251299649e-02, -5.465609369189980e-10, 1.090960767500043e-10, -2.362723646631093e-10, 2.098872054795277e+02, 3.356061046611816e+02, -6.987564331248869e+01, 3.440010740027340e+02, 1.191411233986432e+02, 1.398581647946339e+02, 3.644772704082103e+02
5058, 7.129591839951409e-01, 1.963941604956513e-01, -2.209636475824371e-02, -4.903793654082069e-10, 1.232728753281693e-10, -4.501533680800228e-10, 4.706098404796675e+02, 4.752950765546940e+02, -1.239158940585932e+02, 6.361083586621423e+02, -1.242783711777826e+02, 1.051402478213459e+02, 3.901288421721129e+02
5059, 7.154223711664732e-01, 2.161539748934137e-01, -2.207704982905727e-02, -5.336544984941186e-10, 1.768882889311387e-10, -3.388887202095515e-10, 4.780718085135613e+02, 5.818218642671301e+02, -5.251946880257081e+01, 5.193170760220397e+02, 1.743613247665213e+01, -3.212537798935537e+02, 5.718259880435387e+02
5060, 6.971115752171014e-01, 2.083764350266952e-01, -2.317091114731110e-02, -5.567800172127251e-10, 1.988539978506717e-10, -5.908319999900972e-10, 5.156688691637073e+02, 4.992599972938079e+02, 1.516241322545259e+01, 5.982272897113081e+02, 4.365019142784994e+02, 1.643078912762422e+02, 8.134633019759908e+02
5061, 6.995757721919632e-01, 2.281628444997395e-01, -2.314976056504268e-02, -5.369195748720692e-10, 2.057248295590179e-10, -5.789541667208669e-10, 8.513742483552188e+02, 6.059517195493254e+02, 1.309034682114364e+01, 1.194849553561378e+03, -3.806769762960322e+02, -2.557526365889073e+02, 9.455111139853997e+02
5062, 6.812663278713030e-01, 2.204133510821877e-01, -2.423029545601404e-02, -5.944692846026239e-10, 4.957525056845092e-11, -8.907621016168876e-10, 1.043086628944208e+03, 1.010228747709368e+03, -1.460493983583457e+02, 1.585972045602281e+03, 1.789500964053841e+02, 5.484593676039590e+02, 1.173083972081508e+03
5063, 6.837290094978776e-01, 2.401711635287560e-01, -2.420659609717766e-02, -5.987576025400581e-10, 1.583468723933225e-10, -8.159254888156441e-10, 9.763763845936033e+02, 7.771828144851070e+02, -9.729606093972677e+01, 1.426890371996786e+03, 7.446828018323688e+02, -3.674358090808195e+02, 1.558674000102539e+03
5064, 6.654195994801743e-01, 2.324221894598458e-01, -2.527133430332429e-02, -6.863949233078303e-10, 2.067226801650111e-10, -1.069761090012164e-09, 1.038619521202607e+03, 1.179427356270512e+03, 6.376094419003631e+01, 1.931465552595796e+03, 3.401810603389663e+00, -5.888333938113676e+02, 1.320487240916030e+03
5065, 6.678819662441320e-01, 2.521789251405620e-01, -2.524459936444086e-02, -4.675306604761911e-10, 1.370159300160778e-11, -3.491958174603580e-09, 3.114733865206771e+03, 3.163830363549518e+03, -6.705219049924656e+01, 7.023863344874323e+03, -3.520812599565326e+01, -2.348545340336983e+01, 3.887240758000545e+03
5066, 6.495724738765773e-01, 2.444304978180534e-01, -2.629075005216495e-02, -3.793259612779368e-10, 2.534577239339525e-10, -1.567120060450824e-09, 1.944535795983866e+03, 1.765303769115395e+03, -2.253321183804369e+01, 3.338372651915915e+03, -8.016551895566577e+02, -4.265399918658196e+02, 2.167950867741669e+03
5067, 6.471101031666403e-01, 2.246744272207907e-01, -2.632062575301692e-02, -6.419583684703292e-10, 1.343899408353516e-11, -1.533266410853722e-09, 1.702040125406476e+03, 1.746061298879989e+03, -8.049364048415537e+00, 3.455197621318997e+03, 2.117658703302910e+02, 9.123799671486779e+02, 2.372838671421205e+03
5068, 6.312617101717514e-01, 2.366827711529417e-01, -2.731902952184395e-02, -5.372915924673562e-10, 2.881830760395755e-10, -1.790170929398391e-09, 1.891225648589056e+03, 1.656890313146522e+03, -1.576481211146494e+02, 2.679817397699332e+03, 1.036099942656553e+03, -6.205297817313171e+02, 2.304739595289447e+03
5069, 6.520344842460742e-01, 2.641861113152686e-01, -2.626022048129801e-02, -5.448223370389699e-10, 1.774327406167688e-10, -1.591091164026343e-09, 1.612924153994819e+03, 1.420678126598370e+03, -1.578383099270205e+02, 2.025846114844969e+03, -8.152571634069287e+02, -3.438651486596802e+02, 1.646282762009390e+03
5070, 6.287995250581716e-01, 2.169265481181143e-01, -2.735257947224233e-02, -5.171502321926626e-10, 2.363849782146883e-10, -1.604002032256873e-09, 1.581258628337999e+03, 1.402336987290876e+03, -2.204650249495674e+02, 2.489093564292631e+03, -3.611234888954390e+02, 1.475540239746705e+02, 1.273173246444919e+03
5071, 6.129496173467309e-01, 2.289351199414487e-01, -2.832729285204957e-02, -7.309627232558748e-10, 2.733830802544299e-10, -2.398745020886024e-09, 2.150270716987451e+03, 2.194922665894882e+03, -1.186179157198306e+02, 4.250800786344431e+03, 1.115035752962232e+03, -6.273818162344807e+02, 3.045221873434669e+03
5072, 6.154117592301870e-01, 2.486909894621721e-01, -2.828845201662419e-02, -5.600959785475880e-10, 3.148059346276433e-10, -4.871039232792498e-09, 2.740726570474409e+03, 2.511905115603292e+03, 6.265234339253985e+01, 4.979270411475479e+03, 3.564666642397382e+02, -1.924378524783355e+02, 2.465713491572687e+03
5073, 7.711032243905058e-01, 1.081345769989614e+00, -2.288420283447685e-02, -6.067652108351749e-10, 3.003276776884707e-10, -2.954076514280314e-09, 3.579210676497026e+03, 3.636540669392116e+03, 1.144343270705374e+01, 5.764728746448618e+03, 2.306147276209360e+03, 1.258343501766361e+03, 5.035881647459625e+03
5074, 7.552156147223444e-01, 1.093297608025196e+00, -2.342481169485316e-02, -4.886352006639515e-10, 4.601222743239496e-10, -8.070436714406741e-09, 5.487841021383850e+03, 5.231164334249122e+03, -4.125578964100092e+02, 9.805495137887447e+03, -3.569728299583673e+02, -6.314214509011322e+00, 4.550745171053582e+03
5075, 7.527002072515878e-01, 1.073442624858296e+00, -2.355723922865440e-02, -9.316527102584280e-10, 5.490829002665593e-10, -3.025496006367561e-09, 2.929662343380020e+03, 3.100102253668446e+03, -6.971441937385957e+02, 3.945620522861145e+03, -1.897378462567761e+03, -4.685980804980172e+02, 3.715505163350438e+03
5076, 3.370040300230892e-01, 2.432723839325476e-01, -3.846328650930976e-02, -1.241075663334091e-09, 1.370329361290109e-09, -8.196096434927892e-09, 4.193508885063324e+03, 3.500018035474674e+03, 1.357793152609005e+02, 5.378585151190124e+03, 2.356043836806559e+03, 1.847101939525109e+03, 5.445242633422020e+03
5077, 2.958889422180551e-01, 4.686162417158062e-01, -2.847454508000909e-02, -3.915265471000362e-09, 1.301044655145410e-09, -1.264318478049770e-08, 1.025183774795243e+04, 1.176160711491231e+04, 3.416100502952480e+02, 2.525755615895376e+04, 1.328105802929019e+03, -6.629212005868768e+02, 1.455183478090618e+04
5078, 8.105052889819097e-01, 1.440924095298398e-01, -1.541510026342526e-02, -5.394619217069133e-10, 8.372643985016817e-11, 3.309971009877023e-10, -5.304378422786389e+02, -4.275603952015557e+02, 5.413604011647046e+01, -8.117227733467125e+02, -7.572359706437231e+01, -1.423413396611691e+02, 4.532332181976440e+02
5079, 5.471775372636344e-01, 5.378223586963874e-01, -3.182591219180290e-02, -1.373962571219907e-09, 5.604191117571430e-10, -5.386619106495546e-09, 4.558400089085377e+03, 3.563246824628240e+03, 4.034235248038827e+01, 7.563462011255730e+03, 1.403556542795251e+03, 1.639297793083340e+03, 5.194989080208571e+03
5080, 5.288646834257147e-01, 5.300816536261597e-01, -3.243116148747444e-02, -1.254697094142176e-09, 1.610942858872232e-09, -1.120842028776071e-08, 7.721474083619151e+03, 7.603335118852716e+03, -1.126820656490119e+02, 1.582465654787091e+04, -8.845268294046150e+01, -5.998823159199964e+01, 8.167324138939077e+03
5081, 4.688145725384916e-01, 1.867098812518047e-01, -3.523702757574881e-02, -9.590453380400136e-10, 7.436715609011072e-10, -4.489100827594698e-09, 2.514612344141498e+03, 2.174361201127598e+03, -1.210720829010254e+02, 2.407406567857317e+03, 1.131729532898634e+03, -7.904764646730054e+02, 2.419040452153960e+03
5082, 4.712736912049805e-01, 2.064529412487206e-01, -3.512470695070401e-02, -8.119156788196105e-10, 9.543616327924991e-10, -4.011948619959288e-09, 2.571308763393434e+03, 2.179004157752202e+03, -4.424700289755766e+01, 3.012784491536186e+03, 1.312236097374911e+03, 4.192341527972796e+02, 2.494199796677910e+03
5083, 4.896004425892951e-01, 2.142105853489506e-01, -3.440369118091573e-02, -6.633529816123397e-10, 5.984018519740317e-10, -4.954747260492306e-09, 3.314553694051078e+03, 3.221690581515998e+03, -5.068278521201618e+02, 6.583850210898341e+03, -1.624471840250115e+03, -1.104812825537945e+03, 4.832153159396367e+03
5084, 7.588222706236842e-01, 9.826520929176732e-01, -2.342444374149379e-02, -8.703272969667110e-10, 4.763701565085090e-10, -2.509046658732526e-09, 2.064871138749018e+03, 2.589953239512897e+03, -3.453020762978962e+02, 3.528563272514264e+03, -7.656176206821327e+00, 1.399108319276884e+03, 2.807122374339682e+03
5085, 7.405149685324739e-01, 9.749122952729876e-01, -2.415436068085658e-02, -8.619206231565629e-10, 7.092537817443527e-10, -2.336800318211495e-09, 2.258126634685748e+03, 2.680834719195876e+03, 1.127553508942911e+02, 3.508356211756628e+03, -8.001317645369097e+02, 3.861096402648122e+02, 1.902443103647652e+03
5086, 7.429706109790197e-01, 9.946488423429265e-01, -2.403899213855345e-02, -5.403926842127403e-10, 7.363525802348942e-10, -3.073610220101603e-09, 3.234961877443598e+03, 3.774516160293087e+03, 2.574600154193928e+02, 7.437640496951765e+03, -1.750568134473112e+03, -2.495603123081231e+03, 6.615321712292785e+03
5087, 7.245946863884192e-01, 9.868142091081487e-01, -2.471740047400144e-02, -5.971949554146145e-10, 7.169136049928746e-10, -2.710271485635225e-09, 2.616263757430442e+03, 2.230973852439110e+03, 2.967260507761965e+02, 4.003609973814967e+03, 1.825656271461874e+03, 1.017556714355977e+03, 3.997145836707774e+03
5088, 7.221193961092101e-01, 9.670241069785939e-01, -2.484205520204679e-02, -5.718401259785753e-10, 2.158891773561041e-10, -3.216505655334347e-09, 2.256450862929674e+03, 2.803532861123273e+03, -5.827668246350759e+02, 3.429178737963673e+03, 1.828767552332339e+03, -1.215211888278583e+03, 4.063896488560666e+03
5089, 7.269854550127801e-01, 1.006473581310486e+00, -2.459255067258028e-02, -3.925381044924878e-10, 4.972196263943639e-10, -2.373422913073343e-09, 3.277963792841185e+03, 2.655225903092147e+03, -9.975877754398823e+01, 4.769279423315200e+03, -1.791641309831979e+03, -4.738354015968982e+02, 3.724765051851778e+03
5090, 5.313190852471154e-01, 5.498193428379810e-01, -3.227916474645435e-02, -1.194620770166914e-09, 5.829599247114458e-10, -4.229746031746659e-09, 3.692086025807196e+03, 3.558111596301253e+03, -4.469389951479985e+02, 6.398938472744972e+03, 1.735080617880828e+02, 1.697033180000084e+03, 4.127589091748523e+03
5091, 9.448935297774689e-01, 3.882483205109695e-01, -8.323275753284851e-03, -7.559349328207487e-10, 9.556713287589338e-11, 7.422998973009524e-10, -2.181408149064832e+03, -2.090450173016009e+03, 2.202150152300847e+02, -4.122523158772944e+03, 1.074845540469842e+03, 8.922665199152613e+02, 3.154764986646266e+03
5092, 5.264099803346487e-01, 5.103437491908743e-01, -3.257790986929718e-02, -1.312336947289608e-09, 1.203635878965173e-09, -6.843669904182904e-09, 4.649348227285549e+03, 4.776049483106888e+03, 1.145519053982528e+02, 7.298620694160586e+03, 6.549380173456736e+02, 1.827237724585236e+03, 4.247543125929428e+03
5093, 7.942932583304541e-01, 1.128500817447617e+00, -2.196303818439132e-02, -8.544342394701186e-10, 4.342227165331515e-10, -1.813465710630671e-09, 2.686581082595944e+03, 2.214692218004797e+03, -5.063968486254720e+02, 3.393873342563735e+03, 8.725219142044258e+02, -6.373906700519219e+02, 2.308398180346662e+03
5094, 7.783625862668536e-01, 1.140394910038613e+00, -2.252349919398313e-02, -2.685163588854614e-10, 4.387409719388085e-10, -9.007150533855493e-09, 7.734383439504065e+03, 7.238925045623116e+03, -7.146676447194935e+01, 1.641674740030486e+04, 1.717281252909379e+02, -1.599988967919675e+02, 8.950489715888833e+03
5095, 7.967268399578042e-01, 1.148191590744875e+00, -2.184840512825647e-02, -7.757088087048845e-10, 2.345797989254933e-10, -2.200196558206114e-09, 2.985362228359252e+03, 2.618061881347006e+03, 1.081756499207317e+02, 5.265075193061954e+03, 1.863042535908078e+03, 1.426192461391544e+03, 4.766477032954051e+03
5096, 7.808000321697386e-01, 1.160099690944235e+00, -2.239516773500709e-02, -5.459477791110456e-10, 4.919311081463432e-10, -2.268844843545659e-09, 2.571363909118087e+03, 2.704554523116212e+03, -1.980507264122504e+02, 3.452313370334224e+03, 1.318234600720278e+03, 2.098502850585125e+03, 4.383893223298316e+03
5097, 7.991708328084657e-01, 1.167907416913150e+00, -2.173146947051158e-02, -5.391938692018470e-10, 2.325242411347620e-10, -1.681064704815592e-09, 2.503777035446436e+03, 2.158854070539811e+03, -8.124604286766498e+01, 3.324076168083563e+03, -1.002360082136795e+03, -3.443149089754550e+02, 2.112922326665576e+03
5098, 7.832216456282759e-01, 1.179773154537279e+00, -2.226231215487291e-02, -6.188689332496480e-10, 1.442475566369568e-10, -2.348467971022014e-09, 1.858455578910527e+03, 1.627593646433491e+03, -5.661590979199150e+02, 1.886363639360473e+03, 1.871163140133969e+03, -1.308338716816020e+03, 4.081805048957160e+03
5099, 8.016125272464701e-01, 1.187626978300349e+00, -2.161192154317214e-02, -8.744900610849623e-10, 4.447695310578043e-10, -1.975575825032188e-09, 2.683782910907179e+03, 2.510025728215100e+03, 5.285459528224301e+01, 3.234878735543482e+03, -5.745845568240236e+02, 2.998406936901019e+02, 1.303146734898967e+03
5100, 7.858301398429377e-01, 1.199752710916802e+00, -2.211717055957856e-02, -5.242181164837804e-10, 5.800509352933971e-10, -3.191809702499360e-09, 2.113463375897810e+03, 1.311135352232395e+03, 9.441729379376613e+01, 2.594864712572016e+03, 2.512723064369280e+03, 3.870520093581833e+02, 4.547441317064018e+03
5101, 4.899324509352071e-01, 7.753170844661832e-01, -2.890731115405021e-02, -1.536653791135889e-09, 9.036032611303051e-10, -5.584277256748649e-09, 4.229758983355187e+03, 3.262924430386502e+03, 1.465656591094861e+02, 6.070816919980769e+03, -2.065649481389687e+03, 1.959683490518473e+03, 5.521821055792381e+03
5102, 4.740716116949391e-01, 7.872115892665585e-01, -2.739769519781723e-02, -1.798547733724805e-09, 8.589883866619577e-10, -4.475621036584352e-09, 3.136647695250385e+03, 2.888435839689454e+03, 4.383465806498880e+02, 3.062183570147370e+03, 9.154402895559720e+02, 1.085878620805254e+03, 2.583912582770340e+03
5103, 4.559918792848617e-01, 7.794041912074695e-01, -2.615197636452985e-02, -2.136317772451680e-09, 6.173598660753919e-10, -6.803151750683815e-09, 6.382059177973003e+03, 6.863845050475551e+03, 1.084112868075428e+03, 1.777631775311552e+04, -1.160676247426708e+03, 5.301845166056487e+03, 1.471284302831096e+04
5104, 4.583609606704735e-01, 7.991649238587936e-01, -2.506868693481974e-02, -1.900571908763201e-09, 5.165553454140535e-10, -3.122784044960599e-09, 3.534823501101154e+03, 4.488725117742168e+03, -2.291902912151131e+02, 5.043637183024421e+03, 9.852592081421584e+02, 4.047949698632808e+02, 2.304030339192800e+03
5105, 4.765843314561843e-01, 8.069696935303620e-01, -2.654823240043247e-02, -2.365740393253644e-09, 1.295038663285475e-09, -5.467043241742704e-09, 2.919207205873668e+03, 2.868545039000654e+03, 7.562003434623289e+02, 5.005992463468542e+03, -4.077416075156446e+03, -1.765386425100345e+03, 8.087286970757990e+03
5106, 4.608688582709504e-01, 8.188501574928915e-01, -2.389015018181492e-02, -1.548837619775832e-09, 1.001511487014827e-09, -2.517693508034030e-09, 3.574432987998921e+03, 3.091171103829558e+03, 7.987183940593227e+02, 4.638304286595428e+03, 6.464521823956343e+02, 5.881257699142195e+02, 2.466723108103486e+03
5107, 7.453792754069561e-01, 1.014304279648517e+00, -2.392370281874473e-02, -8.271037674607522e-10, 9.134882586183867e-10, -7.703967314192309e-09, 8.517148336549861e+03, 8.572893304688567e+03, -1.111156282685234e+02, 1.849188122016588e+04, -4.675837760189144e+02, -5.169025715815567e+02, 1.002181974748209e+04
5108, 7.294303617395950e-01, 1.026162299249734e+00, -2.446178974504300e-02, -6.813678522049572e-10, 3.649111755385452e-10, -2.690222742407627e-09, 2.543218902113766e+03, 2.081684970695873e+03, -3.604189277333788e+02, 3.042954502212632e+03, -1.498585037373699e+03, 7.670776921220308e+02, 3.096061285959881e+03
5109, 7.478188543673632e-01, 1.034010879979983e+00, -2.380501599493419e-02, -6.274005513306358e-10, 3.677634878050403e-10, -2.481769753584427e-09, 3.041398102399626e+03, 3.159855072098277e+03, -5.504133537300670e+01, 5.173679870220139e+03, -2.322665287612881e+02, 2.001601173814993e+03, 4.061801028889810e+03
5110, 7.320014256598966e-01, 1.046042849056036e+00, -2.432131778207833e-02, -7.286195694733265e-10, 4.132089888746143e-10, -2.384310652725265e-09, 2.093464609928054e+03, 1.833889487339371e+03, -2.824012169749101e+02, 2.594546962433618e+03, 1.368571436217096e+03, -8.640430324253779e+02, 2.923432406798784e+03
5111, 2.685910855470058e-01, 2.517376460652302e-01, -3.742325788997734e-02, -4.006238839274404e-09, 1.231166309163851e-09, -1.958336634506879e-08, 1.245673646681558e+04, 1.248070342762722e+04, -6.864494759023751e+02, 2.598376830990613e+04, 2.722810308380769e+03, -1.360821611799916e+03, 1.455565855637299e+04
5112, 7.476421065930425e-01, 1.314232875501969e+00, -2.126842168998020e-02, -1.009973090603191e-09, 6.663783752399473e-10, -2.681905028505877e-09, 4.173488826429507e+03, 5.005180834584929e+03, 1.782892624968626e+02, 8.352000163444367e+03, 2.615558268260560e+03, -1.449091315216271e+03, 6.449405195200442e+03
5113, 7.501928047331733e-01, 1.334035682512034e+00, -2.079920919896607e-02, -1.004677652968079e-09, 5.676569041188018e-10, -3.649074412038247e-09, 5.539579446717486e+03, 5.193054048999198e+03, 4.421024693460186e+02, 1.040701766100240e+04, 2.988048720086729e+03, 7.503220675119853e+02, 7.386429749225734e+03
5114, 7.318113349921243e-01, 1.326180320262621e+00, -2.029542289755775e-02, -4.081026131773687e-10, -2.683090804639810e-11, -1.259423503356550e-08, 9.328883140316497e+03, 9.269011707148831e+03, -3.311467096748300e+02, 1.941550872484548e+04, 3.025979248064382e+02, 8.228548232894343e+02, 1.024609399349160e+04
5115, 7.343173726255170e-01, 1.345919358708851e+00, -1.960625213153733e-02, -9.493589473862784e-10, 2.153713001273223e-10, -2.542190849572119e-09, 2.870292445231426e+03, 3.123312112673008e+03, 2.127084291465996e+02, 5.001858601955580e+03, 6.905908032287674e+02, 2.856263486203562e+03, 5.487209671623787e+03
5116, 9.716258464848190e-01, 3.247253408659545e-01, -5.981037021521481e-03, -4.349549538086257e-10, 3.171081005052874e-10, -8.190046080011422e-11, -2.413499312466535e+03, -2.428337921909649e+03, 7.964711027691867e+01, -4.783356160197710e+03, 1.483181145727375e+03, -1.175675066282784e+03, 4.043070836252559e+03
5117, 9.899243792028994e-01, 3.324707088678934e-01, -4.771876219663561e-03, -1.069834600873189e-10, 2.435214094603414e-10, -4.131911416037289e-11, -2.595262588712252e+03, -2.759448358097483e+03, -4.108751514574438e+01, -5.031594059658896e+03, 1.745049904168098e+02, -2.083218541902185e+03, 4.321860253742328e+03
5118, 6.388613121532249e-01, 8.570081027673653e-01, -2.784299212666525e-02, -8.595452508391294e-10, 7.236665463949579e-10, -3.944252163510608e-09, 4.071412379608990e+03, 2.754070124975434e+03, -2.051995122446052e+02, 4.632586114470917e+03, -1.477135662386469e+03, -9.783901862826083e+02, 3.511896401414258e+03
5119, 8.759972009403035e-01, 1.088309387137701e+00, -1.782087459943173e-02, -3.876903165982690e-10, 2.834391974793912e-10, -1.458882276722224e-09, 2.668815817085483e+03, 2.576946336127224e+03, 9.394905841581779e+01, 5.125548354029371e+03, 4.232613982174967e+02, 1.239919915559561e+02, 2.622923074536762e+03
5120, 1.132517839712913e+00, 1.197173616760006e+00, -1.920298926767219e-03, 4.333496169575981e-10, 2.026019315060490e-10, -1.671782448584516e-10, -1.847115297356156e+03, -2.240979624301427e+03, -7.928318418152929e+01, -5.754965154665462e+03, -1.979962954997213e+03, -6.922635621930166e+02, 5.206204073933944e+03
5121, 2.710526855819205e-01, 2.714690642282961e-01, -3.687182312490975e-02, -1.752022327747574e-09, 1.851027231480104e-09, -9.836224855470868e-09, 7.016144067703564e+03, 5.827600182969227e+03, 4.278286656880654e+02, 9.274804332349811e+03, 5.463776671339923e+03, 2.379557003341768e+03, 1.078393494245565e+04
5122, 9.090152092980164e-01, 1.214487686184376e+00, -1.660019427430104e-02, -5.096559975195888e-10, 1.644299627451760e-10, -8.957583756246559e-10, 1.339395835657715e+03, 1.358879296139757e+03, -1.160856206893030e+02, 1.757673538106256e+03, 1.603571772545463e+02, 8.597834094097633e+02, 1.581910163278636e+03
5123, 9.751254704217394e-01, 2.137536738458127e-01, -4.827986515153515e-03, -4.464831880711727e-10, 5.782295820667460e-11, -1.517532934890741e-10, -3.017093882039075e+03, -1.983196774100907e+03, -2.960694401216416e+02, -2.968054613076702e+03, 2.096143398915851e+03, 2.359300032953122e+02, 3.825187342770255e+03
5124, 8.006620872214267e-01, 6.501019148231744e-02, -1.546675379567880e-02, -4.249999340436663e-10, 6.771991176489290e-11, 4.435255024551140e-10, -4.420644793084318e+02, -5.185750753204926e+02, -3.129188427098576e+01, -1.003082807492726e+03, 2.251117855966403e+02, 1.716948624745556e+02, 7.218534897785215e+02
5125, 7.506407076978124e-01, 8.130443421502617e-02, -1.886231441540771e-02, -3.835150652999173e-10, 5.896952912612315e-11, -7.686672987473965e-11, 1.918109380099701e+02, 1.806548689020526e+02, -5.393994663254652e+01, 2.382734605767177e+02, -5.398203444991900e+00, -3.194588679914296e+01, 1.211575724975802e+02
5126, 7.439219697786770e-01, 1.144462232134893e+00, -2.355598729614890e-02, -1.324022056323765e-09, 3.922384613900915e-10, -1.043786997595256e-08, 6.920717679550349e+03, 6.211479012150787e+03, -7.532437511394069e+02, 1.195554057295481e+04, 6.352770733173045e-01, 3.013783069962102e+00, 5.579024022181938e+03
5127, 7.634933028869725e-01, 7.414236873968031e-01, -2.242314611316266e-02, -5.664423708863504e-10, 2.378124273249283e-10, -1.367225886209106e-09, 8.674359013860417e+02, 8.694351985526711e+02, 4.710899244334159e+01, 1.061511142732589e+03, -4.070345623216449e+02, -3.066397223599059e+02, 9.072233003400122e+02
5128, 6.640011945945355e-01, 8.207468078045146e-02, -2.438770987854864e-02, -2.561029037423703e-10, 2.058790307266882e-11, -9.024185655441457e-10, 8.103393984252599e+02, 9.137403431712735e+02, -7.451898945276405e+01, 1.329259618544103e+03, -1.683853312060609e+02, 1.767194384359139e+02, 6.494016381570666e+02
5129, 7.915910963643300e-01, 8.282099804091111e-01, -2.127574082505557e-02, -7.390821830582369e-10, 2.495841959389944e-10, -4.005288238337606e-09, 3.360850632931406e+03, 3.262017272821527e+03, -1.386627310662146e+02, 6.968061307145405e+03, 1.487995805217194e+02, 4.323454788403566e+01, 3.675318124412303e+03
5130, 6.925849034925240e-01, 1.010569141771885e+00, -2.561525369650720e-02, -9.857354855608121e-10, 7.872063143989453e-10, -4.035058744608792e-09, 4.308315209516310e+03, 3.511958818085910e+03, -8.327759504764568e+01, 7.757486114150856e+03, 3.743056082682740e+03, -1.582370688167638e+03, 8.052430421850469e+03
5131, 6.946495335791161e-01, 1.886447196296921e-01, -2.319199863159306e-02, -4.467640069416629e-10, 1.430325753616697e-10, -7.506948878480057e-10, 5.440126956552714e+02, 3.887029913826377e+02, -1.568532501893066e+02, 7.383193485988443e+02, 5.772868823008425e+02, -3.640210498800122e+02, 1.250270819625982e+03
5132, 6.130522415733806e-01, 5.095675609841804e-01, -2.932646182428096e-02, -7.033550098711626e-10, 5.897462820176849e-10, -2.514732952016645e-09, 2.162341963008882e+03, 1.682689215733954e+03, -2.407795631755517e+02, 2.105762273723441e+03, -9.770029053608118e+02, -3.204150130505674e+02, 1.884583556902244e+03
5133, 6.313521546665732e-01, 5.172968623703162e-01, -2.849161310308842e-02, -8.996278220869072e-10, 3.545053006372111e-10, -6.469448383272979e-09, 5.470859180617048e+03, 4.966975356467537e+03, 8.406598383850006e+01, 1.164277459896930e+04, 2.170553132217109e+02, 2.597799905300346e+02, 6.466943977583948e+03
5134, 6.289097000819033e-01, 4.975434321530189e-01, -2.856044514477082e-02, -5.293829321840047e-10, 5.536627002838170e-10, -2.294468501798858e-09, 2.137852230519502e+03, 2.608256948994701e+03, -1.631869399125765e+01, 4.027138428392124e+03, -1.407391065559338e+02, -1.225909988773230e+03, 2.733265644607479e+03
5135, 6.338070929382134e-01, 5.370337840378657e-01, -2.841954244480008e-02, -7.640345979145067e-10, 1.458580170253082e-10, -2.480342150439484e-09, 2.414773236384130e+03, 2.392099805656295e+03, -1.884578457320951e+02, 4.158130893344767e+03, 1.892938532294222e+02, 1.486949836732059e+03, 3.150625798464641e+03
5136, 8.246416699559800e-01, 9.543833528991126e-01, -2.004914399765304e-02, -4.862117665773919e-10, 1.411447661699417e-10, -8.484962347903783e-10, 1.315059244751420e+03, 1.089058409414064e+03, -3.235485936817814e+02, 1.076153180768322e+03, 8.592146272691562e+01, 3.740157156713791e+02, 9.000118623401772e+02
5137, 4.799553988590315e-01, 4.158996616927028e-01, -3.433948637259688e-02, -1.514176454569884e-09, 8.858836583844073e-10, -1.077674000548880e-08, 7.121230869010942e+03, 6.631231737559443e+03, -1.688645217053621e+02, 1.527338770926512e+04, 7.376841586975477e+02, 9.074253485417364e+01, 8.510880807827982e+03
5138, 5.973439325053427e-01, 8.020712971494131e-01, -2.917156251322503e-02, -1.325270509012482e-09, 6.625291804217562e-10, -4.309865489625848e-09, 3.761655924927320e+03, 3.337210460511717e+03, 2.891156567249038e+02, 5.601871959918436e+03, 2.936257298299045e+03, 5.697995209642575e+02, 5.606890331895673e+03
5139, 7.207335671767159e-01, 1.097282199229384e+00, -2.440449220109487e-02, -4.167746861754262e-10, 3.722979516128048e-10, -4.324168934679797e-09, 3.560287523553662e+03, 3.403296850849938e+03, -1.318177049560151e+01, 5.740653632520742e+03, 2.343275797953500e+03, -2.927052498754308e+03, 6.877295561997529e+03
5140, 5.299881986334627e-01, 3.996399051379786e-01, -3.270064037569339e-02, -5.364950836703138e-10, 4.945318669671761e-11, -9.620060813091022e-09, 6.142286439235915e+03, 5.987469631251676e+03, -1.209707846752558e+02, 1.309855668853064e+04, -9.544239187793994e+01, 7.156744942633277e+02, 7.148315260862732e+03
5141, 5.347248101075834e-01, 1.584206826936599e-01, -3.223525427300918e-02, -3.005133514392335e-10, 4.910483864799677e-10, -3.337464254134127e-09, 1.471917137755532e+03, 1.343813918438779e+03, 6.163833449128924e+01, 1.783416310643489e+03, 1.146368724138973e+03, 5.704952298143032e+02, 2.254688946613680e+03
5142, 4.212629361411859e-01, 2.227376252155438e-01, -3.684515912100984e-02, -1.049639417937038e-09, 5.259541765230254e-10, -5.468575782036830e-09, 3.483701326729225e+03, 3.288300009478748e+03, 2.565278229329224e+02, 4.968070308341880e+03, 1.472984984368773e+03, 4.863822762806830e+02, 3.154006598444833e+03
5143, 1.105396036849315e+00, 9.798855496948484e-01, -2.021181479067113e-03, -8.688643868045393e-12, -3.517794188093945e-13, 7.269989079390659e-12, 9.940915892520715e+01, 2.835623986373956e+01, 7.355896848583537e+00, 9.747890905925706e+01, 1.404901389413147e+02, 2.572076987392310e+01, 2.574384049972331e+02
5144, 6.852817681475623e-01, 9.514191421712558e-01, -2.610213399009526e-02, -5.628848675115844e-10, 6.448785060587455e-10, -3.819582901171420e-09, 2.948156810380986e+03, 2.378364130197193e+03, -8.667463126479086e+01, 3.623730892717432e+03, 1.996963764612613e+03, 7.671352092810621e+02, 3.862333595218187e+03
5145, 4.723530980014541e-01, 7.585160431599523e-02, -3.503615428591071e-02, -3.277236505565341e-10, 8.098645217192585e-11, -8.739932470558936e-09, 4.882035150518032e+03, 4.656807655455855e+03, -2.112839296329554e+02, 8.280794417699080e+03, -1.080299440767964e+03, 1.438163737602460e+02, 4.008104141220184e+03
5146, 4.699076906337442e-01, 5.597430507082246e-02, -3.511399389956570e-02, -2.588523187817383e-10, 2.636336770070845e-10, -4.012580527086524e-09, 3.606165142205840e+03, 3.831622948028318e+03, -1.692790288356795e+02, 5.509199862531013e+03, -2.416452452223520e+03, -1.297128422405728e+03, 5.088677460749605e+03
5147, 4.540123790677308e-01, 6.807177339455442e-02, -3.584073596400217e-02, -5.063611489545272e-10, -1.661218313080038e-11, -3.288782393070039e-09, 1.891483405081953e+03, 2.110247267478659e+03, -6.765257304208309e+01, 1.672522266417489e+03, -1.612530235287572e+03, -2.956201511994511e+02, 2.867118432258765e+03
5148, 2.869209233779572e-01, 2.595074847739914e-01, -3.776231213452308e-02, -2.077387004231499e-09, 1.142522281274707e-09, -8.039217478697722e-09, 6.118629126025308e+03, 4.525810207804804e+03, 5.810855431965656e+02, 5.880278101975765e+03, 3.553438210076697e+03, 6.048080506770236e+02, 6.496565415290595e+03
5149, 9.844803403176765e-01, 1.543221317182525e+00, -1.397999260669867e-02, -6.147951788198722e-10, 9.533781067941938e-10, -7.718232179834144e-10, 2.819131724614021e+03, 2.963115748576625e+03, -3.152032094579069e+02, 3.064829627994853e+03, -7.824960217128412e+02, 4.118840968461808e+02, 1.640008254712640e+03
5150, 4.017907620843668e-01, 3.454698507489112e-01, -3.658843458636128e-02, -1.365020601542542e-09, 1.165527790731198e-09, -6.375604935615805e-09, 3.782701442057683e+03, 3.138332021129912e+03, -9.011178010374937e+02, 4.493333083445598e+03, -2.001742859465089e+03, 1.582159892010245e+03, 4.831642748753112e+03
5151, 4.176563661379173e-01, 3.334710055750256e-01, -3.639211915486677e-02, -1.337787148821225e-09, 1.144034559584371e-09, -1.487851279889719e-08, 1.282920624226193e+04, 1.230059605855170e+04, -6.023970693464885e+02, 2.824743871378855e+04, 2.387082598405733e+02, 2.245415671731512e+02, 1.573411593656303e+04
5152, 5.595616595028157e-01, 9.169338151571752e-01, -2.702716694931958e-02, -2.336321977928050e-09, 1.393478117278015e-09, -6.960459034139539e-09, 8.128104932770721e+03, 7.658696826394340e+03, -4.333002343617718e+02, 1.270351406081503e+04, 1.618649567996341e+03, -5.645098673736144e+03, 1.128393506069077e+04
5153, 5.437308208720123e-01, 9.288860542868751e-01, -2.569679326946371e-02, -2.515381637953153e-09, 1.945765467415705e-09, -5.341017078952335e-09, 5.339158070182537e+03, 4.550154953129467e+03, 7.759683283876959e+02, 8.714984773477503e+03, -2.993833488014247e+03, -9.756692214215129e+02, 6.799526331419444e+03
5154, 5.620155725507238e-01, 9.366537894819600e-01, -2.644812981576205e-02, -2.098095886666451e-09, 1.024236926583891e-09, -1.980394890699528e-08, 1.400061530270951e+04, 1.258479169193290e+04, -1.141164650437070e+02, 2.891600379473828e+04, 3.879695021095404e+02, -1.894756142415665e+03, 1.602659854055270e+04
5155, 5.462624617338241e-01, 9.484550889363123e-01, -2.492381378015441e-02, -2.437741601670782e-09, 7.623429609863701e-10, -7.094982944120768e-09, 7.082414895926518e+03, 4.452046050402462e+03, 7.442638447882655e+01, 1.402247932020724e+04, -7.678025589998418e+03, 5.822601649905133e+02, 1.585017959411073e+04
5156, 5.279594491447064e-01, 9.408001425771976e-01, -2.356874026008468e-02, -2.041540140578808e-09, 1.482868314230882e-09, -3.369840912539936e-09, 5.123112201737397e+03, 2.884800480147147e+03, 5.919766672950930e+02, 6.146135641127215e+03, 1.689830115912655e+03, 7.141451525116902e+02, 4.415241574225181e+03
5157, 5.651009112975619e-01, 9.559200393555924e-01, -2.587046233838725e-02, -1.880822216883025e-09, 3.885547099820138e-10, -8.363300484788660e-09, 7.722682552614673e+03, 8.410177298846716e+03, 8.238914574752041e+02, 1.709370797746816e+04, 2.601472121618764e+03, 2.254473551525094e+03, 1.092856586091298e+04
5158, 7.481319155437949e-01, 6.154923304953212e-02, -1.888028545676550e-02, -3.489905212978145e-10, 4.718699302365938e-11, -1.441861029113636e-10, 2.660680475354761e+02, 2.396138854423259e+02, -9.274064825929361e+01, 4.412118611126372e+02, 3.218968250085503e+02, 5.140606278638101e+01, 6.169208962293258e+02
5159, 5.155698391669048e-01, 8.421981817399090e-01, -2.767351165868903e-02, -1.913746384086876e-09, 1.135159960723677e-09, -6.422259039626842e-09, 6.848242639024462e+03, 6.732500474655980e+03, -8.823712372820593e+02, 9.308201281095620e+03, -9.217430377149425e+02, -6.663543072168094e+03, 1.201842336642364e+04
5160, 8.686147647967561e-01, 1.029083982789705e+00, -1.791900609437777e-02, -3.446912213872951e-10, 1.823266623228791e-10, -2.814764142294923e-09, 3.443880457260908e+03, 3.410645395174904e+03, 3.263274623815251e+01, 7.328507955330839e+03, -1.411349230767853e+02, 8.569561595847537e+01, 3.912227537847533e+03
5161, 8.710745855174793e-01, 1.048825278015188e+00, -1.788747817936456e-02, -4.051960247674992e-10, 9.262918020663075e-11, -1.000028389037910e-09, 1.270743650428988e+03, 1.404941767579267e+03, -2.472818742805956e+02, 2.623140234962882e+03, -2.061132882986545e+02, 3.433263666513676e+02, 1.526436569994908e+03
5162, 5.297995098531677e-01, 1.188903018986679e-01, -3.235213068758963e-02, -8.833120767895425e-10, 5.713539530200737e-10, -3.499892924963486e-09, 1.638468241936095e+03, 1.545099863162139e+03, -2.956390906953472e+02, 1.699281992089170e+03, -7.117956440128896e+02, 7.747269523783806e+02, 1.897594828248297e+03
5163, 4.433381772409462e-01, 4.004294060477893e-01, -3.536058264020812e-02, -1.047398883950587e-09, 1.616315436545793e-09, -5.654875989464507e-09, 1.995650871735900e+03, 1.522891168036230e+03, -5.257821238572413e+02, 1.851201435774180e+03, 6.582236551119387e+02, 1.969159589093515e+03, 3.733357956606103e+03
5164, 5.899934023211544e-01, 7.428783583327245e-01, -2.973095865297825e-02, -8.972004724717291e-10, 5.838076309639323e-10, -4.492915711597608e-09, 5.083725175180417e+03, 4.184675483373100e+03, -3.707072362898789e+02, 7.725988539060865e+03, -2.084545366395582e+03, 2.507029736375397e+03, 6.516841728277780e+03
5165, 3.066757111142603e-01, 4.173661487308613e-01, -3.292078408794423e-02, -3.006266251245886e-09, 1.048917582820792e-09, -7.248152345743731e-09, 6.215101842464049e+03, 5.440365172782524e+03, -1.459247040288587e+02, 8.005146040499146e+03, 5.654974468481349e+03, 1.226281290873661e+03, 1.028118068157264e+04
5166, 6.241460275772163e-01, 7.385944609850797e-01, -2.873051224890964e-02, -1.399879778675336e-09, 7.161086962028999e-10, -4.209935078976560e-09, 4.463172444042131e+03, 4.655263828053322e+03, -5.466267525461901e+02, 8.406978680218730e+03, 6.986926338939494e+02, 2.111557311424981e+03, 5.529003072725235e+03
5167, 6.400009643884215e-01, 7.265991923129486e-01, -2.819916738199634e-02, -6.244979487062203e-10, 1.830761166635610e-12, -8.935157646120447e-09, 6.075397103162610e+03, 5.542747199158381e+03, -6.411738465858035e+01, 1.127615331310496e+04, 6.075448991143904e+02, 6.203846792779689e+02, 5.689996516051609e+03
5168, 6.583085607103204e-01, 7.343400672090898e-01, -2.750987702239572e-02, -9.042913455753478e-10, 5.909521472021223e-10, -3.363166574814397e-09, 2.718790129985627e+03, 2.145390721788013e+03, 1.899076250304216e+02, 4.451585619033265e+03, 2.511167164677423e+03, 7.163024839111472e+02, 4.989017442994230e+03
5169, 6.558624516116113e-01, 7.145412807844618e-01, -2.761899069550693e-02, -8.172672770185456e-10, 5.894415770572275e-10, -2.950671405072149e-09, 2.890709137093659e+03, 2.188393029205331e+03, 4.778880552858210e+01, 3.641241968473895e+03, 1.829455009445569e+03, -8.424538522737582e+02, 3.709502989289415e+03
5170, 4.359757747516337e-01, 3.412117378597100e-01, -3.590825268344707e-02, -1.755139503591272e-09, 3.965158483026104e-10, -6.504732761285521e-09, 5.491742435882461e+03, 4.679140434194326e+03, 6.317580283138099e+01, 1.095702784722453e+04, 2.305223303736751e+03, 2.209075276645069e+03, 8.097218425221475e+03
5171, 1.514887043336784e-01, 1.458790827921906e-01, -3.373612209184014e-02, -1.073466888018990e-09, 1.104115744410750e-09, -6.408346465985034e-09, 5.351929840834026e+03, 5.370346262891265e+03, 5.973411721762029e+02, 1.718650227036485e+04, -5.262216369282628e+03, 4.052885666958519e+03, 1.653058839670764e+04
5172, 1.358732441545046e-01, 1.577108268399107e-01, -3.030037093543844e-02, -1.383258017463446e-09, 8.179672500806491e-10, -2.355869817244089e-09, 1.902767732633894e+03, 1.274552868330231e+03, -4.077300222893019e+02, 2.355632210279924e+03, -9.893625149171713e+02, 6.816603632502014e+02, 2.390285499829469e+03
5173, 1.540012213455238e-01, 1.655741440814482e-01, -3.256439576344278e-02, -1.670285758503503e-09, 8.753082607826467e-10, -3.959096237188566e-09, 2.040415410369072e+03, 2.449424056538632e+03, -3.409202711261349e+02, 3.646541670748794e+03, -1.312078318941232e+03, 9.987874252245778e+02, 3.255160135976239e+03
5174, 1.384218607461767e-01, 1.773774778946072e-01, -2.874555242257172e-02, -1.740790260483189e-09, 7.929703070669101e-10, -2.223291245518284e-09, 2.599255172004729e+03, 1.659527385369191e+03, -9.750347816391521e+02, 1.220759933000040e+03, 1.111839111691878e+03, -7.995998350742193e+02, 3.156999200653978e+03
5175, 1.746842166140395e-01, 1.930759890524650e-01, -3.324201959665293e-02, -3.457328677933139e-09, 2.699268551941796e-09, -1.410110807484355e-08, 1.049088578162461e+04, 1.074712839902934e+04, -5.144479676230401e+02, 2.181119457773479e+04, 5.377878126780814e+02, -9.707892166229644e+02, 1.139312153891210e+04
5176, 6.610778163546368e-01, 6.313541278661053e-02, -2.444294297289770e-02, -2.969892129898408e-10, 3.327815469157878e-11, -8.355052366903614e-10, 9.334715450090173e+02, 8.964430438949566e+02, -7.282931484023506e+01, 1.352407505944164e+03, -2.163692315324620e+02, 1.627441068641174e+00, 5.905575552061373e+02
5177, 7.582810012339984e-01, 1.393256279357942e+00, -1.906781920637785e-02, -1.286204165869755e-09, 6.011205690943094e-10, -2.788247147069612e-09, 4.639366077213128e+03, 3.393919387280272e+03, -5.887094539702542e+02, 5.312135045159297e+03, 1.699275139347674e+03, 5.071809819370159e+02, 3.649067762104040e+03
5178, 9.201515966797167e-01, 1.163082354127907e+00, -1.564730232033053e-02, -4.275507491473153e-10, 2.142415684994426e-10, -3.677647660472036e-10, 1.042788228140300e+03, 9.825169651698728e+02, -1.371165786963445e+02, 1.311719485630148e+03, 3.188121802799220e+02, 3.146973655308950e+02, 8.663690067732120e+02
5179, 9.941922188872165e-01, 7.831233308311791e-01, -8.099228256493382e-03, -1.344412715908402e-10, -1.385820474313256e-10, 2.941938634520947e-09, -3.505428283136592e+03, -3.414148058376264e+03, 5.866687916619546e+01, -7.687699841270981e+03, 3.768244233694343e+02, -2.755441773598178e+02, 4.306457393328594e+03
5180, 1.012490312030816e+00, 7.908570379999146e-01, -6.923316023275106e-03, -2.439948828559174e-10, 1.093678549996649e-10, 6.071641220440276e-10, -1.863226187417016e+03, -1.485356694320934e+03, -1.050443834087172e+02, -3.324565622740243e+03, -1.339948712377689e+02, -1.138682536048322e+03, 2.609071575949182e+03
5181, 9.966555678917757e-01, 8.028563564893150e-01, -8.087711125440149e-03, -3.615948667763321e-10, 2.371118767260566e-10, 2.687862528806476e-10, -8.948757138820640e+02, -9.945929389869132e+02, -1.141089672285402e+02, -2.038800266816436e+03, 3.712184547735297e+02, -6.218701089253805e+02, 1.678415090335112e+03
5182, 1.014950220250008e+00, 8.106039931872762e-01, -6.912723716362734e-03, -3.997299914906996e-10, 3.246629874421220e-11, 2.079343459359669e-10, -1.494544106950745e+03, -1.418448574103494e+03, -9.597559799975063e+01, -2.131456784019768e+03, 4.158909269530141e+02, 6.054643082718030e+02, 1.451277133852171e+03
5183, 9.991216511819641e-01, 8.226215706144672e-01, -8.076221793500029e-03, -4.909109446116067e-10, 5.485121276603602e-11, 2.461892722876292e-10, -1.534934745058599e+03, -1.531405603541463e+03, -1.457953066431871e+02, -2.215391710029424e+03, 1.270638811073968e+03, 5.003116869958403e+02, 2.474612837661009e+03
5184, 1.017417719393912e+00, 8.303658617399938e-01, -6.901699216593604e-03, -6.670848239580092e-10, -3.848114212191793e-11, 2.602357823280641e-09, -3.410370168194940e+03, -3.555978879337758e+03, 5.814760700779772e+01, -6.591806111172278e+03, 5.191734240892733e+02, -5.106147896155471e+01, 3.241308402194024e+03
5185, 1.001572573637572e+00, 8.423629155062037e-01, -8.065524509989964e-03, -5.106935657922616e-10, 7.674307829259408e-11, 5.911768963590965e-10, -1.704737014385462e+03, -1.610449980682547e+03, -3.149839004642461e+00, -3.245736260094665e+03, 7.823416776086269e+02, -1.219418082124001e+01, 2.089381805219570e+03
5186, 1.019882390213238e+00, 8.501148462845429e-01, -6.890728615692964e-03, -4.006240996715678e-10, 6.016737034484487e-11, 1.850040365939994e-10, -2.487529856501906e+03, -2.315446859665753e+03, -8.349750383170694e+01, -4.764304999195753e+03, 5.489156250261110e+02, 9.416501905992112e+01, 2.560576817816833e+03
5187, 1.035708835914306e+00, 8.380976007354868e-01, -5.716704819445070e-03, -3.211524997766869e-10, 1.839783428924835e-13, 4.053381149419135e-10, -1.852076069291409e+03, -2.416178077083475e+03, -1.250953545598044e+02, -3.846464071685566e+03, 3.194822413015110e+02, 7.083900628478509e+02, 2.242623240084038e+03
5188, 6.861904547944405e-01, 2.599273760560193e-01, -2.418253499685106e-02, -7.717421103304753e-10, 5.456699861142653e-11, -1.077328659117499e-09, 1.354775840272798e+03, 1.397534622793234e+03, 5.399346101164475e+01, 2.851206268761908e+03, 9.556567311082283e+02, 3.401064447376212e+02, 2.296246768845117e+03
5189, 9.756846489350264e-01, 1.336298721587996e+00, -1.336298387832063e-02, -4.159059233450000e-10, 7.363935133305989e-11, -3.061890470341136e-10, 1.019266704794522e+03, 9.704867363064801e+02, -3.115421006100203e+00, 1.396865355110391e+03, 3.246141612666177e+02, -1.098146349985485e+02, 7.181291089475579e+02
5190, 8.358799047920220e-01, 9.031994027210827e-01, -1.912000300517401e-02, -5.480935577060352e-10, 1.995152843500238e-10, -6.956582068625834e-10, 1.070784394506210e+03, 1.000381557667563e+03, -2.286020339350733e+02, 1.425487021598449e+03, 8.680425770346326e+02, -5.642915121928891e+02, 1.878373693617388e+03
5191, 7.178803835893910e-01, 2.359013372654415e-01, -2.205773088073732e-02, -5.367350317034561e-10, 2.092893157369660e-10, -1.529490398807460e-09, 1.415402759143149e+03, 1.256077627926056e+03, -6.534872148078981e+01, 2.867670504115741e+03, 2.414010201494179e+01, -1.694573863898021e+02, 1.570527257558689e+03
5192, 8.309482061572753e-01, 8.637566957611874e-01, -1.917936398696558e-02, -6.029803153223965e-10, 1.039778276086013e-10, -2.929880372997051e-09, 3.286847361596345e+03, 3.075577639694901e+03, -2.131087621525336e+02, 6.767460442018435e+03, 6.778322969814064e+01, 1.372345508250002e+02, 3.619555244304039e+03
5193, 8.283975833185273e-01, 8.438955315968322e-01, -1.921211267553866e-02, -4.178567030297872e-10, 4.184711407022307e-10, -8.426633076478919e-10, 1.607733716850222e+03, 1.524816555450027e+03, -5.185534578809514e+01, 2.954872243050616e+03, -1.543457490576867e+02, -7.698367787829649e+02, 1.947007736592526e+03
5194, 7.495715545431043e-01, 2.118794799653396e-01, -1.987701312979321e-02, -5.605135072157293e-10, 9.037217050946273e-11, -3.870758241078690e-11, 1.661488078458989e+02, 1.499694079802638e+02, -5.549426159963781e+01, 1.813371120277237e+02, 8.216383872590555e+01, -3.297919482113787e+01, 1.830098507668892e+02
5195, 7.812643642706379e-01, 1.878515081190793e-01, -1.765553856621361e-02, -5.234118618315722e-10, 9.703395026102025e-11, 1.733678978244973e-10, -3.050588408515724e+01, -1.035104786713276e+02, -3.469399014908288e+01, -2.673887407984004e+02, 1.231908672777255e+02, -1.308150725318617e+02, 3.802977248425383e+02
5196, 7.971076393463417e-01, 1.758528891125556e-01, -1.653282371955087e-02, -4.913749204673123e-10, 7.394120113681236e-11, 2.490409202060261e-10, -2.650116647177077e+02, -3.222932300473785e+02, -2.540017253304470e+01, -5.851416764470534e+02, 5.399786723939964e+01, -7.438164414136207e+01, 3.386850398296905e+02
5197, 8.661771398368725e-01, 1.419440966507829e+00, -1.885654366175608e-02, -3.746325496398515e-10, 9.284225348153802e-10, -7.373003188456685e-09, 5.459774977745040e+03, 4.813246715315748e+03, 2.603805916828117e+02, 1.032062882814729e+04, 1.109456843467499e+03, -3.481307993100398e+02, 5.607873137235198e+03
5198, 8.288133185449639e-01, 1.518323876004923e-01, -1.426491231279278e-02, -4.824813205925150e-10, 8.668022751345841e-11, 4.861639757035614e-10, -4.948997427679337e+02, -6.696385341599668e+02, -5.724055128372266e+00, -1.001011793434071e+03, 2.837682568969120e+02, 4.556916342303931e+02, 1.030961593278460e+03
5199, 8.446482031013235e-01, 1.398185739411155e-01, -1.312193935355875e-02, -4.317285416369084e-10, 4.601017217794090e-11, 2.417897498418486e-10, -3.524108101885885e+02, -5.545006173085619e+02, -6.931503508942156e+01, -1.039858148030354e+03, -1.062256468809810e+02, -5.301048968147558e+02, 1.125076452448045e+03
5200, 8.763560108394177e-01, 1.158004118784998e-01, -1.081257166735611e-02, -2.485436976027317e-10, 1.176754176804912e-10, 8.304262490312078e-10, -1.065415184626602e+03, -6.705872196684816e+02, -2.429351355183439e+01, -6.264682272609450e+02, 9.072613637655305e+02, 3.962285200780877e+02, 1.765612134844248e+03
5201, 9.695281989800374e-01, 5.855561862790237e-01, -8.212748293286984e-03, -3.610425912406055e-10, 9.221472677652271e-11, 3.787862247886569e-10, -1.090508484950760e+03, -1.314244232778558e+03, 1.900947187812866e+00, -2.151715976371336e+03, 2.759399803655706e+02, -7.367814255961960e+02, 1.672055333837235e+03
5202, 9.878352344432499e-01, 5.933227467448277e-01, -7.031037659149142e-03, -4.287185647948927e-10, 3.809695446106879e-11, 4.117317337315155e-10, -1.497747672592607e+03, -1.611394659303947e+03, 3.216103662468895e+01, -2.366145962833511e+03, 7.104611496180281e+02, 3.884977495238051e+02, 1.624346027010855e+03
5203, 9.720033067275567e-01, 6.053276492581257e-01, -8.201063148850099e-03, -4.313821748684661e-10, -2.460601039872065e-14, 2.802008159380519e-10, -1.782320153009493e+03, -1.799565289095807e+03, -1.068937572993865e+02, -3.349170980605219e+03, 4.278961575379855e+02, 7.179046436044189e+02, 2.134952874840479e+03
5204, 1.132204295958760e+00, 1.495680322535713e+00, -4.378984310347303e-03, -3.849434647765166e-10, 1.882329444034425e-10, -4.137595738017184e-11, -1.837255014000742e+03, -1.478131016325614e+03, 7.074975791978673e+00, -2.768876162900379e+03, 1.559173122698736e+03, -6.770640998106933e+02, 3.162264307950542e+03
5205, 3.797102167841150e-01, 1.677677187465549e-01, -3.830109864788640e-02, -8.712276062830133e-10, 4.027109956244385e-10, -1.397374313439642e-08, 8.250215068825522e+03, 8.968268908366663e+03, -1.762359971026939e+02, 1.777068635242814e+04, -1.044325881443088e+03, 9.586445253121333e+02, 9.510036215318143e+03
5206, 3.429256713302505e-01, 1.522402399459969e-01, -3.929537918410388e-02, -1.282545404860605e-09, 2.356591339991356e-10, -7.080320482825080e-09, 5.311373730166731e+03, 6.532078298664332e+03, -3.582525156841689e+02, 1.302539441160104e+04, 1.870165225515470e+03, 3.715098114231099e+03, 1.019132694658011e+04
5207, 3.062538262288975e-01, 1.367476244876961e-01, -4.003687982855286e-02, -1.127135502963571e-09, 1.227362081288614e-09, -8.331416663998311e-09, 5.904599715928915e+03, 4.126117327951819e+03, -7.577494008162466e+02, 9.251668051928178e+03, 1.878394133766154e+03, -2.228131340547062e+03, 6.893469516718099e+03
5208, 9.874591011055569e-01, 3.126140862327451e-01, -4.780581857024314e-03, -5.730771894532545e-10, -5.593239781335797e-10, 6.286919020673944e-09, -1.018698181188575e+04, -1.028447424853281e+04, -1.218928191887947e+02, -2.048327557132846e+04, 4.552606407354145e+02, 3.255532400140414e+02, 1.029580857709918e+04
5209, 9.769489795466008e-01, 6.447622079534829e-01, -8.177056676201524e-03, -4.878331257408021e-10, 6.840600782629673e-11, 4.930730703840247e-10, -1.196966819695880e+03, -1.227058896228978e+03, -3.636926236165553e+01, -2.260973179677680e+03, 6.041583089761627e+02, 3.365009488771703e+02, 1.593639083597735e+03
5210, 6.216926746225009e-01, 7.188582394896830e-01, -2.886152650339344e-02, -9.571895377057847e-10, 1.048709250376536e-09, -5.448621203234338e-09, 5.617201847987768e+03, 5.692502592761369e+03, -4.220967885273205e+02, 1.175076978850309e+04, -4.912071171225376e+02, -1.847256931999815e+02, 6.206865939152861e+03
5211, 1.004329780373039e+00, 1.699906468548277e-01, -2.407360178949105e-03, -1.414807843501922e-10, -9.578872884812708e-12, 3.012306594493686e-11, 6.605616627894588e+02, -5.735663406571665e+01, 1.183367516370104e+02, -8.869937265084843e+01, 1.087053966256492e+02, -2.478565388166031e+01, 7.862537184464749e+02
5212, 9.884954376423559e-01, 1.819972430342842e-01, -3.622401838466970e-03, -7.946481012010951e-10, -4.963146142435497e-10, 3.770605109851571e-10, 9.831630547460702e+02, 4.202589850703587e+02, 2.706396360201349e+01, -5.319591423473728e+02, -4.635703224288020e+02, -2.489830960788014e+02, 1.610110327048919e+03
5213, 8.843060172042465e-01, 1.427090133540119e+00, -1.823335092686749e-02, -4.084273705131657e-10, 5.068424388744956e-10, -1.711558551493592e-09, 2.603929053744433e+03, 2.529814189066002e+03, -2.923618248934544e+02, 3.662823776389642e+03, 2.014483972514739e+03, -1.608536568031424e+02, 3.703203467152722e+03
5214, 2.854513068705115e-01, 1.092435821202861e-01, -4.056462509032441e-02, -1.002307035922525e-09, 7.545792090290474e-10, -8.227194195747993e-09, 4.738780548827405e+03, 5.783140880224028e+03, -5.985884964671517e+02, 7.778617182741611e+03, 2.534964046451998e+03, -3.179617885865446e+03, 7.605233256341524e+03
5215, 9.705918840684189e-01, 4.552491310410851e-01, -7.105508567909338e-03, -9.794808330420142e-10, -5.020905803557404e-11, 4.667339850367258e-09, -5.312447332508007e+03, -5.807224580845765e+03, -1.689340900279875e+02, -1.097532053794982e+04, 3.780638415529730e+02, 5.655359346473462e+01, 5.480427406334369e+03
5216, 9.547511255620864e-01, 4.672162969675127e-01, -8.279519533362849e-03, -6.347660830703548e-10, 6.161573468026166e-11, 4.874917757676769e-10, -2.353078010632391e+03, -2.125604367886906e+03, 2.288514484310880e+02, -3.612301932877642e+03, 2.127588881941150e+03, -7.240234100130456e+02, 4.151322849392776e+03
5217, 2.671330256112845e-01, 1.015068540264528e-01, -4.076105649640798e-02, -1.019226314577688e-09, 1.026032481519969e-09, -7.845569724780275e-09, 4.558863899987079e+03, 5.211153916467807e+03, -4.874219055149161e+02, 5.136889727863127e+03, -1.259290372798512e+02, -2.500064654049462e+03, 4.460251134073182e+03
5218, 5.868025741096109e-01, 1.073227188343587e+00, -2.139445189361892e-02, -1.066746915973084e-09, 3.380061893750462e-10, -1.527256788210371e-09, 2.353046553294294e+03, 2.825862715181977e+03, 9.378766481634287e+01, 2.828351037835456e+03, 1.618499518215337e+02, -1.399408757751287e+02, 6.232678227901071e+02
5219, 6.065538520460827e-01, 1.074420916864589e+00, -2.330227872678364e-02, -8.427200660361494e-10, 9.606525873454793e-10, -3.023451976527077e-09, 3.679491643509490e+03, 3.931243657882433e+03, 2.054386773864699e+02, 6.651436449639164e+03, -3.754364704222629e+03, -5.401427377487619e+02, 7.171839554447571e+03
5220, 8.040439973164304e-01, 1.207329595877682e+00, -2.148885463521691e-02, -5.871370866406787e-10, 4.694530946358432e-10, -2.665164711197794e-09, 3.186271387546655e+03, 2.624922289400339e+03, 1.775418263734568e+02, 5.646640262403843e+03, -4.718613227627666e+02, -2.060874760091340e+03, 4.610183360106518e+03
5221, 7.903484959659448e-01, 1.239060324885381e+00, -2.182993122657003e-02, -5.403253678390009e-10, 3.863431150489448e-10, -3.235125576906311e-09, 3.175527388765598e+03, 3.789429536316334e+03, 1.054085025593612e+02, 5.511211247896992e+03, -2.156338050973199e+03, -1.547615953695642e+03, 5.056330017642626e+03
5222, 9.476076847878598e-01, 1.249842403547436e+00, -1.452574513866068e-02, -2.668365812397366e-10, 1.784593213864208e-10, -6.227421711358027e-10, 9.304007927673799e+02, 7.983757892527486e+02, 9.138140385732873e+01, 9.423004114134859e+02, 8.662565336064296e+02, 1.045373390235398e+02, 1.525837555043522e+03
5223, 9.271489018902112e-01, 1.222113007126286e+00, -1.558478837755586e-02, -3.799146548527587e-10, 1.309460346861826e-10, -5.122570809450435e-10, 1.198497448881931e+03, 9.731173802789059e+02, -4.223503508893764e+01, 1.769756510969965e+03, 1.688400674493922e+02, -6.118565678709946e+02, 1.311434777860173e+03
5224, 8.292447712748574e-01, 1.274017235194795e+00, -2.047131432284302e-02, -5.240578581765414e-10, 4.535449035140004e-10, -2.342462732236778e-09, 2.204501881503356e+03, 2.814018275238597e+03, 2.141469328555871e+02, 3.290339484650534e+03, 3.898886016262736e+02, 1.576468433570934e+03, 2.989664190559445e+03
5225, 8.317074446901189e-01, 1.293733226976983e+00, -2.034398543303040e-02, -4.129493152767403e-10, 5.680836722722296e-10, -2.307192074494236e-09, 2.138876361379816e+03, 2.660026758824355e+03, 6.966550082715781e+01, 4.167650973423792e+03, 1.161303453292066e+03, -1.601198716578467e+03, 3.883577788027040e+03
5226, 8.159006209613293e-01, 1.305776564495851e+00, -2.080469885516953e-02, -3.592744077460148e-10, 3.760755271981837e-10, -7.765926759526171e-09, 5.836304799513830e+03, 5.563411820685532e+03, -8.663561273385986e+01, 1.016745354003541e+04, 1.070871967727580e+03, -9.095221789503697e+01, 4.847978392253866e+03
5227, 1.093838976541390e+00, 1.460943532298618e+00, -6.680578280112638e-03, -2.080521539387137e-10, 1.212554188051813e-10, 5.997714509626050e-11, -1.360480516182060e+02, -3.228298321070664e+02, -6.760330251307056e+01, -5.132522902649523e+02, 1.397028614938281e+02, -1.703804833652352e+02, 5.158152840594219e+02
5228, 8.429037482516953e-01, 9.621072102984026e-01, -1.904426636817088e-02, -5.384867424413769e-10, 1.228489841481601e-10, -7.779793606453916e-10, 9.655253967296743e+02, 1.200133177486536e+03, -9.289309674838410e+01, 1.757794100739194e+03, 9.983105840124307e+01, 6.981073587269594e+02, 1.419403347746877e+03
5229, 8.454099652846172e-01, 9.818804275771049e-01, -1.900802166382254e-02, -3.803467304039109e-10, -7.442625390508890e-12, -1.188326606987510e-09, 1.252847364050227e+03, 1.074354004715881e+03, -2.326238068202924e+02, 1.194321593215637e+03, 1.204293846360495e+03, -5.879029613022836e+02, 2.361152445544821e+03
5230, 8.612460470712251e-01, 9.698821084836866e-01, -1.800705071552522e-02, -4.861026215909036e-10, 1.681031883130052e-10, -5.007410634738003e-10, 8.611488918417605e+02, 5.382930856056478e+02, -1.375359859747722e+01, 9.826154092956804e+02, -1.854355962399229e+02, -2.447751265607264e+01, 5.135466563665128e+02
5231, 5.957487995792551e-01, 1.090978771460552e+00, -2.123664342676812e-02, -9.877697651165802e-10, 5.489336449617773e-10, -2.296793954475966e-09, 2.918911241082356e+03, 2.762850530160516e+03, -3.476623265222293e+02, 6.298881265740300e+03, -1.009021205310628e+03, -2.197285989077066e+03, 5.466004816093150e+03
5232, 1.123639120470979e+00, 1.417678322398882e+00, -4.342188012444410e-03, -1.353173773071890e-10, 1.612641963554875e-11, -2.453014677149342e-10, -1.422834633359984e+03, -1.226355960947361e+03, -6.585130127649373e+01, -1.242787859933627e+03, 9.802599894481255e+02, 3.305234966881181e+02, 1.805303527467346e+03
5233, 9.551262069801382e-01, 1.028293289655665e+00, -1.253246562998534e-02, -4.233986852560347e-10, 1.204880900830696e-10, 1.434685417011134e-10, 5.999476467972681e+01, -8.868677083437839e+01, -1.770310093796063e+01, -2.923422264771539e+02, 2.879003966544393e+01, -1.903768161346482e+02, 4.538924369734095e+02
5234, 9.576166517502713e-01, 1.048041623893649e+00, -1.251484236699849e-02, -3.800862811551375e-10, 1.198238018128266e-10, 6.892662513805060e-11, 1.188301434194453e+02, 4.174621382126050e+01, -5.929892277946194e+00, 4.276109185973069e+01, 1.566618958259345e+02, -6.301035478270564e+01, 3.025061743181483e+02
5235, 9.734581990174683e-01, 1.036060325553137e+00, -1.140022533242710e-02, -4.077241324843085e-10, 1.323429573880519e-10, 1.714466410649618e-10, -3.530392531655862e+02, -4.050555677602725e+02, -4.340272056119996e+01, -6.058894803363256e+02, 4.877784957004591e+02, 1.375742855295091e+02, 9.108795862127282e+02
5236, 1.081488877890197e+00, 1.213385901600851e+00, -5.585700709184259e-03, -3.235973298579798e-10, 7.582915123420511e-11, 1.037426148725978e-10, -8.465307148775418e+02, -7.916822174072745e+02, 1.925814350167640e+01, -1.040524308364812e+03, 5.258677606390353e+02, -1.269060672560592e+02, 9.645314469428240e+02
5237, 1.099636842597542e+00, 1.220942755296662e+00, -4.409130179743434e-03, -4.027128578337837e-10, 6.619180729187747e-11, 3.952838505598420e-10, -1.557406460220836e+03, -1.914917654715478e+03, 4.990577086550352e+01, -3.436910547174679e+03, 2.849562823521909e+02, 1.113348536756179e+03, 2.637823537544753e+03
5238, 8.819150342131463e-01, 1.407562317937779e+00, -1.835371419816257e-02, -3.948606068311730e-10, 7.212852149532971e-10, -1.668473998490417e-09, 3.281766619794497e+03, 2.729353868113508e+03, -4.825713705405593e+02, 4.206444727418277e+03, 1.636101421136745e+03, -7.337126730122179e+02, 3.466281184805915e+03
5239, 8.999428687773225e-01, 1.415118413235943e+00, -1.766963651409060e-02, -3.648782918365470e-10, 5.225833899615827e-10, -1.559926652480843e-09, 2.236753523626701e+03, 2.619964658395621e+03, -2.026625702294514e+02, 3.416587429469572e+03, -7.589934378913897e+02, 1.032756323978009e+03, 2.477482527050945e+03
5240, 4.840742379069727e-01, 8.660792028987215e-01, -2.341044524786690e-02, -1.916169022241423e-09, 1.873376837520781e-09, -4.475096902377049e-09, 7.726343011627737e+03, 6.313046206501688e+03, -1.326086736219064e+02, 1.249926300876412e+04, 3.380514770076707e+02, -3.256694638781059e+03, 7.983576719528365e+03
5241, 1.121115700678274e+00, 1.546303419756591e+00, -5.520895962947485e-03, -2.067776716046241e-10, 3.573256453025500e-11, 6.912870589247813e-11, -3.261012057963840e+02, -1.375758552508761e+02, -2.373872010620509e+01, -6.693423773172779e+02, 3.738872276410308e+02, 1.574593977930425e+02, 8.446963449335759e+02
5242, 1.136908619287583e+00, 1.534523119932531e+00, -4.367072424784255e-03, -1.922240942410505e-10, 7.868926919105565e-11, -1.473587175055156e-10, -2.101940921576877e+02, -3.089531295676235e+02, 1.572607975786615e+02, -6.000920575648606e+02, 6.933930212694305e+02, -4.359811649662812e+02, 1.486634142270326e+03
5243, 1.105511118279267e+00, 1.558062917823798e+00, -6.646233466269991e-03, -2.587020362428238e-10, 1.195111661365352e-10, 1.293259326105750e-10, -2.322299352630767e+02, -1.080672256086254e+01, -1.011067040759118e+02, -7.235978845226439e+02, 3.908251081194106e+02, -2.387608800817015e+02, 1.029170411756950e+03
5244, 1.147615107519382e+00, 1.484440012418470e+00, -3.235233556262647e-03, -7.497499617713057e-10, -2.935975916608614e-10, 3.184664633357683e-09, -7.345177747834730e+03, -7.764571492357986e+03, -4.721240498225191e+01, -1.529927733433095e+04, 7.189396986724003e+02, 2.459363700228896e+02, 7.864251759308522e+03
5245, 6.153528586949675e-01, 1.092225833135335e+00, -2.309269030491097e-02, -1.432058221593157e-09, 6.843128044630421e-10, -6.213156063423154e-09, 7.909801084725183e+03, 8.248569216533859e+03, -8.325313994556532e+02, 1.756605113698044e+04, -2.432088871106207e+03, 2.951229494743629e+02, 1.049630821852917e+04
5246, 6.046951934931094e-01, 1.108730295514050e+00, -2.107768919875727e-02, -3.106277225435710e-09, 4.646866881371482e-10, -9.247237237445736e-09, 6.589313795223596e+03, 7.566198136549105e+03, 1.903343015690345e+02, 1.414218606778810e+04, 6.763237869016657e+02, 1.040181356179129e+03, 7.439674369310606e+03
5247, 6.035258097103520e-01, 9.916212973494543e-01, -2.623460411121856e-02, -9.140448294393824e-10, 1.701156566162597e-09, -5.141645232650682e-09, 7.625132195718978e+03, 7.336239159939865e+03, 5.221222113273778e+02, 1.513548139831416e+04, -1.198553405967109e+03, -5.237840729947760e+03, 1.208680454298786e+04
5248, 5.830359205768771e-01, 9.845199360874501e-01, -2.570091534242793e-02, -1.807225704037912e-09, 1.226826759310079e-09, -5.526882264045301e-09, 5.083927020197219e+03, 3.662307850392444e+03, 1.774522217039076e+03, 7.980987105901219e+03, 3.430373178918463e+03, 2.528862313927598e+03, 8.858164364171835e+03
5249, 9.005305146028830e-01, 5.057093637348424e-02, -8.657411447309277e-03, -3.979232942164918e-10, 4.211552282703404e-11, 8.173344603522405e-10, -1.683756587032090e+03, -1.472959438969678e+03, -9.080462560836895e+01, -3.372932845189708e+03, -5.384889165193765e+02, 4.583071717776337e+02, 2.186003014040851e+03
5250, 9.214339593139212e-01, 6.001210237214833e-02, -7.299718536306074e-03, -3.313543585636954e-10, 3.029242745797243e-11, 4.321156835745372e-10, -1.388363293540253e+03, -1.414684099304266e+03, -1.409775176871368e+02, -2.561663669100606e+03, -3.961956360908636e+02, 1.326225910253284e+02, 1.389153529103602e+03
5251, 9.238767322237919e-01, 7.977905101670749e-02, -7.291246198561181e-03, -3.356443275549808e-10, 5.687306728179192e-11, 1.838571460807241e-10, -1.302893216406249e+03, -1.057997182316333e+03, -1.665140356578039e+01, -2.111609150600261e+03, -2.565149007535825e+02, -1.733844131105042e+02, 1.095657250009652e+03
5252, 9.397420905397115e-01, 6.776727775880399e-02, -6.096306992143741e-03, -7.588225700927260e-10, -1.616084391333113e-10, -4.669260081150230e-11, -3.266574674143877e+03, -2.905193747328663e+03, 1.448672107114584e+02, -6.155907847110981e+03, 2.231106560802909e+03, 4.474593788395055e+02, 5.011997698415711e+03
5253, 9.180709062124900e-01, 4.048807558532821e-02, -7.373534246292501e-03, -4.228978596369191e-10, 6.525184278074292e-11, 9.699926569997520e-10, -3.065577190383181e+03, -2.603833860565315e+03, 5.930472048913286e+01, -5.359220353938372e+03, 1.991686633764959e+03, -1.292011557578625e+03, 4.842722372987100e+03
5254, 4.144816793522777e-01, 7.244420694537197e-01, -2.483977019335475e-02, -1.907029173404561e-09, 1.574405236924348e-09, -4.165182796317978e-09, 4.870444778088528e+03, 3.198194775264871e+03, 1.132184766518844e+03, 6.507349081076238e+03, -2.311972083726311e+02, 1.078120870143584e+01, 3.495628867864798e+03
5255, 2.012300911973975e-01, 3.771635029062665e-01, -1.297403608245406e-02, -1.180870029900566e-09, 6.887469478551630e-10, -1.945509386345804e-09, 4.043032156786805e+02, 1.531290151598990e+03, 1.039485377812381e+03, 7.277744894817386e+03, -1.015061836273883e+03, 1.635130713229828e+03, 7.424393550151790e+03
5256, 5.312975299638998e-01, 1.001016260834980e+00, -1.869596341020938e-02, -8.707417078719674e-10, 2.872300755387393e-10, -1.423947926158294e-09, 1.934392714048888e+03, 1.142256925863657e+03, 9.728217021719770e+02, 4.259406059815255e+03, 9.357862721727870e+02, 1.255644991535869e+03, 4.251006882213223e+03
5257, 1.002395618703888e+00, 1.550824312630367e+00, -1.303378948805943e-02, -5.523264322225613e-10, 9.672720013721941e-10, -3.078956877344812e-09, 3.193169377567093e+03, 3.755970666623655e+03, -3.105015035438480e+02, 4.562102169826684e+03, -2.051811952218995e+01, 6.971880707554820e+01, 1.313531045520865e+03
5258, 5.040068513912231e-01, 5.140972564878243e-02, -3.344014391040493e-02, -2.680221370322210e-10, -3.489585743821789e-10, -3.443918421669544e-09, 2.489509886617869e+03, 2.914960139123702e+03, 1.352226232709916e+02, 3.823894651799901e+03, 1.384521223045537e+03, -1.010625793809523e+03, 3.203673250143236e+03
5259, 5.223505680515591e-01, 5.948029147884174e-02, -3.251736101398382e-02, -1.371315336426599e-10, 6.567523127676624e-11, -3.596583557214787e-09, 2.400424298169228e+03, 2.421720365928245e+03, -5.124989089524216e+02, 2.504194999391618e+03, -1.783448291907073e+02, 7.661169366444811e+02, 1.628865704783417e+03
5260, 5.312070089556795e-01, 9.629502520657702e-01, -2.235348976041356e-02, -1.179101361684058e-09, 7.691447426300708e-10, -1.826077610774831e-09, 3.350283445047741e+03, 3.452018492338597e+03, -8.801975347847549e+02, 5.661833349795985e+03, 8.232106882970376e+02, -6.886175522901913e+02, 3.301257390114179e+03
5261, 5.123478707630912e-01, 9.526227606252448e-01, -2.015202053875723e-02, -1.662252647069090e-09, 1.678744916467073e-09, -3.264803541832391e-09, 3.498342140427977e+03, 1.988732635797649e+03, 1.799329964022428e+03, 5.873283366131658e+03, 2.196009685973431e+03, 2.199805793937951e+03, 7.085342454910771e+03
5262, 5.105064875493781e-01, 9.327362094484831e-01, -2.177501226549976e-02, -3.967780031048070e-09, 2.041612638970196e-09, -8.480455449871096e-09, 4.185661632642394e+03, 6.640674373046295e+03, 2.011194154563364e+02, 1.012066279823458e+04, 4.680112190789908e+02, -3.366221947922996e+02, 5.272496276218460e+03
5263, 6.267326219602367e-01, 1.038826406807251e+00, -2.556192833372248e-02, -1.929219232814413e-09, 1.248756369224665e-09, -6.880436964950709e-09, 5.557081128401514e+03, 6.098280779554377e+03, 8.385564219414275e+02, 9.767752984663704e+03, -4.388034723226105e+03, 1.751183353834439e+03, 9.209660505962764e+03
5264, 6.264188072589422e-01, 1.168794521932920e+00, -1.941237604746757e-02, -1.226462713128033e-09, -1.600579186510835e-10, -2.061779077350564e-09, 4.088494783248811e+03, 3.879050331570156e+03, 1.154144397259582e+03, 1.025104792325687e+04, 1.803642631023988e+03, 3.005331818837089e+03, 8.953391919243459e+03
5265, 6.244861383332730e-01, 1.152161651130853e+00, -2.042443601581210e-02, -2.129824168865912e-09, 1.543638678161211e-09, -9.383287137668173e-09, 1.012920059001117e+04, 8.898476418894139e+03, -1.323737461292615e+01, 2.339708471303690e+04, 1.995482691054214e+03, -4.752174162828471e+02, 1.437026133202052e+04
5266, 9.665583275163750e-01, 1.535613331659185e+00, -1.486641026236469e-02, -7.826576176514576e-10, 8.361629637519732e-10, -6.001038451475322e-10, 2.636985973880739e+03, 2.670010112140556e+03, -4.436259231416185e+02, 2.529992121777005e+03, -4.325237481677516e+02, 1.776133530391526e+02, 1.123545025635847e+03
5267, 9.337185550545827e-01, 1.131674051428160e+00, -1.461437370568580e-02, -4.251023212778257e-10, 1.312500794563014e-10, -7.955056110983608e-10, 1.045550430497698e+03, 1.059251240133832e+03, -7.265990692938918e+01, 2.314016606385405e+03, 8.584386060544873e+02, -4.306105729211703e+01, 1.955496563340058e+03
5268, 9.469189753168130e-01, 1.099846399904377e+00, -1.356800861932117e-02, -3.653687293391342e-10, 1.027557929994348e-10, -1.589043209238106e-10, 4.027110363644106e+02, 2.259052089721481e+02, -1.008193464363947e+02, 2.891814086738113e+02, 3.979670647516950e+02, -2.710144065689055e+02, 8.660542584841722e+02
5269, 9.639119522597592e-01, 1.515981779293853e+00, -1.494145858753800e-02, -5.459142939064921e-10, 8.286205509503470e-10, -1.126073161506825e-09, 2.664047918919843e+03, 2.477649374166381e+03, -2.894780287722523e+02, 3.552597764492213e+03, -9.199538248395891e+02, -2.612597697021977e+02, 1.996245814632959e+03
5270, 7.673807150979179e-01, 1.191793628435871e+00, -2.269091930568533e-02, -1.168110006417142e-09, 6.412529523561369e-10, -9.336505835342192e-09, 7.594120108107220e+03, 7.321942474924925e+03, -3.588243329804918e+02, 1.397458604227741e+04, 1.635093776149242e+03, -7.461009987659913e+02, 7.252441388592893e+03
5271, 9.626933534209043e-01, 1.087763135766287e+00, -1.247452343265872e-02, -3.308294650481154e-10, 6.347712532707126e-11, 2.871320293625253e-11, 8.483924710971529e+01, 5.469640869833845e+01, -6.776394161811230e+01, 4.034588613148237e+01, 2.169161524094017e+02, 1.793146658830203e+01, 3.967939176064511e+02
5272, 1.097460273289761e+00, 1.201371084013868e+00, -4.401096266324504e-03, -5.555103820728698e-10, 3.752253364700113e-10, -1.627334335648000e-10, -3.397236718784986e+03, -2.855718018510127e+03, 1.167653786768400e+02, -4.531913393673124e+03, 2.187040499726837e+03, -9.813454857321296e+02, 4.413008054367176e+03
5273, 9.745086464286867e-01, 1.465490760452191e+00, -1.417542096957929e-02, -1.254532661983146e-10, 6.257956852186387e-10, -7.748332244267721e-10, 2.483642819632401e+03, 2.205757409191634e+03, 2.106139586870594e+01, 3.842142653324929e+03, -9.835306954281594e+02, -4.553690344340898e+02, 2.413640588332931e+03
5274, 7.073729738457639e-01, 8.486013178497603e-01, -2.552372409874835e-02, -8.482799502632982e-11, 4.755411510942323e-10, -8.340131039149382e-09, 5.996832446036619e+03, 5.471660560445867e+03, 2.579433642706047e+02, 1.182147524930813e+04, -1.379777105590404e+03, -7.801501266081456e+02, 6.708060041471927e+03
5275, 8.478736878283109e-01, 1.411645053291648e+00, -1.940891252158251e-02, -5.516211168406045e-10, 7.100761120826071e-10, -5.290327293727984e-09, 6.825419813839123e+03, 5.121485134459636e+03, -3.064429418615023e+02, 1.057145724591465e+04, 2.001348243082693e+03, -8.500878646693160e+02, 6.146954307457073e+03
5276, 6.741600745504996e-01, 7.222962690894995e-01, -2.687025853747200e-02, -7.336948798712957e-10, 6.162563888015483e-10, -2.298479002273280e-09, 2.009015938331945e+03, 1.883282635186151e+03, -1.696120926842703e+02, 2.241478231925125e+03, -1.707118828052262e+02, 4.831130070696173e+02, 9.864090394148586e+02
5277, 1.110738481630753e+00, 1.300091373566415e+00, -4.283740382777177e-03, -6.220523570309856e-10, -3.784841935774308e-10, 5.597493127240421e-09, -9.348930385900605e+03, -9.259510870843049e+03, 1.387917496117510e+01, -1.913836714211386e+04, 2.446464265456722e+02, 4.491866071897763e+02, 9.874303716302884e+03
5278, 1.092476559632492e+00, 1.292314359605704e+00, -5.464359578767918e-03, -4.772302085651519e-10, -1.278510387682825e-11, 3.984846024895143e-10, -2.420280515354879e+03, -2.093851392835026e+03, -2.419719608772488e+02, -4.676177061248079e+03, 2.084432086787654e+03, -2.956147584243809e+01, 4.375483954167530e+03
5279, 8.945616404759997e-01, 1.376126664846987e+00, -1.788810756395594e-02, -7.371806342990512e-11, 8.325034976061887e-10, -6.716846935162422e-09, 5.407713188807806e+03, 5.861995393149269e+03, -6.521682693914155e+01, 1.161260280647146e+04, -1.236967915049612e+02, -1.063240092689190e+03, 6.272029769676074e+03
5280, 7.817610206227320e-01, 7.492485144324470e-01, -2.141660909437492e-02, -3.154586067249889e-10, 2.225995454332292e-10, -2.925966979361652e-09, 1.972626727480017e+03, 1.890788853190773e+03, 5.953959182100201e+01, 2.991702461252324e+03, 4.354254855906160e+01, -2.175449217910700e+02, 1.134421398424044e+03
5281, 2.768570802716784e-01, 4.815033036230343e-02, -4.135654147540205e-02, -1.105093158820147e-09, -6.061138280991963e-10, -5.820946236977881e-09, 4.745477030899715e+03, 5.592674578774202e+03, 3.571297687517645e+01, 9.372462870506808e+03, 9.236824728637944e+02, -1.442341961817701e+03, 5.197231549038736e+03
5282, 8.751735644315506e-01, 2.464236957064405e-01, -1.190776067383901e-02, -4.506802631388808e-10, 3.201572845976198e-12, 4.230351690953485e-10, -6.001184697877619e+02, -7.800833078963002e+02, 3.995009899002498e+01, -1.267959267790692e+03, -4.256835917447969e+02, 6.003064477016626e+02, 1.409865915207722e+03
5283, 2.726908692104462e-01, 4.214397912948966e-01, -2.894926810463885e-02, -1.754179733543021e-09, 9.710793130081816e-10, -5.335667704704902e-09, 4.925345416490395e+03, 4.460436511654455e+03, 6.942921250067289e+01, 1.145477507877714e+04, -6.353724777262427e+03, 4.033093106399308e+03, 1.469035802473651e+04
5284, 2.605500232577220e-01, 4.334625242586065e-01, -2.562201166861471e-02, -1.441356860458275e-09, 9.602889548362689e-10, -2.452003265899503e-09, 2.172655909341417e+03, 2.160706468302124e+03, 1.505450752155608e+01, 4.106343209416764e+03, -4.797301277715930e+02, 1.830823167525432e+02, 2.134023465471349e+03
5285, 4.119126051766122e-01, 7.047172821142198e-01, -2.605010659056578e-02, -2.204544354476782e-09, 1.492807567298926e-09, -3.733463817039098e-09, 3.653228459707065e+03, 3.905544039135353e+03, -9.223960586649423e+02, 3.626748634225212e+03, 1.214860336685396e+03, -2.146993247599071e+03, 4.569451389507643e+03
5286, 4.251776796992715e-01, 6.730894844169025e-01, -2.931175191130908e-02, -2.188987461447149e-09, 9.526365754572388e-10, -6.198351402807495e-09, 4.031970114959729e+03, 5.151697204322969e+03, 6.795249048035942e+02, 9.661795088203584e+03, -3.447760552365409e+03, -1.624455143693413e+03, 8.462141263462887e+03
5287, 4.410029247626161e-01, 6.611419329417224e-01, -3.074607535220408e-02, -2.240975316298880e-09, 1.245898274568951e-09, -6.687229288383848e-09, 4.210587535551292e+03, 4.489432373890596e+03, 4.597744607368797e+02, 5.175350245740421e+03, -9.557290175766384e+02, -2.891860320194641e+03, 5.403933964509736e+03
5288, 1.129000985893239e+00, 1.307890764968849e+00, -3.086650555401268e-03, -1.515907811285666e-10, 1.441155898373748e-10, 2.543213885606404e-10, -6.977622297414745e+02, -9.566669311038796e+02, 2.702061128548274e+01, -1.978176775737168e+03, -9.573165038043563e+02, 8.645549413658769e+01, 2.036901168786629e+03
5289, 2.759760355294831e-01, 3.109317815542815e-01, -3.565252148004380e-02, -1.780288657172933e-09, 2.012217555994185e-09, -8.980478712295081e-09, 6.105284797215221e+03, 6.626925764099083e+03, 1.059870688714391e+02, 1.006049292319679e+04, -2.833322792234453e+03, -2.920459848998020e+03, 7.972245174805928e+03
5290, 1.044536802110099e+00, 1.047647548173299e+00, -6.778821482123732e-03, -2.837440254546779e-10, 9.811757036243748e-11, 3.575923995343098e-10, -9.487504110515999e+02, -1.264579379871417e+03, -1.179144332890254e+02, -2.241336933092496e+03, 5.095275318279080e+02, -6.024735224698580e+02, 1.808806507003513e+03
5291, 8.734679517833117e-01, 7.881913135831202e-01, -1.605023988575522e-02, -4.703289331838859e-10, 1.933034160576109e-10, -9.448978317510356e-11, 2.962738763676605e+02, 1.960904718896011e+02, -1.368045448128043e+01, 2.502971334751089e+02, 3.874360708241996e+02, -6.287601175296670e+01, 6.857741893534908e+02
5292, 8.759323589989503e-01, 8.079336448252390e-01, -1.603203123096268e-02, -4.530464818660072e-10, 1.884828323152456e-10, -1.226944145044655e-10, 3.953127889730201e+02, 2.967705960977694e+02, 9.923775795432116e+00, 4.156247023101865e+02, 1.423243790707996e+02, -7.468459137679497e+01, 2.998703274099533e+02
5293, 8.710070989424979e-01, 7.684613342904696e-01, -1.606806118678618e-02, -4.023334777559227e-10, 1.090293172179231e-10, -7.979075386628532e-11, 1.117312575874790e+02, 2.404650115997265e+02, -2.462626637452384e+01, 9.518502492338114e+01, 2.983458577660232e+02, -1.013068508491822e+02, 5.644604162340212e+02
5294, 4.519336251333716e-01, 6.096965038507791e-01, -3.252287107417341e-02, -1.666205165218904e-09, 5.193164550481489e-10, -8.565900634975120e-09, 4.292315431689229e+03, 5.521313736812055e+03, 2.019626592124353e+01, 7.477143194156214e+03, -3.835998187424153e+03, -1.982921338866103e+03, 7.980051243320589e+03
5295, 4.815679540676489e-01, 8.463929452034092e-01, -2.457249889271648e-02, -2.819255325232744e-09, 2.351762305331213e-09, -4.727913544138151e-09, 5.499050256226755e+03, 5.937184858572919e+03, -2.970279903755844e+02, 9.379475008533409e+03, 1.617724516950598e+03, -1.639207396365690e+03, 5.452181876701277e+03
5296, 3.653113287095537e-01, 5.004450750078498e-02, -3.917506865263941e-02, -3.655483145962202e-10, -9.575833609890235e-12, -4.508351409810932e-09, 1.977117977406300e+03, 2.791548916701341e+03, -1.567101494280271e+02, 3.281560117695875e+03, 1.849065731329577e+03, -2.299936495440104e+02, 3.433946228509893e+03
5297, 3.832986682388937e-01, 5.704746082550309e-02, -3.855047848474735e-02, -5.632624841264957e-10, 1.458028233546836e-10, -4.778841657616031e-09, 2.856726369017113e+03, 3.279669524256133e+03, -2.896538900991570e+02, 3.351573405073708e+03, -1.647650923610829e+03, -2.221609159412271e+02, 2.959474206503276e+03
5298, 5.618764816203163e-01, 6.562078310120781e-01, -3.093047883298141e-02, -6.969041473911454e-10, 8.157276130386381e-10, -4.367064118049249e-09, 4.373970361243124e+03, 3.899828858413174e+03, -1.255028464383344e+02, 4.484816842421592e+03, -2.322066123194020e+03, -1.489341645585578e+03, 4.813241711252388e+03
5299, 5.643290957375755e-01, 6.759420032110187e-01, -3.076034719013931e-02, -1.184726824217034e-09, 1.156208931655815e-09, -5.332743038277763e-09, 4.877404921545327e+03, 4.495468259348060e+03, -8.996392316851833e+01, 6.136948419510656e+03, -3.170737796781339e+03, -1.773413758642954e+03, 6.467874102436102e+03
5300, 1.039402082428051e+00, 8.576980062666401e-01, -5.620965809859447e-03, -7.464875915638316e-10, -7.079239993576482e-11, 4.006663416361326e-09, -5.850032433131846e+03, -5.999790247014205e+03, -1.171571229741632e+02, -1.272390162755833e+04, 5.461486805737470e+02, 3.182095549321136e+01, 6.868925659761302e+03
5301, 1.018458680317231e+00, 6.998628372714463e-01, -5.788768511617767e-03, -2.020881286666413e-10, -4.223942260289841e-11, -2.146916584237420e-11, -1.985290959507838e+03, -1.362928765623004e+03, -1.955861410572001e+02, -3.391484822817467e+03, 8.773822380740846e+02, 2.011654241606975e+02, 2.405294359075713e+03
5302, 3.588014865258902e-01, 1.402313714271499e-01, -3.900188499709473e-02, -1.761817557539764e-09, 5.983030199650755e-10, -6.418031624497737e-09, 5.276319877826194e+03, 4.617906968642062e+03, -1.576525812232819e+02, 9.701208252711587e+03, 2.260509829922729e+03, 1.765917664791531e+03, 6.905521051738154e+03
5303, 5.056266863301777e-01, 4.828413497428586e-01, -3.330971820837313e-02, -1.194511712615547e-09, 6.825220347096814e-10, -4.582411279774728e-09, 2.696635474210826e+03, 2.905385460391369e+03, 9.584835157413890e+01, 3.717434416787684e+03, -5.717399209338657e+02, -2.017908940832735e+03, 3.754544590797300e+03
5304, 9.867903657537498e-01, 7.238657700006339e-01, -8.133890947408970e-03, -3.945924968407416e-10, 5.619331563547976e-11, 3.651494513808303e-10, -1.356558027700963e+03, -1.318745179308191e+03, -2.135669967463098e+02, -1.899031422514400e+03, 1.174919997876475e+03, 9.394676419948554e+01, 2.149614205818738e+03
5305, 9.843313067047785e-01, 7.041249547834149e-01, -8.144917227071159e-03, -3.485643110061881e-10, 1.320878058470143e-10, 9.370738688940806e-10, -1.880276894235290e+03, -1.865905749693873e+03, -2.879715027865019e+01, -4.357617407656221e+03, 2.221560129360440e+02, -1.424564099897820e+03, 3.523027263849272e+03
5306, 5.130053087156897e-01, 5.420788026948146e-01, -3.281892114469690e-02, -1.170193653761572e-09, 1.093792665816270e-09, -4.977750975588381e-09, 3.136964781602217e+03, 2.637897688620935e+03, -1.488902837141747e+02, 4.095490751138769e+03, -4.244697018789137e+02, 6.591586597581472e+02, 1.885923571126863e+03
5307, 9.339947134266766e-01, 4.397606919457866e-01, -9.466150521304591e-03, -3.450728521561426e-10, -1.586843111277129e-10, 4.309192449153704e-10, -1.239834093871581e+03, -1.422076126461665e+03, -1.140686404743279e+02, -2.662983737774309e+03, -2.173236829825635e+02, 5.024878673924389e+02, 1.654513604659220e+03
5308, 6.804906233805912e-01, 1.192409918457658e+00, -2.273625753044252e-02, -1.519519672662040e-09, 5.676944890575708e-10, -5.089291760522196e-09, 6.048813062826084e+03, 5.660496972197385e+03, -5.876721284248384e+02, 1.140219617643067e+04, -3.928032673656683e+03, 3.704224208544759e+02, 8.867036760199046e+03
5309, 6.646645080923087e-01, 1.204355280790239e+00, -2.130731504749118e-02, -2.613751970173250e-09, 4.365076625925569e-10, -3.417924803786617e-09, 8.881220398044852e+03, 5.823994002603387e+03, 9.084960984836225e+01, 1.134387297799080e+04, 5.348491041540057e+03, 1.814040255385452e+03, 1.089294422074764e+04
5310, 1.074772863126060e+00, 8.733757719813353e-01, -3.296872487633734e-03, 3.901864660539114e-11, -2.080749643915096e-11, -4.704698581948302e-12, 4.998903741054408e+01, -4.123173186051853e+01, -1.362443392079407e+02, 2.393564415623441e+02, -1.244717535305522e+02, 6.491375096126076e+01, 4.198381594785134e+02
5311, 1.057515658814728e+00, 7.351009066063486e-01, -3.362739551546805e-03, -2.760743032694244e-10, -4.743820174404942e-11, 3.917237826042580e-10, -1.116273938393329e+03, -1.475167370233440e+03, -1.502663773654300e+02, -3.560339819012539e+03, -4.563686644700511e+02, 1.036455829376347e+03, 3.023306537164390e+03
5312, 1.040259417799730e+00, 5.968259289427613e-01, -3.428161963242233e-03, 1.411854199069219e-11, -2.452751372880238e-10, 1.296547506740551e-10, -1.266874047303336e+03, -1.761935133849611e+03, -1.347153873718008e+02, -4.054300919848333e+03, -9.068638141378494e+02, 1.424989552055031e+03, 3.904910214379851e+03
5313, 9.808252545389774e-01, 8.148773134540770e-01, -9.241654283266360e-03, -4.714984655117990e-10, 1.053636272982954e-10, 1.503512808904390e-10, -5.164938365057990e+02, -6.607502562134464e+02, 1.759132787959466e+01, -7.064741483650283e+02, 1.768266048140790e+02, 8.260202688312978e+01, 3.803907825023811e+02
5314, 1.024816836275902e+00, 8.896828825679196e-01, -6.868885533246204e-03, -4.481017714968034e-10, 1.269330429361745e-10, 5.063579352814336e-10, -1.143082636526682e+03, -1.384064338010812e+03, 7.120773027089912e+01, -2.364076773199774e+03, 2.676535526240095e+02, 3.593235306446662e+02, 1.368257545915692e+03
5315, 1.022823026307573e+00, 4.528706756777528e-01, -3.458567361491736e-03, 8.187099311636978e-11, -2.494471420715037e-10, 1.408326868848087e-10, -1.744231245631799e+03, -2.305535513455642e+03, -9.120572951358891e+01, -3.987832366095963e+03, -8.698393948136592e+02, 1.146280741563427e+03, 3.213434513670649e+03
5316, 8.150798949375058e-01, 1.156031411430560e+00, -2.113221307432040e-02, -5.482130222270183e-10, 4.481419061843342e-10, -2.120027374858094e-09, 2.416475372743198e+03, 2.605246427785158e+03, 4.022179060575998e+01, 4.620538604202943e+03, -6.181531594802270e+02, -1.425616972672050e+03, 3.424297083967629e+03
5317, 1.036754368536497e+00, 7.076071135579199e-01, -4.587671150150669e-03, -7.112525560972818e-10, 8.087736663621555e-11, 5.855469152102732e-09, -9.368500013096900e+03, -9.279467204626446e+03, -2.815067192303605e+02, -1.883977962945632e+04, -6.553336681298140e+01, 7.177008155826570e+01, 9.530078375099374e+03
5318, 1.045572680059567e+00, 9.171363395581749e-01, -5.674974391526410e-03, -2.076172759509820e-10, 1.129585656431311e-10, 1.164499057740288e-10, -1.487789170666944e+03, -1.481225580103125e+03, -9.398515993268531e+01, -2.207874984600385e+03, -6.930986613842286e+01, -3.659877511532171e+02, 9.828760420726572e+02
5319, 1.048047985197715e+00, 9.368605685931346e-01, -5.663551487568444e-03, -5.626331323809103e-10, -2.312797642410030e-12, -3.849904225942134e-11, -2.255057268503885e+03, -1.928669961696710e+03, -9.131791384630806e+01, -3.366544216139980e+03, 2.022761053675238e+03, 4.363129326834507e+02, 3.817789647275608e+03
5320, 1.066339796903740e+00, 9.446112862458800e-01, -4.468896047128957e-03, -9.049750395972822e-10, 4.760816958988250e-11, 5.287705617889930e-09, -8.540125078024690e+03, -9.305271040812449e+03, -6.017764768651375e+00, -1.906114643779099e+04, -4.494422829239970e+02, 3.785506469915966e+02, 1.021093665114673e+04
5321, 1.053525100883096e+00, 8.410162495813842e-01, -4.512964298727826e-03, -8.372122440287000e-11, -3.372227833038362e-10, 8.730066466449158e-11, -3.331542038085778e+02, -9.304674702532645e+02, -1.971279224102695e+01, -2.419733931960932e+03, -7.248077471142760e+02, 1.322883396612723e+03, 3.208040271497928e+03
5322, 1.051415166021212e+00, 8.248454378106569e-01, -4.527399120254413e-03, -1.501699881305508e-10, -2.499114008335151e-10, -2.029520825130406e-11, -2.556109243710436e+02, -1.329322131703181e+03, -5.818616233958490e+01, -1.540517854849777e+03, -1.537337737276125e+02, -1.043854486946650e+03, 2.184989309557863e+03
5323, 3.407966175129752e-01, 4.131553010192273e-01, -3.495922150102732e-02, -2.215218885571182e-09, 1.600324279287828e-09, -9.176216641121974e-09, 5.337686448823919e+03, 5.935972287601967e+03, 2.489417456442277e+02, 6.152804353883270e+03, -3.377624475863202e+03, 1.992449870251352e+03, 6.845087024933784e+03
5324, 6.406055516918892e-01, 1.139861412167501e+00, -2.264760043367542e-02, -1.346242746867996e-09, 1.315564149558786e-09, -1.872967193316270e-09, 3.891331245352336e+03, 3.965727462280791e+03, -4.384702684336640e+02, 4.579177703086139e+03, 2.828828800232828e+03, -2.548297343405432e+02, 5.020547243550284e+03
5325, 5.803517563901008e-01, 9.443054728951250e-01, -2.690319241368220e-02, -1.609171237992612e-09, 9.856793192465321e-10, -5.162547920476597e-09, 5.514190411495159e+03, 5.111752164907522e+03, 1.124748337174886e+02, 7.349673440280472e+03, 5.068356816420181e+03, 1.438928229150914e+02, 9.024101767865799e+03
5326, 6.446356664145271e-01, 2.049006469780351e-01, -2.635050390266267e-02, -5.937095128403228e-10, 3.042875689051530e-10, -4.004601961017774e-09, 3.834425837376388e+03, 3.533427301980066e+03, -3.124325828333802e+01, 8.043847895152019e+03, 1.412685089100456e+02, -1.367764313883087e+02, 4.381299604911497e+03
5327, 8.667442591811857e-01, 3.177388684072668e-01, -1.301598455370172e-02, -5.550513597495597e-10, 8.380527142493357e-11, 5.449926315960345e-10, -9.595177434114685e+02, -9.467499682696786e+02, -5.635620573990763e+01, -1.636713523806018e+03, 3.180257700185131e+02, 1.363651533751959e+02, 9.144063793774759e+02
5328, 9.882188762432850e-01, 8.741838288116468e-01, -9.205397106877658e-03, -4.520623515620128e-10, 1.542915267074567e-10, 2.719882111443311e-10, -9.099649289622870e+02, -8.558770511764382e+02, 9.414718902766894e+01, -1.622799260019514e+03, 6.865222012806827e+02, -3.886733581866175e+02, 1.563120019220664e+03
5329, 1.000820284502751e+00, 2.807689781458600e-01, -3.576340574289641e-03, 1.481907052544289e-10, 6.334539558035912e-11, -5.020536190817825e-11, -8.275202515726171e+02, -1.957072237294735e+03, 5.861316512026539e+01, -3.803733766070621e+03, -1.844775725485564e+03, -1.103257684433067e+03, 4.543498451994407e+03
5330, 6.156547379059841e-01, 8.098113806985348e-01, -2.870165396031072e-02, -1.214994532613848e-09, 9.734114613426088e-10, -3.767868454701165e-09, 2.957342827773998e+03, 3.315492257334379e+03, 1.922629324614554e+02, 5.049493337180671e+03, -1.087122836331425e+02, -2.592361539596791e+03, 4.905448756208012e+03
5331, 4.737352676115292e-01, 2.262197873141275e-01, -3.500951024479170e-02, -1.192977966043713e-09, 6.922875872744245e-10, -4.839677352629617e-09, 2.866642147477723e+03, 1.359030217269530e+03, -2.500426807376346e+02, 2.354241792069508e+03, -2.242771978497864e+03, -8.254571985906737e+02, 4.368607123187520e+03
5332, 4.920596208088187e-01, 2.339640735770228e-01, -3.430056785972839e-02, 2.899717171657902e-11, 5.911482555061130e-10, -9.861068815412392e-09, 5.719841175698919e+03, 5.403031738533834e+03, -3.301479261895381e+02, 1.061436647943639e+04, -9.273865670558723e+02, 4.385726910464526e+02, 5.393657987380597e+03
5333, 6.669726338085715e-01, 9.436780404253915e-01, -2.664312462388178e-02, -1.079463207475264e-09, 3.588553568856322e-10, -9.971752961950582e-09, 5.728945222825063e+03, 5.648906165124378e+03, -6.983666793605195e+01, 8.898774710200430e+03, 3.323325396404866e+02, -1.502560225071069e+02, 3.274390362068832e+03
5334, 6.164574135368053e-01, 1.181177473679487e-01, -2.751121459694076e-02, -1.703210088159334e-10, 4.997451651427381e-10, -4.420535613236989e-09, 3.195836637913450e+03, 3.044446578218385e+03, 6.844144488367121e-01, 6.192992675199558e+03, -4.500145455019937e+02, 6.055115165912605e+01, 3.174609093743111e+03
5335, 5.311788582570289e-01, 2.692053875585326e-01, -3.266666312106458e-02, -9.527266834408716e-10, 3.504343979535500e-10, -8.680506071000884e-09, 4.788380947328515e+03, 4.457098563521849e+03, -2.774109774787245e+02, 8.822377125379940e+03, -7.754413564373062e+02, 7.149151667038773e+02, 4.613824290361824e+03
5336, 5.092177489347087e-01, 3.721565715959865e-01, -3.350000276024494e-02, -8.800634125081254e-10, 5.493805597700185e-10, -3.957339527903495e-09, 2.242893325392175e+03, 1.902341999406270e+03, 1.393670777880368e+02, 2.516863039100369e+03, 1.230332750571409e+03, 5.422976549796047e+02, 2.401254084271780e+03
5337, 4.909047233581585e-01, 3.644116175179616e-01, -3.415766394738529e-02, -8.525340293483399e-10, 6.472474642627530e-10, -9.615438229435579e-09, 5.797371148590923e+03, 6.223997088858295e+03, 1.446540222130159e+02, 1.093301368455748e+04, 6.046548714426407e+02, 6.604984138927482e+02, 5.180174416728056e+03
5338, 3.859235453103833e-01, 3.574671940503149e-01, -3.663694531608751e-02, -2.109087007112460e-09, 9.413546052477141e-10, -7.384873091625107e-09, 5.237809875515593e+03, 3.774104569393794e+03, 2.078733987396734e+02, 7.431114173555047e+03, 3.986835907619073e+03, -2.518261924694586e+02, 7.626783929818760e+03
5339, 6.107416554964067e-01, 7.703247693487816e-01, -2.903511773869816e-02, -1.532027116234603e-09, 6.078955875016994e-10, -3.789160178828396e-09, 2.691223990138402e+03, 1.703661600074216e+03, -1.514744344832224e+02, 2.782154580340408e+03, -1.213990677022882e+03, -1.146226485884771e+03, 3.083019064638805e+03
5340, 3.638296448270631e-01, 1.797629786153586e-01, -3.864332122940226e-02, -9.493091195170631e-10, 9.862549016552944e-10, -6.363256798028348e-09, 4.371754358453753e+03, 3.941191759639938e+03, -5.808625533764873e+02, 5.564223814461102e+03, -1.840856600558696e+03, 2.202128987519853e+03, 5.277061637428991e+03
5341, 6.181061115409062e-01, 8.295443338137239e-01, -2.852382849905092e-02, -8.562392713662902e-10, 1.155566840446233e-11, -1.162865743047747e-08, 7.412792071091686e+03, 7.179617072805626e+03, -1.367415428923758e+02, 1.387510998031182e+04, 1.819247338811196e+02, -5.213906737608675e+02, 6.655351499820632e+03
5342, 3.087290701160966e-01, 1.565005709843655e-01, -3.978121425390077e-02, -1.423058245006019e-09, 7.794757880010319e-10, -7.692725739599616e-09, 5.302762828675010e+03, 5.245843181812792e+03, 1.067097395574501e+01, 8.438503876297449e+03, 3.809426430803463e+03, 2.317807345501046e+03, 8.346665233119666e+03
5343, 6.298162363176493e-01, 8.625257195715735e-02, -2.651637533690208e-02, -7.487638775713597e-11, 4.322470515982603e-11, -3.864043876714834e-09, 2.057956896878625e+03, 2.280671970638212e+03, -1.295909857276790e+02, 3.839762946179706e+03, 2.886888444431805e+02, -1.520141700719007e+02, 1.788107904149432e+03
5344, 9.409889378471172e-01, 2.180146523058849e-01, -7.229525186696791e-03, -2.897753456935285e-10, 1.594506667035395e-10, 3.170188269231009e-10, -1.149863563685563e+03, -1.861264481711339e+03, 1.435342841674368e+02, -2.186158576050118e+03, 1.242718689797446e+02, -1.458044773021416e+03, 2.707138312044038e+03
5345, 9.251519036039496e-01, 2.300240652749172e-01, -8.409185653435316e-03, -4.332449305722788e-10, -4.818375518855773e-11, 3.219313924493726e-10, -5.689074303300797e+02, -1.099476068367004e+03, -1.102731176051488e+02, -1.775389447782964e+03, -2.927296800809279e+02, -2.392044502843416e+02, 1.249875674856083e+03
5346, 4.592013859065139e-01, 3.884310218641803e-01, -3.504811357310577e-02, -1.320159328847015e-09, 7.447149521692428e-10, -5.176290830198326e-09, 3.338408253677518e+03, 3.437027382810717e+03, 1.039513869526551e+02, 4.979234119041428e+03, 2.067668359530208e+03, 9.839881745567297e+02, 4.278211264738386e+03
5347, 4.567465560807141e-01, 3.686909736409303e-01, -3.521142292341491e-02, -1.287336729387836e-09, 7.017441503856568e-10, -5.908665799025282e-09, 3.533518492804576e+03, 3.649752402387283e+03, -2.222106204499604e+02, 5.575827410299927e+03, 2.342741545983991e+03, -6.120252698430194e+02, 4.656642761937157e+03
5348, 3.993357647198257e-01, 3.257297954317684e-01, -3.681125311819191e-02, -9.984763759539141e-10, 9.142278676145917e-10, -6.125087058054047e-09, 4.749933469793905e+03, 3.150143523556555e+03, 7.531407913917942e+00, 4.695781068202910e+03, -2.444884745723162e+03, -1.036353695777194e+03, 4.861097536691520e+03
5349, 2.330927228967316e-01, 1.058302584750015e-01, -4.044257502219295e-02, -1.157691560265921e-09, 7.309133930372591e-10, -1.078941617759669e-08, 7.137635100108213e+03, 9.260353926962045e+03, -6.830192272074022e+02, 1.418316320506461e+04, 2.930797731797746e+03, -9.628124728088436e+02, 8.314987777731110e+03
5350, 9.761743830442370e-01, 8.321612937689593e-02, -3.668031060682985e-03, -2.761298357103542e-10, 7.536759598469755e-11, 1.017924491997622e-10, -5.685430015101227e+02, -1.343900003373395e+03, -1.987822537920011e+02, -1.418427063964103e+03, -1.253011386339360e+03, -1.086857477252767e+03, 3.006152212562243e+03
5351, 5.431751408614296e-01, 8.711875022701536e-02, -3.151918254656426e-02, -3.378167740269000e-10, 3.264613247475897e-10, -2.719955217203063e-09, 1.782470259038041e+03, 1.871489954540359e+03, -9.060255439244702e+01, 2.818672422832765e+03, 2.638930146186179e+02, -1.203175030629772e+03, 2.359201672264161e+03
5352, 4.511431929432140e-01, 4.884255229641244e-02, -3.594812192136867e-02, -2.730720763792536e-10, -1.848211487151961e-10, -3.171992299228259e-09, 1.678237614860619e+03, 2.460868298182969e+03, -9.631905666849481e+01, 2.402176138653154e+03, -1.883621127541856e+02, 1.510093958030350e+03, 2.746897430918179e+03
5353, 4.356158646759234e-01, 6.039754585579384e-02, -3.660453914666797e-02, -5.012994650445284e-10, -7.815860093334536e-11, -2.958639218999806e-09, 1.304174832670016e+03, 2.227166393991405e+03, -3.025726347603722e+02, 9.576602415027025e+02, 2.490110609294205e+01, 1.869690878389341e+02, 1.293521913335036e+03
5354, 5.850889090154570e-01, 7.034108281281982e-01, -3.006403143810792e-02, -1.387569663343087e-09, 6.569909217874261e-10, -5.442316320180479e-09, 4.810038391839617e+03, 4.519306351168054e+03, 1.137760302105550e+02, 8.401738420142699e+03, 2.002739838549938e+03, 5.227074760817770e+02, 5.188493167196612e+03
5355, 4.554099416929412e-01, 2.184754608148481e-01, -3.569365275503252e-02, -1.035654606449184e-09, 8.853389691823465e-10, -4.776284242494533e-09, 2.166791167994001e+03, 2.349232762715569e+03, -5.707830425599646e+01, 3.292205203623691e+03, 4.791307940188025e+02, 1.223391404298188e+03, 2.506601622078805e+03
5356, 7.995802252753641e-01, 1.956268926219696e-01, -1.651832474327924e-02, -5.247525880683513e-10, 6.919186774256758e-11, 2.275080750069626e-10, -1.694534591527752e+02, -1.865867466415470e+02, -8.525188932117045e+01, -3.615823960884919e+02, 1.807778481451105e+02, -4.610292804699094e+00, 3.922047769653528e+02
5357, 8.471237955013118e-01, 1.595974170907332e-01, -1.310904447438575e-02, -5.567685142848714e-10, 1.336635598387580e-10, 5.485795343283381e-10, -2.894307183532686e+02, -3.684329843141633e+02, -1.065442977462914e+02, -7.354072754013139e+02, -5.888841900686862e+01, 5.607387611273826e+02, 1.075939479436136e+03
5358, 1.005408250612396e+00, 4.501135387242899e-01, -4.658817627928508e-03, -8.000088327086875e-11, 2.378416798507856e-11, 2.562045214342397e-11, -8.609140923908539e+02, -1.360947785313083e+03, -2.494567956991962e+02, -2.158060099967051e+03, 2.958150896502763e+02, 1.292584233581984e+03, 2.597216304790720e+03
5359, 8.978627856445369e-01, 9.854279361820997e-01, -1.586882084970851e-02, -4.408805267502008e-10, 2.372714992681913e-10, -2.858558436371684e-10, 5.450060280729658e+02, 6.104352528445427e+02, 1.888389077193947e+01, 6.211372920788491e+02, 4.122794466342005e+02, -7.410819514504456e+00, 7.185077134653843e+02
5360, 9.160912811030039e-01, 9.931219237904273e-01, -1.477750238205894e-02, -4.234980294918608e-10, 1.554584533789002e-10, -1.390300894133764e-10, 5.089291920090703e+02, 3.926370692868865e+02, -9.460151786797290e+01, 5.161341745174202e+02, 3.713857303039399e+01, -3.679269002940654e+01, 2.223981132519433e+02
5361, 2.464089913753162e-01, 7.409392403584025e-02, -4.119420716605889e-02, -1.600225492366536e-09, 6.275741768954730e-10, -8.209506412519059e-09, 5.973139147762043e+03, 7.090797245128791e+03, -5.479489740734831e+02, 1.090555895041590e+04, 2.327857908351673e+03, -1.698546595089505e+03, 6.773319641522497e+03
5362, 2.422737899676517e-01, 5.267671024703977e-02, -4.154043879379331e-02, -7.548392230574957e-10, -6.819308090121695e-10, -7.032631004641488e-09, 4.533088131501180e+03, 5.922474491619220e+03, -1.136411729098558e+03, 6.638873476184302e+03, -3.499706894184085e+03, 1.520198753905457e+03, 7.140737327765905e+03
5363, 9.247267537773165e-01, 1.202367730101673e+00, -1.561160432645571e-02, -2.594565772918431e-10, 2.079279188550807e-10, -1.086025601555289e-09, 1.592940534483047e+03, 1.042955342463536e+03, -4.128465751759469e+01, 1.669495061307927e+03, 1.057439877227819e+03, 5.145918662651786e+02, 2.122383820218786e+03
5364, 9.431217199947096e-01, 1.210239986559712e+00, -1.454806283114534e-02, -3.350071153471899e-10, 1.321168306660014e-10, -3.195580295407342e-10, 6.305444603494809e+02, 5.893447122655434e+02, -8.145577319479810e+01, 1.015366461141055e+03, 2.999276120536466e+02, 2.107239227322220e+02, 7.672212993895839e+02
5365, 7.400919511405345e-01, 1.385559175699361e+00, -1.799420690927359e-02, -2.255020334935357e-09, 1.488774304949040e-09, -6.838539929484990e-09, 3.688455978602778e+03, 4.675977135326625e+03, 2.203491627876716e+02, 1.006161954468551e+04, 7.744362426477803e+02, -7.126465543767666e+02, 6.226338337662954e+03
5366, 9.684492595674702e-01, 1.553491565598520e+00, -1.481901045778966e-02, -9.755586888277271e-10, 1.281653106645726e-09, -5.575093774590602e-10, 2.321586026469633e+03, 3.318569876536045e+03, -2.970978908251881e+02, 1.815943843730723e+03, 9.459729110088596e+02, -1.068162689490287e+03, 2.850627687598762e+03
5367, 7.976132126862920e-01, 4.525429179747405e-02, -1.551847065164698e-02, -3.492736360781827e-10, 2.169569930056930e-11, 3.522904286791727e-10, -3.580797420468373e+02, -3.130471065182572e+02, -1.405114285782733e+02, -6.637867774221793e+02, 6.816257404021123e+00, -2.942356768511665e+00, 4.106668533149295e+02
5368, 8.169767062257977e-01, 5.107028979575630e-02, -1.428119508064986e-02, -3.584754143057632e-10, 7.871582986277102e-11, 8.195166647057370e-10, -1.033786397954476e+03, -8.974725809582939e+02, -1.169810082613490e+01, -2.031994005962401e+03, 6.141670721128003e+02, -2.876704902237143e+02, 1.591020559741281e+03
5369, 1.139653941350739e+00, 1.552881031580976e+00, -4.326030773548152e-03, -2.892504057484462e-10, 6.364329535060042e-11, 1.125870016095282e-10, -1.656907451079245e+03, -1.456911128135589e+03, -2.125520694319269e+02, -2.810109552754728e+03, 1.042992878741080e+03, 4.762816571567477e+02, 2.383291847267317e+03
5370, 1.172650707945542e+00, 1.583884396451979e+00, -2.310160515879738e-03, -1.092231833359108e-10, 1.104923525092192e-10, 8.983110313372245e-12, -3.128234412488886e+02, -9.857138803875070e+01, 7.229961926423066e+00, -5.166950040709601e+02, -2.707807426095220e+02, 3.585655656447805e+02, 8.584746360314970e+02
5371, 6.259991461915158e-01, 4.671633427311951e-02, -2.649949900789540e-02, -1.932542231777499e-10, -2.850858544926633e-11, -1.529437523631033e-09, 1.695674321175820e+03, 1.465501408912759e+03, -2.358271040533551e+02, 2.944119506003227e+03, 6.467473623682619e+02, 5.554977541742701e+02, 2.060673724522729e+03
5372, 5.670798724552739e-01, 1.072010588206529e+00, -1.825032626209822e-02, -6.816609380755704e-10, 5.193595027688502e-10, -8.082596650695687e-10, 6.979822820074838e+02, 1.405166878354062e+03, -3.765648534348622e+02, 2.554462219225367e+03, 2.092954402539673e+02, -1.262473226876902e+03, 2.823488401212042e+03
5373, 7.658027710459391e-01, 1.452235749632052e+00, -1.648615882046436e-02, -7.179242564447724e-10, 8.379737840422757e-10, -1.922601573246106e-09, 2.079782058280713e+03, 2.868594453992903e+03, 8.605833380808090e+01, 4.372758004503918e+03, -5.292205816352983e+02, -9.275153146864648e+02, 2.741264524923330e+03
5374, 2.274643786488176e-01, 4.308169574570593e-01, -1.238127349020622e-02, -4.930851711227957e-10, 3.288034090039032e-10, -6.064247968295698e-10, 1.210604419042676e+02, 5.326592852280336e+02, 4.352720566300368e+02, 2.350980044653927e+03, -2.403804815674573e+02, 5.509530847548713e+02, 2.424150208993508e+03
5375, 2.363871058912343e-01, 4.151386715657029e-01, -2.231475880634926e-02, -2.025376653867707e-09, 1.047215971558182e-09, -3.459475398119571e-09, 2.309185644520655e+03, 1.222096145961287e+03, 1.927525280205944e+03, 1.135134151194038e+04, 6.187421017840160e+02, 3.699034198432726e+03, 1.208780904394936e+04
5376, 2.267305266449316e-01, 3.978509471537520e-01, -2.217592436845937e-02, -1.945134252057994e-09, 1.479834126148179e-09, -3.588354951846527e-09, 3.556189340942846e+02, 3.733402269668651e+03, 1.341918871874726e+03, 1.028701080084297e+04, -3.004775168024943e+03, -2.121864850349884e+03, 1.106756821813685e+04
5377, 7.164061452300667e-01, 1.337972596112749e+00, -1.849225206877065e-02, -1.351897994282462e-09, 9.430333736605380e-10, -3.515533000986325e-09, 4.995828315806397e+03, 5.570861980130163e+03, -1.625257608755105e+03, 7.638711900035531e+03, -1.327291984279121e+03, 2.816958138875495e+03, 6.543012204684294e+03
5378, 7.135486187732230e-01, 1.318439190589096e+00, -1.936870258483658e-02, -1.531654608753603e-10, 3.903592226266638e-10, -2.635888127553281e-09, 3.572928128199243e+03, 4.528264439614630e+03, 3.999951793032758e+02, 8.116062155194924e+03, -4.277930836012913e+03, -2.383927964635280e+03, 9.468047112091135e+03
5379, 7.184582129038487e-01, 1.357898981357162e+00, -1.734840368397006e-02, -6.328286758685754e-10, 2.512915362062046e-10, -1.471018116083902e-09, 3.498819253361954e+03, 2.507903933877721e+03, 1.804141654221411e+01, 5.982912742331767e+03, 1.369195122470337e+03, 9.750194080738664e+02, 4.253376399081833e+03
5380, 7.868690431655403e-01, 1.479421358025351e+00, -1.699410653676387e-02, -7.690182624128883e-10, 5.413917987814816e-10, -1.522573857636219e-09, 1.159665204346037e+03, 1.935434955621090e+03, 3.911055544844604e+02, 2.352291430423405e+03, 9.666183610144515e+02, 1.088306816336267e+02, 2.096771054489226e+03
5381, 8.046890878750077e-01, 1.487331971094767e+00, -1.788586081595250e-02, -1.356105148782460e-09, 1.380476125789645e-09, -3.729821173687947e-09, 3.848107432447511e+03, 2.274594333702153e+03, 5.024324697105391e+02, 5.384948215850504e+03, -4.108704563364934e+03, 1.519127105221619e+03, 8.098208343898510e+03
5382, 7.890849145825001e-01, 1.499172013358762e+00, -1.600914304187009e-02, -5.405007284023083e-10, 8.702356849336988e-10, -2.058681846400191e-09, 3.116651443410148e+03, 3.509466359738014e+03, 2.037476589605068e+02, 6.299082908085217e+03, -9.697565136390796e+02, -2.052698378153220e+03, 4.961713549186266e+03
5383, 8.071563762015193e-01, 1.506961848247913e+00, -1.720182924985692e-02, -3.281256666030582e-10, 2.945300953153013e-10, -2.404772308739310e-09, 2.909159366039528e+03, 2.662394077492420e+03, 1.648544149990012e+02, 5.101875687616176e+03, 6.091882886487447e+02, -4.087801679128543e+02, 2.665736291324990e+03
5384, 8.229030710349402e-01, 1.495040773496596e+00, -1.835111451587817e-02, -2.766798198256592e-10, 7.684802283858287e-10, -4.249048916920269e-09, 6.767626870165257e+03, 5.804183041502785e+03, 2.929089330057420e+01, 1.188087837998865e+04, 6.844215100845673e+02, 4.781158028516202e+03, 1.009882093047810e+04
5385, 8.253582416969056e-01, 1.514651511313402e+00, -1.785046357624239e-02, -1.411913669141410e-09, 7.927163814233564e-10, -4.113308943828349e-09, 3.595115806815668e+03, 5.354289242004469e+03, 6.747772671975275e+02, 5.424463399303993e+03, -4.914573880412800e+03, -1.537859588495430e+03, 9.172959326283617e+03
5386, 7.914838696829234e-01, 1.518825243234248e+00, -1.485704894107407e-02, -1.193052800748070e-09, 9.929903209102447e-10, -6.569182490099071e-09, 5.845255106007871e+03, 5.835252530041122e+03, 1.819131754811065e+02, 9.069642551759547e+03, -1.754806357720767e+02, -1.229632220394083e+02, 3.265891006291555e+03
5387, 4.423204213585304e-01, 8.115092253497750e-01, -2.131925694104250e-02, -2.542786064647266e-09, 1.425896774165530e-09, -5.220388934615125e-09, 2.937785713615939e+03, 4.508923796864970e+03, 4.151349362893268e+01, 6.660077809908272e+03, 8.763604477780160e+02, -5.112873712578892e+02, 3.683630790275588e+03
5388, 6.218690513054957e-01, 1.110702084628903e+00, -2.267425148282523e-02, -1.720923477478931e-09, 1.052001228457168e-09, -4.290443332926553e-09, 3.815100224611334e+03, 3.784864005777637e+03, 2.011273314751966e+02, 5.416025292197400e+03, 6.652207543239962e+02, 1.863675913700310e+03, 3.805398470844269e+03
5389, 3.476740212530058e-01, 4.368571242071496e-02, -3.975505270604432e-02, -9.615279546689993e-11, -2.333950380259114e-10, -8.750096950773011e-09, 4.706193959146664e+03, 4.850815005353090e+03, -3.310594846323054e+02, 7.794516366426877e+03, 3.202343527119465e+02, -1.311356032437325e+03, 3.861014027589916e+03
5390, 3.306903262453010e-01, 5.375869664434486e-02, -4.019938581398236e-02, -7.069450501141723e-10, 8.163777664500377e-11, -5.539799673536070e-09, 2.925058796049869e+03, 3.964086546621684e+03, -3.355572085605216e+02, 4.840882191754343e+03, -1.832021401214334e+03, -7.599562708368378e+02, 3.859879278109712e+03
5391, 1.205031869094731e-01, 1.694129234221664e-01, -2.557926004027656e-02, -1.589597106524128e-09, 5.321460552486382e-10, -2.027276443366584e-09, 2.438172459018333e+03, 2.845727757990827e+03, 2.121605705010046e+02, 3.932584071714615e+03, 7.907354426830250e+02, -1.369960612433958e+03, 3.071076716904713e+03
5392, 1.231508611220446e-01, 1.890321510700108e-01, -2.371862179553832e-02, -3.042580596577522e-09, 1.270887809026284e-09, -5.935548415917161e-09, 5.444577676127110e+03, 5.800194777612068e+03, 5.727802799108559e+00, 1.086888761735860e+04, 2.426233129357218e+03, -1.132299396077066e+03, 7.009054876855385e+03
5393, 7.110759259773869e-01, 4.687335904390880e-02, -2.116542716826727e-02, -2.419008070182935e-10, 7.040756708326736e-11, -4.818978894941344e-10, 7.614220315517404e+02, 6.897895169184809e+02, -1.497274054676947e+02, 1.454068194062037e+03, 1.576078457129495e+02, -9.033572986713612e+01, 8.371159592144878e+02
5394, 6.943187764894460e-01, 3.909022294762750e-02, -2.218113283748236e-02, -1.282083247630501e-10, 1.057151276484068e-10, -1.637091683286385e-09, 1.265778101152889e+03, 1.533202719184843e+03, -7.900652481891339e+01, 2.979939723738319e+03, -6.979189762358922e+01, -3.562046730936614e+02, 1.722045616330817e+03
5395, 4.852432953456322e-01, 9.446791337054112e-01, -1.277588138271306e-02, -6.923322246831277e-10, 3.848290131433251e-10, -3.947894170754982e-10, -9.185713210263474e+01, 7.706829481538299e+02, 5.168290562125036e+02, 2.359577078723984e+03, 7.143587002728968e+01, -3.367399192594053e+02, 2.407461777348667e+03
5396, 2.955929175387925e-01, 3.898123556516284e-02, -4.112112625950121e-02, -7.621650670720965e-10, -4.244689322583212e-10, -1.048561022599303e-08, 5.563036255482493e+03, 5.703835297720306e+03, -3.315886189644354e+02, 9.699494511234247e+03, 6.772501574342151e+02, -2.205158893906611e+03, 5.730770935680984e+03
5397, 8.832169776259713e-01, 1.555765715711217e+00, -1.757007490483908e-02, -8.282533115250654e-10, 3.189552613331568e-09, -4.675536381734591e-09, 8.422238718805320e+03, 1.249043642330712e+04, -2.151640137380401e+03, 1.422314213078044e+04, 1.887428667366407e+03, -2.774430596668891e+03, 8.617987768968498e+03
5398, 8.652396557575497e-01, 1.548176191064888e+00, -1.777360649298676e-02, -1.195597104399243e-09, 2.747315718053181e-09, -3.246486812415211e-09, 5.815611181175927e+03, 8.709030187276188e+03, -5.935191133517571e+02, 9.444076824842195e+03, -2.058086714533420e+03, -3.346791446714741e+03, 7.642379313180563e+03
5399, 8.628094919487126e-01, 1.528798070195346e+00, -1.807435787506907e-02, -6.326517308430837e-10, 2.212865603296415e-09, -5.283691028640015e-09, 6.468745821042599e+03, 8.448240200511173e+03, -2.332041522112389e+02, 1.273739692187282e+04, 4.209984316546583e+03, -1.632568667142507e+03, 9.598777147464220e+03
5400, 8.472321289511114e-01, 1.540632908368632e+00, -1.774040255754502e-02, -4.055094658741495e-10, 2.729052922270713e-09, -5.126041438238614e-09, 6.964642052949341e+03, 8.548506937216847e+03, 2.368091338145836e+02, 1.315540286054928e+04, 2.089782450387345e+02, 5.893122415110255e+03, 1.164108008370234e+04
5401, 9.015996058761790e-01, 1.562702829218068e+00, -1.718548325805455e-02, -2.212377468420554e-09, 2.886162503132765e-09, -9.065711320280641e-09, 9.054193604730450e+03, 1.025287770407911e+04, -1.251875650188284e+03, 1.353208031154613e+04, 2.073243649895649e+03, -1.011199080195953e+03, 6.065056281720027e+03
5402, 6.980900098413361e-01, 1.331101229613811e+00, -1.652281980044444e-02, -7.754354844532025e-11, 4.274557500245126e-10, -9.167703161912893e-10, 1.835313721074014e+03, 3.767907130129004e+03, -8.196444959429513e+00, 5.162532599008464e+03, -1.519060681213587e+03, -1.813594838429399e+03, 5.016508525968750e+03
5403, 8.643846209431448e-02, 4.288007885338773e-02, -3.264717395241075e-02, -4.655595018066796e-10, 5.339268360984276e-10, -4.314150998272225e-09, 3.521113225770763e+03, 5.251321814673488e+03, 4.395113385506136e+02, 1.103858852693582e+04, -4.962771032314716e+03, -4.495759904006494e+03, 1.347596479970569e+04
5404, 7.131156168978152e-02, 5.464787364623563e-02, -2.827811216185683e-02, 6.288926272125091e-11, 3.356192412412344e-10, -1.342860444535766e-09, 2.342493491134244e+03, 1.261459723642620e+03, 2.500178818804623e+01, 4.139142248057231e+03, -1.974433030599828e+03, 2.985330098620462e+02, 4.278225947271390e+03
5405, 7.403322511615425e-02, 7.493911502462609e-02, -2.642620038596557e-02, -2.088860162739179e-10, -1.103530567236828e-10, -2.018452526826953e-09, 2.213166660927343e+03, 2.919077028907536e+03, -7.129445486496575e+02, 5.407819563476522e+03, -1.981809343397742e+03, 3.657955603444527e+02, 4.707225487945849e+03
5406, 5.804973762646706e-02, 9.294889721826571e-02, -1.194188800256621e-02, 1.584378963350192e-10, 6.945833998633231e-11, -6.183140582817775e-10, 1.052754222416263e+03, 1.429291018540991e+03, 2.920903193074872e+01, 3.753862175764035e+03, -1.262041481379906e+03, 1.103259767431898e+02, 3.352315418927140e+03
5407, 7.397606598280776e-01, 1.406181547011448e+00, -1.652097130079518e-02, -1.360635745683623e-09, 3.751692492268889e-10, -1.823113595832319e-09, -1.503397254506204e+03, 1.654292572708259e+03, 1.199241002641048e+02, 3.079250832106934e+03, 3.410578276055958e+02, -8.794204694227316e+02, 4.383301845268626e+03
5408, 4.444302089475523e-01, 8.298586142579940e-01, -1.951250568729703e-02, -9.475131423758001e-10, 1.118870578711074e-09, -1.434833751141195e-09, -1.104095500099189e+02, 3.352982291741349e+02, 1.134075656264313e+03, 2.236062054277189e+03, 5.221811885378586e+02, 6.750920738685681e+02, 3.271451368195555e+03
5409, 6.960687603940552e-01, 1.309960024131583e+00, -1.800151750365293e-02, -2.705222736431230e-10, 4.567130246425177e-10, -1.041168639323716e-09, 1.423834535895841e+03, 1.909024356440283e+03, 1.095220291211497e+03, 4.284145271821276e+03, -3.424385995131941e+02, 2.225063562816847e+03, 5.082522172428244e+03
5410, 5.418462815655042e-01, 9.841256631219278e-01, -2.216733761631925e-02, -1.739462581717561e-09, 6.375221804765569e-10, -2.641585681999043e-09, 5.227242388216870e+03, 3.237710222960286e+03, 1.560914197679324e-01, 5.743144884186149e+03, 9.208648331859199e+02, 4.793238364265089e+02, 2.912735561013734e+03
5411, 3.961994043585565e-02, 1.552207541499282e-02, -2.574047742615037e-02, 8.801414431917142e-11, 3.577971646470816e-11, 5.587483369705611e-11, 1.890695510642973e+02, 3.331262123216835e+02, 2.146051423485923e+02, 5.781426902900697e+01, -2.834142114301043e+01, 7.641106082641375e+01, 4.636596045501897e+02
5412, 3.808478906062590e-01, 3.852240712213852e-02, -3.867439462927697e-02, -3.484738989315743e-10, -2.970379616703368e-10, -2.875880291854376e-09, 2.494374585341420e+03, 3.205934366075225e+03, -2.335992471434118e+02, 3.066908273115708e+03, -1.737377469311138e+03, -1.944233509264480e+03, 4.581047833510083e+03
5413, 3.984071472334018e-01, 4.631078084067701e-02, -3.803164493253441e-02, -3.378937174474453e-10, -1.092704720532281e-10, -9.093558002525367e-09, 4.658533913675228e+03, 5.923528829499678e+03, -5.091582090639002e+02, 9.101067923709021e+03, -5.047687848744042e+02, -1.008798014704659e+03, 4.506845766036053e+03
5414, 3.962073097407149e-01, 7.167760341712913e-01, -2.227800009672078e-02, -3.941510841851592e-09, 1.428401026481810e-09, -8.001870366573833e-09, 5.674514288208093e+03, 5.746534028301271e+03, 6.433834128214232e+02, 1.178216602483992e+04, 1.697423581504750e+03, -8.947371040697200e+02, 7.011130838696185e+03
5415, 3.684560377541207e-01, 7.151626420934156e-01, -1.114947834880159e-02, -1.228488692987625e-10, 1.098730214298641e-10, -3.518037532484378e-10, 4.220339993552873e+02, 8.390241202865063e+02, 5.130950649741271e+01, 1.702829778474753e+03, -5.959494153182716e+02, -9.348349114608291e+01, 1.542667172308215e+03
5416, 4.617971234766130e-01, 8.577337015938901e-01, -2.018749742423981e-02, -3.496040186590812e-09, 2.535619388857271e-09, -9.759846091516728e-09, 8.430730828933809e+03, 9.883474033514498e+03, 2.746884475801198e+02, 2.074974685677096e+04, 1.883143524830407e+03, -2.731320507328361e+03, 1.300836795556208e+04
5417, 6.283193460961061e-01, 1.190271058809211e+00, -1.776277643336628e-02, -2.059058447508075e-10, 5.137956656015970e-10, -2.020336464854205e-09, 2.216754802282234e+03, 4.331174089608056e+03, 5.343546724843701e+02, 9.508737226220985e+03, -2.550972643147735e+03, -1.605445825124037e+03, 8.386705326416135e+03
5418, 1.051182689671515e-01, 1.801362944618091e-01, -1.534189091928345e-02, -5.441093758357767e-10, 1.978753814213785e-10, -7.165196216989514e-10, 3.929765603259559e+02, 2.298530455431840e+03, 5.953317337633739e+02, 4.342742358741284e+03, -6.314995548362305e+02, -1.115715725238550e+02, 3.741961148635415e+03
5419, 1.155906618575720e+00, 1.543673632103568e+00, -3.142999236456982e-03, -3.432105916828453e-11, 3.266711924754234e-10, -2.097199112411403e-10, -1.073590479668502e+03, -1.646950013124429e+03, -2.206097745856648e+01, -2.525615679870873e+03, 1.181655652415311e+02, -5.668325959588826e+02, 1.616116574818644e+03
5420, 1.396437702995008e-01, 2.172227587953821e-01, -2.419947001063400e-02, -1.476435076746677e-09, 6.715512694475930e-10, -1.905538832440353e-09, 1.353171890147458e+03, 2.844383097455089e+03, 3.053888135924112e+02, 4.590624064061634e+03, -1.010608050970207e+02, -7.602237938524675e+02, 3.149814275464391e+03
5421, 1.300727356688650e-01, 2.348887571641132e-01, -1.298932992110348e-02, -7.411443148454016e-10, 2.840015280677639e-10, -9.904221287235424e-10, -6.486902130940507e+00, 1.279704083102533e+03, 4.386864915438489e+02, 4.756277823564994e+03, -1.014895399451053e+03, -3.381695010377646e+02, 4.714110880242160e+03
5422, 6.011992188733442e-01, 1.177075471803541e+00, -1.213790559709425e-02, -1.107612613988684e-10, 6.860687592315150e-12, -5.174294505490208e-10, 8.414825788384342e+02, 1.388757787257011e+03, 2.809578224036109e+02, 2.661230904107628e+03, -4.520032155557308e+02, 2.976694802552331e+02, 1.931487755602489e+03
5423, 5.984148597709994e-01, 1.023145511065343e+00, -2.501922667000219e-02, -1.287983711080985e-09, 1.041985655997469e-09, -5.416249526682275e-09, 9.430168845915021e+03, 8.238077466449078e+03, -2.425881648390161e+03, 1.160946073760891e+04, -1.527574935829876e+03, 1.955966011056235e+03, 6.700811895775409e+03
5424, 6.117438946815230e-01, 1.123947295632663e+00, -2.086329754498496e-02, -1.281663153272356e-09, 1.126372706787919e-09, -3.166715274914522e-09, 4.356348937959970e+03, 4.407572709722268e+03, 1.980470651576232e+03, 5.141457191077857e+03, 2.214012636792345e+03, 3.403424811821053e+03, 7.861364503697269e+03
5425, 5.940302665991722e-01, 1.125207812131355e+00, -1.792860373368640e-02, -1.068212906169171e-09, 5.705958019285290e-10, -1.943132300159909e-09, 8.155068639384037e+02, 2.691818486326229e+03, 1.123806030665401e+03, 6.824574133052044e+03, -1.675329295247850e+03, 2.216155605278430e+03, 7.436235184482809e+03
5426, 3.731593189452289e-01, 6.692792212539725e-01, -2.277327592969104e-02, -2.975323155987552e-09, 2.052931045059137e-09, -6.008793973169083e-09, 4.707496814287107e+03, 3.638030022691194e+03, -4.930135449031923e-01, 9.096055015477847e+03, 6.569663082831953e+02, -6.838400613208103e+01, 5.138624679761423e+03
5427, 3.715588830440920e-01, 6.506357041864100e-01, -2.442481524806208e-02, -1.864986988015700e-09, 1.234942381644084e-09, -3.353646884413710e-09, 1.636643912919974e+03, 3.921809984774481e+03, -2.508928228280895e+02, 5.520445399488025e+03, -1.291106911520611e+03, -1.368290510604011e+03, 4.715626802122440e+03
5428, 3.757913611295334e-01, 6.888941757907772e-01, -2.090736324910931e-02, -7.650893546502206e-10, 6.043774633842526e-10, -1.164145429878763e-09, 9.072709380230469e+02, 5.931577739232026e+02, 6.379314673659524e+02, 2.957216387680553e+03, 3.058593741746020e+02, 8.046719859370157e+02, 2.896354404107042e+03
5429, 4.321800875214591e-01, 4.257870040923510e-02, -3.674530604490822e-02, 2.479360970874083e-11, -6.096296203947550e-10, -2.992240027490024e-09, 2.934715545648060e+03, 2.616047436794538e+03, -4.519163835698373e+02, 3.760110176046680e+03, -1.130874152733192e+03, 8.805401443796824e+02, 2.796644372133731e+03
5430, 8.496577631100092e-01, 1.560000252098544e+00, -1.729013903051368e-02, -4.451849530922967e-10, 3.227189016364846e-09, -2.352400237466203e-09, 6.087032654260353e+03, 8.149267998577214e+03, 3.260185596785242e+02, 1.124602503242715e+04, -2.626850122347101e+03, -2.188238057505054e+03, 7.457479932158446e+03
5431, 8.297594592130981e-01, 1.551333511006061e+00, -1.670663634187897e-02, -7.110534758577966e-10, 2.746993705452110e-09, -1.842947732124594e-09, 6.832955491833686e+03, 8.105883718436191e+03, -5.348863019907701e+02, 7.663368962856197e+03, 1.643086419810567e+03, -3.482819259885670e+03, 6.826454062255385e+03
5432, 4.504923374883150e-01, 8.749216498257678e-01, -1.297600535772381e-02, -7.203103008758800e-10, 3.495665767328063e-10, -1.214598436849558e-09, 5.896125005371530e+02, 1.274894860834729e+03, 1.090762693349885e+03, 6.075471720457130e+03, -1.685124064858623e+03, 1.678948115145527e+03, 6.881113293733059e+03
5433, 1.150525407071724e+00, 1.503451842900503e+00, -3.188468769665588e-03, -7.135768394267938e-11, -2.401137033798956e-11, -1.105170187646959e-10, -1.240576516783029e+03, -1.619667817613116e+03, 1.110676738654288e+02, -4.283060359751947e+03, 2.914332809511239e+01, -3.684158354214793e+02, 2.948522640225997e+03
5434, 1.165344347990342e+00, 1.492425288463573e+00, -2.066328232189698e-03, 1.903592739193468e-10, 2.294757900204603e-11, -1.798928168598488e-10, -2.559667311789822e+02, -5.062706857253947e+02, 1.026038129843294e+02, -1.489413029911781e+03, -7.739982304484001e+02, -1.662128357324742e+02, 1.785213680499055e+03
5435, 1.155552469760721e+00, 1.560947099642064e+00, -3.306664718235715e-03, -5.691549245912946e-10, 6.543405838401925e-11, 2.591970575648387e-09, -5.994135804706810e+03, -6.527958258670364e+03, -2.185515611336119e+02, -1.287911152323258e+04, 7.811523664523620e+02, -7.429158427695585e+02, 6.902330453207849e+03
5436, 5.605096608840736e-01, 9.855650256490348e-01, -2.414939799929148e-02, -1.524643696319393e-09, 7.566491947167610e-10, -5.351733732768964e-09, 5.285695813451688e+03, 6.014226793398529e+03, 2.730172969637532e+02, 1.187959906771785e+04, -2.608588377679530e+03, 4.526709499502238e+03, 1.101442539129158e+04
5437, 6.282323003719097e-01, 1.075651615330610e+00, -2.451408359445093e-02, -1.761171527595829e-09, 1.159050390287146e-09, -1.755652873359173e-08, 1.895831581032643e+04, 1.963436881822444e+04, -2.335349430215204e+01, 4.118408322040453e+04, -5.514137968123171e+02, -2.624845487817941e+03, 2.238301223950299e+04
5438, 5.197990035149785e-01, 3.904381984423150e-02, -3.257055804169587e-02, -1.980130029090882e-10, -7.799369357774401e-11, -2.724449214110500e-09, 2.486515043150798e+03, 1.997207459448477e+03, 1.146999379770341e+02, 2.855922615687300e+03, -8.723687691935363e+02, -1.954753635932774e+03, 3.787132577573808e+03
5439, 5.377070687735325e-01, 4.741005871671642e-02, -3.163992968479364e-02, 5.553949484801203e-10, -2.358204429826217e-10, -6.826279725469857e-09, 4.780636978837512e+03, 4.979593016471649e+03, -1.881264398470940e+02, 1.017773445209995e+04, 2.140376202814828e+02, -2.169580104236949e+02, 5.336598432377907e+03
5440, 5.359969581916620e-01, 2.854610289066777e-02, -3.164700381455073e-02, -1.900397653661538e-10, -1.603449213343303e-10, -1.368781056925067e-09, 1.371868410127460e+03, 1.703384410854807e+03, 8.330752351702213e+01, 2.137129808162565e+03, -1.022904336446830e+02, -2.429503956501210e+03, 4.266322810185330e+03
5441, 7.007885711245603e-01, 1.370323190888142e+00, -1.260006367605317e-02, -3.085474743593387e-10, -4.306978279137617e-11, -5.482499208812098e-10, 1.839463605466611e+03, 1.606956247473200e+03, 1.698342136023970e+02, 4.875494203198193e+03, 2.125107441346539e+02, 5.854629061997001e+02, 3.350784204929409e+03
5442, 4.253740475181436e-01, 8.209263174282555e-01, -1.450779573442218e-02, -3.703030400963459e-10, 3.042193666503260e-10, -6.110134318958617e-10, 1.555062772711669e+02, 1.108015475960222e+03, 8.088182318440079e+02, 3.437899266846432e+03, -7.738606165706333e+02, 1.605852348591828e+02, 3.520138123200365e+03
5443, 9.743947502041936e-01, 1.602890013595321e-02, -3.229838843382209e-03, -8.245449435075063e-11, 2.135849111318405e-10, -1.001917501037572e-10, 4.129907733832258e+02, 7.965036094661941e+01, -1.430679822725592e+02, -2.956103760889209e+02, -2.232037892430870e+02, 5.822023614736061e+02, 1.266795139928681e+03
5444, 9.656115511801966e-01, 3.296575935694079e-02, -3.995430790520690e-03, -1.158865306334592e-09, 1.114914974366846e-10, 4.232233671516082e-09, -7.670842487458578e+03, -8.023095428768717e+03, 1.808179285708054e+02, -1.554132733059276e+04, 1.058391822513037e+03, -1.916054756243068e+02, 7.928746146760443e+03
5445, 9.463172542161683e-01, 3.445357660220072e-02, -5.364523133268503e-03, -3.719201614714272e-10, -1.590540959442688e-10, 2.136660517054809e-10, -2.931397641654897e+03, -2.610800487335877e+03, -3.438874256883807e+01, -5.098569214248884e+03, -1.651373928709177e+02, 1.538293948461620e+02, 2.377089287361094e+03
5446, 9.568620944008959e-01, 5.259222420155792e-02, -4.775537720853569e-03, -3.504740039983558e-10, -3.950104067410520e-11, 5.024700948817953e-10, -3.559886403899637e+03, -3.131788263862064e+03, 2.825322955356941e+02, -6.854868924292213e+03, 1.457076083262803e+03, -9.296564596034401e+00, 4.365741474856694e+03
5447, 5.019648397508221e-01, 3.240177831072000e-02, -3.347907895772757e-02, -4.725598952118629e-10, -2.052055786734326e-10, -2.498747437594927e-09, 2.527314169045267e+03, 2.303552031549031e+03, 2.108443287676403e+00, 4.706145808886608e+03, 1.541761546060947e+03, -1.741553774761120e+03, 4.638431288314623e+03
5448, 2.095386946330686e-01, 3.618964505106157e-01, -2.261752817811186e-02, -4.556199656238112e-09, 1.656732575472379e-09, -8.669277022834545e-09, 6.918527547858028e+03, 7.188937618105933e+03, -4.567869262630471e+02, 1.416853852658570e+04, 2.027583111679567e+03, -7.478115590354619e+02, 8.081597237892254e+03
5449, 2.005888356638206e-01, 3.441471602873101e-01, -2.271463643632650e-02, -1.523640598689094e-09, 8.804625656079303e-10, -2.551149597483222e-09, 2.671576327454341e+03, 3.123043951397581e+03, 1.625296032193148e+02, 6.691809780683365e+03, 4.967442448846458e+01, -1.570711496488929e+03, 4.694587188009657e+03
5450, 2.194061031170828e-01, 3.449460865810536e-01, -2.692267269243273e-02, -2.340248928391451e-09, 1.264838816244740e-09, -4.629334005145233e-09, 4.771095041198100e+03, 5.661997229030728e+03, -1.626507973118431e+03, 9.743291432195823e+03, -4.174187519112999e+02, -3.672264659673217e+03, 8.366754807636707e+03
5451, 2.112003835144642e-01, 3.284351994650969e-01, -2.705617303680556e-02, -2.406836421220113e-09, 1.245260729243304e-09, -3.552942518923505e-09, 3.302785610015261e+03, 2.949548994897802e+03, 4.813958247016936e+02, 5.220629412494940e+03, 6.847311730499584e+02, -1.665346384497449e+02, 2.581734131480587e+03
5452, 6.591171691492263e-02, 3.534483130517412e-02, -2.944342462212514e-02, -2.273625858510105e-10, 2.902505031545120e-10, -1.370862165260223e-09, 1.617502401931612e+03, 1.742511006662722e+03, 3.216089534742858e+02, 2.890758877207726e+03, -1.156828719015190e+03, -2.186722768418716e+02, 2.438472655968758e+03
5453, 5.136863155375420e-02, 4.719408928901140e-02, -2.419336416838088e-02, 3.204085326651027e-11, 8.841256026347981e-11, -4.188573303983642e-10, 6.855298337229965e+02, 6.749513564255694e+02, 1.633463668111784e+02, 1.768607542582750e+03, -3.885856325025593e+02, 1.777974261685735e+01, 1.310960482364511e+03
5454, 1.011260147552332e-01, 2.941743279548791e-02, -3.583025562968879e-02, -5.257066874144927e-10, 3.113776092851580e-10, -2.867745638991031e-09, 4.745184706590068e+03, 7.177063360956997e+03, -8.487157543913812e+02, 8.810124448705636e+03, -2.140484241195082e+02, -7.240295342065940e+03, 1.311931263848618e+04
5455, 3.993596560219940e-01, 7.375012110417059e-01, -2.040193963342153e-02, -9.920807080926429e-10, 8.788349298714149e-10, -1.734355158604979e-09, 1.551274969955639e+03, 1.026201763372821e+03, 1.377484211943736e+03, 4.198628043956380e+03, -1.493129328304781e+02, 1.617376582681964e+03, 4.720299427688124e+03
5456, 7.714915938806011e-01, 1.511863089767504e+00, -1.162124512385766e-02, -5.854857948161296e-10, 2.801885018738889e-10, -8.408187629093316e-10, 4.995929505909667e+02, 1.275204598754624e+03, 6.335470751000705e+02, 2.592242113483275e+03, -1.611614120498456e+03, -5.013444041116579e+02, 3.620463426874748e+03
5457, 1.139515003598002e+00, 1.405930171837152e+00, -3.157496273964219e-03, -1.151365597420189e-10, 2.765103278770173e-10, -1.919567753858382e-10, -1.787441475692161e+03, -1.798207905325104e+03, -3.583884676692192e+02, -3.316963124575465e+03, 7.240946801463317e+02, -6.029440870734037e+02, 2.317752320317865e+03
5458, 1.142367262323522e+00, 1.426713021779145e+00, -3.129181976891012e-03, -1.254196612531764e-09, 2.710060427829579e-10, 3.222379630212448e-09, -7.446691010362876e+03, -8.163663205129328e+03, -1.135114183770167e+02, -1.537462799681590e+04, 1.388092915239541e+03, -2.814432851378806e+02, 7.983659244147310e+03
5459, 2.588853814171283e-02, 2.126192564178880e-02, -1.561010430430321e-02, 1.635342726440875e-10, 6.395019657396413e-11, 9.511029137279790e-11, 4.402964051047625e+02, 3.863400567399013e+02, 2.018866558420320e+02, 1.267421344495152e+02, -5.391442872891285e+01, 4.588752295587778e+01, 4.707666951920672e+02
5460, 7.464699689095640e-01, 1.461183773345602e+00, -1.205111261530450e-02, -3.703783472294903e-10, 3.619756629791221e-10, -1.290400287128664e-10, -1.324050653337164e+02, 7.879337875921942e+02, 3.974547776318719e+02, 1.876675069057562e+03, -1.130914071329551e+03, -3.533917432030686e+02, 2.778463616418579e+03
5461, 1.472574930412129e-01, 2.383950324983733e-01, -2.324471953218808e-02, -3.293435096822619e-09, 1.849344032494279e-09, -5.922291718152404e-09, 4.605363083592834e+03, 4.035524998338645e+03, -7.436294490765681e+01, 9.456433420662939e+03, 1.629386562785155e+03, -4.798739510833634e+02, 5.940879713761473e+03
5462, 1.548311993413718e-01, 2.564659638946172e-01, -2.265353989776786e-02, -1.534110873130961e-09, 6.236392427491356e-10, -1.654086965517039e-09, 7.813735742353138e+02, 1.253922047326608e+03, 6.823915060711328e+02, 4.306626000023628e+03, 7.310786689543900e+02, 1.031160637574415e+03, 4.144289253732506e+03
5463, 2.553850378010925e-01, 4.511888083211588e-01, -2.228202719376405e-02, -1.176271480027808e-09, 9.204244001362993e-10, -2.230811023082610e-09, 1.542503689977331e+03, 1.891105246663758e+03, 4.305690550559284e+02, 4.770809877565870e+03, 1.881664693162354e+02, -3.839837748991815e+02, 3.243888243434168e+03
5464, 2.363843124785662e-01, 4.486456755801217e-01, -1.238201840924540e-02, -2.391409088485828e-10, 1.924536610225929e-10, -2.778926413877982e-10, 5.467392210387500e+02, 6.006024689787932e+02, 3.832177542716591e+02, 1.831034293047490e+03, -2.674205692249427e+02, 6.901121705758636e+01, 1.500844844050486e+03
5465, 2.629533710818425e-01, 4.729165094481684e-01, -2.133650292994738e-02, -8.877926126626337e-10, 5.458142812902577e-10, -1.151651663232414e-09, 4.257975934478847e+01, 3.472082646794138e+02, 4.289081607563367e+02, 2.511524320803896e+03, -5.677815763562636e+02, 3.275737939366252e+00, 2.637313303368729e+03
5466, 9.357794342916305e-01, 1.712523470200222e-02, -5.957325063602419e-03, -1.605319639898597e-10, -5.155549598976357e-11, 3.643200473501614e-10, -9.118429028950678e+02, -1.054462348705033e+03, -3.160481978943283e+02, -1.584717123911695e+03, -6.024575650867808e+01, 1.344203652722059e+03, 2.471504298764888e+03
5467, 4.674230914831206e-01, 3.595211261757201e-02, -3.519064848877369e-02, -4.343603480604320e-10, -3.240375618737323e-10, -2.828824157299746e-09, 2.796568365649526e+03, 3.008751712467261e+03, 1.322988684317976e+02, 5.579797061713460e+03, 6.577500875935831e+02, -1.543412706050604e+03, 3.962021178151243e+03
5468, 1.089550765531579e+00, 1.272446786611676e+00, -5.505759278192682e-03, -3.095800183623152e-10, -9.794204442903346e-12, 1.546051986560266e-10, -3.483927377563742e+01, -5.667393970717497e+02, -2.136182667566555e+02, -8.106872721256671e+02, 1.113591359341869e+02, 1.498294635761315e+02, 8.447672338198597e+02
5469, 8.410870715903379e-01, 1.502732796681722e+00, -1.847355234454039e-02, -4.540042658048829e-10, 7.657727787534743e-10, -4.639082948640427e-09, 3.340519973726221e+03, 6.008642498773022e+03, 3.626203104312601e+02, 7.194365327337386e+03, -4.632257039330560e+02, -3.933624949566175e+03, 7.690702216358963e+03
5470, 8.394651609891028e-01, 1.482260576284208e+00, -1.882205386272782e-02, -2.366896851276089e-10, 5.628917761892256e-10, -4.700108410409093e-09, 5.799706696496583e+03, 6.223679287826735e+03, -1.428213802213705e+02, 1.218107002627125e+04, 1.845497446966187e+03, 3.334792300551820e+03, 9.046398340849719e+03
5471, 1.102552975856330e+00, 1.240808888453433e+00, -4.368783164779606e-03, -6.420438993048689e-10, 3.156130395269453e-10, 4.384548373987441e-09, -6.701501797001662e+03, -7.132421132489348e+03, -1.634950281200281e+02, -1.385355659718299e+04, -1.931869088564045e+02, 2.101664508000580e+02, 6.969955944313732e+03
5472, 7.468567033575310e-02, 9.459376948201063e-02, -2.380281571504004e-02, -1.310828966074261e-09, 7.259954767812204e-10, -3.736404299468436e-09, 3.030261698140856e+03, 3.885038205549601e+03, -2.361832606965482e+02, 6.567540543215269e+03, 6.339941699970570e+02, -1.116955389852800e+02, 3.410281916420326e+03
5473, 8.287387791360552e-02, 1.154432779780098e-01, -2.273670113170036e-02, -6.561541080957356e-10, 6.591660051519487e-10, -9.939453131317991e-10, 2.569837497972263e+02, 1.250049401340171e+03, 5.569032858682583e+02, 2.167083791960645e+03, 1.957457836858046e+02, 5.154118236021790e+02, 2.140123338762408e+03
5474, 1.137677627377294e+00, 1.386610311466015e+00, -3.127386270294978e-03, -6.230922563212200e-10, 5.173467856504229e-11, 3.680973688622110e-09, -8.196545915564637e+03, -8.259151790558881e+03, -3.134565712625354e+02, -1.698602090903561e+04, 5.959223469845917e+02, 7.171135913997332e+02, 8.922522540725224e+03
5475, 1.073981880385538e+00, 1.284649967984442e+00, -6.648002350364689e-03, -3.772131086629822e-10, 4.104381092892544e-11, 6.843026790160689e-10, -1.214740641127154e+03, -1.265024541597138e+03, -4.924057495331689e+01, -2.215319169292454e+03, 2.554696449519720e+02, -1.210735027377841e+02, 1.095635601322673e+03
5476, 1.055431271950066e+00, 1.276915138521054e+00, -7.823072901189403e-03, -3.490574664394325e-10, 1.095216679106114e-10, 4.551631570236696e-10, -1.116770402168494e+03, -1.265213069746820e+03, -3.258934596788301e+01, -2.196453137269169e+03, 1.676643409308593e+02, -5.736685655773631e+02, 1.449926242317721e+03
5477, 1.113022036759718e+00, 1.319752150100773e+00, -4.285026776729454e-03, -7.112253823220803e-11, 4.035003856716288e-10, -1.673512633310137e-10, -1.799364946530229e+03, -2.080063571128956e+03, -1.381820653348092e+02, -4.570918663378741e+03, 4.691471495847146e+02, -1.218756982335252e+03, 3.486547883840306e+03
5478, 4.960276695969063e-01, 9.624167686096992e-01, -1.409995073400194e-02, -2.534290438961820e-10, 4.407789360179370e-10, -5.117496130195954e-10, 1.254662744833071e+03, 9.359062287408359e+02, 9.185128129910050e+02, 4.148990423232963e+03, -1.600919836854424e+02, -5.344688947659202e+01, 3.466666934721329e+03
5479, 1.076640347592722e+00, 1.304429669138177e+00, -6.623278820661150e-03, -3.290049979747314e-10, 3.872773176396764e-11, 2.818608609733523e-10, -1.076162428190889e+03, -8.777351730967439e+02, 1.236227148121515e+02, -2.027650199573322e+03, 5.696519705354735e+02, 1.265565716802875e+02, 1.483546759744833e+03
5480, 9.846799084691128e-01, 3.175149023824236e-02, -2.631347230070208e-03, 1.036677715281794e-10, 3.750383648715235e-11, -4.178545445343278e-11, -5.939675997868105e+02, -1.309534121126110e+03, -4.863327955174700e+01, -2.776684534465669e+03, -9.516694839717974e+02, -2.149672054490262e+02, 2.564597864275017e+03
5481, 1.115623110084777e+00, 1.209036640968502e+00, -3.207615922807073e-03, -2.918086884757692e-10, 2.470027277352563e-10, 2.005391131149412e-10, -5.183287241356352e+02, -1.825912712461409e+03, 2.336922016798052e+02, -4.372852744085596e+03, -1.089969465417025e+03, -1.580012745847305e+03, 4.769095793640088e+03
5482, 7.797928137105935e-01, 3.756284595602694e-02, -1.663392783985573e-02, -2.855971330403203e-10, 3.449633649197357e-11, 6.219314894806636e-10, -3.559159546430753e+02, -2.619434979238870e+02, -1.857093612619298e+02, -6.891993595501658e+02, 1.207280844540459e+02, -1.674516899528047e+01, 5.470457245185009e+02
5483, 7.954703104484956e-01, 2.729375723020638e-02, -1.552394628122268e-02, -2.267578572043835e-10, 3.887876664128361e-11, 2.049716901746592e-10, -1.911723125538997e+02, -1.841709286230947e+02, -2.005649464546391e+02, -3.558950151142174e+02, -1.150073573641782e+02, 2.026772948015100e+02, 5.585061346712072e+02
5484, 7.609532353808415e-01, 3.115718803453333e-02, -1.782050034210701e-02, -1.909152616386476e-10, 4.776959919593845e-11, 5.049196273678249e-11, -3.762670097927244e+01, 4.999482048498812e+01, -1.783535751048905e+02, -6.924554867259161e+01, 3.405101063340203e+02, 7.235745291895726e+01, 6.858760586860155e+02
5485, 9.509001227780565e-01, 1.547155130782729e+00, -1.559332167394029e-02, -9.605953443073030e-10, 1.302352647967528e-09, -1.210926924112713e-09, 2.593485253168926e+03, 3.841384165511692e+03, -2.802708206630417e+02, 3.480453703109052e+03, 4.429765578766087e+02, -1.998138770889359e+03, 3.746883144304951e+03
5486, 9.534232660860338e-01, 1.566656813848952e+00, -1.549021853938431e-02, -3.452369691396258e-10, 1.909927082914587e-09, -4.583533694439915e-09, 5.128306592185090e+03, 7.057595046826961e+03, -2.894754406406494e+02, 7.865059224985406e+03, 4.539652313768647e+02, -6.166678686993949e+02, 2.818237538540656e+03
5487, 8.288806627481708e-01, 1.404408677406719e+00, -1.986296813162295e-02, -8.204000561059588e-10, 1.084078152511545e-09, -4.634103585631648e-09, 5.886490492329566e+03, 6.889321184579522e+03, -2.044738668636053e+02, 1.019070078414456e+04, -2.530121613507508e+03, -2.523697036602728e+03, 7.324794636625012e+03
5488, 8.313451023257648e-01, 1.424130437630026e+00, -1.963347305672952e-02, -1.240986700372383e-09, 1.835650917221871e-09, -1.325299893098378e-08, 1.182630393804976e+04, 1.051170075189544e+04, -6.456683861186694e+02, 2.486367171439523e+04, 1.437615501626799e+03, -7.823824367118093e+02, 1.407577174113253e+04
5489, 8.475734548626135e-01, 1.281838432215036e+00, -1.979072055662872e-02, -4.927718277648340e-10, 5.972438231445197e-10, -2.014799762177911e-09, 2.965132229916634e+03, 2.854504639605312e+03, 9.508564504043906e+01, 4.818118694694192e+03, -1.091121025372676e+03, -5.709184374157365e+02, 2.868342976723262e+03
5490, 8.182299565438320e-01, 1.455763096126353e+00, -1.919291996199697e-02, -6.040939150730019e-10, 5.143459068924657e-10, -4.755619650502357e-09, 4.370773225926409e+03, 5.481491681772244e+03, 5.132128171040470e+02, 6.968857136730929e+03, -1.397930475583375e+03, -3.161992937666063e+03, 6.461066846143541e+03
5491, 9.150743696514831e-01, 1.123566003920820e+00, -1.570831105950825e-02, -3.688078609501292e-10, 1.917682671715807e-10, -7.669285748977659e-10, 1.139338346116207e+03, 1.109574125048083e+03, 1.442455776801879e+02, 1.921949019651894e+03, -4.745212300815879e+02, -6.544097647969767e+02, 1.630750485667678e+03
5492, 8.502403529848008e-01, 1.301779975999993e+00, -1.966671643724674e-02, -3.845213479975223e-10, 5.350081640059449e-10, -1.368069431283455e-09, 2.547088342281967e+03, 2.804940961036804e+03, -1.401347406189337e+02, 3.299832575173335e+03, -1.128340685096179e+03, 7.145028072921945e+02, 2.418455893301868e+03
5493, 1.086703174735351e+00, 1.252835477236609e+00, -5.543873701437263e-03, -5.110414082358500e-10, 2.460586825428506e-10, 6.275260204071546e-11, -1.873253858875309e+03, -1.966290781042544e+03, 1.049527233471089e+02, -3.189447182073120e+03, 1.736712045806575e+03, -9.139758785794712e+02, 3.634029896628220e+03
5494, 9.760295034815920e-01, 1.055926640201430e+00, -1.137943003850295e-02, -3.244602238948486e-10, 3.419150576891315e-11, 2.892652667640177e-10, -1.516423546121442e+02, -2.157154868717836e+02, 8.435463229078177e+00, -3.744531302285590e+02, 4.756099496443831e+02, -2.901329917463883e+02, 9.853086958585116e+02
5495, 9.917512772980046e-01, 1.043805202583874e+00, -1.026097128837633e-02, -3.682316450586517e-10, 6.943842752222320e-11, 1.425043985108290e-09, -9.221309025178878e+02, -1.097532930904864e+03, -5.434769784331600e+00, -2.052266908361561e+03, 2.266110719731398e+02, -7.631659334286192e+01, 1.131973553903568e+03
5496, 9.893313379904869e-01, 1.024149857029586e+00, -1.027239467530133e-02, -3.941038141179554e-10, 1.015632384949727e-10, 3.557221549616182e-10, -5.085354103391018e+02, -6.145949538890554e+02, -3.504300247229302e+01, -1.178946848436735e+03, 4.443224086185760e+02, 4.448430580152092e+02, 1.256663787676117e+03
5497, 1.010196100861636e+00, 1.051639441172421e+00, -9.103616561653906e-03, -4.203951248256958e-10, 6.828079158127028e-11, 2.827922939133241e-10, -5.877684795112247e+02, -7.666614910969156e+02, -8.124211034828798e+01, -1.104840920356909e+03, 8.279396952460850e+01, -1.642455115721445e+02, 5.728534737528482e+02
5498, 9.495019930265284e-01, 1.119594216331354e+00, -1.354190734846949e-02, -3.187146106533420e-10, 1.295870654911970e-10, -2.711059552243495e-10, 5.291684777245669e+02, 2.899861739214528e+02, 9.520781982703436e+00, 4.619858476556907e+02, 6.145137149004258e+02, -1.754971032948848e+01, 1.086153771005243e+03
5499, 9.652875627980053e-01, 1.107520786162683e+00, -1.244977337161370e-02, -3.767631157614668e-10, 1.021989944730211e-10, 6.702771725814094e-11, 6.658643537785674e+01, 1.213325040004065e+02, 1.830065229553217e+00, 5.963127044603052e+00, 2.494341478145930e+02, -1.139155774568520e+02, 4.853696646961221e+02
5500, 9.836638003835709e-01, 1.115393478665645e+00, -1.132048048733921e-02, -3.377332484090052e-10, 1.042453965762209e-10, 5.307152053918668e-11, -4.238670702838102e+01, -1.146005690862337e+02, 6.108559250784765e+01, -2.168787619337178e+02, 1.094259186898524e+02, -1.565808338149366e+02, 3.791183065340869e+02
5501, 1.172518589934707e+00, 1.533256439145323e+00, -1.900634114407478e-03, -5.985519064577246e-12, 2.117039872439402e-11, -1.116513982702772e-10, -1.362643498365691e+02, -2.163437391174966e+02, -7.664339501579863e+01, -7.807605782223129e+02, -3.656620662032151e+02, -4.439494106164984e+02, 1.174818854192819e+03
5502, 1.105532401976930e+00, 1.260527491786358e+00, -4.322907784008624e-03, -1.442978567846644e-10, -1.094928364170004e-10, 8.626012082792934e-11, -2.795482293466835e+02, -1.030826312102676e+03, 7.785570789420187e+01, -1.099732966390649e+03, 1.709237322367998e+02, -1.309072119143364e+03, 2.422348794784346e+03
5503, 7.488316378524214e-01, 1.183949701508300e+00, -2.318167414087132e-02, -8.448592756505631e-10, 8.953509670670569e-10, -5.198949133856672e-09, 4.968526373759294e+03, 5.189580903083914e+03, -4.276471578871863e+02, 8.866137445146165e+03, 9.670528350433138e+02, -4.496325530551925e+03, 8.853457079027301e+03
5504, 8.343144146640833e-01, 1.313580893273235e+00, -2.020667196859506e-02, -7.321084223622155e-11, 5.769777556946614e-10, -2.551626107298469e-09, 1.329349168194257e+03, 1.344818948689141e+03, -2.014758670715159e+02, 2.182009368276404e+03, 2.262492323518228e+03, 2.200094348663526e+02, 4.041989959913893e+03
5505, 8.183465924028817e-01, 1.325472528831869e+00, -2.064309689200623e-02, -7.391574506751833e-10, 7.833525905454036e-10, -3.336308339789339e-09, 2.798561426644724e+03, 3.513998388527310e+03, -5.379445237571906e+02, 5.059550186860684e+03, 9.374618368419491e+02, 1.753356014168931e+03, 4.090691169788363e+03
5506, 7.692261868915861e-01, 1.342002235756834e+00, -2.098955414374063e-02, -7.003486632876749e-10, 1.050168625784746e-09, -4.732190251463641e-09, 5.496558383684362e+03, 5.937115709599155e+03, 1.007077009237513e+01, 9.350424220449435e+03, 3.313436940987291e+02, -3.630129346491786e+03, 7.294635784368739e+03
5507, 7.850538900341604e-01, 1.330037754240249e+00, -2.120567592774364e-02, -8.325047388704364e-10, 5.532552256845409e-10, -2.941727362047006e-09, 3.831311105516573e+03, 3.850976887213640e+03, 2.117620505526771e+02, 6.643893435975423e+03, 4.202658508522883e+02, 1.413246556657740e+03, 3.809447679456795e+03
5508, 8.211377160460306e-01, 1.345283045266263e+00, -2.046182585893999e-02, -1.149103389135703e-09, 8.003808906443062e-10, -3.240854281094602e-09, 4.974223984437884e+03, 4.659847494284510e+03, -6.825238144503101e+02, 9.242600581876772e+03, 3.374184809333573e+03, -1.744628184909925e+03, 8.021459765760519e+03
5509, 8.529942615809087e-01, 1.321379570582708e+00, -1.953814714887449e-02, -5.867936733273903e-10, 6.729223025432695e-10, -1.734759797157256e-09, 2.223359616524671e+03, 1.817307455113487e+03, 5.584248810640464e+01, 2.518082291132596e+03, -1.874171465185000e+02, -1.429096245671164e+03, 2.571593191154381e+03
5510, 7.529930028202632e-01, 1.353783225951491e+00, -2.028905140656611e-02, -1.123007839012825e-09, 6.249972897203887e-10, -3.185155434193874e-09, 2.577419319170851e+03, 2.620566071442814e+03, 5.696893360700541e+02, 4.471167811717084e+03, -2.184368835440009e+03, -4.847955963712730e+02, 4.415830120779425e+03
5511, 7.370239413119281e-01, 1.365763906523633e+00, -1.883745552977691e-02, -9.280303259076366e-10, 4.537582321833285e-10, -2.148445280461683e-09, 1.202494263589705e+03, 3.020449369261148e+03, -2.690381681382340e+02, 3.053055261571866e+03, -6.997091246732037e+01, -1.988741530885193e+03, 3.932227229239720e+03
5512, 7.211795315592793e-01, 1.377486702441816e+00, -1.612612875059328e-02, -4.863787067869695e-10, 1.868680801421085e-10, -7.763542023486891e-10, 3.077664430659146e+02, 1.225520285894713e+03, 4.084294448918149e+02, 2.486340139748734e+03, -1.224220092834088e+03, -3.812689405393144e+02, 3.003622386787129e+03
5513, 7.135896727572840e-01, 1.038185159894485e+00, -2.491173780044156e-02, -7.899737107969204e-10, 6.001537097903755e-10, -2.889231520201335e-09, 2.553419599174617e+03, 2.091883965593541e+03, -1.462966095228562e+02, 3.536694909280522e+03, -2.507000697789353e+02, -2.281611952318744e+03, 4.183740078146549e+03
5514, 1.159822496122823e+00, 1.434542033627062e+00, -1.973753235583491e-03, 1.349167355686320e-10, 1.072717105923432e-10, -4.648178391766683e-11, -7.879941592180678e+02, -1.578232439358757e+03, -8.521394987843095e+00, -3.756534835608215e+03, -8.614507015873421e+02, -4.592634035951515e+02, 3.154383332143282e+03
5515, 1.118283405111822e+00, 1.228745833295768e+00, -3.183993932939232e-03, 8.388348424600023e-11, -3.724877038820395e-11, -1.867859939936039e-10, -8.942494772802085e+02, -1.349103447131893e+03, 5.764118160881267e+00, -2.646713717492522e+03, -5.031808285964543e+02, 2.911526323357712e+02, 1.869462438871875e+03
5516, 1.136906281590597e+00, 1.235929656809316e+00, -1.934145566661371e-03, -1.092769067771422e-11, 1.173911922565398e-11, 2.104703422543374e-12, 5.265553828055224e+01, 1.224691915593982e+01, -2.909743527605991e+01, -3.196554906751204e+01, 8.123264717377626e+01, 1.478245817783487e+01, 1.684219046437182e+02
5517, 8.125563222335063e-01, 8.558741298760648e-01, -2.021849833329780e-02, -4.881688352225512e-10, 2.778610111385376e-10, -6.611691154989107e-10, 1.552412154142862e+03, 1.352934262001642e+03, -1.099369267124061e+01, 2.147233339774079e+03, -4.950002299990600e+02, -2.691264222518006e+02, 1.210364700838002e+03
5518, 8.099782468377783e-01, 8.360625370219292e-01, -2.025768378018156e-02, -5.452653003017016e-10, 2.339968791388532e-10, -8.873497463850036e-10, 1.671361081666834e+03, 1.314354463561402e+03, 7.215525583616714e+01, 2.038538115814370e+03, 1.069379548037235e+03, 1.955117492972691e+02, 1.988559493562765e+03
5519, 7.061740157431404e-01, 9.789205510810742e-01, -2.535841970585438e-02, -7.983364957080497e-10, 9.891260899245349e-10, -8.976327989639380e-09, 6.028655487869884e+03, 5.868474296919821e+03, -9.108616569998901e+00, 1.121746554239385e+04, -5.761679876239087e+02, -3.899620940115544e+01, 5.364818471638037e+03
5520, 7.036464495369199e-01, 9.591716986774617e-01, -2.549806582148965e-02, -7.959690593237811e-10, 6.051480241872325e-10, -4.037542483352692e-09, 3.321033939416872e+03, 2.889560342628268e+03, 4.394209781440858e+01, 5.296653497732936e+03, -2.075033474050418e+03, -1.886761236156802e+03, 5.342692031794577e+03
5521, 7.196700269103987e-01, 9.472986335371583e-01, -2.496222133802188e-02, -6.953266823988448e-10, 3.223570169453721e-10, -2.998840394771434e-09, 2.840517872463645e+03, 2.812164424760343e+03, -4.134640834936938e+02, 5.517590850968123e+03, 6.724635718136926e+01, 1.932675532922670e+03, 4.356094111504430e+03
5522, 7.011638184737539e-01, 9.394377383863457e-01, -2.563139145190146e-02, -5.473977756201877e-10, 6.578745701266449e-10, -2.742989685577954e-09, 3.113923144414002e+03, 3.048169931432859e+03, -2.063184932272644e+02, 4.479979334939124e+03, -1.265550963707385e+03, 7.288764518107272e+02, 2.913176602526273e+03
5523, 7.172025122590067e-01, 9.275135264111778e-01, -2.508055779088940e-02, -3.759159847229895e-10, 7.295991290612667e-10, -8.933396917147754e-09, 6.756317339074059e+03, 6.781035313707120e+03, -1.076016639523759e+02, 1.459731047865179e+04, -1.211230389720909e+02, -1.203226865203337e+02, 7.836462868941117e+03
5524, 6.888812464217849e-01, 8.407608073232619e-01, -2.624235886050184e-02, -6.519446014747872e-10, 5.592942147781836e-10, -3.168648030301587e-09, 3.722044130199163e+03, 3.153760142560802e+03, 3.991982585398763e+02, 5.281847165758541e+03, -1.698126475383381e+03, -2.266052186206478e+03, 5.308135185657554e+03
5525, 7.048192971191055e-01, 8.288206914360500e-01, -2.562748211303748e-02, -9.097535856971975e-10, 7.244642332788993e-10, -2.466527332100465e-09, 2.214566400242039e+03, 2.611405092419078e+03, 1.751187674763245e+02, 3.351675289712075e+03, -4.056325904620873e+02, -1.772734061481498e+03, 3.318526792309004e+03
5526, 6.766153694556528e-01, 7.420821097051578e-01, -2.677638028951359e-02, -7.276095045504275e-10, 6.439731518221132e-10, -2.677120741094810e-09, 2.775664378436191e+03, 2.705354492466674e+03, 3.476053876288524e+02, 4.679359462866410e+03, -6.207602359165609e+02, -2.208031028321702e+03, 4.461789823934044e+03
5527, 9.159648949357817e-01, 2.049042654060310e-02, -7.356928300922831e-03, -2.067292155346226e-10, -1.313350299928109e-10, 6.570509868169649e-11, -1.193411349380614e+03, -1.119655948559708e+03, -1.625613521175559e+02, -1.957879492159770e+03, 9.225155155301042e+02, 7.612432144200271e+02, 2.239886594908266e+03
5528, 8.246089728529209e-01, 1.583530247896507e+00, -1.437699165912084e-02, -1.171856159538749e-09, 2.134487630661085e-09, -3.173600863940535e-09, 9.652882183153102e+03, 1.301002584907073e+04, 3.201907825140635e+03, 2.080355828118786e+04, -3.299334228145813e+02, -3.118206236628408e+03, 1.258675530701554e+04
5529, 7.842243944233611e-01, 7.690061056625703e-01, -2.138285071330888e-02, -2.603362913558003e-10, 3.255943780850170e-10, -1.656970442523931e-09, 1.597306819507453e+03, 1.258784290618841e+03, -1.980031660969023e+01, 2.427460261378184e+03, 3.437084621306587e+01, 5.131418463067156e+02, 1.370927338788443e+03
5530, 8.636928614331492e-01, 1.270169791645894e+00, -1.913422912588889e-02, -5.481491567540170e-10, 4.021237117342621e-10, -1.129016263603303e-09, 1.835190271294257e+03, 2.136416667094776e+03, -1.750410603983465e+02, 2.089948630897907e+03, 9.236925024287656e+01, -9.302458570542918e+02, 1.671073199533432e+03
5531, 8.268536781041687e-01, 1.254397980169824e+00, -2.059172157592973e-02, -5.461974446420514e-10, 1.738400192029663e-10, -6.870050847086294e-09, 5.383365389883115e+03, 4.803293073251342e+03, -1.813574144552913e+02, 9.322797414305389e+03, 9.462608900836826e+02, 8.689671879218236e+01, 4.576933219857649e+03
5532, 9.165745743040332e-02, 8.325816031545179e-02, -2.949932915526755e-02, -8.588113459577310e-10, 4.668849709361223e-10, -2.628432302866688e-09, 2.643235866258015e+03, 3.708086440029985e+03, 1.257983354531128e+02, 3.427249146011805e+03, 1.519200172533050e+02, 1.925001776041673e+03, 3.485302975112489e+03
5533, 8.244872930484833e-01, 1.234754093960736e+00, -2.070742548390412e-02, -2.240447341902127e-10, 3.023970293829156e-10, -3.099873328901471e-09, 3.769364764748561e+03, 3.043147429537287e+03, 1.200435455866971e+02, 4.058391727879694e+03, 2.478226990176592e+03, -8.821579765136055e+02, 4.650106566946339e+03
5534, 6.988549704223463e-01, 9.196505541319500e-01, -2.575466690402175e-02, -4.333878531711233e-10, 6.672713437143714e-10, -3.095736469691619e-09, 3.789296257976578e+03, 3.470915127482077e+03, 6.673674496618144e+02, 5.666178584667746e+03, -2.257899343273196e+03, -1.455893563609427e+03, 5.216412771898011e+03
5535, 7.148704414650064e-01, 9.077835638076528e-01, -2.519232838645801e-02, -9.170879734876594e-10, 6.055442299237520e-10, -2.461627433345557e-09, 1.819067500901115e+03, 2.022059571578096e+03, 1.639526163081180e+02, 2.595262071330685e+03, -5.449472201570285e+01, -1.609924011013455e+03, 2.889851002716375e+03
5536, 9.276177704092947e-01, 2.497812979660364e-01, -8.398483438376779e-03, -8.598044414358975e-10, -1.570132840197004e-10, 5.559435549804564e-10, -2.104355905883248e+03, -2.098214848171044e+03, -8.454564126087361e+01, -4.069040788724567e+03, 1.678005427501268e+03, 7.212335832384971e+02, 3.728427796004605e+03
5537, 9.849809713881756e-01, 2.927837468269398e-01, -4.790395008335911e-03, -2.512486931130352e-10, -1.104682176100620e-10, -2.097750406390543e-10, -1.889373053059421e+03, -3.212932972661581e+03, -1.083279463377849e+02, -5.043225333850968e+03, -1.451308494735003e+02, 7.374999163107267e+02, 3.042103663681556e+03
5538, 6.496634320169572e-01, 5.250513769850449e-01, -2.761401437001885e-02, -7.288296674784227e-10, 5.128994164250677e-10, -1.961766433187238e-09, 1.098595722709184e+03, 3.680647938952598e+02, -1.943585218563424e+00, 1.849015746802538e+03, 1.236863203720147e+03, 3.947506234971279e+02, 2.588821727869786e+03
5539, 1.156016511456845e+00, 1.394879644182470e+00, -1.911506038431681e-03, -1.900286495526255e-10, -6.872720591563940e-11, -2.880096475419666e-11, 2.659456567094625e+02, 1.217949106454375e+01, -1.516264085862992e+02, -3.682818582546466e+01, -3.155088814908308e+02, -1.764811493340234e+02, 7.350384778524995e+02
5540, 1.136663787968825e+00, 1.366089747395338e+00, -3.030176475014427e-03, 1.060118523302983e-11, -3.069297261509912e-10, -2.623942587352670e-10, -5.056621124758788e+02, -8.334124847203110e+02, -1.447511356376091e+02, -1.698049042923870e+03, 6.989366033388853e+01, 1.049579056617023e+03, 2.126208896471088e+03
5541, 7.380292019344634e-01, 9.550974259898161e-01, -2.426696901783901e-02, -5.632033731336032e-10, 3.750988489206552e-10, -2.273588701938982e-09, 2.457862334054486e+03, 2.350623164227189e+03, -1.077083953165184e+02, 3.467397590380984e+03, -9.754494400966829e+02, -3.241498317526637e+02, 2.084094734460723e+03
5542, 8.910335051225265e-01, 2.343181147657143e-01, -1.075125701828154e-02, -3.491278837729930e-10, -3.675906940277322e-11, 5.664211018453893e-10, -9.178447733636143e+02, -6.642382172358776e+02, 9.484074559569488e+01, -8.468510557303715e+02, 9.705148848716505e+02, -3.870535723847458e+02, 1.831246856940322e+03
5543, 1.144582731832415e+00, 1.446456163887486e+00, -3.136465589686858e-03, -1.606576397524307e-10, -8.471256984929759e-11, 8.047047102687130e-11, -5.020650353585108e+02, -9.608357833508493e+02, 3.708445523451492e+02, -1.262980805174562e+03, 4.656306475312403e+02, -9.258678698157757e+02, 2.018683777597532e+03
5544, 9.275236845146430e-01, 1.501029217988869e+00, -1.654163482760262e-02, -6.276727897390464e-10, 1.061756683655091e-09, -2.144621406529087e-09, 4.343503162427824e+03, 4.547579216707679e+03, -4.334812456547804e+02, 6.738787548858342e+03, -1.141721484343286e+03, -5.331236241673762e+02, 3.258401195635648e+03
5545, 9.455264416224236e-01, 1.508498632422575e+00, -1.579410721897235e-02, -6.428007697096108e-10, 9.504256909663550e-10, -1.643216684284359e-09, 2.835386219321983e+03, 3.027361337244286e+03, -4.503893028520808e+02, 4.864957991813701e+03, 1.718012990876774e+03, 1.776990835951109e+02, 3.650257130806956e+03
5546, 9.176264422664945e-01, 1.143391143128082e+00, -1.567775672741586e-02, -2.422642659969427e-10, 2.571917832817597e-10, -2.251438111919819e-09, 1.860684936764954e+03, 1.772678451642693e+03, -5.071258223883754e+01, 3.537296861892341e+03, -1.047630157909370e+02, -6.850313506895398e+01, 1.738115248283358e+03
5547, 9.016856569521571e-01, 1.155268812329863e+00, -1.669904132062762e-02, -3.972735828833563e-10, 1.800450335279181e-10, -7.104068023101030e-10, 1.317539028860547e+03, 1.353939832167483e+03, -1.211203735163287e+02, 1.738805893545439e+03, -6.194873094006748e+01, 1.406856158328297e+02, 5.275955225605621e+02
5548, 6.521211489180380e-01, 5.447932469477419e-01, -2.755197630008445e-02, -8.232125725055652e-10, 3.035826187673243e-10, -2.028181174935320e-09, 2.043462829925989e+03, 1.475349177040188e+03, 2.117355200124177e+02, 2.152953285713982e+03, -1.009634663038231e+03, -3.632667371759005e+02, 1.996350350525375e+03
5549, 7.698119321554591e-01, 1.211537020074251e+00, -2.252005744316363e-02, -1.040749928783635e-09, 5.926164650998098e-10, -4.114903530031652e-09, 5.221269600316451e+03, 4.714288442736731e+03, -4.325800972941196e+02, 1.054905254040514e+04, 3.379106778743898e+03, 1.056714234260040e+03, 8.337252900085719e+03
5550, 3.613386998446720e-01, 1.599804985259562e-01, -3.882509599516259e-02, -1.349118069318494e-09, 5.902118979270039e-10, -6.421751538682211e-09, 5.187378305064572e+03, 4.573249115878887e+03, 9.717027784426585e+01, 5.450625074516071e+03, -1.584816725890906e+03, -6.137616713515462e+02, 3.049834350920711e+03
5551, 1.152365969400151e+00, 1.355098406267166e+00, -1.836990084419940e-03, 1.511131846035311e-11, -3.736390776855977e-11, -2.579260271407233e-12, 1.553637513726758e+02, -1.568593242750804e+02, 1.937331416830095e+02, 4.859276194930229e+02, -1.212962035189089e+02, 1.513160841307729e+02, 7.317041457786112e+02
5552, 8.762484502731813e-01, 1.368634745749916e+00, -1.861647304818932e-02, -5.227767024278651e-10, 6.439738472330752e-10, -1.774560326682158e-09, 3.014915150358730e+03, 2.447218823266357e+03, 1.845472870010558e+02, 3.666744741280938e+03, -1.944636549786898e+03, -5.196401379714097e+02, 3.657087209070233e+03
5553, 1.154300824057788e+00, 1.580014657069494e+00, -3.545383069355691e-03, -3.336336904908895e-10, 1.435985044992811e-10, -2.553678094213378e-11, -1.621027091941239e+03, -2.093587134124024e+03, -7.348401324183553e+01, -5.207715183112307e+03, 7.293035003449809e+02, -2.716671481936036e+02, 3.636753852934167e+03
5554, 9.355339634466016e-01, 1.559065814482909e+00, -1.617047572800825e-02, -1.133942672209769e-09, 1.956255894857835e-09, -1.371606751050986e-09, 3.972610376650582e+03, 4.271631939631702e+03, -3.489517365064704e+02, 3.068497019543758e+03, -4.898166788814242e+02, -1.315366573801769e+03, 2.729984431671686e+03
5555, 9.199377018642455e-01, 1.570473161059294e+00, -1.665877522470174e-02, -1.286158166684326e-09, 2.562808389032179e-09, -2.008010973079460e-09, 5.500732759264612e+03, 5.813756774298105e+03, -5.161370797768107e+02, 5.008155008541761e+03, 3.331368355684094e+03, -3.952827761160964e+02, 5.920877365572275e+03
5556, 9.171029377884765e-01, 1.551521971668080e+00, -1.681404626642547e-02, -1.261555021728931e-09, 2.085791001280022e-09, -1.969459353404939e-09, 4.270808244330626e+03, 4.721842337249458e+03, -8.355728159950329e+02, 3.990883539373519e+03, 2.865193234091313e+03, -1.992160174785843e+03, 6.247935199996246e+03
5557, 8.209313096516309e-01, 1.475146368621092e+00, -1.880908889848818e-02, -3.404967714487009e-10, 1.549868947618163e-09, -1.489880838564501e-08, 1.036843854219631e+04, 9.921140057024128e+03, -4.490784524636850e+02, 1.823688405962994e+04, -4.713986847934179e+02, -1.048869839684788e+03, 8.378788868777170e+03
5558, 7.647581163262018e-01, 1.172001376259307e+00, -2.285776773228254e-02, -8.473868093845089e-10, 7.938914998706686e-10, -4.152000479084760e-09, 4.276194993352450e+03, 4.738075347305685e+03, -3.644455752948642e+02, 7.145066218113143e+03, 7.686019537362752e+02, -2.067416623560768e+03, 4.702342333022241e+03
5559, 1.005806119863435e+00, 3.204239254265565e-01, -3.555159070191318e-03, -2.707707014484197e-10, -6.712922254227443e-11, 3.791997916233372e-11, -2.204379220564387e+02, -3.149398122412639e+02, -1.847698622394430e+01, -5.284635720783945e+02, -6.436718791271738e+02, -3.095563167917987e+02, 1.267336341687424e+03
5560, 1.008269703881833e+00, 3.401885147336263e-01, -3.546112488574692e-03, 4.741557572369063e-12, -8.972184080708678e-11, -4.324997092880586e-12, 9.093287927660177e+01, -4.667287836392087e+02, 1.858491827678866e+02, -6.963064964509799e+01, 7.840310309070212e+01, 1.775528030804181e+02, 6.810748432720735e+02
5561, 1.024052711623637e+00, 3.282083656356068e-01, -2.325749108601294e-03, -4.359484985823225e-11, -3.254123544157516e-11, 1.525977864052984e-11, 3.367704658107376e+02, 6.057874431447749e+01, 1.433352264876511e+02, 2.983345960305710e+01, 9.931120495915296e+01, 1.187055847684394e+02, 4.682038957347115e+02
5562, 7.622283942609349e-01, 1.152268402132547e+00, -2.301409167868766e-02, -8.783888447225152e-10, 3.027848179728583e-10, -4.895646538832050e-09, 5.921456036778104e+03, 5.115271222453546e+03, -4.024892631826494e+02, 8.850392614073942e+03, 9.577005216702813e+02, 1.586686548071193e+03, 4.730766736317633e+03
5563, 9.666882191077998e-01, 2.850300296570340e-01, -5.999820487635260e-03, -7.615725588933057e-10, 3.372716437147224e-10, 1.458931405826757e-09, -4.569248247450081e+03, -4.405699397585015e+03, 1.674792827249250e+02, -8.743968465669132e+03, 1.423987663836554e+03, -7.753356281727390e+02, 5.109658927613617e+03
5564, 9.480368634745224e-01, 1.528115792051274e+00, -1.570458365838607e-02, -9.614502846819153e-10, 9.355982561145904e-10, -1.061982684099996e-09, 3.153461640755053e+03, 3.565597448475489e+03, -5.124574868580128e+02, 4.741274590347884e+03, 1.270232682978557e+03, 6.180265744365549e+02, 2.968298012122638e+03
5565, 3.454535186157311e-01, 1.720172496872911e-01, -3.909223774356608e-02, -1.885830670535422e-09, 1.179782921708609e-09, -7.048662895901245e-09, 5.028149782866286e+03, 5.304337934305619e+03, -1.879300235101637e+02, 8.140453971885177e+03, 2.238738697529673e+03, -6.620940535530023e+02, 5.035876018649476e+03
5566, 9.093121040485412e-01, 2.420680321052882e-01, -9.579755486125890e-03, -6.180253782022042e-10, -8.004939403618839e-11, 5.571579114754269e-10, -1.167525595480933e+03, -1.357182911169236e+03, -2.806111239495630e+02, -1.973536084126684e+03, 1.637044029383761e+02, -6.911532035920329e+02, 1.510781412147838e+03
5567, 7.599017681871393e-01, 1.132642278134817e+00, -2.315676242176369e-02, -1.628948729209063e-10, 7.903320981547503e-11, -3.976436598224969e-09, 2.765369733474231e+03, 1.122058450864797e+03, -2.687814037882059e+02, 3.519020947990131e+03, -7.495881149571868e+02, -2.750119665517912e+03, 5.394330129681198e+03
5568, 2.546195423256847e-01, 4.135880049686854e-01, -2.657788065165979e-02, -2.140139986529230e-09, 1.236066536337903e-09, -3.169599005303435e-09, 5.025781047805670e+03, 2.545220424638874e+03, 7.670759783172849e+02, 5.446933284436783e+03, 1.821614780454818e+03, 1.890557600118135e+03, 5.460579262213190e+03
5569, 9.511986337302412e-01, 5.778239947833063e-01, -9.387307883085555e-03, -4.608550366868054e-10, 1.476771332204614e-10, 4.466192241049185e-10, -8.506966478740552e+02, -1.020205517607306e+03, 4.168066274168136e+00, -1.580300136810196e+03, 8.250144945015543e+02, -5.649026744857862e+02, 1.853840394124850e+03
5570, 9.487660803747957e-01, 5.581181534717368e-01, -9.397123673709129e-03, -2.639798201390407e-10, 2.097050438041873e-10, 6.205819345915201e-10, -1.087963307403300e+03, -1.115812519686007e+03, -1.775028973101264e+02, -1.795321855983002e+03, 1.232862971295321e+03, 4.858271114823114e+02, 2.417414200521242e+03
5571, 2.699207623991697e-01, 4.012772030308348e-01, -3.014736075617427e-02, -2.854995809392215e-09, 1.401727854633083e-09, -5.713892077602382e-09, 4.915801015627618e+03, 3.704261388687136e+03, 6.578580033718673e+02, 6.679701648785354e+03, -4.706533431320735e+03, -1.113427820592701e+03, 8.842402164547100e+03
5572, 2.858538025439932e-01, 3.897106151580439e-01, -3.264288783069313e-02, -2.733957167862348e-09, 2.214813004786483e-09, -8.530604148275003e-09, 7.310860222912371e+03, 7.797567480038749e+03, -2.698367131117361e+02, 1.519319353225155e+04, 1.228722778808875e+03, -5.156288888835247e+03, 1.195998885455212e+04
5573, 2.882883028506849e-01, 4.093597816070382e-01, -3.173026976070324e-02, -2.737301677234782e-09, 1.345371935071898e-09, -2.348873964248149e-08, 1.661779451683110e+04, 1.770227817951364e+04, 5.304839822113720e+02, 4.009098878518819e+04, 1.284902281318758e+03, 1.807550974877882e+02, 2.307825463242871e+04
5574, 3.042786116061593e-01, 3.975904374782397e-01, -3.368876666611900e-02, -2.857698068037070e-09, 1.065251975507760e-09, -6.952161035743414e-09, 6.484367629044046e+03, 5.581949660740286e+03, -1.305020709061362e+03, 1.017744361646203e+04, 5.115019039263861e+03, -2.538997718711683e+03, 1.098748794237881e+04
5575, 7.390757081269009e-01, 1.105014298801176e+00, -2.388790370070342e-02, -7.888447763687938e-10, 8.659767812696191e-10, -3.591448417109341e-09, 2.235449516144219e+03, 3.076931065858426e+03, -2.824012639047815e+01, 4.808896155653594e+03, -9.216454159464183e+02, 1.265804006260339e+03, 3.538738986956415e+03
5576, 9.452735796460612e-01, 1.230185905955089e+00, -1.454383746480733e-02, -3.635337562792872e-10, 1.374535793769053e-10, -5.845581695505519e-10, 9.383192061065115e+02, 8.542218430784695e+02, 3.164999227208524e+01, 1.377682936778453e+03, 4.953052204185261e+02, -6.161914438395127e+02, 1.454346871277613e+03
5577, 8.568703601358173e-01, 2.386262894424848e-01, -1.306677174324288e-02, -5.339119900012184e-10, -8.337829743873880e-11, 5.688195409197397e-10, -5.290807221294680e+02, -9.038024723271477e+02, -7.813534591726324e+01, -1.614826377557403e+03, -1.097130179989110e+01, 9.982679240680820e+02, 1.980075896521228e+03
5578, 7.366373590176721e-01, 1.085380149433633e+00, -2.404150463188679e-02, -8.759378351682488e-10, 8.773290390170011e-10, -3.610958327579786e-09, 3.498936856601763e+03, 3.481907052327419e+03, 1.215645275854231e+01, 6.047250862275549e+03, -1.469884289034704e+03, -1.320221489845945e+03, 4.271846056300521e+03
5579, 7.159610574302181e-01, 1.057774597923751e+00, -2.475260305252782e-02, -8.879143599575686e-10, 9.929316364040906e-11, -9.355404818589685e-09, 6.364963664823878e+03, 5.687490756883425e+03, 2.196801295350976e+02, 1.205620552849234e+04, 3.002256647704156e+02, -4.174214926616087e+02, 6.135370583904727e+03
5580, 8.920469347507948e-01, 1.356562697855703e+00, -1.798122744738696e-02, -5.053434813704470e-10, 3.808250009466261e-10, -1.843722499976801e-09, 2.656703753729106e+03, 3.213947696046073e+03, -3.262481567959738e+02, 4.648857743401491e+03, 8.055661229709812e+02, -2.506549741590013e+03, 4.927837388041303e+03
5581, 9.041266230141554e-01, 1.175058377853960e+00, -1.666777447330557e-02, -4.848882363099497e-10, 2.271163149427079e-10, -1.211601926447876e-09, 1.526954958953569e+03, 1.341401248970073e+03, -8.201707654772852e+01, 2.854966073150272e+03, -3.678684042250251e+02, -1.145288965238585e+03, 2.530945163484668e+03
5582, 7.109657267512627e-01, 1.018387654505405e+00, -2.507170049903425e-02, -7.815361907439006e-10, 5.393469186634547e-10, -2.291934737461738e-09, 2.483627206946479e+03, 1.725052706773103e+03, -1.037125324669022e+02, 2.204119725124156e+03, 6.708024828837671e+01, -3.687901835543643e+01, 7.009855845007244e+02
5583, 1.017921814251759e+00, 1.539106544584991e+00, -1.206739090998765e-02, -2.587187347047852e-10, 3.566665691200830e-10, -1.034953810140848e-09, 1.711168552348264e+03, 2.240817364403641e+03, -3.859660136790476e+02, 2.184102998183281e+03, 1.019741794975841e+03, -2.709358732176727e+02, 2.010087984479426e+03
5584, 1.035853090082150e+00, 1.546734529095023e+00, -1.102870093949370e-02, -5.033144033327316e-10, 3.431083907850516e-10, -2.289609226343696e-10, 8.022452810936956e+02, 1.335018313426163e+03, -1.296743972431776e+02, 7.571915464813429e+02, -3.986939449157630e+02, -4.765173521508336e+02, 1.232235225730756e+03
5585, 1.051425472933615e+00, 1.535054048499420e+00, -9.978199460711389e-03, -2.943657337770771e-10, 4.017837401206357e-10, -3.277586144445051e-10, 1.708027514725771e+03, 1.443063055635245e+03, -1.400265859937192e+02, 2.129523298994944e+03, 1.173297957736830e+01, -1.175839100889190e+03, 2.136954458932102e+03
5586, 1.053738175585123e+00, 1.554406452690213e+00, -9.965875317052704e-03, -3.460947812444731e-10, 3.205095044113785e-10, -3.261336949920542e-09, 3.300479055645726e+03, 3.390066197395700e+03, -2.270381237384788e+02, 5.452729044327157e+03, 1.088897441523594e+02, -2.769992278472202e+02, 2.206306306850751e+03
5587, 1.038178438202460e+00, 1.566067886305994e+00, -1.101077007314314e-02, -5.690263529003463e-10, 9.763050298512418e-10, -5.293623917065356e-11, 8.798492113810769e+02, 1.777662857308448e+03, -4.885240013821673e+02, 6.178231645991400e+02, -6.207542373454556e+02, 5.035194289035288e+02, 1.934566506370651e+03
5588, 1.055358166553143e+00, 1.571517989852015e+00, -9.981225872758643e-03, -4.353927993366970e-10, 4.300001337677391e-10, -4.028779592501108e-10, 1.518678161200185e+03, 1.822632196834913e+03, -4.761277553675505e+02, 1.931618977403020e+03, 2.539257594331991e+02, 1.121393588015527e+03, 2.187119492811029e+03
5589, 1.071573021326364e+00, 1.562084361750969e+00, -8.885369444233940e-03, -2.968819536654046e-10, 3.555903574275264e-10, -2.909733259087159e-10, 1.026841613834761e+03, 9.091696547142274e+02, -1.338987335183456e+02, 1.571612618951503e+03, 1.499599041090489e+03, 1.136416103350512e+02, 2.685823546112801e+03
5590, 1.087486402467925e+00, 1.550261232984814e+00, -7.769785654258024e-03, -2.922308097277743e-10, 2.706359434940807e-10, 7.371236145854409e-10, -2.351888992138112e+02, -1.724827477759477e+02, -1.206280427446596e+02, -7.290909736296734e+02, 3.625440156149286e+02, -3.632531190657586e+02, 1.054830966653453e+03
5591, 1.069365897032539e+00, 1.542661568991113e+00, -8.887729503439993e-03, -2.807495463247032e-10, 2.148936175783987e-10, -2.537290842631106e-10, 7.292147869020636e+02, 8.791310400657944e+02, -1.311424818169060e+02, 9.450551803686665e+02, 9.743512422199158e+02, -7.255180162594539e+02, 2.124972760379178e+03
5592, 1.067141600856541e+00, 1.523208056378319e+00, -8.890659610631494e-03, -2.604723468053656e-10, 1.157707351469723e-10, -6.126266727683177e-11, 6.260083509880640e+02, 6.268392365775858e+02, -1.360619097887443e+02, 7.799961869256412e+02, 2.727988847449292e+02, 4.395689310020423e+01, 5.551376833787632e+02
5593, 1.049121324611970e+00, 1.515633206567897e+00, -9.989050583996467e-03, -2.985538828388720e-10, 2.828140936071408e-10, -2.391731113247245e-11, 8.543057623119171e+02, 7.976902437958109e+02, -1.540567917496041e+02, 7.587012817839170e+02, 1.801419466307250e+02, -2.180420182651657e+02, 5.640156466305032e+02
5594, 7.098772846988937e-01, 8.684026259427502e-01, -2.541779815281153e-02, -7.404716112189472e-10, 6.663117741858067e-10, -2.936774616347365e-09, 2.922391522452506e+03, 2.669666486504512e+03, -2.431760855329314e+02, 4.282397052034974e+03, -1.585258131466634e+03, 1.286193033318443e+03, 3.864790271590725e+03
5595, 1.124131804896144e+00, 1.566302384657464e+00, -5.473884280885221e-03, -3.112349820055748e-10, 2.598728473430891e-10, 6.990820982012359e-10, -1.509178269242490e+03, -9.596291359115986e+02, -1.102363580488624e+02, -2.686112685583923e+03, 5.333453931089813e+02, -2.719650122178534e+02, 1.856255680495750e+03
5596, 1.106706579562252e+00, 1.576211385837338e+00, -6.704396275225177e-03, -3.280132413454080e-10, 3.420479025804364e-10, 9.047199179606526e-11, -1.881405285211927e+02, 3.232197888585357e+02, 1.325902971147195e+01, -9.960495479931078e+02, 8.787075104679425e+02, 5.879588058142288e+02, 2.163638998311486e+03
5597, 1.090311714687679e+00, 1.568887962618901e+00, -7.723327619956650e-03, -2.287999845274342e-10, 1.354389609604488e-10, -9.502257762861089e-10, 9.287883337164351e+02, 9.730052361895727e+02, -8.330310536182547e+01, 1.423052373623996e+03, 2.626931759985536e+02, -2.103210737396626e+02, 7.648159577152501e+02
5598, 7.208573004734682e-01, 8.170005248538557e-01, -2.491238670758310e-02, -6.268057524225528e-10, 4.471574600913580e-10, -2.163217931834495e-09, 2.114127799404509e+03, 2.428130103109945e+03, -2.758981823139371e+02, 2.766235639927199e+03, 7.618730350104450e+01, 7.441125325679129e+02, 1.491965830119969e+03
5599, 8.259503642235178e-01, 8.241863097158449e-01, -1.923877779364797e-02, -4.185635587643588e-10, 2.500069091859413e-10, -5.497714570109547e-10, 1.152253534427071e+03, 9.873402098082209e+02, -1.178414661576745e+02, 1.474557706514362e+03, -2.298977625033931e+02, 1.022011746297559e+02, 6.448121074212502e+02
5600, 3.942226033470493e-01, 6.967709038114276e-01, -2.398429345282736e-02, -1.148243934177982e-09, 7.728610636348130e-10, -2.128054121066847e-09, 1.253097758581995e+03, 3.180945828797110e+03, -2.437527767297231e+02, 3.550247916147524e+03, -2.036531545411560e+02, -1.631496331317923e+03, 3.585101314864616e+03
5601, 4.093798763069930e-01, 6.849100754386810e-01, -2.716047711450825e-02, -1.467905613806305e-09, 9.197051731642248e-10, -3.318614302021946e-09, 1.615317775519222e+03, 3.339744517029493e+03, 5.286285009839752e+02, 4.823104661890536e+03, -4.443027083216321e+02, 7.149439778277775e+02, 3.270465478736469e+03
5602, 7.023450563893145e-01, 8.090701102706628e-01, -2.572359188045124e-02, -8.074205355697589e-10, 4.542855026147352e-10, -2.315278021550953e-09, 2.044561172851262e+03, 2.017297865496182e+03, 1.461899917063883e+02, 1.569206961557987e+03, -1.056288161042654e+03, 8.051049507035038e+02, 2.360016040115194e+03
5603, 8.443030979362122e-01, 8.319901601221729e-01, -1.817157928055258e-02, -4.859978710855033e-10, 1.858684017839652e-10, -3.801296090184526e-10, 6.629607361084109e+02, 6.453649938697931e+02, -1.237206111900962e+02, 9.852871630375095e+02, 1.783806032509626e+02, 2.308621505996704e+02, 6.412072939803056e+02
5604, 3.270719657471947e-01, 1.642423417108210e-01, -3.947500203512223e-02, -1.282217086049693e-09, 9.053665734916995e-10, -7.118613485542762e-09, 3.497693789702905e+03, 4.487079788127870e+03, -1.063976188757290e+02, 5.535926492032851e+03, 3.923314769246734e+02, -2.080777285159935e+03, 4.074471003711657e+03
5605, 6.815222621904676e-01, 7.815536573850691e-01, -2.657585783983276e-02, -6.910617315769677e-10, 8.199650625721965e-12, -2.661936215699185e-09, 2.694784486985493e+03, 2.490639308433407e+03, -2.570331743662093e+02, 5.532585521185859e+03, 2.824287137136205e+02, 1.778805703653107e+03, 4.313242243332436e+03
5606, 1.007689654006118e+00, 1.031921792112048e+00, -9.119455411466316e-03, -4.012613913608910e-10, 9.327101545438664e-11, 2.817427079803027e-10, -6.518397761481964e+02, -5.815686633211353e+02, 2.269408504156191e+01, -1.000903457482200e+03, -9.123092969523297e+01, 1.483904479369255e+02, 4.938482190539984e+02
5607, 6.790729867603518e-01, 7.617726793069410e-01, -2.667802978581565e-02, -8.811414956918312e-10, 7.795937279558484e-10, -7.761136125440947e-09, 5.911764123801222e+03, 5.502666132955765e+03, -1.315327674269033e+02, 1.258723026678266e+04, -2.855594824308298e+01, -5.499100918552510e+02, 6.958568921832255e+03
5608, 9.588491257776109e-01, 1.477331047098294e+00, -1.507060893045116e-02, -6.341066039044056e-10, 5.075506721667405e-10, -6.426564434410171e-10, 1.964801653784201e+03, 1.975660487698727e+03, -3.069797596060176e+02, 2.667704737545656e+03, 9.213584560950965e+02, -8.507914470952411e+02, 2.342543520026713e+03
5609, 9.769761514154791e-01, 1.485059314492457e+00, -1.413226140159160e-02, -5.454446930796218e-10, 3.328367208548349e-10, -5.420020171250883e-10, 2.082276825276252e+03, 1.394607548670904e+03, -4.108426213952467e+02, 2.329400058981449e+03, -7.134209947011012e+02, 4.634243074231321e+02, 1.838876769611214e+03
5610, 9.926079113414100e-01, 1.473222760858675e+00, -1.317924695253234e-02, -2.368073715222840e-10, 4.464743764447559e-10, -4.088157611052483e-09, 5.363447238444426e+03, 5.226252890726105e+03, -1.991597939023762e+02, 1.103261761512063e+04, -2.689648087749061e+02, -8.000311190210107e+01, 5.769862628356300e+03
5611, 9.612905782828355e-01, 1.496772533309447e+00, -1.501266160644109e-02, -6.633954675229311e-10, 6.146935340139649e-10, -7.385267627445573e-10, 2.167641449980253e+03, 2.547011735997315e+03, -3.611102207088293e+02, 3.391697523303083e+03, 1.284841018948448e+03, -1.048925977482582e+02, 2.560180278714665e+03
5612, 9.795803942434873e-01, 1.504321455879553e+00, -1.407792803814092e-02, -5.513794557495326e-10, 3.480356779485714e-10, -8.181887233165866e-10, 1.466607016920218e+03, 1.908534618699656e+03, -2.692030796337094e+02, 8.348718111370373e+02, 2.276573335549659e+01, -1.161150901898259e+03, 2.266572430108451e+03
5613, 1.008291067270798e+00, 1.461353531997937e+00, -1.216869365453894e-02, -3.342665758825941e-10, 3.551249516001777e-10, -6.429828378533466e-10, 1.871442492937667e+03, 1.828812631273724e+03, -2.522030058445488e+02, 2.925485730555307e+03, 5.361688093340009e+02, -8.487631730759701e+02, 2.090981823443089e+03
5614, 9.901493341410402e-01, 1.453642656497036e+00, -1.321130544594950e-02, -4.627116265025637e-10, 3.839200026556937e-10, -5.584091169923217e-10, 1.571137939725237e+03, 2.037866600516145e+03, -1.476562167685048e+02, 2.389593053735056e+03, -2.378858184950119e+02, -1.157933350858614e+03, 2.182501536136800e+03
5615, 1.010741818169049e+00, 1.480815711838666e+00, -1.214241458634505e-02, -4.902247004262971e-10, 1.116837165254023e-10, -9.664101056781089e-10, 2.580181163128713e+03, 2.558817167343051e+03, -1.409572085524348e+02, 5.308360150592907e+03, 7.384114719459939e+02, 9.158520452144350e+02, 3.422487111466050e+03
5616, 6.925137719782120e-01, 7.301052067875240e-01, -2.606291769561934e-02, -7.050158677087758e-10, 5.687931828513020e-10, -1.930941608833683e-09, 1.832680645073103e+03, 2.407990165113828e+03, -5.420762193860998e+01, 2.827390007127888e+03, 1.556202021014237e+02, 1.137637702272918e+03, 2.170780725632732e+03
5617, 7.522516622198134e-01, 1.479550183559593e+00, -1.092032994531607e-02, -1.188820075764886e-09, 5.233963252003320e-10, -1.199016275260008e-09, -2.924122151110112e+02, -1.078291922248456e+02, 6.063041099153454e+02, 2.770208311254712e+03, -1.931148858811999e+03, 4.930774366916282e+02, 4.676388079238205e+03
5618, 6.901048532483032e-01, 7.104172309300456e-01, -2.613656382695763e-02, -8.841143778326253e-10, 4.752914490036001e-10, -5.792511715746807e-09, 3.669860187201703e+03, 3.859162788233768e+03, -9.164681559433475e+01, 7.209943238899745e+03, 1.513385112994913e+02, 1.177752384611291e+02, 3.468918711924188e+03
5619, 1.005244702850440e+00, 1.012204798386563e+00, -9.131158175760124e-03, -4.288546421724502e-10, 8.749760300632713e-11, 3.198827512515274e-10, -6.964523003616846e+02, -7.753664411256276e+02, 7.051427546628464e+01, -1.281634601636340e+03, 3.974871218206328e+02, -5.145616599145757e+02, 1.259250785021690e+03
5620, 6.717597466158699e-01, 7.025144527034461e-01, -2.695728031124655e-02, -7.703586506032733e-10, 6.065782578675891e-10, -3.305410980190681e-09, 2.943532758088358e+03, 2.762282250479507e+03, -2.098278588356970e+02, 4.825091856153199e+03, -1.344654466400407e+03, 1.327479412271994e+03, 3.841500330693693e+03
5621, 6.534368693230584e-01, 6.948292146100290e-01, -2.772248302848377e-02, -8.793325652218231e-10, 5.340817942127320e-10, -2.967976431558026e-09, 3.208614998987540e+03, 2.693259466820303e+03, -4.251331126825382e+02, 2.722740333911266e+03, 7.780428570804060e+01, 1.750833314365175e+02, 9.505813211257475e+02
5622, 6.692625208650792e-01, 6.827861214099553e-01, -2.704456287661896e-02, -6.801109098365957e-10, 5.690973377628597e-10, -6.876179161629842e-09, 4.674147771748574e+03, 4.492124078817271e+03, 1.672761859964891e+02, 8.404056903984851e+03, -1.733642263096992e+02, -4.314374404747896e+02, 3.918776699596770e+03
5623, 6.509465329303756e-01, 6.751111097188951e-01, -2.782470996758431e-02, -1.029866140568784e-09, 2.977425565578863e-10, -2.832350315318816e-09, 2.166874777888724e+03, 1.824571417005131e+03, 1.789423594667674e+01, 2.224198410568130e+03, -1.233569133425579e+03, -7.699041494097694e+02, 2.546443773492058e+03
5624, 6.375852212886499e-01, 7.069018622980230e-01, -2.831598389653300e-02, -1.423604210336033e-09, 8.119206201677529e-10, -4.310583221768387e-09, 4.065652118275463e+03, 4.006151292030126e+03, -1.480917168969943e+02, 7.570563019654670e+03, 2.260593208628462e+03, -1.057841439505247e+03, 5.590188712146890e+03
5625, 9.877417018401917e-01, 1.564120973381389e+00, -1.388959265967445e-02, -7.129410041813985e-10, 1.342365454894455e-09, -4.457514919483231e-10, 2.354029505572680e+03, 3.080543210218410e+03, -4.766833164224216e+02, 1.390366189632533e+03, -2.690951104638741e+02, 1.096890976096507e+02, 1.758293586838693e+03
5626, 4.277252525722574e-01, 6.927843947558808e-01, -2.851332082869682e-02, -2.392750879198144e-09, 1.056002431760142e-09, -5.437239458120561e-09, 2.422422723470174e+03, 3.563977992005241e+03, -2.597154527803288e+01, 6.208096318943103e+03, -3.280784348796908e+03, 2.881759078859495e+03, 8.277631601122806e+03
5627, 1.131160982774549e+00, 1.327440029849287e+00, -3.096475811638119e-03, 9.395954496424067e-11, -1.057533926942471e-10, -8.405362043380967e-11, -9.020902170270742e+02, -1.340102790255395e+03, -1.654842920910451e+02, -2.499135293362305e+03, -1.265904266473494e+03, 5.822042033020347e+02, 2.819479270742590e+03
5628, 1.147271987880840e+00, 1.315668259035797e+00, -1.867636134133072e-03, -3.721236352324907e-11, 1.539733521249129e-12, 1.672720056559361e-11, 5.937837828569420e+01, -1.276731622221107e+02, 9.490958257861649e+00, -5.648940731273855e+01, 1.708232984523736e+01, -3.180397618205419e+01, 1.758422767771173e+02
5629, 6.655744473124405e-01, 5.131418934095262e-01, -2.674752404011885e-02, -7.613678266104464e-10, 5.034527313577895e-10, -1.852612608067237e-09, 1.141609322752832e+03, 9.040962331647366e+02, -2.969736111681656e+02, 1.463448537653078e+03, -7.491313337410147e+02, 4.010635259259657e+02, 1.633145147409720e+03
5630, 1.565484263298235e-01, 1.852862027373227e-01, -3.128321774982612e-02, -2.377096323807492e-09, 7.184818024530983e-10, -3.875843595619598e-09, 2.237332185690580e+03, 2.925549093642434e+03, -2.054530994693479e+00, 4.581504254986135e+03, -3.093227033815202e+03, -1.380430104584200e+03, 6.227071645807037e+03
5631, 1.722180306199041e-01, 1.734151396631212e-01, -3.432065275665503e-02, -1.991160958200179e-09, 1.330078840502819e-09, -6.364306480854757e-09, 3.877319069403147e+03, 6.512780107290155e+03, -1.560667609157932e+02, 7.473363851482154e+03, -1.018984415328781e+03, -2.380685341899004e+03, 5.530913428386618e+03
5632, 6.472208235973640e-01, 5.053225780674134e-01, -2.767318008340391e-02, -8.959491747651851e-10, 8.727635781515818e-10, -2.225800371586059e-09, 2.290144040244840e+03, 2.194652084513903e+03, -1.047117042748432e+02, 4.217065446206047e+03, 1.024863310432072e+03, -1.053504995022360e+03, 3.227955494397786e+03
5633, 6.449143405879344e-01, 4.855500829430791e-01, -2.772323131953243e-02, -8.479434959167870e-10, 5.479992456139156e-10, -1.869769399662757e-09, 5.881725609410178e+02, 1.955433141752247e+03, 2.341338947197728e+01, 2.023290278526132e+03, 8.004955646104338e+01, 1.045852962800890e+03, 2.295447252579720e+03
5634, 6.264885418467914e-01, 4.777316698224177e-01, -2.862562678528129e-02, -4.837102838622645e-10, 2.756236699374258e-10, -2.420705128400853e-09, 2.865678317435607e+03, 3.060627664464190e+03, -5.347360083502847e+01, 5.318966315430532e+03, -1.290838896458944e+03, 7.783879153834064e+02, 3.521845687131713e+03
5635, 3.112743426294858e-01, 1.762606047086056e-01, -3.951415822138043e-02, -2.066933861911722e-09, 8.882467382111504e-10, -7.850610010707971e-09, 4.564634166087732e+03, 2.976609067510486e+03, -6.331904884929146e+01, 3.789533512412200e+03, -2.215545588367500e+03, -4.594108040387563e+02, 4.154859200253043e+03
5636, 4.435547746891575e-01, 6.808731735459580e-01, -3.013605903210086e-02, -3.251806962462275e-09, 1.401504218592932e-09, -1.773698726500655e-08, 1.191260007419327e+04, 9.496725341203384e+03, 1.695118910441784e+02, 2.083489784537248e+04, -2.386743632110822e+02, 9.655583037564611e+01, 1.035780238624052e+04
5637, 4.618182011016187e-01, 6.886605074987596e-01, -3.067372829616739e-02, -1.204377804491484e-09, 1.196487920813684e-09, -7.826126622243811e-09, 7.173410469254065e+03, 6.026008892923347e+03, 1.142522904087514e+02, 1.060961582533795e+04, 1.398737172379192e+03, 4.108424246458890e+03, 8.579787423075431e+03
5638, 4.593227619597461e-01, 6.688391844182532e-01, -3.118780693380736e-02, -1.093877729911669e-09, 1.578607669731900e-09, -9.441071574820121e-09, 7.942445930694808e+03, 5.168569535262765e+03, -1.520289184823509e+02, 1.252058757720871e+04, -7.076649772353758e+02, -5.103857739671144e+03, 1.100330719636028e+04
5639, 9.528121015391988e-01, 1.008714437543992e+00, -1.253974903202516e-02, -4.468064663545283e-10, 1.386883783340702e-10, 4.340756969216354e-10, -2.287876416420015e+02, -2.751822187443191e+02, -9.556905514016425e+00, -7.497811701167863e+02, 1.621372289332324e+02, -2.157775620775135e+01, 5.744142095272492e+02
5640, 1.066683381960140e+00, 1.374897369160563e+00, -7.822555722284869e-03, -1.553329777424471e-10, 8.588391583469505e-11, 1.466036619991006e-09, -1.603386711739863e+03, -1.644130252125892e+03, 2.971305841803905e+01, -3.275373550906937e+03, 2.853596236215016e+02, -5.808040934187031e+01, 1.728044069714199e+03
5641, 1.050892983023023e+00, 1.386849980396801e+00, -8.946707542383256e-03, -3.577242125572694e-10, 1.210777134014095e-10, 1.595991361252865e-10, -2.777999954619331e+02, -4.014455819413232e+02, -6.207145166862341e+01, -1.048070725685147e+03, 6.581583158425560e+02, -4.120923541812178e+02, 1.527710927926750e+03
5642, 1.053229472864616e+00, 1.406314923838565e+00, -8.938220263802164e-03, -2.585272956318607e-10, 1.185864266236678e-10, -1.676156380799362e-10, 3.645480446004925e+02, 3.298289627486325e+02, -6.038868767791595e+01, 6.527649746517833e+02, 1.335730695698957e+02, -4.936143694463233e+02, 9.432455424285866e+02
5643, 1.071462829176274e+00, 1.414096134753597e+00, -7.803220211824688e-03, -2.804518628089018e-10, 2.677733163781984e-11, 9.967836769133188e-11, -7.275012284986578e+02, -5.908029635906975e+02, -2.164295431120372e+02, -8.966187385103428e+02, 1.760287529294980e+03, 2.639324250783205e+02, 3.117009462898381e+03
5644, 1.073826360967954e+00, 1.433667442555022e+00, -7.794889472813515e-03, -3.776500632143539e-10, 1.493646893135034e-10, 3.321935325295260e-10, -8.747752691534538e+02, -5.992234053139758e+02, 5.529156702592301e+01, -1.974905748967222e+03, 1.264634682878427e+03, -5.818447840435103e+02, 2.722510437112318e+03
5645, 1.032700916420578e+00, 1.379077255472485e+00, -1.006848598667182e-02, -3.137174450882668e-10, 1.506629937829750e-10, 2.721286364835546e-12, 1.678217732769147e+02, 3.064502066455216e+02, -7.483163201664910e+01, 3.499528557414942e+02, 5.569230336783583e+02, -3.105982754088280e+02, 1.124208169755192e+03
5646, 1.030234246544645e+00, 1.359450530210901e+00, -1.008562187083709e-02, -2.952547603995427e-10, 1.262651001081992e-10, -5.659890145270021e-12, -7.416993296699424e+00, 1.306613376858833e+02, -2.861253691886700e+01, 1.257911784814809e+02, 2.038811561792034e+02, 2.298806890883139e+01, 3.836154894698946e+02
5647, 1.016866690594550e+00, 1.390891167487771e+00, -1.116366831719020e-02, -2.327476376973366e-10, 5.366313556532425e-11, -1.283441905313126e-09, 1.303880433361055e+03, 1.465186703437378e+03, 2.599776441923240e+01, 2.773095819453875e+03, -8.989112065563651e+01, -9.415860671861054e+00, 1.405046183193841e+03
5648, 9.986951621943942e-01, 1.383226808829968e+00, -1.225117390098366e-02, -3.063527505336724e-10, 1.066945366103523e-10, -1.313938196573462e-10, 8.085083027733276e+02, 6.863794489054249e+02, -1.111300839781894e+01, 1.027969486660209e+03, -1.526075807656305e+02, -1.513142015880767e+02, 4.783376337188971e+02
5649, 1.035086300789644e+00, 1.398681729265914e+00, -1.005620448891224e-02, -3.583357631344622e-10, 1.968822223682586e-10, -9.991195551254593e-11, 4.504844795043892e+02, 3.914857030620434e+02, 5.931401436993693e+01, 7.014618344752294e+02, 5.845185979485763e+02, -6.304717581680222e+01, 1.062423227941028e+03
5650, 8.155697896477451e-01, 1.435981981919621e+00, -1.954880463259114e-02, -6.098108042375823e-10, 3.735971567277845e-10, -6.129674401952320e-09, 6.889553765904991e+03, 6.869841790671853e+03, 1.973594405023109e+02, 1.536373447214488e+04, 9.452437086206779e+02, 1.863549829635052e+03, 9.230110140139392e+03
5651, 8.893031751603899e-01, 7.762017101086538e-01, -1.495233871317517e-02, -5.182719154584193e-10, 1.941472137798413e-10, 1.630783228788582e-10, -1.094517547190823e+02, -1.331772219222419e+02, 4.448616029188950e+00, -5.025335233145597e+02, 3.691317459094474e+02, -2.437396427093039e+02, 8.560439675271114e+02
5652, 6.668807731927726e-01, 6.631770642406074e-01, -2.712333499584031e-02, -8.391371259246293e-10, 4.321912021430684e-10, -2.633215104749173e-09, 2.030431492963712e+03, 2.339780149763570e+03, -3.130376239756260e+01, 3.514689667761519e+03, 3.502994776286068e+02, -1.789906550611317e+03, 3.438303502698001e+03
5653, 9.684998568696213e-01, 7.161304788038956e-01, -9.302029743410618e-03, -4.270528956109841e-10, 1.056958847594189e-10, 2.533117860134285e-10, -8.746458375960618e+02, -1.049352848939195e+03, 1.215909117187669e+02, -1.849430610943889e+03, 2.454202844861224e+02, -4.902084537163963e+02, 1.325286965733627e+03
5654, 9.660133350232107e-01, 6.963758047288795e-01, -9.315355937163710e-03, -4.035328968308356e-10, -2.377364561458632e-11, 2.388345961907052e-09, -2.610510446892554e+03, -2.651336345175416e+03, -1.780568318033765e+01, -5.789355094331138e+03, 5.067750929438606e+02, -5.140051087201417e+02, 3.397198658483595e+03
5655, 9.786323864457790e-01, 1.075742441123884e+00, -1.135608885573872e-02, -3.657014585165588e-10, 5.199058098392153e-11, 1.255032906801138e-10, -1.447613439838468e+02, -1.415015430223083e+02, -2.551011844229160e+01, -2.911248920974280e+02, 1.539942728941919e+02, 7.835673100100291e+01, 3.367853457538238e+02
5656, 8.405735610286256e-01, 9.425250480645366e-01, -1.907028322239085e-02, -4.424186358538390e-10, -6.130072211686971e-11, -2.782883036858867e-09, 2.319766927739723e+03, 2.099196454281766e+03, 1.412953537772965e+02, 4.556872695308191e+03, 2.652763609500521e+02, 3.524139772188378e+02, 2.488036903952418e+03
5657, 1.021387456451565e+00, 1.556861631342021e+00, -1.196660705208283e-02, -3.082178997590342e-10, 7.676640108331218e-10, -4.893070492028851e-10, 1.365782622476488e+03, 2.038962889272580e+03, -3.241951561431318e+02, 1.130624132464307e+03, 1.175883075032788e+03, 2.641407222058708e+02, 2.310735104182705e+03
5658, 9.491395804251328e-01, 1.399321404682144e+00, -1.526668469908760e-02, -3.191808198113582e-10, 2.778871828006220e-10, -1.153875539348784e-09, 2.022683700774720e+03, 1.756264412178056e+03, -3.999014776135601e+01, 3.328775757034623e+03, -8.252767580373632e+02, -8.507070096393464e+02, 2.518724653431684e+03
5659, 9.309782556705495e-01, 1.391592813887969e+00, -1.620215380561375e-02, -4.991221130722556e-10, 4.316738455317346e-10, -1.222672052896674e-09, 2.229492393183776e+03, 2.023848295717704e+03, -8.970088728998533e+01, 3.747665108849876e+03, 1.174924211454426e+03, -5.034419964946892e+02, 2.754120936770444e+03
5660, 9.334456580509227e-01, 1.411217694048575e+00, -1.614282675275533e-02, -4.409169739476482e-10, 3.537450892865997e-10, -8.026638978067075e-10, 1.668079309063370e+03, 2.051421951829260e+03, -1.350333413790390e+02, 2.713449934884487e+03, 1.309030848087540e+03, 2.650797422392291e+02, 2.499040874324275e+03
5661, 4.544053939823549e-01, 6.294512376511568e-01, -3.210620197032094e-02, -1.645105334460523e-09, 2.674191597367764e-09, -1.667720328317298e-08, 1.136938800870489e+04, 1.239249312167423e+04, -1.882034704535294e+02, 2.318814338280726e+04, -4.736480334965887e+02, -6.977101880788808e+02, 1.144017400000125e+04
5662, 2.893764564401080e-01, 2.792408164254692e-01, -3.728479553463762e-02, -1.867159957880064e-09, 1.637830789837459e-09, -8.418723944759054e-09, 4.826164674085208e+03, 4.682251596144603e+03, 1.325289105366175e+02, 7.041142118980886e+03, -2.318163133762369e+03, -9.925028198516401e+02, 4.937116415468873e+03
5663, 2.918549355001044e-01, 2.989726843523737e-01, -3.677787586806193e-02, -2.230997800437061e-09, 1.601186983855611e-09, -8.945444511265233e-09, 6.086974911693651e+03, 6.577547405360507e+03, 2.166152870235718e+02, 9.079904582592151e+03, -3.952654974306261e+03, -2.517425950922149e+03, 8.587988778231767e+03
5664, 2.943152268695338e-01, 3.187048424978071e-01, -3.624004092225806e-02, -2.906714826746028e-09, 2.376089893339132e-09, -1.951679286881206e-08, 1.498193406815159e+04, 1.279497945931793e+04, -4.761166468970557e+02, 2.882192668020361e+04, 5.728021248244768e+02, -1.213707226389982e+03, 1.525382657869972e+04
5665, 3.052481998067313e-01, 2.672484902016491e-01, -3.793810825572423e-02, -1.583079835270113e-09, 1.173621813864173e-09, -8.203185018366679e-09, 4.656163112751641e+03, 4.805104166548273e+03, 1.082783544580084e+02, 6.885352504078673e+03, -3.117634710553164e+02, -3.137139242859461e+03, 5.874618357128128e+03
5666, 9.758956319332044e-01, 7.753792498657894e-01, -9.265919185510899e-03, -5.946647505353006e-10, 5.364310530751614e-11, 3.156027590964338e-10, -1.153419169594597e+03, -1.135032670958989e+03, -1.013232343442880e+02, -2.526933279549246e+03, 9.547807037787948e+02, 1.187787251398631e+02, 2.172573615761216e+03
5667, 9.734011962676835e-01, 7.556203123304404e-01, -9.279881883773405e-03, -4.680129990617822e-10, 4.855683030374389e-11, 2.846118162508726e-10, -1.035798089074171e+03, -1.001136101451952e+03, -6.687000502098654e+01, -1.840168148049822e+03, 1.024329883084619e+02, -1.983520554913030e+02, 9.159785302828399e+02
5668, 8.150701646376837e-01, 8.756959499354919e-01, -2.018218040238790e-02, -6.019795043773319e-10, 3.149772586527565e-10, -8.659198540314453e-10, 1.490027336684160e+03, 1.477375384996362e+03, -1.254756779810738e+02, 1.658642514458981e+03, -3.538206640121871e+02, -2.072336128544362e+01, 6.743978487435942e+02
5669, 8.225444361347956e-01, 1.214884137386904e+00, -2.080529518047428e-02, -5.089988124866404e-10, 1.155957768933101e-10, -2.321614610463836e-09, 2.327648105799125e+03, 1.787828509408510e+03, -6.256704056805223e+02, 2.475712113292218e+03, 1.826861106612022e+03, -1.669059838356486e+03, 4.465108409653597e+03
5670, 3.955812478684601e-01, 1.557583852544646e-01, -3.787659277617663e-02, -9.796384910157129e-10, 8.132570145706967e-10, -6.028793812758974e-09, 4.261265530577311e+03, 4.434500566023402e+03, -2.180361889693210e+02, 6.564235820599280e+03, 2.114969588150661e+03, 1.001210052273318e+03, 4.637229832155548e+03
5671, 4.138766698518667e-01, 1.634632589309049e-01, -3.725774370623329e-02, -7.886119269705131e-10, 6.899066168394380e-10, -5.417299862092564e-09, 3.344708669633955e+03, 3.172609963445819e+03, 8.738966601598474e+01, 5.757719602855331e+03, -1.449241598683435e+03, -1.055022106366077e+03, 3.991308709953265e+03
5672, 8.075474846097428e-01, 8.163786109738864e-01, -2.028799989735329e-02, -3.118255668887535e-10, 2.076381576701940e-10, -8.459327401108645e-10, 9.499500817002042e+02, 5.838753255927442e+02, -1.450862626243479e+02, 9.389814362428847e+02, 7.691863934775561e+02, -6.312000034323252e+02, 1.778608788230431e+03
5673, 7.978960588639924e-01, 1.567080877599826e+00, -1.096360600547092e-02, 3.837384142261476e-10, 9.785671793777016e-10, -1.260007376914352e-09, 3.663670715541171e+03, 3.576778180187048e+03, 1.181807344906288e+03, 1.178166357383619e+04, -2.180636571560587e+03, -1.880830192092680e+03, 9.781761157840705e+03
5674, 8.079614028206862e-01, 1.551334439110592e+00, -1.459724038852067e-02, -1.933246623266194e-10, 1.970954930285407e-09, -1.590088496709841e-09, 3.133282576948747e+03, 5.052229765677531e+03, 6.073934793521362e+02, 8.032511072767456e+03, -1.172638089811325e+03, -3.074242442400480e+03, 7.201969035455362e+03
5675, 1.004040218976650e+00, 8.621146768407614e-01, -8.053742814047336e-03, -5.400601287332358e-10, 1.057345520355755e-10, 2.644164487745923e-09, -2.984981214578715e+03, -2.891000425577601e+03, 2.908859603320081e+01, -5.722069070866822e+03, 4.647450822935481e+02, -2.632648845175428e+02, 2.935326831905807e+03
5676, 7.331176764744052e-01, 9.156106799274316e-01, -2.447419816762033e-02, -9.253667643236529e-10, 4.156194454712501e-10, -2.454793315120212e-09, 2.946031546899548e+03, 2.714855616620766e+03, -1.366076730880895e+02, 4.821285016591989e+03, 1.967662594563388e+03, -1.064465832248802e+03, 4.367363861981878e+03
5677, 5.251397263966286e-01, 3.601700401906502e-01, -3.292994071470211e-02, -1.155900593172419e-09, 5.444165114881402e-10, -4.141163936736954e-09, 2.861088788978833e+03, 1.954910146628007e+03, 4.491561306954325e+02, 3.428351854776386e+03, -1.505110989634534e+03, -1.179993834991482e+03, 3.638055264413193e+03
5678, 5.434509474073115e-01, 3.678921474494039e-01, -3.220810663789867e-02, -5.239093407887579e-10, 6.976181886922306e-10, -8.774148592262987e-09, 5.463548213855856e+03, 4.845010112008543e+03, 2.679546842074992e+01, 1.060771036876927e+04, 1.716804902576082e+02, -4.124131710523649e+02, 5.534228436641967e+03
5679, 5.593322913487754e-01, 3.559405122471636e-01, -3.152356347761969e-02, -7.065440912624829e-10, 5.170512633120055e-10, -3.404416621357296e-09, 1.717249139155733e+03, 1.972639173132877e+03, -4.120008751200177e+02, 3.554706312709368e+03, 1.491818072573251e+03, -1.247127108822062e+03, 3.850192256116215e+03
5680, 5.617742650999272e-01, 3.756594062733072e-01, -3.143855580299156e-02, -7.766120994174822e-10, 6.188237773831435e-10, -3.203270515273574e-09, 1.898725867449709e+03, 2.097123619921095e+03, -1.082299439926315e+02, 4.033999944364017e+03, 1.809853232741427e+03, 7.588815426151421e+02, 3.970475336234601e+03
5681, 5.459029109421148e-01, 3.876489346911129e-01, -3.210592022502320e-02, -8.758902211967487e-10, 6.715116771359314e-10, -3.367343881484836e-09, 3.428242105605407e+03, 3.606152669349622e+03, -1.512624275547981e+02, 6.376212182033821e+03, 1.405830260280864e+03, 4.089834569489494e+02, 3.833695900083602e+03
5682, 5.642182067749858e-01, 3.953822118139417e-01, -3.135003033228152e-02, -9.547145417675721e-10, 3.685979012820277e-10, -3.991784285573896e-09, 3.138682798323357e+03, 2.147192559366004e+03, -1.377782891465976e+02, 4.360233572130459e+03, -2.066939783571983e+03, -1.166499612734999e+03, 4.543371839582136e+03
5683, 5.801015501273705e-01, 3.834284006866886e-01, -3.062171493762349e-02, -8.382379902760542e-10, 4.137848953210607e-10, -2.968104729742828e-09, 1.915956532134363e+03, 2.020716371686565e+03, -2.761795693876457e+01, 2.951722478146065e+03, -6.003007375580240e+01, -1.232647962763483e+03, 2.355130809275651e+03
5684, 5.825485350632195e-01, 4.031524185932985e-01, -3.054478222172923e-02, -3.853520067540403e-10, 2.630296078574141e-10, -7.615196645724555e-09, 4.174161876961559e+03, 3.943311737907740e+03, 7.162997580517045e+01, 7.537824388681715e+03, -4.843642419627570e+02, -6.559205864241687e+01, 3.588334559299384e+03
5685, 5.983888088454089e-01, 3.911382158518375e-01, -2.976478251732415e-02, -1.003081504704055e-09, 4.614439775505438e-10, -2.887689648141941e-09, 2.465089102110074e+03, 2.287431363940552e+03, 4.362467883261960e+00, 4.132321846318816e+03, 1.378974991253497e+03, -8.412009412922777e+02, 3.306819368730396e+03
5686, 6.008586252874082e-01, 4.108933490389561e-01, -2.969705898160948e-02, -6.978122718862580e-10, 2.844797385742464e-10, -2.866717239998166e-09, 2.333368718221994e+03, 2.371796777956999e+03, 1.060871790527227e+01, 3.736279518504451e+03, 1.251890255716031e+03, -1.165352751578810e+03, 3.269845664229729e+03
5687, 6.167182845170455e-01, 3.989138810924233e-01, -2.886817442679027e-02, -6.753833107183109e-10, 3.638947304412338e-10, -2.681482466022131e-09, 2.276789917468305e+03, 2.268720674555864e+03, -1.833290017601510e+02, 3.825647432046523e+03, -5.479566050834483e+02, 7.135471484288970e+02, 2.222739146095279e+03
5688, 6.191712451758753e-01, 4.186455934660998e-01, -2.881013583240457e-02, -1.026272208743463e-09, 5.916669205215723e-10, -2.935252163092348e-09, 2.580442256162245e+03, 2.558504148670015e+03, -8.212255580398578e+00, 5.481636954621152e+03, 1.435098194080429e+03, -7.786963238763319e+02, 4.059419339993900e+03
5689, 6.033281808351783e-01, 4.306611197967394e-01, -2.962706395123443e-02, -2.439511789428212e-10, 3.105357282673637e-10, -7.570742331501464e-09, 6.624798647508245e+03, 6.465470459724920e+03, 1.810679795832802e+02, 1.361628418835951e+04, -6.170188202186506e+02, 1.758100325721724e+02, 7.166129867393835e+03
5690, 6.216288091019743e-01, 4.383876847456737e-01, -2.875002705882606e-02, -8.789719288344669e-10, 3.939213295805939e-10, -2.058001258869376e-09, 1.706549210432105e+03, 1.857171232124125e+03, 3.013524177160975e+02, 3.894900638990203e+03, 1.776483121248637e+03, 1.069309654920780e+03, 4.201468927113840e+03
5691, 6.057376276597379e-01, 4.503455041728801e-01, -2.955725979232222e-02, -6.475146013519011e-10, 3.387042760562486e-10, -2.396608359766891e-09, 1.718016064018058e+03, 2.012390722538799e+03, 1.211833510503437e+02, 2.828077066161353e+03, 3.211252813019552e+02, 1.326648134325090e+03, 2.574009403465600e+03
5692, 5.874771281866913e-01, 4.426630529801993e-01, -3.038068631579672e-02, -4.293893279663844e-10, 1.964829743227435e-10, -3.092069082647431e-09, 3.142532059458624e+03, 2.251829800744118e+03, -1.894793362395686e+02, 4.239629832170351e+03, -1.111524745290160e+03, 1.114455664472306e+03, 3.242586131429479e+03
5693, 5.666666530666370e-01, 4.151200478491035e-01, -3.125754329961163e-02, -9.769151426050534e-10, 3.505452434207379e-10, -3.432464107242447e-09, 3.132653329631934e+03, 2.964876159842239e+03, -2.054071602920178e+02, 3.829053625569336e+03, -1.039539917235348e+03, 8.690711290215596e+02, 2.502862866109240e+03
5694, 1.022337718471493e+00, 8.699363584498608e-01, -6.880927340464583e-03, -6.030949007220787e-10, 2.393339660976601e-10, 3.173923127898066e-10, -2.274992907248070e+03, -2.043402589863791e+03, 6.567882194038488e+01, -4.019926623526489e+03, 1.117908006780815e+03, -9.137274117990967e+02, 3.125592249402732e+03
5695, 1.041352694116906e+00, 8.777096844635891e-01, -5.647895806647821e-03, -3.138433281691209e-10, 2.048975851237651e-10, 4.557094649277312e-10, -8.876246312086572e+02, -1.561182312759481e+03, -1.525373194802799e+01, -3.496700838646389e+03, -3.018401502318519e+02, -1.066038014429155e+03, 3.030994372782266e+03
5696, 1.058117848309595e+00, 8.703831688959511e-01, -4.434006144610649e-03, 1.403135077174391e-10, 1.892223572013942e-10, -8.589449867405031e-11, -8.880290780393813e+02, -1.321792432306100e+03, -2.193406380282709e+02, -2.997709786853631e+03, -6.292618219572435e+02, -6.082489153740581e+02, 2.483131824392858e+03
5697, 5.067788552227444e-01, 3.524473551423629e-01, -3.361964370976544e-02, -1.511872910939834e-09, 7.712102552765366e-10, -4.653728956960714e-09, 3.309454253539252e+03, 2.982815991825767e+03, 1.481341737498220e+02, 5.546851955515645e+03, 1.874723752930317e+03, -4.521466273530447e+02, 4.131146220426116e+03
5698, 6.105025559237687e-01, 2.091984157170641e-01, -2.836444590846799e-02, -5.150374530877615e-10, 2.947242330341207e-10, -1.759603771202465e-09, 1.359741610553504e+03, 1.375081201175639e+03, -1.247465673043029e+02, 1.964494553651865e+03, 8.836568106917073e+02, -6.738636625426524e+02, 2.026868191359827e+03
5699, 8.001014084983606e-01, 7.570312038687623e-01, -2.038078563447639e-02, -3.894866120535096e-10, 3.826692024749598e-10, -9.799072751607327e-10, 1.078611704854577e+03, 1.193421940763117e+03, 8.712380240068312e+01, 2.489156464931497e+03, 5.522984828958460e+02, -6.137584509069673e+02, 1.977079602703549e+03
5700, 7.866910383716214e-01, 7.887539253726314e-01, -2.134780426542051e-02, -4.997515636231689e-10, 2.964272332508078e-10, -1.100861601610793e-09, 1.147705264880496e+03, 9.696806740086248e+02, -1.473561129951301e+02, 1.385935835881611e+03, -4.672888036001709e+02, 4.953189734095029e+02, 1.259800804147199e+03
5701, 3.235969764437711e-01, 2.750115250922398e-01, -3.797141468509494e-02, -2.012892937992285e-09, 1.036834009935254e-09, -9.412783765392477e-09, 6.175801744110260e+03, 5.780379049722090e+03, -6.124271901587814e+02, 1.079241949320207e+04, 2.615212038206387e+03, -1.910009455067731e+03, 7.475469586400136e+03
5702, 9.212444339554897e-01, 1.313040798851498e+00, -1.640125036266635e-02, -5.674069174024093e-10, 3.375359343678257e-10, -8.425698541181442e-10, 1.132724846516179e+03, 1.367210264927339e+03, -3.463559052714477e+02, 2.903085823422682e+03, 1.281881713593037e+03, -1.219480479745305e+03, 3.539065541822231e+03
5703, 9.394004382234615e-01, 1.320744514308266e+00, -1.542347939974389e-02, -5.009490618661454e-10, 2.712489405271475e-10, -7.511147238598269e-10, 1.892461563605576e+03, 1.496571435952892e+03, -1.998026841946320e+02, 2.454711578205188e+03, -1.038801509654101e+02, 1.012426402497502e+02, 9.371926770332956e+02
5704, 9.370616879722935e-01, 1.301105051462093e+00, -1.545256745816819e-02, -3.766616689906529e-10, 2.903216254654651e-10, -7.224178123363059e-10, 1.199823276688452e+03, 1.228480750404281e+03, -6.363992926636517e+01, 2.049976348007479e+03, -4.343182448409231e+02, -5.991792787487558e+02, 1.534377012216689e+03
5705, 9.346151910073905e-01, 1.281410207377379e+00, -1.548598749057964e-02, -3.896039839265898e-10, 2.509788403519162e-10, -7.800286847007058e-10, 1.280416978328100e+03, 1.319725316315849e+03, 8.318298475883691e+01, 2.337095683848135e+03, 1.312400006123814e+03, 3.123545911353523e+02, 2.560705854901212e+03
5706, 9.551868466863642e-01, 1.308802013062208e+00, -1.443149211982080e-02, -3.722623269681962e-10, 1.228403175859407e-10, -2.958278074038063e-09, 2.997680377360052e+03, 2.560129503748842e+03, -1.180829750272022e+01, 5.675240066679311e+03, 2.409058653777663e+00, -3.018523020276316e+02, 2.967511650044841e+03
5707, 7.976741572858247e-01, 7.373112410019356e-01, -2.040730032791251e-02, -5.276966869587643e-10, 1.447074981739626e-10, -6.904119230486335e-10, 6.673140179299095e+02, 8.644550146591924e+02, 3.208572950101210e+01, 7.204874782267501e+02, 4.412396325600675e+02, -4.068515951450447e+02, 1.055916523245640e+03
5708, 7.794015338511144e-01, 7.294559002981216e-01, -2.144317939434174e-02, -4.803918552811035e-10, 1.928333279366478e-10, -9.198852555322136e-10, 1.029892138013554e+03, 1.055075009430285e+03, -5.118853363116652e+01, 1.446613146233113e+03, 2.572627561571453e+02, -6.746646555879429e+02, 1.317469814333181e+03
5709, 7.771815993883372e-01, 7.097049698726410e-01, -2.146077269421275e-02, -5.559796077834738e-10, 1.837991771019380e-10, -8.105988998646228e-10, 1.394156536365385e+03, 1.072343918827336e+03, -6.555292294852083e+01, 1.503354767641450e+03, -1.342546113507732e+02, 2.944236202403035e+02, 6.911217307770984e+02
5710, 7.611963954751050e-01, 7.216072866519322e-01, -2.245152970399154e-02, -4.611862548148312e-10, 2.542470303504654e-10, -1.368916458273705e-09, 1.054645537810822e+03, 9.729492838981438e+02, 2.525147463788213e+01, 1.556076384378767e+03, 1.070995222230309e+03, 4.873573413946485e+02, 2.110599189145694e+03
5711, 7.590167861291846e-01, 7.017111146749525e-01, -2.247149786259878e-02, -6.432293587686521e-10, 1.744429214160513e-10, -1.316603455002927e-09, 1.254376720516059e+03, 1.392952434681392e+03, -1.276731854383040e+02, 1.981927757313943e+03, 8.255597306748220e+02, -5.203566918081050e+02, 1.831276611790278e+03
5712, 7.402179773264198e-01, 6.941789390307445e-01, -2.349390937990156e-02, -6.608371824525598e-10, 2.694293009718465e-10, -1.564677611175595e-09, 1.441122583514693e+03, 1.348684817665199e+03, -1.843700793513124e+02, 2.010753104260729e+03, 1.396814452266696e+02, -1.058899274272982e+03, 1.977369909624271e+03
5713, 8.447051242011405e-01, 1.392517174277087e+00, -1.959471481005441e-02, -4.292535869150908e-11, 1.117681360838455e-09, -1.021807016675838e-08, 6.835080591721764e+03, 6.885601645087830e+03, 4.495621103483354e+01, 1.362012278770898e+04, -3.100978329959138e+02, -4.941485354582730e+02, 6.835470430437873e+03
5714, 9.359640354805421e-01, 1.430687996079852e+00, -1.607705254156061e-02, -5.009738314548589e-10, 6.625881968188978e-10, -1.177942224209423e-09, 2.278005718940435e+03, 2.297074606967414e+03, 2.182536355237754e+01, 2.938507290983369e+03, -9.798323256596221e+02, -1.301312240616897e+03, 2.895844395005740e+03
5715, 5.946181090929117e-01, 2.211585703577604e-01, -2.931400648593763e-02, -9.148387159150713e-11, 3.849984770597850e-10, -5.849416938226362e-09, 3.365880844096229e+03, 3.228401123452255e+03, 2.456392042202008e+01, 6.693623961220191e+03, -6.755877033338814e+02, -3.762866856828854e+02, 3.653233297229364e+03
5716, 5.762832097875703e-01, 2.134187179422180e-01, -3.027602488685245e-02, -6.217754109678743e-10, 3.352112345401994e-10, -2.628345168780294e-09, 2.204019086081222e+03, 1.434727313342435e+03, -1.623561561534001e+02, 2.241597125515900e+03, -1.191214115227334e+03, -4.369951833372807e+02, 2.351824091482456e+03
5717, 4.790631232415903e-01, 8.266715609478871e-01, -2.561465660238729e-02, -2.402455496441981e-09, 1.865484318259264e-09, -5.838152326751324e-09, 3.361059902946424e+03, 6.384498888808381e+03, -1.616659824360077e+02, 8.171748871777347e+03, -3.850706740667211e+03, 3.576194203376777e+03, 1.003338511655611e+04
5718, 4.948482487112231e-01, 8.147501040669127e-01, -2.758862868778812e-02, -2.477581120727821e-09, 1.073083816322800e-09, -1.876244918344972e-08, 1.201195501363405e+04, 1.106117927667838e+04, -3.539955985160918e+02, 2.364694257895336e+04, 1.254320885194197e+03, -9.203397174917557e+02, 1.244894175868747e+04
5719, 4.973020989564212e-01, 8.344616172607741e-01, -2.683522657280279e-02, -2.405626465038673e-09, 2.528849462137089e-09, -5.918126978865686e-09, 5.582705028202636e+03, 5.326236459293895e+03, -1.164168246099468e+03, 3.466758148303087e+03, 3.710146909818825e+02, 3.833884028157562e+03, 7.250872533685654e+03
5720, 5.131218642705788e-01, 8.224972641902657e-01, -2.828736335486434e-02, -9.309338732473512e-10, 9.098916674561409e-10, -6.673106945659752e-09, 5.469346064165422e+03, 3.255957227723055e+03, -5.224919372150445e+02, 4.720018947850745e+03, 4.632008533832256e+03, 1.358180496489735e+03, 8.632583299535647e+03
5721, 9.516258978474801e-01, 1.418840169069206e+00, -1.521874505346896e-02, -7.207278624524845e-10, 4.539521703046855e-10, -1.227572619250590e-09, 2.244540215576393e+03, 2.582192653921362e+03, -2.617548853411520e+02, 2.405765472905813e+03, -1.140566610270696e+03, -9.186808741982342e+02, 2.593397720116815e+03
5722, 6.350068925187321e-01, 4.066274380583166e-01, -2.793958370029733e-02, -8.755887207794941e-10, 4.837690095246503e-10, -2.310975585385538e-09, 2.845423675958459e+03, 2.342265912475527e+03, -1.904481246454355e+02, 3.779558850916123e+03, -9.737572425604194e+02, 7.867879311557477e+02, 2.531070986393961e+03
5723, 6.374767597288943e-01, 4.263813884341451e-01, -2.788846734448820e-02, -8.523364629685404e-10, 3.079413420266679e-10, -1.883149800164646e-09, 2.074742858818327e+03, 1.109795899425362e+03, -2.729711162786242e+02, 2.023804032501222e+03, -3.177654317602888e+02, 6.771943398687908e+02, 1.669372623047994e+03
5724, 6.399399813808487e-01, 4.461324611984800e-01, -2.783612833749002e-02, -7.793710373116490e-10, 3.417769278114745e-10, -1.661596812098541e-09, 1.353765392936360e+03, 1.716957848679735e+03, -5.699936562161046e+01, 1.981101294652710e+03, -5.909909094981836e+01, -8.558925186500966e+02, 1.586031628912716e+03
5725, 3.479679272452489e-01, 1.917400741508383e-01, -3.888178217005226e-02, -1.155202894278926e-09, 9.594990729410308e-10, -6.052479705712694e-09, 3.658292186522413e+03, 3.498992789378862e+03, 1.618897664747956e+02, 4.772829022507012e+03, 2.099308122933255e+03, 8.412146134257546e+02, 4.107060804857294e+03
5726, 1.043647394305713e+00, 8.975438268092076e-01, -5.649792661416146e-03, -2.839800667247527e-10, 8.266021258230795e-11, 7.332810759108427e-11, -1.017607814917476e+03, -9.905129242943181e+02, -8.151167787977894e+00, -1.841822684596101e+03, -9.179387384573820e+01, -1.901282615256105e+01, 8.537906238369128e+02
5727, 9.744553378508392e-01, 6.250273603565775e-01, -8.190342434286469e-03, -5.198758541602666e-10, 8.036908071437979e-11, 7.070558440446393e-10, -1.868772683152728e+03, -1.831985111785835e+03, -4.388075628344329e+01, -3.723161496275740e+03, 1.906205095603093e+02, -4.367446324434954e+02, 2.048255935341896e+03
5728, 9.902831562994330e-01, 6.131409667242819e-01, -7.022097498671042e-03, -5.221125360206617e-10, -8.622843248187927e-12, 2.633282852050617e-09, -3.462891876543109e+03, -3.431142334322889e+03, -5.331403275173673e+01, -6.639921934774097e+03, 2.453224705925400e+02, -1.731893688169886e+01, 3.222634576402494e+03
5729, 9.561775175964564e-01, 6.173555800419297e-01, -9.360861231451731e-03, -6.027903212358000e-10, 5.076175920282632e-11, 2.967284146463151e-09, -2.599805403760512e+03, -2.525016863118793e+03, -2.868894443314948e+02, -5.515759876354821e+03, 4.971976754435414e+02, 1.787333021252887e+02, 3.132225058438300e+03
5730, 9.811608066078120e-01, 1.095558309125850e+00, -1.133746117531337e-02, -4.113858160205910e-10, 6.981265466644298e-11, 3.735695002098669e-10, -3.996729015566040e+02, -3.032400258210935e+02, -1.731949790303514e+01, -7.449226798869308e+02, 1.649339470435786e+02, 4.662130126616084e-01, 4.942674434755767e+02
5731, 4.335161973865522e-01, 3.214733792336900e-01, -3.607803046402783e-02, -1.174584567239404e-09, 8.139204631214014e-10, -6.099199311180716e-09, 3.820295616165974e+03, 3.659874392936608e+03, -8.702370568746127e+02, 8.118168295417208e+03, 2.123635993855052e+03, 7.032885631442520e+02, 6.039220648909777e+03
5732, 4.311654003066506e-01, 3.017372231015673e-01, -3.623848897360215e-02, -1.327059410079984e-09, 1.111672467979678e-09, -1.163437259830728e-08, 5.613062871598643e+03, 5.685531176004349e+03, -3.897647716006846e+02, 1.070435130993614e+04, 3.450655069224778e+02, -6.558890842436974e+02, 5.259376806558140e+03
5733, 9.311017839289158e-01, 1.111854386487932e+00, -1.464484416988905e-02, -4.903080909033514e-10, 1.497220524071978e-10, -1.151161869014618e-09, 1.186672033238620e+03, 1.024509421636517e+03, -6.542802222291687e+01, 1.999045649116513e+03, 1.806962973987064e+02, -2.556936555441079e+02, 1.060621469675623e+03
5734, 6.131890076588880e-01, 7.900535205941237e-01, -2.887254896280552e-02, -1.270755121081867e-09, 7.785628830925006e-10, -4.075006118167358e-09, 2.657116681768507e+03, 2.583858911923386e+03, -3.184526769111525e+02, 3.091794586500593e+03, -5.895587796840339e+02, 1.444889129921705e+03, 2.799329186663745e+03
5735, 7.976079396452312e-01, 1.298039108898125e+00, -2.131647794842796e-02, -1.120329974541344e-09, 5.547032653450293e-10, -4.044649274256890e-09, 3.830181842727690e+03, 3.726673019208514e+03, -2.207110444086632e+02, 5.578513180795376e+03, 6.450999875643895e+02, -2.651955566363282e+03, 5.073613241002429e+03
5736, 1.060370522881013e+00, 1.035659402336231e+00, -5.611096867314527e-03, -1.983601094388983e-10, 6.974923083811107e-11, 9.773922467946874e-11, -6.438785965006823e+02, -9.400106433980185e+02, -2.262658431775969e+02, -5.313825025789871e+02, -4.958532253368529e+02, -4.164025755088526e+02, 1.242994984775455e+03
5737, 1.066086870870804e+00, 1.054258190125955e+00, -5.369523627604829e-03, -3.973808502038827e-10, -6.613099824519550e-11, -2.570564952027508e-10, -1.408538711330343e+03, -1.209612932712102e+03, -8.328886581814555e+01, -2.679979916000404e+03, 8.732013064247848e+02, 3.979008141055484e+02, 2.166168155446220e+03
5738, 1.082031869751628e+00, 1.068013077623015e+00, -4.386254145716955e-03, -4.916144722148230e-10, 3.850799400613606e-10, 3.967345742104546e-10, -3.062454834519685e+03, -3.282443957866938e+03, 1.360295312027529e+01, -6.681182233892157e+03, 8.432966808251589e+02, -7.492774176911500e+02, 4.020666049275696e+03
5739, 1.066166469195927e+00, 1.076097682373723e+00, -5.538177044585074e-03, -5.160376766740700e-10, -4.442429523943461e-11, 1.354687940977920e-09, -2.559965112564510e+03, -2.270418831877444e+03, 2.019652182081172e+02, -4.644158651781351e+03, 5.473806174064458e+02, -8.508941386874659e+01, 2.464576503007588e+03
5740, 1.083996888046247e+00, 1.084327239727447e+00, -4.382821179528294e-03, -4.326422772116936e-10, 1.842331828178830e-10, 8.152025534864807e-10, -2.400338972480542e+03, -2.769618092202112e+03, 9.384807413097965e+01, -5.713935955537499e+03, 7.890869743636809e+01, 1.400230970203663e+03, 3.977397679107690e+03
5741, 1.099473035042282e+00, 1.070859942338324e+00, -3.198283366962804e-03, -1.384267572746633e-10, -3.304950924984802e-11, -6.846151575510027e-11, 1.972853315203292e+02, -3.168799366948382e+02, -1.746960632263830e+02, -7.632634605993682e+02, -2.482400719967209e+02, -4.622665183212235e+02, 1.269108199951873e+03
5742, 1.049520588256764e+00, 1.087209613598005e+00, -6.752866484372204e-03, -3.390252706121886e-10, 9.182721531714925e-11, 3.480430088965591e-10, -1.501794261593447e+03, -1.193997789100002e+03, 2.742378214570994e+01, -2.316434638645004e+03, -2.377338712690574e+02, -8.334350351970972e+02, 1.806867812713070e+03
5743, 1.034286987136232e+00, 6.878609285767993e-01, -4.597641890455653e-03, -1.336480176805409e-10, -1.987908788436228e-10, 4.376120237954936e-11, -1.729920636583382e+03, -1.885844120729162e+03, -2.642106856828491e+02, -3.340850600083390e+03, 6.966694027577304e+01, 1.650034552879995e+03, 3.280251522622826e+03
5744, 9.418012280959334e-01, 1.340501042240965e+00, -1.538963498148867e-02, -4.649404520482046e-10, 1.593855025199065e-10, -1.190588033936884e-09, 2.154958157267409e+03, 2.075119869631399e+03, 1.112307007519190e+02, 3.796932242883101e+03, 3.377601611489944e+02, -1.466345820032415e+03, 3.108603903180893e+03
5745, 7.503345426309882e-01, 1.053854140569563e+00, -2.368009526378567e-02, -8.079264460494630e-10, 2.826056880934147e-10, -2.121470098137117e-09, 1.960329882524374e+03, 1.677776760850298e+03, -1.763933451096970e+02, 1.692058536877137e+03, -1.281818091173662e+03, -4.679629225564784e+02, 2.399060119950071e+03
5746, 1.130033950595302e-01, 1.105780493123517e-01, -3.080105943844535e-02, -1.137294724381350e-09, 1.225898070823538e-09, -2.419119152362410e-09, 1.179408759186602e+03, 1.690319562541292e+03, -5.704380631828753e+02, 1.292934437542402e+03, -9.523138953944218e+02, 5.832533923334654e+02, 2.221119989999055e+03
5747, 1.282836568637757e-01, 9.865002940918349e-02, -3.422993334732864e-02, -2.179366875842212e-09, 1.081487425544943e-09, -5.834560372047216e-09, 1.107194560554692e+03, 3.115502129293398e+03, -8.356086434087936e+02, 5.573576941118443e+03, -5.608311278874525e+03, 4.702692707669614e+03, 1.333462219358595e+04
5748, 4.630900481748555e-01, 8.378733896155123e-01, -2.255311361415963e-02, -1.354681708380796e-09, 9.966256851472181e-10, -2.160298450382479e-09, 1.798023180103273e+03, 4.565431437761926e+03, -2.446623003363572e+02, 5.242808900121772e+03, -2.061042199672570e+02, -2.510699741635165e+03, 5.404611366599830e+03
5749, 7.267805657429892e-01, 1.425506837021262e+00, -1.177933982393195e-02, 1.484753038838756e-10, 3.216178785141469e-10, -1.797597848075602e-09, 2.653734389817484e+03, 4.406548453134808e+03, 5.994232938636626e+02, 1.103203173401939e+04, -1.743244412197812e+03, -7.487911420513142e+02, 8.394004928385002e+03
5750, 7.463736769986627e-01, 1.426934421242549e+00, -1.578552769962423e-02, -3.233821707879767e-09, 2.684811339606896e-09, -9.061343651516739e-09, 8.901410405777189e+03, 9.330743219091250e+03, 2.286033354586305e+02, 2.034255786439441e+04, 4.215628195764572e+03, -1.227698542688321e+03, 1.357074775586606e+04
5751, 4.578697298733193e-01, 2.382280049427699e-01, -3.557154961613837e-02, -1.149145861703227e-09, 9.431168363698367e-10, -4.266207213091667e-09, 3.263318417344852e+03, 3.342246166442075e+03, -5.434940090111393e+02, 6.229928345652764e+03, 1.555258271253355e+03, -1.509249566972082e+03, 4.852731299261992e+03
5752, 1.021973691437383e+00, 5.890936905724251e-01, -4.645356103173058e-03, -1.410450420759047e-10, -7.048705561315228e-11, -1.997873354260125e-11, -7.616351835747978e+02, -2.242740130928448e+03, 1.392804151121937e+02, -2.685064074639958e+03, -1.767638924627780e+02, -7.502149280897997e+02, 2.210169983450065e+03
5753, 1.003666658386569e+00, 5.813179430902009e-01, -5.849709188236960e-03, -6.192985557763201e-10, 3.988619687615943e-10, 1.616073768080222e-10, -3.605543741101195e+03, -3.725010162776155e+03, 6.846741775627205e+02, -4.400440993226785e+03, 2.255235188997241e+03, -2.318921850585462e+03, 5.774769211469829e+03
5754, 8.417949952821593e-01, 8.121950402594662e-01, -1.819738011719057e-02, -3.191750304450637e-10, 2.343026374246707e-10, -1.696754718556670e-09, 2.022804537305776e+03, 2.033951862444943e+03, 2.140349962400029e+01, 4.146532301957420e+03, -1.501268995045737e+02, -2.283571990075785e+01, 2.134765325480430e+03
5755, 4.946803833479587e-01, 5.343222815693073e-01, -3.329785515655677e-02, -1.489053959779151e-09, 1.060259766893931e-09, -5.847305090492077e-09, 3.960190173474342e+03, 3.365946297392712e+03, -6.375809023189504e+02, 5.619937469990864e+03, 2.384450980935893e+03, -1.434279843876230e+03, 5.342471826174215e+03
5756, 6.558160680181642e-01, 4.341573099862259e-01, -2.693358277475115e-02, -6.809406496622519e-10, 1.995420642582797e-10, -1.779881196766756e-09, 1.354564219000859e+03, 1.644355774626768e+03, -9.023876581477599e+01, 2.881016588011834e+03, 1.992201863982915e+02, 1.400122120080310e+03, 2.827755997244870e+03
5757, 9.818420560344879e-01, 6.844323073915896e-01, -8.158328066646349e-03, -4.582406654127224e-10, 6.033508883815818e-11, 8.294324645599137e-10, -1.844038915253931e+03, -2.009283322044285e+03, 8.518934206259090e+01, -4.003076134720796e+03, -1.220533007853449e+01, 1.250010157371139e+02, 2.097873434815765e+03
5758, 9.794615645299877e-01, 6.644872020938037e-01, -8.162385832818777e-03, -6.220954756170248e-10, 1.057104981252606e-11, 2.502303757785550e-09, -2.634974241487189e+03, -2.891176221042088e+03, 3.974536608015998e+01, -5.356490076681662e+03, 4.305906782514171e+02, 1.642476851175470e+02, 2.723403410503169e+03
5759, 9.610873206409797e-01, 6.568425233868672e-01, -9.338551224330542e-03, -5.590394841944985e-10, 4.951493523360186e-11, 6.046803176476870e-10, -1.294928442532303e+03, -1.412312411573437e+03, -6.728916027247824e+01, -2.645388079520754e+03, 6.368291603325815e+02, 7.181827800016113e+02, 2.111064912122797e+03
5760, 1.000276368658771e+00, 6.920703243498516e-01, -6.969620494763976e-03, -3.607497379514333e-10, -4.573397080389329e-11, 2.457377933437704e-09, -2.904286280980863e+03, -3.079254671891917e+03, -5.560941034017131e+01, -6.135105792513871e+03, -1.189990230458429e+02, 1.374171603651403e+02, 3.164162971871806e+03
5761, 1.016908738477447e+00, 6.809425508429854e-01, -5.742793877401463e-03, -1.522826398156678e-10, 3.020024180044819e-11, 2.177692551116563e-10, -6.119980966067036e+02, -1.193644802423386e+03, -8.114839472952356e+01, -1.431556170798432e+03, -1.267950542262612e+02, 4.113328047195836e+02, 1.053026706796586e+03
5762, 1.050119022353554e+00, 6.758482124178919e-01, -3.390964872668542e-03, -1.319555357939262e-11, -4.128379798965447e-11, 2.085523390776557e-11, -5.266589535276201e+01, -1.484836751283383e+02, -6.895395461538895e+01, 3.090306835800624e+01, 4.928399183496834e+01, 1.691071768406982e+02, 3.626494203493073e+02
5763, 6.508559001435945e-01, 3.947201035069731e-01, -2.702278198693129e-02, -6.481008020162575e-10, 4.304899085084342e-10, -2.956255481387502e-09, 2.941895384916487e+03, 2.828627232049962e+03, -2.243058317530338e+01, 5.205730169451050e+03, 5.029028536031478e+02, -1.169603075517413e+02, 2.489072189563970e+03
5764, 4.865107573520101e-01, 4.517840037304327e-02, -3.429697926293668e-02, 7.138447703416234e-11, -1.589473136204852e-10, -7.644476366626004e-09, 5.371219570821499e+03, 5.826428544681960e+03, -4.202284898755114e+01, 1.050114278660247e+04, -2.935923468087309e+02, -1.266434672341511e+03, 5.409583886252656e+03
5765, 4.570713001836114e-01, 1.672099281642014e-02, -3.563521386496427e-02, -1.926157057345573e-10, -1.307057471879831e-10, -1.172406900599897e-09, 1.480546405539881e+03, 1.519628996606908e+03, -2.739485701388008e+02, 3.071821046115495e+03, 1.059325421997513e+03, -2.801187797424229e+03, 5.440873553965368e+03
5766, 1.050512295492791e+00, 9.566178105041356e-01, -5.653114932876064e-03, -4.600912263272329e-10, 1.179279810296651e-10, 1.439700152635926e-10, -2.155448251858851e+03, -2.056425754830841e+03, 1.829485692356901e+02, -3.607615065792063e+03, 1.744523549461916e+03, -7.324303341736434e+02, 3.619703227961429e+03
5767, 1.032271038923999e+00, 9.488874750771976e-01, -6.831131892897322e-03, -3.957016713547252e-10, 2.062318755509244e-11, 2.188339891291127e-10, -7.706302103632745e+02, -7.340614262645867e+02, -1.778279026977867e+01, -1.488685657637544e+03, -7.606670608086873e+01, 3.529883790461816e+02, 9.671136527778086e+02
5768, 1.016405112331417e+00, 9.609557911834625e-01, -7.993039344766712e-03, -5.628498395015907e-10, 4.924924419532278e-11, 2.202432298801837e-09, -2.286284798552516e+03, -2.400106784220384e+03, -7.052097824941798e+01, -4.426121696643925e+03, 3.686231011658613e+02, 2.901987162089120e+02, 2.241319118741412e+03
5769, 9.981152202541161e-01, 9.531530885939589e-01, -9.152987738581283e-03, -4.502693251967795e-10, 8.563429316056907e-11, 4.696224590642948e-10, -7.485473424577300e+02, -9.309642648575302e+02, -1.462171951017405e+02, -1.736486223210122e+03, 6.599227586221399e+02, 5.760259435266169e+02, 1.787493385960900e+03
5770, 1.052986763301279e+00, 9.763904575677581e-01, -5.642077985668863e-03, -3.436669503064152e-10, -3.155010365069884e-11, 4.313947359784422e-10, -9.080976964630366e+02, -1.369413815857239e+03, 1.518061754923285e+01, -2.460279284055552e+03, -2.638213811640612e+02, 2.177468210096803e+02, 1.502588236143145e+03
5771, 1.068818726854492e+00, 9.643776480717154e-01, -4.458094514672753e-03, -1.442630986495960e-10, 1.297485435293505e-10, 3.288967839740379e-10, -1.300993638492729e+03, -2.206888108735133e+03, 1.109788364058429e+02, -4.547410929390810e+03, -6.813568004075856e+02, -1.353009372286799e+03, 3.916701648734127e+03
5772, 1.084642975531057e+00, 9.523607411402902e-01, -3.258178954100559e-03, 3.611624866905915e-10, 4.752963484433714e-11, -2.466181928419777e-10, -9.835947202223405e+02, -1.090301486269958e+03, -7.414340597382798e+01, -2.892215234170854e+03, -1.345789115269439e+03, -3.835339117035260e+02, 3.056433775512069e+03
5773, 1.087129002806458e+00, 9.721104814713588e-01, -3.247214313239587e-03, -2.162088016237690e-11, -3.609509464227831e-11, 2.082251130796759e-11, 1.791134517313336e+02, -1.600387988530453e+02, -1.375906636359373e+02, 8.914953987195727e+00, -1.132816070260247e+02, 3.937484118973609e+01, 4.315222452452315e+02
5774, 1.102936745237260e+00, 9.600961607813787e-01, -2.029576679046172e-03, 4.722971328834653e-11, -1.119213832581488e-11, -1.229742149729713e-11, -2.578714579252347e+02, -7.206767460444128e+01, -5.482126292650720e+01, 1.225971645631408e+02, -1.338949570021393e+02, 5.576765201561633e+01, 4.251078607526824e+02
5775, 1.089581842963974e+00, 9.918872224462653e-01, -3.238789225179799e-03, -7.706977128181628e-11, -1.407851284754362e-10, -1.952674716746270e-10, -6.450229559568920e+02, -8.580017973065990e+02, -6.201151902439575e+01, -2.018773489632341e+03, -5.097697548930180e+02, 9.447984331111236e+02, 2.260317422572416e+03
5776, 1.107870386084320e+00, 9.996514817953251e-01, -2.011511870682312e-03, -8.821399366166967e-11, -2.128771699253631e-12, 4.872265294149871e-11, 2.397663941721066e+01, -1.503977916052885e+02, -1.016720287688053e+01, -4.958431734925503e+02, 2.802341697738890e+02, 1.532168080329246e+02, 7.185441201057826e+02
5777, 8.174964276480134e-01, 1.175769968410957e+00, -2.103152979229895e-02, -1.071786308194838e-09, 5.360921952329121e-10, -5.893532684792555e-09, 5.083956438102269e+03, 4.922719974354400e+03, -2.001660987792505e+02, 1.019916601753477e+04, 1.563750388324351e+02, -2.223770023564102e+02, 5.230491181124289e+03
5778, 8.333678866883325e-01, 1.163805925885194e+00, -2.034784518590758e-02, -6.112015367662738e-10, 2.211417021387550e-10, -1.706646588739278e-09, 1.906058133942882e+03, 1.153572582543500e+03, -4.169151367141958e+02, 2.287369858720116e+03, 1.428336944452507e+03, -1.077487291296119e+03, 3.335175447114204e+03
5779, 8.309353030525436e-01, 1.144037177503400e+00, -2.042489834198849e-02, -4.914285701007364e-10, 2.810032639313684e-10, -1.282128714970770e-09, 2.387400294478166e+03, 2.541275956289334e+03, -1.458889393393720e+02, 3.522201468811908e+03, 1.716293373088876e+02, 1.157319759645844e+03, 2.303740622809450e+03
5780, 8.096491230262263e-01, 1.526542140781488e+00, -1.641753728062876e-02, 1.201843954709034e-10, 1.178590561484487e-09, -1.896957024432274e-09, 1.607947910678484e+03, 4.468379701198059e+03, 6.729055062925743e+02, 3.717664251275663e+03, 3.985012473999158e+02, 4.744236882760279e+02, 3.017999681594040e+03
5781, 6.852874687277545e-01, 6.710969165906802e-01, -2.627451330816800e-02, -8.685999619282271e-10, 4.572104467974884e-10, -2.120112044717708e-09, 2.137977302810520e+03, 2.258932784371855e+03, -8.637795617710985e+01, 3.284638791640850e+03, 9.938773093906735e+02, -9.400614155187129e+02, 2.612981816443255e+03
5782, 6.645592731425389e-01, 6.433552065494343e-01, -2.719567570512873e-02, -7.683250852686788e-10, 4.075024190841270e-10, -2.398647964846390e-09, 2.305011824442469e+03, 2.052943402823916e+03, -5.633204584518278e+01, 3.268846360743470e+03, -8.602524971142951e+02, 8.866175950146143e+02, 2.413164521270903e+03
5783, 2.002585113622916e-01, 2.596838882175387e-01, -3.160216165676168e-02, -3.155086115224219e-09, 1.291561550071471e-09, -8.154110647827178e-09, 7.573273233879919e+03, 7.516239380244812e+03, -1.230390049817937e+03, 1.253650335651714e+04, -1.826935964236624e+03, 6.010100300643080e+02, 6.368538411294705e+03
5784, 1.826794610785951e-01, 2.714799087073832e-01, -2.746832442045756e-02, -4.320025845810110e-09, 2.739704449684964e-09, -1.088396113427995e-08, 6.046859449597056e+03, 6.762431568270501e+03, 3.023575265740234e+02, 1.239875499570225e+04, -2.017762382168780e+02, -5.248764953401493e+02, 6.126684936470234e+03
5785, 1.886153672150276e-01, 2.926732444507218e-01, -2.627239902896391e-02, -2.081614429135910e-09, 1.199632376937330e-09, -2.967184816888061e-09, 2.033146968924304e+03, 1.160392463681877e+03, 9.154768278243871e+02, 5.568305758368562e+03, 2.194592079904415e+02, 2.564788838907824e+03, 6.223952097868750e+03
5786, 1.647778796513174e-01, 3.053199075595032e-01, -1.246948298050453e-02, -5.079925498373834e-10, 4.094735437299627e-10, -3.583865269232284e-10, 1.675367220035051e+01, 1.572289018284138e+02, 2.444864116946664e+02, 3.559078797855939e+02, -6.652287085054839e+01, 1.099728139532184e+02, 5.621341961195174e+02
5787, 2.051758955241426e-01, 2.987200935535803e-01, -2.895965315205046e-02, -2.202642510232154e-09, 9.774758409301972e-10, -4.493676850652899e-09, 2.314206319512587e+03, 3.090349307861861e+03, 7.899880561659608e+02, 8.013407353431223e+03, -1.708004630574053e+03, 1.850959863450993e+03, 7.040038034760572e+03
5788, 1.901546000602444e-01, 3.111060932216348e-01, -2.430020841650448e-02, -1.499997790393996e-09, 9.814680806732827e-10, -2.128246695726523e-09, 9.342730788021244e+02, 2.753061677995566e+03, -3.687946652088116e+02, 3.871584942590858e+03, -3.572142416832683e+02, -1.411342583540279e+03, 3.655125421454295e+03
5789, 1.107829757460428e+00, 1.429579309410226e+00, -5.505079225794171e-03, -3.227301974091963e-10, 2.897970577950483e-11, 4.107708565979580e-10, -1.053034884869424e+03, -9.350827594162777e+02, 9.302652033848291e+01, -2.345441424416531e+03, -2.230898056408027e+02, -1.080069238126726e+03, 2.347676964085246e+03
5790, 4.702678853265814e-01, 6.174706694993208e-01, -3.254610941753942e-02, -1.645567745606994e-09, 6.653549793585069e-10, -7.665796230855852e-09, 6.601653513016876e+03, 6.716047818285053e+03, -2.898184332821126e+02, 1.247588631634291e+04, 3.724550612400832e+03, 1.134097775031554e+03, 8.920485836547274e+03
5791, 9.162869895643180e-01, 1.273604397221164e+00, -1.649019403573776e-02, -2.635841076745244e-10, -1.191332627823434e-11, -3.777297431896010e-09, 3.096269272028850e+03, 3.276649676238562e+03, 2.763482715457311e+02, 6.338936250357687e+03, -6.797990849551525e+00, 1.837954948564054e+02, 3.208285949488438e+03
5792, 5.079214556899582e-01, 2.219475953284821e-01, -3.363886136706655e-02, -8.637314535118239e-10, 5.139567051019627e-10, -4.102335152982614e-09, 2.278602656358189e+03, 2.693780981915630e+03, -2.331380727838340e+02, 4.283393290086203e+03, 1.653363534007395e+03, 2.602362265840176e+02, 3.453443875216770e+03
5793, 5.103816313059611e-01, 2.417089185058647e-01, -3.354807539518577e-02, -1.016517115959083e-09, 5.761169292895149e-10, -4.206032824130335e-09, 2.328456628643835e+03, 2.622986351671603e+03, -5.647437218839710e+01, 4.723093591136716e+03, 1.224963237742125e+03, 1.257720501362087e+03, 3.791107703931608e+03
5794, 5.827658929656077e-01, 9.641330811946235e-01, -2.638643685585845e-02, -2.690408157599835e-09, 1.627647467825584e-09, -6.937871924706755e-09, 7.570295529814526e+03, 6.793140372379667e+03, 2.631289275253432e+02, 1.263690813221279e+04, 4.488100525706421e+03, -2.936524183159917e+03, 1.080363132632156e+04
5795, 4.677929689500938e-01, 5.978025198727730e-01, -3.287610793484554e-02, -9.823552693559809e-10, 1.650034857234326e-09, -1.708374771012683e-08, 1.527816435210110e+04, 1.515631591627371e+04, -6.623907627200456e+02, 3.425863875986497e+04, -3.425559266640547e+02, -1.157430569974336e+03, 1.919044688724478e+04
5796, 6.142309052757825e-01, 3.791545317868377e-01, -2.892588988534352e-02, -8.545274543545604e-10, 3.467955123516513e-10, -2.216066071188122e-09, 1.995345931671792e+03, 1.850254588538336e+03, 1.558189942437090e+02, 2.776953517835736e+03, -5.772733588133671e+02, -5.760033630673722e+02, 1.677283012244581e+03
5797, 1.069823099026072e+00, 8.329855672963886e-01, -3.309755277276131e-03, -3.290340369705358e-11, -3.788504392744789e-11, 1.706257623293179e-11, 1.306871480653850e+02, -1.729702871723122e+02, 1.281990775994424e+02, -2.170271498146108e+01, -3.240049164438219e+01, 9.599166724005364e+01, 3.863337675799978e+02
5798, 1.067372776618921e+00, 8.141006552594068e-01, -3.325322206811059e-03, 2.428839389850222e-10, 1.594344559053338e-10, -1.276096930812837e-10, -1.512254447294018e+03, -2.027790071374811e+03, 7.237133457462619e+01, -3.620176154004702e+03, -1.798027746601160e+03, -9.008494354588006e+02, 3.971324142862491e+03
5799, 1.085625191513358e+00, 8.218570604897066e-01, -2.097561818329043e-03, 3.648579320738136e-11, 9.857475145851914e-12, 3.594697579811142e-13, -3.171814568630268e+02, -2.663692677477040e+02, -9.582204358843424e+01, -9.083157206219457e+01, -1.133899191303038e+02, -3.206220110839878e+01, 3.339403889507498e+02
5800, 4.945173320440959e-01, 2.537038081114213e-01, -3.419431485873706e-02, -9.339878441366220e-10, 8.426739827981103e-10, -3.624067103824672e-09, 2.663075844081766e+03, 2.520588719062427e+03, -1.623170337359829e+02, 2.146747670174940e+03, 1.339268721911262e+02, 1.406860024184655e+03, 2.506779270189849e+03
5801, 1.006606898123430e+00, 6.011341196296961e-01, -5.807375304800816e-03, -4.064754754117051e-10, -2.845752532651537e-11, 2.390485672474720e-10, -2.355428629553428e+03, -2.409018262245156e+03, -7.469843934538633e+01, -4.070126945095969e+03, 1.009231705679446e+03, 2.830769873724574e+02, 2.482731425115663e+03
5802, 1.185136971888882e-01, 1.498293531838731e-01, -2.755498538890945e-02, -1.378206324865682e-09, 8.032328401736126e-10, -1.813801384823737e-09, 4.071062799032800e+03, 1.268025105021726e+03, 9.808788091093254e+01, 2.260194293373213e+03, 1.852576966266691e+03, 2.515014006010291e+02, 4.071250322328350e+03
5803, 1.003392140341713e-01, 1.440308849400508e-01, -2.387874115210880e-02, -3.765696782039107e-09, 2.048993109324434e-09, -8.415738120752549e-09, 9.619869382310391e+03, 8.031057793615219e+03, -8.953894559511328e+02, 1.802814402478966e+04, 3.839450343824497e+03, -2.378359027920812e+03, 1.225486220156227e+04
5804, 1.095926619205915e+00, 1.181675958030661e+00, -4.347848464995729e-03, -1.579159385956029e-10, 2.427897400905821e-10, -5.433829738795840e-10, -3.092268651197627e+03, -2.600755323637538e+03, 8.249631142013770e+01, -5.715762562247653e+03, 1.585862326058266e+03, -1.115483762433039e+03, 4.439819233158201e+03
5805, 9.156845142442041e-01, 4.319959604704847e-01, -1.063497769463983e-02, -5.085438131660600e-10, -3.239794692194665e-11, 2.598151988926786e-10, -9.998267777431045e+02, -1.202883617181850e+03, -1.727413769982274e+02, -1.772237605706364e+03, 2.604276761778111e+02, 7.617323958411083e+02, 1.585781343024509e+03
5806, 9.315494637938244e-01, 4.200373580015650e-01, -9.476439171426333e-03, -4.585906831117259e-10, 6.044762985589787e-11, 2.895148499785574e-10, -8.774512090550868e+02, -1.314928474541344e+03, 1.375093502581584e+02, -1.920407346500966e+03, 3.035250562740256e+02, -7.913049599308389e+02, 1.741974088739147e+03
5807, 8.613672831465630e-01, 1.250266343610992e+00, -1.921187827342235e-02, -6.148941708378821e-10, 2.276636643171663e-10, -1.268169286141370e-09, 1.582714404397064e+03, 1.934156531702933e+03, -1.061206364880441e+02, 2.193427742421171e+03, -7.774553291019439e+02, 9.402846824860430e+02, 2.186630499755987e+03
5808, 3.746877588706874e-01, 1.282221201678856e-01, -3.861671809485898e-02, -7.381136904781937e-10, 6.568271094091070e-10, -7.166880660892813e-09, 5.565832659359648e+03, 4.875707911931628e+03, -2.780278978572396e+02, 8.941036521375403e+03, -2.299062736535048e+03, 5.985402254569575e+02, 5.600116349681796e+03
5809, 3.772517030648735e-01, 1.480135827955513e-01, -3.845946296358434e-02, -1.000240060226535e-09, 6.226914615920200e-10, -7.094036875967271e-09, 6.255065229144562e+03, 6.146715641114423e+03, 1.755059619034856e+01, 1.073312742430885e+04, -2.298961968367274e+03, -1.076740180782874e+03, 6.315432492555014e+03
5810, 7.661384199544461e-01, 1.041844601103410e+00, -2.311645950419469e-02, -5.396907066699877e-10, 5.965136258625342e-10, -2.344900326870451e-09, 3.083292284252941e+03, 3.255450035471952e+03, 6.023335209049939e+01, 5.404023917064436e+03, -5.364852645876789e+02, -1.480036445824271e+03, 3.530121640131510e+03
5811, 7.820320121317150e-01, 1.029848547170814e+00, -2.246393716570225e-02, -7.711813912436995e-10, 1.907570380249006e-10, -1.721280517454703e-09, 2.227862001226351e+03, 2.679192047141302e+03, 1.244479100425877e+02, 3.433185981468218e+03, 6.429069476494452e+02, 1.426578842003833e+03, 2.916219682166522e+03
5812, 5.237613875623242e-01, 2.099741329230156e-01, -3.290686259157349e-02, -7.885992686227152e-10, 2.863227875792690e-10, -3.180152472202993e-09, 2.614829958897231e+03, 2.389648572813860e+03, -1.513757471565086e+02, 4.261571125446667e+03, 2.032362402299586e+03, 7.580259718760105e+02, 4.161408819149025e+03
5813, 5.055054590586792e-01, 2.021675727064381e-01, -3.372431017091725e-02, -5.689277452233922e-10, 7.774519724441762e-10, -8.943307435794300e-09, 6.119286889989181e+03, 6.202475573991403e+03, -5.247108269742652e+02, 1.347995905867243e+04, 1.857578594140133e+02, -4.116662015865692e+02, 7.417006133765160e+03
5814, 5.043964705925663e-01, 3.327125391739070e-01, -3.373525616483005e-02, -1.215461037175431e-09, 8.319099209107418e-10, -4.828883481868293e-09, 2.577435418040576e+03, 2.653212361981174e+03, -2.525476758423526e+02, 4.003562929638657e+03, -1.032574634802152e+02, 1.494108319193643e+03, 2.975217730777965e+03
5815, 8.917683993311817e-01, 7.959460697942891e-01, -1.493577433511506e-02, -4.384622091510844e-10, 1.757897080392297e-10, 2.407874714108666e-11, 2.296480673728900e+02, 1.054230438254036e+02, -2.010466209235080e+01, 8.519246947934299e+01, 1.533683225271184e+02, -1.851418274112237e+02, 4.392776847708691e+02
5816, 8.942601933276133e-01, 8.157270592375558e-01, -1.491759336543889e-02, -4.286661803900275e-10, 1.841667004335139e-10, -1.517233824683586e-10, 5.000423464539392e+02, 3.658622462615708e+02, -5.741810622206284e+01, 6.082556681058716e+02, 1.096499036503792e+02, -8.013972705246543e+01, 3.308495806950818e+02
5817, 9.101093872780408e-01, 8.037404632185144e-01, -1.380908588750098e-02, -4.250658508245818e-10, 1.346290557187420e-10, 7.696385963075224e-11, 1.551409197193775e+01, -1.255019501004870e+01, -5.557315535159661e+01, -8.510764280226118e+01, 2.323479874730463e+02, -8.546818556816584e+01, 4.485808526229293e+02
5818, 2.161254108943774e-01, 2.480680617422365e-01, -3.424444813043295e-02, -2.393314733212147e-09, 1.882924300218206e-09, -1.859528094108832e-08, 1.837642197323031e+04, 1.783543170267050e+04, -2.257953742963661e+02, 3.874261962421674e+04, 1.356096712316106e+03, -1.640924722514712e+03, 2.097237324140670e+04
5819, 1.025194347253430e+00, 1.170401931690036e+00, -9.013237890931699e-03, -4.124327450875369e-10, 1.418456903042693e-10, 2.160372430574518e-10, -7.354397102453926e+02, -7.118194361307743e+02, 7.898362143351105e+01, -1.458287175801721e+03, 7.487012157797262e+02, -5.235019489790982e+02, 1.750051105464944e+03
5820, 1.027360745773402e+00, 1.189978591284170e+00, -9.018212663684020e-03, -3.049655167845485e-10, 5.582266758159800e-11, 2.639292869944712e-10, -6.537168657067180e+02, -8.444424265611727e+02, -3.618957547706756e+01, -1.376899511127324e+03, 2.498612921597862e+02, 4.543071469847960e+02, 1.109885564387626e+03
5821, 1.011842912002583e+00, 1.202161465423291e+00, -1.012640671930098e-02, -2.929103850870115e-10, 1.720251617165506e-10, 4.868584919486154e-10, -1.978125818926717e+02, -3.353739539243584e+02, -1.710414582088082e+02, -6.453007211059751e+02, 8.922514637994532e+02, 3.662802429784579e+02, 1.742469195664072e+03
5822, 1.043346751789376e+00, 1.177922830479406e+00, -7.868631156524029e-03, -2.951222860901035e-10, 1.338560842680804e-10, 2.567330593518344e-10, -8.596607246190802e+02, -9.122709423465508e+02, 6.772232252001729e+01, -1.730022945349880e+03, 2.236719624965467e+02, -7.896230815355531e+02, 1.657971198891936e+03
5823, 1.059323511490671e+00, 1.166098825310693e+00, -6.709649378879917e-03, -4.194227542376640e-10, 3.718480194419023e-11, 1.281190442265152e-10, -9.843440710533350e+02, -6.532403666520453e+02, -4.639907094257348e+00, -1.366666838773655e+03, -9.456379372138599e-01, -2.291850794895331e+02, 7.348697281446965e+02
5824, 1.061677648075359e+00, 1.185822755351511e+00, -6.705214711656719e-03, -3.021754325572975e-10, 9.638791524438905e-11, 1.605717096849392e-10, -7.309176435736117e+02, -6.893220050059749e+02, 8.050923640801318e+01, -1.065511072135114e+03, 4.028205975790498e+02, -1.237605717696244e+02, 8.244932608717957e+02
5825, 1.040966152271099e+00, 1.158272963174991e+00, -7.876238690183088e-03, -5.098517149593354e-10, 2.887254803433821e-11, 2.693676143205960e-09, -2.859711584740481e+03, -2.904401974656512e+03, -9.600863424244196e+00, -5.767939640171317e+03, 3.699315047852939e+02, -2.211754906705121e+02, 2.981173944109528e+03
5826, 9.935648646613175e-01, 1.194423752130556e+00, -1.125595858737290e-02, -3.442383417553822e-10, 1.135014083186333e-10, 3.033241971046924e-11, -2.523588236090105e+02, -1.519995535120509e+02, 2.303784294244374e+00, -3.783392910017178e+02, 2.471894913602945e+02, -1.968759414945009e+02, 5.815416014474204e+02
5827, 9.777431945915116e-01, 1.206417376468309e+00, -1.235651059846218e-02, -3.512706947593856e-10, 1.501203420541593e-10, -7.700013953100614e-11, 3.585889097683601e+02, 3.570585121343170e+02, -1.997670858570689e+01, 7.043977395626104e+02, 1.146403168403660e+01, -3.826899668485024e+02, 7.490404694008005e+02
5828, 9.593601283141575e-01, 1.198583169995053e+00, -1.346411851847700e-02, -3.391710614401381e-10, 8.881294847819156e-11, -9.024651762155326e-11, 4.076305926036861e+02, 3.745356705621715e+02, -1.272662364262497e+01, 5.220453669554928e+02, 2.916791163713492e+02, 4.330068484634452e+01, 5.285011183020362e+02
5829, 1.116388059595459e+00, 1.507401403969093e+00, -5.536065329818408e-03, -2.277081386379934e-10, 4.094932256557899e-11, -2.927927025578164e-11, -3.570784283792372e+02, -2.691734221894607e+02, -2.071895892122851e+01, -1.261276725861556e+02, 4.458876164508263e+02, -5.578303316861199e+01, 8.048814693819852e+02
5830, 2.844355927998113e-01, 2.397617892215855e-01, -3.821059648773460e-02, -2.023205423050283e-09, 1.501979621539811e-09, -8.336163312311394e-09, 4.179189703721906e+03, 4.487130239417669e+03, -7.415063930674039e+02, 6.612382384084522e+03, 3.729557762746801e+03, -2.494298867786648e+03, 8.204197363011965e+03
5831, 2.820733337465675e-01, 2.200355227929688e-01, -3.863748754842065e-02, -1.725316273546210e-09, 1.126443453839838e-09, -8.467009080689864e-09, 3.443569120463325e+03, 4.261073784716486e+03, 2.422708333250561e+02, 5.488361544020198e+03, 2.190425544519905e+03, 3.235494583613894e+03, 7.010928316414635e+03
5832, 3.027743467279071e-01, 2.475233582896760e-01, -3.832770353305322e-02, -1.734056944815343e-09, 1.117393755379436e-09, -7.583351595288388e-09, 5.072313765368710e+03, 4.759534481587647e+03, -3.807971019624505e+01, 8.406204929385705e+03, -1.515285721611120e+03, 1.673487584291935e+03, 5.248784430326483e+03
5833, 3.186649970995833e-01, 2.355597558562925e-01, -3.863414594552474e-02, -2.538763739996801e-09, 1.509391984338216e-09, -1.602944407961579e-08, 7.889882138961158e+03, 7.310121164611154e+03, 1.311326966621010e+02, 1.440159694873421e+04, 3.143323305426573e+02, -5.699564140559336e+02, 6.916382248708174e+03
5834, 4.495185987474501e-01, 5.899834681124893e-01, -3.291122302326470e-02, -1.022997066627547e-09, 1.325171509284526e-09, -7.609773206059899e-09, 6.008918272770739e+03, 5.064187189996883e+03, 2.779615081013501e+02, 1.056767848169229e+04, -3.011098347573755e+03, -2.047396953447081e+03, 8.123364103663063e+03
5835, 4.311991799262828e-01, 5.822430481741052e-01, -3.279185015803533e-02, -2.148610391469165e-09, 1.931620248849691e-09, -8.154312337062018e-09, 7.581173793025106e+03, 5.924736132063401e+03, -3.776058442115209e+02, 1.335366327647836e+04, 4.612821336590490e+03, -3.477525238936661e+03, 1.209003124363680e+04
5836, 9.568269389283048e-01, 1.178721121357176e+00, -1.348768291870755e-02, -2.918707944208599e-10, 8.851273381383453e-11, -1.842380357923569e-10, 3.573165411532838e+02, 3.103620520939879e+02, -3.360369500779719e+01, 5.989185070584545e+02, 3.925872981363731e+02, -1.900988646663761e+02, 8.038005043589988e+02
5837, 7.489933031342166e-01, 9.036977417822692e-01, -2.377100142801176e-02, -7.256947283015773e-10, 3.812161742931493e-10, -1.623926373538623e-09, 1.240913809303881e+03, 9.515700369208931e+02, 1.129111351674642e+02, 1.128446697468047e+03, 2.373601268767565e+02, -1.613624207217422e+02, 5.909371935702812e+02
5838, 6.829419055586098e-01, 1.212128607644045e+00, -2.214342135046508e-02, -1.409613719346361e-09, 4.067278429281942e-10, -3.956436677982668e-09, 5.568066772240624e+03, 5.230603506440688e+03, 6.748114541744520e+02, 9.179753343716300e+03, -3.317469860789749e+03, 1.655209504835576e+03, 7.548447438665274e+03
5839, 6.660152227687395e-01, 1.221891111296807e+00, -2.046187888861423e-02, -1.279467733721148e-09, 4.484168004833474e-10, -2.161040119731898e-09, 2.129718674453429e+03, 3.070344379868844e+03, 3.260729719145007e+02, 4.141139063368196e+03, 4.201174312506025e+02, 3.930147945803405e+02, 2.085771698882392e+03
5840, 6.489294608335170e-01, 1.216244417822670e+00, -1.881431612860926e-02, -7.770322375467766e-10, 1.025923662876099e-09, -1.868629468657987e-09, -2.561456108020487e+02, 2.049276275545387e+03, 1.374343445988374e+03, 4.167522842782728e+03, 9.322260902302401e+02, 3.442225605738022e+03, 7.648904374180579e+03
5841, 6.296889375913545e-01, 1.228310852460530e+00, -1.339459124622248e-02, -2.576470141888209e-10, 1.033560881288242e-10, -3.988976207809727e-10, 8.801360372742492e+02, 1.534565887207359e+03, 3.827062468497694e+02, 2.885883435299289e+03, -5.953949597008115e+02, 3.755958991710586e+02, 2.250505412377781e+03
5842, 3.432531437121581e-01, 4.328942893527525e-01, -3.441240811432068e-02, -1.953263116005071e-09, 2.248375575638945e-09, -8.832751039658728e-09, 6.392659834288830e+03, 4.419297701558096e+03, -5.858529056487233e+02, 5.907760316160582e+03, 3.084248451667155e+03, -1.675047713555803e+03, 6.415387302914251e+03
5843, 9.138811124280343e-01, 1.253940989908990e+00, -1.652777901241229e-02, -6.930804092628414e-10, 1.669444394708725e-10, -1.426085258896581e-09, 1.980333665669346e+03, 1.826997565363844e+03, -8.351525816463884e+00, 3.039349130295935e+03, -4.874544087060470e+02, -5.203240601989961e+02, 1.683052893999892e+03
5844, 9.864819421825284e-01, 1.284977087989410e+00, -1.235023169484164e-02, -3.515770111564605e-10, 1.193652931985029e-10, -2.032340794179282e-10, 4.046182139601225e+02, 6.035042854801674e+02, -6.765363401445272e+01, 7.105633011207477e+02, 2.829893871704118e+02, -3.110768598954372e+02, 7.852364675323741e+02
5845, 9.707133584475154e-01, 1.296852379813305e+00, -1.341341696815588e-02, -2.775742701238519e-10, 2.784503396872095e-10, -5.962983267123140e-10, 1.327068168496400e+03, 1.069106516156555e+03, -6.790265536501312e+01, 1.983996454150704e+03, 3.798251871448190e+02, -4.805657221498277e+02, 1.344256434877132e+03
5846, 5.776134277524636e-01, 3.636683231736382e-01, -3.069756295920860e-02, -9.781719689643075e-10, 4.019860781547246e-10, -2.686404100898423e-09, 2.200025693449680e+03, 1.478060037488335e+03, -4.560667406562619e+02, 2.506318274968626e+03, -7.423686011403062e+02, 6.029610067887297e+02, 2.050412700217254e+03
5847, 5.289950708933979e-01, 8.105568961619652e-01, -2.917760642235591e-02, -5.293293563831185e-10, 9.749670491111927e-10, -5.817032043846792e-09, 6.393660739022243e+03, 5.103123572703144e+03, -3.080568353624445e+02, 1.068333986093958e+04, -3.147252426126623e+03, 2.578289025441223e+03, 8.691710816860748e+03
5848, 5.107533342663897e-01, 8.027539422047992e-01, -2.885549623796358e-02, -1.661738669564439e-09, 1.434740142745951e-09, -6.279258974325248e-09, 5.328961276196111e+03, 4.778065782241885e+03, -6.175365708600564e+02, 7.604730115279619e+03, 2.517468321573285e+03, -3.416712258745011e+03, 7.868613787036078e+03
5849, 4.925009942674063e-01, 7.950250058096309e-01, -2.828424477882246e-02, -1.299113490292401e-09, 1.142066381029224e-09, -4.788165284883002e-09, 4.597248880789964e+03, 5.439644501141345e+03, -4.052871547246110e+02, 5.008823516360771e+03, -1.762624688188646e+01, -2.458721212399985e+03, 4.377436519172901e+03
5850, 5.082861563699421e-01, 7.830352497179364e-01, -2.937425800921640e-02, -1.094281215964738e-09, 6.026449717566256e-10, -5.211259419793843e-09, 4.705983472961498e+03, 5.415225229735609e+03, 1.878619823683641e+02, 9.085507024413993e+03, 7.946115943572477e+02, 3.904121384181944e+03, 8.018958779543175e+03
5851, 3.563180470067799e-01, 1.205004605362916e-01, -3.917211085785952e-02, -9.997904157085371e-10, 7.600360684458014e-10, -6.602860250362710e-09, 4.809921412179378e+03, 4.198257860941421e+03, -8.219170313847191e+02, 6.507053799005727e+03, 2.106182058830585e+03, -7.799965352790937e+02, 4.631662753307669e+03
5852, 7.263679512734822e-01, 1.646573147053350e-01, -2.102478520601496e-02, -4.073818816884934e-10, 8.357868844095147e-11, -4.706369812850876e-10, 4.647245274097641e+02, 3.651486230744886e+02, -2.296498938415586e+01, 5.817539487381505e+02, 3.956097016806719e+02, 4.434688529367170e+01, 7.157288423368567e+02
5853, 7.561352075227821e-01, 1.243103644747193e+00, -2.251991720151044e-02, -9.611349680728393e-10, 2.700362971678829e-10, -2.919411263237468e-09, 3.646696366475374e+03, 5.134112472264489e+03, 1.137227449715836e+02, 6.509259209812225e+03, 8.087324840571384e+02, 1.921034268153667e+03, 4.384166042195742e+03
5854, 8.868315882583991e-01, 7.564701471106814e-01, -1.496924566765060e-02, -4.472847984312138e-10, 1.460067221089953e-10, 1.308826497870795e-10, 5.693500656771591e+01, -6.449836588790093e+00, -3.399204412477871e+01, -1.255411039242605e+02, 2.820862707507307e+02, 7.904226359977869e+01, 5.354216633022507e+02
5855, 8.685523898595945e-01, 7.487312437129476e-01, -1.608526670157449e-02, -4.869162358809048e-10, 1.342175661781502e-10, -1.651927783931962e-11, 2.835107914629777e+02, 1.278961453557455e+02, 1.512058833827791e+01, 2.108096760180654e+02, 1.823775322383334e+02, -7.936885864736309e+00, 3.447427791285295e+02
5856, 9.051685292813818e-01, 7.642238806425491e-01, -1.384024661647189e-02, -4.893568440591865e-10, 1.401497875267466e-10, 8.546755196330065e-10, -5.720576830799533e+02, -6.937258459880593e+02, -8.094316600875780e+01, -1.737184784424772e+03, 1.679278551827997e+02, -6.599869642012257e+01, 1.160985614026057e+03
5857, 8.502463438485078e-01, 7.409794146294246e-01, -1.719217025045023e-02, -5.271670661852450e-10, 1.486388800533997e-10, -1.992891405750265e-10, 4.246422000150084e+02, 4.072967532461216e+02, 8.296542606025570e+00, 7.849065355469893e+02, 4.481294084929472e+02, 1.437347667479916e+02, 8.949780161977533e+02
5858, 8.660565886013837e-01, 7.289794204154616e-01, -1.610474110353408e-02, -4.729031294752364e-10, 1.648270843221998e-10, -5.465090367708191e-11, 3.282342550526839e+02, 1.764658796376978e+02, -5.530195241168827e+01, 2.636185737282796e+02, 1.786359485858525e+02, -2.801807278286230e+01, 3.530787029526378e+02
5859, 8.636111524477728e-01, 7.092374813385258e-01, -1.612089049374911e-02, -4.558991314159819e-10, 1.572912777892868e-10, 1.454832508465850e-11, 9.617147473029614e+01, 2.099358977780998e+02, -3.099815432645011e+01, 1.407694964395343e+02, 1.778666945670452e+02, -9.372993507209149e+01, 3.660681648168367e+02
5860, 8.818996848013427e-01, 7.169935977576531e-01, -1.500180075368584e-02, -4.729780641423188e-10, 1.350570528657049e-10, 1.376642831896380e-10, -2.535436401691530e+01, -4.990927924550057e+01, 3.516622761605193e+01, -1.204077539919806e+02, 2.127870745576272e+02, -1.319961655176169e+02, 4.462264380326218e+02
5861, 8.843857881096726e-01, 7.367224298220729e-01, -1.498423039966859e-02, -4.397827651859062e-10, 1.401985976349390e-10, 9.857972140544728e-11, 1.710353928791793e+02, 6.026471249481789e+01, -1.714780671189385e+01, 3.911313404709416e+01, 1.484732476385955e+02, -8.782170113181019e+00, 2.868918695141659e+02
5862, 8.977563108685130e-01, 7.049663219304877e-01, -1.388627895451161e-02, -5.405045031908268e-10, 1.292895714497829e-10, 4.666312304380390e-10, -6.916128103601827e+02, -6.749931329710384e+02, -6.687730295441860e+01, -1.527064123347398e+03, 4.550571554913606e+02, -3.189474543143411e+02, 1.285290333904599e+03
5863, 8.794267964188789e-01, 6.972612848285800e-01, -1.501834112216100e-02, -5.406628398318252e-10, 1.191776502793434e-10, 3.498007743910126e-10, -2.534489594122194e+02, -1.040123983410237e+02, 2.638018483083736e+01, -4.897055255206006e+02, 5.977792296619367e+02, -1.857145074739551e+02, 1.136235547385972e+03
5864, 8.769793750072468e-01, 6.775209977446619e-01, -1.503303358122949e-02, -5.063285704174633e-10, 9.887319995499758e-11, 2.407547287892751e-10, -2.298301438030237e+02, -1.935620027178523e+02, -8.480360058062190e+01, -4.281981310717243e+02, 5.527953677126608e+02, 1.771376244046092e+02, 1.039382507177708e+03
5865, 8.928139375107065e-01, 6.655080762071014e-01, -1.391681620828307e-02, -4.981165738573642e-10, 5.831632120152924e-11, 2.417023317493074e-10, -2.285467186703234e+02, -3.374995547866488e+02, -8.501946245827304e+01, -6.426227057716654e+02, 1.945872856084403e+02, 3.481021345507939e+02, 7.981339115820751e+02
5866, 8.745384324575795e-01, 6.577573535138698e-01, -1.504699881656000e-02, -4.784484838147595e-10, 1.222365942509412e-10, 1.534612164803873e-10, -1.621220260944910e+01, -9.858557016221496e+01, -1.142676490430312e+02, -1.743977463599449e+02, 9.541870321162148e+01, -4.794079715341054e+01, 3.035756836656541e+02
5867, 8.903835515445992e-01, 6.457665889394661e-01, -1.392918653783872e-02, -4.742349872283985e-10, 8.649800507143999e-11, 2.276882255858547e-10, -3.447325563105843e+02, -4.663647002059161e+02, -5.095690768201364e+01, -6.729491771287958e+02, 3.926442363328331e+02, -2.919006118061197e+02, 8.991746477597009e+02
5868, 8.721333220744771e-01, 6.380187616456966e-01, -1.505869582256180e-02, -4.580638581116055e-10, 1.043983978091987e-10, 2.272111003672409e-10, -1.518376486742343e+01, -1.551027527194912e+02, -3.114793352466543e+01, -3.993669009173001e+02, 7.403452225408485e+01, -4.681239970618427e+01, 3.732929207528995e+02
5869, 8.696323516768734e-01, 6.182749114959840e-01, -1.507644431042882e-02, -5.140264305845199e-10, 1.418498095291896e-10, 2.811908554786492e-10, -1.433927033074414e+02, -2.896393909844219e+02, -4.797004721505736e+01, -5.547772095998835e+02, 6.371300994253534e+01, -2.583548926713763e+02, 5.914261197867722e+02
5870, 8.538025214123123e-01, 6.302967698299028e-01, -1.618546145178075e-02, -5.172595957627852e-10, 1.524925490072760e-10, 1.235501881409119e-10, 2.563613486265911e+01, -8.744201716685457e+01, -7.201689391601579e+01, -2.019333650989215e+02, 1.471459384986874e+02, 5.076412831925661e+01, 3.564933072516088e+02
5871, 8.586859130710561e-01, 6.697975926709541e-01, -1.615510334294657e-02, -5.040473131773655e-10, 1.400102808037555e-10, 1.224502557171227e-11, 1.747817697218009e+02, 1.100627624998560e+02, -8.244457059222898e+01, 2.876297416675146e+02, 3.321269041707554e+02, -3.752133917036405e+02, 8.932513948509689e+02
5872, 8.906878458163574e-01, 1.206691658777908e+00, -1.759023122050216e-02, -5.115462708131223e-10, 2.291252699867213e-10, -8.350020075950069e-10, 1.482352464629152e+03, 1.504787657854087e+03, -1.862607092240813e+02, 2.420210764573717e+03, -1.222791416236831e+02, 5.677916699196099e+01, 1.008785328371024e+03
5873, 9.064921981114638e-01, 1.194691601390365e+00, -1.663879464831962e-02, -6.037386710097518e-10, 4.586860797515659e-11, -3.561079166587903e-09, 2.767322395695319e+03, 2.410281680496391e+03, -4.281407894079646e+01, 4.706767814573413e+03, 1.904632377774673e+02, -2.940178765377632e+01, 2.167558269300942e+03
5874, 9.223632519196979e-01, 1.182789009969939e+00, -1.563494117725326e-02, -2.551922006214477e-10, 1.189187626957219e-10, -8.526799194759563e-10, 1.462612986924416e+03, 8.556702722594822e+02, 6.476496432574082e+00, 1.574707963483440e+03, 9.549051248665253e+02, -9.769214501810136e+02, 2.459220152610610e+03
5875, 1.037051519851460e+00, 5.708435156228691e-01, -3.437975666587730e-03, -6.633418129071063e-10, -1.052824462927005e-10, 1.050947088653318e-09, -1.480025032272430e+03, -2.214651028840150e+03, -8.772041781357918e+02, -7.109279650825693e+03, -1.749249384644289e+03, 1.093517693055945e+03, 6.570251951468783e+03
5876, 6.704790085772580e-01, 5.525974991719977e-01, -2.664303217548568e-02, -4.233065813554486e-10, 1.232975414387899e-10, -6.380500187311551e-09, 6.942552175979990e+03, 6.614780252145193e+03, 1.806901515491502e+01, 1.393336450491378e+04, -7.531447606754115e+02, 1.565808527728208e+02, 7.283302596249815e+03
5877, 6.545809631004023e-01, 5.645950321753155e-01, -2.748757867612580e-02, -5.097732860772812e-10, 2.213591684137235e-10, -2.479885529954473e-09, 2.777750273501935e+03, 2.589786444821455e+03, -2.689501762795923e+02, 4.121455430315584e+03, -1.344297862663050e+03, 9.029871366019935e+02, 3.190299679416029e+03
5878, 6.570807545705190e-01, 5.843399354295286e-01, -2.741839376250309e-02, -8.149536848396011e-10, 5.149043447069060e-10, -2.214294225783504e-09, 1.844908240358837e+03, 1.480649059794259e+03, -3.379024680222242e+02, 2.170925980314342e+03, 1.018338346598545e+03, -4.814261305722212e+02, 2.122878665382436e+03
5879, 6.386979237994753e-01, 5.765757979973032e-01, -2.826730309292877e-02, -7.431629797680765e-10, 4.310604614775968e-10, -2.684278191494463e-09, 2.454909997153321e+03, 2.527383478901248e+03, -1.195782252717003e+02, 3.394438600854538e+03, -8.063877446407921e+01, -1.538559399746087e+03, 2.825557514009782e+03
5880, 1.035677057821810e+00, 5.594039457005416e-01, -3.439617249936160e-03, 1.518229245272940e-10, -2.910586007254328e-10, 1.081843400588818e-10, -3.250955965451727e+03, -3.468662254685321e+03, -1.043764577173863e+03, -8.513557855613821e+03, -1.005420160268700e+03, 2.059885520485763e+03, 6.754776147269599e+03
5881, 1.032862405306734e+00, 5.375585835146081e-01, -3.456147677659064e-03, 5.354496785609824e-11, 2.139707685716172e-10, -1.122058686041240e-10, -1.272089062010718e+03, -2.028150983106815e+03, 2.306781866844836e+02, -3.873113883927497e+03, -3.677989461130364e+02, -1.174820979834029e+03, 3.174350706015006e+03
5882, 8.129688545472981e-01, 1.638555421581348e-01, -1.540181721367707e-02, -4.915206942131017e-10, 7.191221146674647e-11, 4.910989727842784e-10, -4.685197054247356e+02, -5.184709687040539e+02, -6.484239400319437e+01, -8.690646119069365e+02, 5.674538401189280e+02, 1.990005216469701e+02, 1.113711111445783e+03
5883, 9.364537506768070e-01, 4.594761785688570e-01, -9.454838825850612e-03, -5.484808734841667e-10, -6.969861330857948e-11, 2.797632831845822e-10, -1.228643854298525e+03, -9.416691737867857e+02, -9.520559562494866e+01, -1.813539654748496e+03, -7.864333733367559e+01, -1.181931205373964e+02, 8.245988910789029e+02
5884, 9.389124708223631e-01, 4.792344150145499e-01, -9.443849586124958e-03, -5.999789737728810e-10, -2.026484086915343e-10, 3.570707363741054e-10, -1.503193019501789e+03, -1.500320094125307e+03, -1.344686404624694e+02, -3.039596250580353e+03, 5.275679927888729e+02, 8.408258634129633e+02, 2.318437171588164e+03
5885, 9.181622853861963e-01, 4.517683818052279e-01, -1.062234264700551e-02, -5.803875618928698e-10, 1.384260794740081e-11, 2.637168893436783e-09, -3.425883228791701e+03, -3.358614273073103e+03, -1.622403084251943e+02, -7.328299318213897e+03, 3.899533823752234e+02, -9.574288536077927e+01, 4.007311402561890e+03
5886, 1.696884679347442e-01, 1.536879998909347e-01, -3.530068294217507e-02, -2.239618718630832e-09, 5.954261105699767e-10, -7.452079447067113e-09, 7.088302860102691e+03, 6.756995339162601e+03, 8.483806957760120e+02, 1.916508237113259e+04, 1.428038868943329e+03, 5.875869878737803e+03, 1.618067275660416e+04
5887, 7.104877337569996e-01, 1.766434291801257e-01, -2.211603867184959e-02, -5.042162616910681e-10, 1.206794164878995e-10, -5.961005868929360e-10, 6.198360850258960e+02, 5.085932335059122e+02, -8.896355070665702e+01, 9.501381477133411e+02, -1.241568951180600e+02, 3.619897215289383e+02, 7.882361240789687e+02
5888, 1.130051617756664e+00, 1.177417665203020e+00, -1.929512352466882e-03, 3.380826587957017e-10, -2.416452135896330e-10, -9.834280576858745e-11, -2.153041925232008e+03, -2.704510611346364e+03, -3.429520955099211e+01, -5.918201624592890e+03, -1.654023374291625e+03, 1.292483394437891e+03, 5.062274787882955e+03
5889, 5.751706944534843e-01, 3.439063958634165e-01, -3.076861598698294e-02, -6.512587441874364e-10, 5.202187013477435e-10, -3.172609631860450e-09, 2.624447976304384e+03, 2.307527881061704e+03, -1.262381580118254e+01, 4.004973030122034e+03, -1.143952404620763e+03, -4.110405831156314e+02, 2.622408507407034e+03
5890, 9.230434777274745e-01, 4.911933643333791e-01, -1.060099067246722e-02, -4.613655421523561e-10, 1.070513824245799e-10, 5.947110655775503e-10, -1.684995804491098e+03, -1.431490614314138e+03, -3.480163045618612e+01, -2.360584585737577e+03, 6.498641914209597e+02, 1.148893472930217e+03, 2.433602852564467e+03
5891, 4.776426369219398e-01, 6.766502028900815e-01, -3.141569481100656e-02, -1.568075006063650e-09, 9.483237042658420e-10, -1.831894825505761e-08, 1.230406161787267e+04, 1.132661759235284e+04, 8.610076967019891e+01, 2.575694414846072e+04, 1.423867966868587e+03, -5.821195087265455e+02, 1.421991259524916e+04
5892, 4.801502945032730e-01, 6.963239046119459e-01, -3.098793877080114e-02, -1.489496991040990e-09, 1.039022591291552e-09, -7.143613040664795e-09, 6.473801946562340e+03, 7.566611177471826e+03, -1.750371664148131e+02, 1.209826601770929e+04, 8.283796894109904e+01, 4.811923443359957e+03, 9.811150999620872e+03
5893, 4.959771060501810e-01, 6.844391870751702e-01, -3.146794812140585e-02, -1.476790182467924e-09, 1.035912340611317e-09, -6.841589027125510e-09, 5.552500463356950e+03, 4.429068492736571e+03, -2.099632124424953e+02, 8.190275581597714e+03, 4.375209834307398e+03, 1.460666804441981e+02, 8.294996155874134e+03
5894, 4.825694447603183e-01, 7.161509527210911e-01, -3.052350495770049e-02, -1.306831620103809e-09, 1.151132750930636e-09, -6.851361167400843e-09, 5.974147421929281e+03, 4.767640476538222e+03, -9.221730608799145e+01, 1.014272353982589e+04, 3.836099389517508e+03, -1.724298629147483e+03, 8.772354692979769e+03
5895, 4.984643915352648e-01, 7.041101496290451e-01, -3.110645658310053e-02, -1.522714719412097e-09, 1.394778538656857e-09, -6.038165895654527e-09, 5.131058097164185e+03, 4.564999226544294e+03, 1.281996701696053e+02, 7.355257194074853e+03, -1.556880118462953e+03, -4.695597833871398e+02, 3.809055479137960e+03
5896, 3.140864735665490e-01, 4.764653946437870e-01, -3.023156281277347e-02, -3.619119269892330e-09, 1.657584220272567e-09, -8.687209783486621e-09, 9.425456194950504e+03, 9.239383376831916e+03, -7.274058151978605e+01, 1.509969554219469e+04, 2.965766086456650e+03, -4.081177265006667e+03, 1.047180211759315e+04
5897, 2.984525227236983e-01, 4.883387365773441e-01, -2.715935389947298e-02, -2.958702318908831e-09, 1.526392630161164e-09, -5.330498655606981e-09, 2.189532000655760e+03, 3.819298772637622e+03, 1.326298769733323e+03, 8.376471837432684e+03, -3.865086233622399e+03, 3.665505925748209e+02, 9.019315571553914e+03
5898, 3.020432882318813e-01, 5.082061278021464e-01, -2.586287150566529e-02, -1.661639471085219e-09, 9.501239498192766e-10, -5.817369788081617e-09, 5.124424885914802e+03, 5.351909359969141e+03, 3.342067672888058e+02, 1.342859987894045e+04, -1.957838862410373e+03, 4.116850270154742e+03, 1.139306151058626e+04
5899, 2.830626021785970e-01, 5.000510893492023e-01, -2.260768178164177e-02, -1.895948333222338e-09, 1.049295871821681e-09, -3.691124447839971e-09, 2.592015760082883e+03, 2.980597894890374e+03, 2.053773999222457e+02, 6.326285930293063e+03, -6.571249499465276e+02, -2.065921470082799e+02, 3.767587992239136e+03
5900, 2.724134986714237e-01, 5.189626092744065e-01, -1.318859949514711e-02, -5.296416663497213e-10, 4.125642210058667e-10, -7.348690114659672e-10, 6.714159418959284e+02, 1.005203098460509e+03, 4.499835326019231e+02, 3.543449206019202e+03, -8.837612313570878e+02, 5.535993601154223e+01, 3.218865105570776e+03
5901, 2.899885804943749e-01, 5.217546833692142e-01, -2.163018961413164e-02, -1.553742954387070e-09, 8.352683730447480e-10, -3.077575786259150e-09, 2.965539808217754e+03, 3.947423770019748e+03, -2.308812852332755e+02, 6.860838406162998e+03, -5.760900793479613e+02, -9.669478151527330e+02, 4.034010180417768e+03
5902, 2.987134395733014e-01, 5.387945754368525e-01, -2.155054660197312e-02, -2.696143284916060e-09, 1.559876465699847e-09, -6.577583000983086e-09, 5.260577463701143e+03, 5.486579432097156e+03, 2.803398630210630e+02, 1.269345313955077e+04, 2.448783095037358e+03, -4.388639345416913e+02, 8.510115456556012e+03
5903, 3.194764395886582e-01, 5.155029769082073e-01, -2.807538715849672e-02, -2.272900283661903e-09, 9.814543083593077e-10, -4.314323030915675e-09, 4.235318215231309e+03, 4.495348160971136e+03, 2.454379585738196e+02, 8.243414197290744e+03, 1.388884866886079e+03, 4.541234462269322e+03, 9.106392162221944e+03
5904, 3.193192819180307e-01, 5.356088381248612e-01, -2.629210565915457e-02, -2.107434200498509e-09, 1.152126816109082e-09, -2.632848314986063e-09, 3.326375084603912e+03, 2.929289598517951e+03, -4.143925180937052e+01, 4.737500634108197e+03, 1.468979427612428e+03, -2.487143226722218e+02, 3.061653054871046e+03
5905, 1.002013930542053e+00, 1.123210227940098e+00, -1.018200904927891e-02, -2.212269339193091e-10, 1.090962350977942e-10, 2.578693740073709e-10, -3.384270294404000e+02, -2.151331499054427e+02, 3.313195926796892e+01, -2.371327696095215e+02, 4.244687508649178e+02, 6.181357147507053e+00, 7.462586110874194e+02
5906, 6.754234591943287e-01, 5.921065823666427e-01, -2.652874678260089e-02, -6.500603708944083e-10, 3.566162159383244e-10, -2.069942851723412e-09, 2.054111572969811e+03, 1.607154018471037e+03, -3.462717456051311e+02, 2.669044540268656e+03, -8.291266904846503e+02, 1.150877418111794e+03, 2.692282416767124e+03
5907, 6.595030627175781e-01, 6.040995359927414e-01, -2.735047655485274e-02, -8.902205823531293e-10, 3.761713090061648e-10, -2.319001760783981e-09, 2.444164178785759e+03, 1.513540938801545e+03, -1.811934755360784e+02, 3.292788210420292e+03, 1.833679052559433e+03, 5.217445143088016e+02, 3.657629485399643e+03
5908, 4.381461046497658e-01, 8.013903832980671e-02, -3.649797622315114e-02, -4.313947333231508e-10, 1.360185525761921e-10, -3.458012112123745e-09, 1.403834139815622e+03, 1.840151964860657e+03, -2.906230360473222e+02, 6.635670130712539e+02, 1.118481943546191e+02, -2.793266834145284e+02, 1.259502241868258e+03
5909, 7.946353821444063e-01, 1.561048889246937e-01, -1.654742658883209e-02, -4.985767328843907e-10, 9.867037900887439e-11, 3.284686849146074e-10, -3.374055392907314e+02, -4.259362157693891e+02, -1.195244842140648e+01, -9.291636279811332e+02, 1.340123772763270e+02, -2.600626779499409e+02, 7.502205652685404e+02
5910, 3.553427063464808e-01, 2.510283928735398e-01, -3.819628831667720e-02, -1.481532018793674e-09, 1.061073169549692e-09, -7.596119546330979e-09, 3.622319238540012e+03, 5.544045659593443e+03, 1.651679708742213e+02, 6.314013271505456e+03, -8.366740318398868e+02, -4.089105729025855e+03, 7.622979623209353e+03
5911, 3.394606374266453e-01, 2.630142702152379e-01, -3.818029183385743e-02, -2.197776938583247e-09, 8.858168233459871e-10, -8.041886550070121e-09, 3.069174220180004e+03, 2.302041204006057e+03, 3.100436617839367e+02, 4.062864543696543e+03, -2.107647989595655e+03, -1.970662635643161e+03, 5.253918652768978e+03
5912, 3.126397525465769e-01, 3.264710563315636e-01, -3.662265033972529e-02, -1.963138562782683e-09, 8.830660027707303e-10, -1.141275439856287e-08, 9.977361976600423e+03, 8.615633965305746e+03, -1.697714727788824e+02, 2.016579673357896e+04, 1.485774025600941e+03, 3.026490312346812e+03, 1.239840127719400e+04
5913, 2.967737348156292e-01, 3.384313848794247e-01, -3.566349768193692e-02, -1.836244703856673e-09, 4.659518877849260e-10, -9.156063156248248e-09, 7.343917630399803e+03, 6.880761374246305e+03, -5.124188560629052e+02, 1.473724311966848e+04, -5.234067406588387e+02, 3.797987755153997e+03, 1.015794056527035e+04
5914, 3.150890236107332e-01, 3.461914955258842e-01, -3.612717823400577e-02, -2.325300703865685e-09, 1.028075733744633e-09, -1.008795038682173e-08, 6.192465837051680e+03, 6.963794224131290e+03, 8.585681101730054e+02, 8.966976006499754e+03, -1.771389151469385e+03, -2.941407805474531e+03, 6.613116626728820e+03
5915, 2.992441152820629e-01, 3.581658704948819e-01, -3.504843282696741e-02, -2.438400324904424e-09, 4.517780891811673e-10, -7.993235250770544e-09, 4.500646159421526e+03, 5.480325899938405e+03, -1.193603086204557e+02, 6.608843406878396e+03, -3.283587559905083e+03, -1.021051207880757e+03, 6.233388247468099e+03
5916, 3.017253375952391e-01, 3.778595743728631e-01, -3.439378791600441e-02, -2.305337476551363e-09, 1.366816969594368e-09, -8.598713254827360e-09, 4.954799342475221e+03, 4.589947423114737e+03, -8.897814428695652e+02, 9.689084278056718e+03, -9.827439909496668e+02, 3.596799034871814e+03, 8.267845179677342e+03
5917, 5.496315153733782e-01, 5.575598567653901e-01, -3.168829827463168e-02, -1.125726673520587e-09, 4.582071388392134e-10, -4.843830638785826e-09, 3.770144849181479e+03, 2.515948026654419e+03, -2.011334008548724e+02, 4.745407169866479e+03, -2.556842857026870e+03, -2.364419592101775e+02, 4.862996163801708e+03
5918, 5.337664474083288e-01, 5.695420578929637e-01, -3.212250738807556e-02, -1.542702415577243e-09, 6.261614607295180e-10, -4.863957619926472e-09, 3.879502796438494e+03, 2.998985640956852e+03, -5.944390455858331e+02, 5.997113286836583e+03, 2.668284469441302e+03, -8.020824359087381e+02, 5.610123446403007e+03
5919, 1.053365472192795e+00, 7.019450337786100e-01, -3.379335172800456e-03, -2.596102686846129e-10, -5.978584461873416e-11, -9.029834811786378e-11, -5.902640148345519e+02, -9.544427899558605e+02, -2.125249445163001e+02, -2.646129634311504e+03, -9.136069579718047e+02, 1.154598349798980e+03, 3.201457890968600e+03
5920, 6.315009842972445e-01, 7.977965727278091e-01, -2.831170138701099e-02, -1.109042443778188e-09, 8.353819376021662e-10, -2.929765934789995e-09, 1.872969122394466e+03, 1.964154649827452e+03, -3.940307985664966e+02, 1.057921923254982e+03, 2.693628941416333e+02, 1.045638722511844e+03, 2.170361301005246e+03
5921, 4.677461812970775e-01, 3.172296749675448e-01, -3.505650829463839e-02, -1.233169593247269e-09, 6.900462209586873e-10, -4.535081335858218e-09, 2.009906719858962e+03, 2.287089089651027e+03, -2.947260395505168e+01, 2.972756639009013e+03, -4.509026546004799e+02, -2.096139853416972e+03, 3.811951912178907e+03
5922, 4.702041376984615e-01, 3.369744304549903e-01, -3.492028828773718e-02, -7.340866162634846e-10, 1.379817679402598e-09, -1.112698111006543e-08, 6.685456972812355e+03, 6.188493020078989e+03, -1.016689898082581e+02, 1.312871151205003e+04, -4.084959728391468e+02, -1.088848759660253e+03, 7.003781761748035e+03
5923, 4.518821616825004e-01, 3.292317327197906e-01, -3.552062569962858e-02, -1.207367731089243e-09, 7.142154209595475e-10, -5.543082139131880e-09, 3.790448964313332e+03, 2.982164065313944e+03, 2.749394267169654e+02, 4.868023106063448e+03, -1.224788743446446e+03, -1.509912248131451e+03, 3.775192693059474e+03
5924, 8.605106830554514e-01, 1.278231201849597e-01, -1.197046354722795e-02, -4.307168296255277e-10, -3.512797337415733e-12, 3.685375919155913e-10, -5.343724670170697e+02, -5.613581296990483e+02, -1.785767657464540e+02, -8.136856288979224e+02, -3.946297227462300e+02, -3.279095486603526e+02, 9.780835710442695e+02
5925, 7.612492733539963e-01, 1.002391806382925e+00, -2.332716800870897e-02, -1.071720907669726e-09, 6.152083661719333e-10, -3.332345719951880e-09, 3.973782386651038e+03, 3.883877675612281e+03, -4.048228238310941e+02, 7.885000652626202e+03, 1.200313025574037e+03, -1.325306762239264e+03, 5.073515625821994e+03
5926, 7.771069567417903e-01, 9.903928637984892e-01, -2.263054653956523e-02, -7.336989748642598e-10, 3.407455117337366e-10, -2.002666337587624e-09, 2.953249457246095e+03, 2.569055613473729e+03, -5.084798795210376e+02, 3.185390387799649e+03, 3.723986150543204e+02, -1.790351558681412e+03, 3.331434390434894e+03
5927, 4.761931116693585e-01, 2.459583869475411e-01, -3.489288650398700e-02, -1.291687943875164e-09, 7.373703101479882e-10, -4.771445960197792e-09, 3.154575967783128e+03, 1.533864308070913e+03, -9.152518823658845e+02, 2.211221315349062e+03, -1.399212022433822e+03, 1.411108037977475e+03, 4.043245844612878e+03
5928, 4.786849020004663e-01, 2.656951724803206e-01, -3.477416136524501e-02, -1.470695762508089e-09, 5.675889090084186e-10, -3.897148684581376e-09, 3.052061076898312e+03, 3.178432305223121e+03, 2.346939158055115e+02, 3.164723996213519e+03, 3.982405452151482e+02, -1.319411545209967e+03, 2.424457886630460e+03
5929, 1.020650007429592e+00, 4.373863453895344e-01, -3.482840458518002e-03, 1.398473081242786e-10, 2.297746462089029e-10, -2.637237795388699e-10, -1.450171540998823e+03, -2.066935128530729e+03, 3.885914926282896e+02, -3.788093619291968e+03, 1.681078790543452e+02, -1.160885258789669e+03, 2.997513358160862e+03
5930, 1.038818696582312e+00, 4.465460621202607e-01, -2.267901657581427e-03, 7.060925788178098e-11, 4.811913755731743e-11, -4.147836576930442e-12, 1.673143252661187e+02, 1.684411669114130e+02, -7.922592242027793e+00, 8.050643144012050e+02, -3.442125606443156e+02, -2.201013774665664e+02, 9.523532366587216e+02
5931, 1.018188053228746e+00, 4.187301199792038e-01, -3.501045767327745e-03, -1.356787492697469e-09, -3.833259478261199e-10, 3.715833692589334e-09, -7.490625358174064e+03, -7.893453179845366e+03, 3.022685374118316e+02, -1.653140580472428e+04, 8.870025669849218e+02, -2.275794988373260e+02, 9.002549649719171e+03
5932, 3.944411428359391e-01, 2.862440018205783e-01, -3.722733150534568e-02, -1.775201903314235e-09, 1.257562446354705e-09, -7.529809390241668e-09, 5.611476635999182e+03, 5.308846563410860e+03, -2.960196802750617e+01, 7.830478796125349e+03, 3.010929756020059e+03, 9.190401878932644e+02, 5.951530874468774e+03
5933, 9.290637165004186e-01, 4.002168196172244e-01, -9.488667615163517e-03, -4.761971537676818e-10, 6.845013008577393e-11, 2.722243993916067e-09, -2.965463425071426e+03, -2.932233067549955e+03, 1.746241843594514e+02, -6.137186603221257e+03, 5.915914030908302e+02, -5.298638150686080e+02, 3.485687685396190e+03
5934, 9.107696961423896e-01, 3.924708022034784e-01, -1.065755712196859e-02, -5.106532462883962e-10, 1.126809903028406e-10, 2.404606703362283e-10, -1.353947053830752e+03, -1.052644052528440e+03, -5.306580631756822e+01, -1.618837686054793e+03, 1.003941467973055e+03, 1.860063083162971e+02, 1.837580278814575e+03
5935, 9.082834545579668e-01, 3.727385594360292e-01, -1.067096073919963e-02, -4.299830345862145e-10, 2.181122849796840e-11, 2.084355869676506e-10, -1.032306779640207e+03, -7.702873571213336e+02, -2.132777896818090e+02, -1.420573992986324e+03, -4.742890783069195e+02, -2.965354584997065e+02, 1.181630918824441e+03
5936, 9.265966120410993e-01, 3.804635039211441e-01, -9.500140537319960e-03, -6.453134463455756e-10, -6.864835224068594e-13, 5.777156401205003e-10, -1.896379558416347e+03, -1.675742301452442e+03, 1.844245989485156e+01, -3.034146179710664e+03, 8.940946450130033e+02, 9.150844691366336e+02, 2.550608206437915e+03
5937, 9.240872900072075e-01, 3.607446308343306e-01, -9.514705999823909e-03, -5.117625191315122e-10, 5.871216671210882e-11, 6.278658701666748e-11, -7.523217957079006e+02, -6.953428430427427e+02, -1.307533993452405e+02, -5.757097988102039e+02, 2.970708726487450e+02, 1.503289465328436e+02, 6.389164834550518e+02
5938, 9.424262724494065e-01, 3.684952888983614e-01, -8.334260755865066e-03, -7.698711315359711e-10, 1.620942762040039e-10, 4.829615104732001e-10, -2.130042980764111e+03, -1.977278151592249e+03, 7.546775369670596e+01, -3.082348944752537e+03, 1.668233811016818e+03, -5.182263175898536e+02, 3.201167980428278e+03
5939, 3.037926180649310e-01, 1.169912104125442e-01, -4.028062755676870e-02, -1.129063704822742e-09, 1.338826692059545e-09, -7.415997375484536e-09, 6.270062421840772e+03, 5.626226185932694e+03, -6.987947203645537e+02, 7.029078660548375e+03, -1.509300773773203e+03, 4.615070160257528e+02, 3.227566846046879e+03
5940, 2.879112405012096e-01, 1.289991329098717e-01, -4.029006257307769e-02, -1.390688762955977e-09, 1.723378994604296e-09, -9.718449499318009e-09, 7.369173724307960e+03, 6.958459206875013e+03, 7.460947938166260e+01, 1.268661144293050e+04, 3.536660490175604e+03, -1.684063379475276e+03, 8.756516976667204e+03
5941, 2.903665560419953e-01, 1.487295302030816e-01, -4.000224508987348e-02, -1.604729421507494e-09, 5.415146913068300e-10, -1.607478236584601e-08, 1.195921284890906e+04, 1.046111590515309e+04, -4.743811156318145e+02, 2.227448589137263e+04, 2.010253793283631e+03, 1.151176306004467e+03, 1.186914172734263e+04
5942, 2.928487037193655e-01, 1.684831995857985e-01, -3.969936741914577e-02, -1.606734674167567e-09, 9.144293877552025e-10, -8.161738566948829e-09, 5.341954767902072e+03, 5.756469289184078e+03, -6.931996387411810e+01, 8.394894036705175e+03, 2.365836956899691e+03, 3.305379944804247e+03, 7.603246138226540e+03
5943, 2.695876826906343e-01, 1.212297014392599e-01, -4.045044921061809e-02, -1.264365925276827e-09, 6.985185850264129e-10, -1.819013331873674e-08, 9.919738893275662e+03, 1.061515711966444e+04, -3.483822877404298e+02, 1.971756886455230e+04, -1.055274231870086e+02, -1.680939581253262e+03, 9.926816282595108e+03
5944, 2.720432402164468e-01, 1.409858036769540e-01, -4.012423406468445e-02, -1.515625409231353e-09, 1.632066672021533e-09, -1.124105523869391e-08, 1.002836582016812e+04, 1.013254800569166e+04, -6.134304407422128e+02, 2.128576458083809e+04, -8.199870037989342e+01, 1.335201969395271e+02, 1.125920092123635e+04
5945, 8.857940007203162e-01, 1.167271658238051e+00, -1.767398663048686e-02, -3.801912038189937e-10, 2.953368203396613e-10, -1.022103602647753e-09, 1.339218614743330e+03, 1.222894003696986e+03, -3.589131714739069e+01, 2.403719369303672e+03, 1.431924100176064e+03, 4.310317430188357e+02, 2.825415092377007e+03
5946, 8.833920602976120e-01, 1.147537122954923e+00, -1.771036470904661e-02, -4.105129387427869e-10, 1.430502477918668e-10, -8.704004917495966e-10, 1.571513939865470e+03, 1.636482817348249e+03, -1.052568422926161e+02, 1.876668759541731e+03, 9.897217594924294e+02, -5.621987680079336e+02, 1.999400337440134e+03
5947, 8.784012140634379e-01, 8.276929562486212e-01, -1.601338425212675e-02, -4.642676143341451e-10, 1.697932457624433e-10, -2.319833541372774e-10, 3.694781678534470e+02, 3.899534341899881e+02, 2.321547556645498e+01, 6.258078065990272e+02, 6.398819727858245e+01, -3.992037219009047e+02, 7.435501868983355e+02
5948, 8.601064739720612e-01, 8.199389352141850e-01, -1.711201969644690e-02, -4.719824213260816e-10, 1.658444247163396e-10, -2.162073181910444e-10, 5.996976734221987e+02, 5.830483030415401e+02, 1.938795099405631e+01, 1.075807395402679e+03, 5.306166148812978e+02, 1.357876397978419e+02, 1.065827893828361e+03
5949, 8.808956708908591e-01, 8.474291346976452e-01, -1.599266928385831e-02, -3.761526319397821e-10, 2.266521809719099e-10, -9.513759188241670e-10, 9.013091516889907e+02, 8.369913054395940e+02, -8.420710486558897e+01, 1.629755139873818e+03, 4.965403381906386e+01, -1.195192312636820e+02, 8.081745101130224e+02
5950, 8.992080128532279e-01, 8.552482226455989e-01, -1.488264899198815e-02, -4.116517064606919e-10, 7.938189304569175e-11, -3.378091713735666e-12, 2.230293827041078e+02, 1.213252055779928e+02, -9.972861564736860e+01, 1.086247466282705e+02, 5.229538301290681e+02, -5.731810867669827e+01, 9.337731755906619e+02
5951, 9.016745088786835e-01, 8.749908639376858e-01, -1.486520189563321e-02, -4.195189171882907e-10, 1.092296013890074e-10, -9.297406433101903e-11, 3.341279077465612e+02, 2.003812909017180e+02, -1.586652790638833e+01, 1.003920651684334e+02, 1.838409004083895e+02, -1.646163799908286e+02, 4.740280068087904e+02
5952, 9.175100674833953e-01, 8.629651997970467e-01, -1.376168657271965e-02, -4.010610152409632e-10, 5.479451953040252e-11, 1.011223083466574e-10, 2.105809442920943e+02, 4.308582950465171e+00, -1.877115968737156e+01, -1.392667811300001e+01, 1.384862526851200e+02, -2.101079444851892e+02, 4.875148028752025e+02
5953, 3.393726714960009e-01, 5.433820702894904e-01, -2.861133177650486e-02, -2.399448178518184e-09, 1.123392838509966e-09, -5.887499148862091e-09, 3.138714312332729e+03, 4.375105873332002e+03, 3.828649114675406e+02, 6.227563334162965e+03, -4.642466835326329e+03, -2.827234949866336e+03, 9.814665020561370e+03
5954, 3.242027146581249e-01, 5.552106506155206e-01, -2.524411093631865e-02, -1.640836155943602e-09, 1.074463213165581e-09, -2.970115873356914e-09, 2.891208194277289e+03, 3.362898021291847e+03, 5.848231619370869e+02, 5.746418168382308e+03, -5.970335617806535e+02, -1.163061789769170e+03, 3.630631017428915e+03
5955, 3.255053785209929e-01, 5.762681911572205e-01, -2.316807234266492e-02, -2.551355364521630e-09, 1.323794045003614e-09, -5.309555925213399e-09, 3.522885362031222e+03, 3.853738208538523e+03, 5.741777244268976e+02, 9.252493793252357e+03, 1.030125883735159e+03, -3.329784947937600e+02, 5.962160794796924e+03
5956, 3.088546990144519e-01, 5.668936248486518e-01, -2.043565590026427e-02, -1.138204775820343e-09, 5.381730518232428e-10, -1.303980320647385e-09, 1.857400687144986e+02, 9.474425237560017e+02, 8.820374797840254e+02, 3.135304796735586e+03, -6.881529060536320e+02, -9.427201507603695e+01, 3.288575264792614e+03
5957, 3.272373525502149e-01, 5.964892839365178e-01, -2.106431951284225e-02, -1.001829936839406e-09, 8.986754339966084e-10, -1.153451982464921e-09, 2.209458922390692e+02, -5.729498491183153e+01, 8.077308933342680e+02, 2.431397816579047e+03, 2.869108630621289e+02, 7.435244214939806e+02, 3.072666690695076e+03
5958, 3.432495834748169e-01, 5.842753448815425e-01, -2.582833950310387e-02, -2.409844556772991e-09, 1.519077754206952e-09, -3.501849418614752e-09, 4.116253108703663e+03, 1.738249123856457e+03, 6.214488894515179e+02, 6.871024591860182e+03, 7.102874291298207e+01, 1.197485645573273e+03, 5.026944744899659e+03
5959, 3.460088401263501e-01, 6.044272072523125e-01, -2.433066480131827e-02, -1.084924251751977e-09, 8.753057387914333e-10, -2.791484641529402e-09, 2.997581436193596e+03, 3.094398597053212e+03, -1.553204437316634e+02, 5.512848074020141e+03, -1.533243729049640e+03, -3.097518853023148e+02, 3.674933993611184e+03
5960, 3.648029148233033e-01, 6.113611235805623e-01, -2.684510847905679e-02, -1.660056506478314e-09, 6.733918221132469e-10, -5.179951625118397e-09, 4.890251645888913e+03, 6.118549270275580e+03, -7.573130486755072e+02, 9.154654092190318e+03, -2.554480387663984e+03, 4.426132490594387e+02, 6.028290525726665e+03
5961, 3.497970197414125e-01, 6.238218508307242e-01, -2.295797925889067e-02, -2.334678632811513e-09, 1.448934563917882e-09, -5.457754230420660e-09, 3.729206437181469e+03, 3.611317119602775e+03, -8.233893330310244e+01, 7.845190793525849e+03, -5.894278191667488e+02, -1.903357065544482e+02, 4.314134131573689e+03
5962, 3.338465584824739e-01, 6.439336398009227e-01, -1.213879428221030e-02, -3.004718738989743e-10, 9.624395093315465e-11, -2.443888249767076e-10, 6.654674876192951e+02, 6.554424092806486e+02, 7.663693751399975e+01, 1.068453564814138e+03, -1.266769566034472e+02, 4.285834641593493e+02, 8.850708555996179e+02
5963, 7.451884309648580e-01, 1.294534364525056e+00, -2.169192451305592e-02, -1.021150388658661e-09, 2.613325188238470e-10, -4.375221488366129e-09, 4.262496260458245e+03, 5.448182865774596e+03, -7.205435056322074e+01, 1.019847478776239e+04, -6.678487477599568e+02, 4.827387379658923e+03, 1.004331278270283e+04
5964, 7.293282997483306e-01, 1.306468660128197e+00, -2.090658043093093e-02, -1.014854164820897e-09, 5.191325030461171e-10, -2.643691393077256e-09, 3.781240212186624e+03, 4.226822587537016e+03, 5.530336506584066e+02, 6.915809517942644e+03, -2.187409261695328e+02, -2.366990701029425e+03, 5.147463056667525e+03
5965, 9.068764336699839e-01, 2.223134457249744e-01, -9.588882020040894e-03, -7.023415034344308e-10, 1.321107828538621e-10, 3.110243857959915e-09, -2.380532903790834e+03, -2.650709958471922e+03, 2.006595322739316e+01, -4.947757577817150e+03, 5.905131149499819e+02, -2.322878488040589e+02, 2.679408711824167e+03
5966, 8.727366898905965e-01, 2.266229875810121e-01, -1.191758206012180e-02, -4.339447943599626e-10, 6.297498871948170e-11, 3.012072048777198e-10, -3.860201951564108e+02, -5.427842376492995e+02, 9.558992377754727e+01, -4.602423095967661e+02, 4.591894402961822e+01, 4.194966525266678e+01, 2.397202550450826e+02
5967, 6.484003003382143e-01, 3.749059365039402e-01, -2.706363638675070e-02, -7.007297788443208e-10, 1.044505558029375e-10, -2.076843828729033e-09, 1.656574674725949e+03, 1.352286518384458e+03, -1.414062824087444e+02, 1.974277341495489e+03, 6.126722185735341e+01, -1.340413071081852e+03, 2.398242951874527e+03
5968, 2.429424633288457e-01, 1.848232138800560e-01, -3.859521326986252e-02, -1.938310910707951e-09, 1.044888416132949e-09, -8.361980932788713e-09, 4.929594564484950e+03, 5.313128583359327e+03, -4.856042211503018e+01, 5.769817957943788e+03, -1.255422416587354e+02, -2.416188263469124e+03, 4.254300591212587e+03
5969, 2.245901757755310e-01, 1.770460985467507e-01, -3.811993187620887e-02, -2.612898884647675e-09, 1.033913993202598e-09, -8.927496073893600e-09, 6.917199798352405e+03, 4.983644128345912e+03, 1.733911340885357e+02, 1.007469761388772e+04, 4.181176773088281e+03, 2.066101092991908e+03, 9.228047466682936e+03
5970, 2.087353583695087e-01, 1.889992368388820e-01, -3.672071204408470e-02, -2.023393827427575e-09, 9.995612355654657e-10, -7.929166384573223e-09, 5.728885611881016e+03, 5.005505727040445e+03, 1.557704450604932e+02, 9.146039028297124e+03, 2.154741939398544e+03, 3.332057962094088e+03, 7.872831671838395e+03
5971, 2.270707202336991e-01, 1.967734739119253e-01, -3.750514538175891e-02, -2.206574248021812e-09, 1.603240782971482e-09, -7.469497995523094e-09, 4.849630496513057e+03, 5.128836642914783e+03, 1.636787330616087e+02, 6.850551183326208e+03, -2.979312024558743e+03, -8.546892598287299e+02, 5.694183357382811e+03
5972, 9.125034008640662e-01, 8.234950714634682e-01, -1.379823818342741e-02, -4.243751306976697e-10, 1.355290425023426e-10, 1.211677583081508e-10, 1.358477926786307e+02, -3.460688212859544e+01, -3.515346104064541e+01, -3.392086284050180e-01, 2.985137847173482e+02, 9.220100615647593e+01, 5.665066615185665e+02
5973, 7.020243846530034e-01, 2.478918660583713e-01, -2.312887184859620e-02, -5.842852030901870e-10, 1.687516517042038e-10, -5.490306634320897e-10, 8.087680277747044e+02, 5.877245948874463e+02, -1.524709428497896e+02, 8.413785692110285e+02, -9.718875294065106e+01, 4.251162126566868e+01, 4.007902603926976e+02
5974, 9.053372948741509e-01, 2.032471213435796e-01, -9.542724222666419e-03, -7.102994586965160e-10, 1.208040194932640e-10, 1.005060393047560e-09, -1.802955127436463e+03, -1.928177675258889e+03, 3.209362696853103e+01, -4.031106410643373e+03, 5.262238153342417e+02, 6.704081617367049e+01, 2.355553432629627e+03
5975, 5.568488479234867e-01, 3.362544235755557e-01, -3.160742221317486e-02, -7.013944690765524e-10, 4.099252645044442e-10, -3.170073549281572e-09, 2.683114379222004e+03, 2.758157624553538e+03, -2.553093470087233e+02, 3.416076513180346e+03, 1.131406064092141e+02, 1.083342708819495e+03, 2.059783089058742e+03
5976, 7.337194480145073e-01, 2.238842761539697e-01, -2.097364118562508e-02, -5.348431450264298e-10, 1.097885798575795e-10, -3.033206554156391e-10, 3.532634943175030e+02, 4.422637725806982e+02, -1.045333767056472e+02, 7.566845207326317e+02, 4.229336491345873e+02, -4.850437461116524e+02, 1.187420562669358e+03
5977, 7.921861360746884e-01, 1.363399330150073e-01, -1.656032929139657e-02, -5.842693235013542e-10, 5.710692544077226e-11, 1.193002461238986e-09, -1.096371560506135e+03, -1.042670705470538e+03, 2.012731466190169e+01, -2.534489319336983e+03, 2.452858933444905e+02, -4.985922124944857e+01, 1.528876477687463e+03
5978, 1.106794886687713e+00, 1.130192211169451e+00, -3.175385827132535e-03, -3.789728838234959e-11, 4.590373924345454e-11, 4.848450482007521e-12, 3.297514696155764e+02, 2.567143942827605e+02, 5.084749306445007e+01, -1.940819260805762e+02, 2.029280859448301e+02, -1.347899054907176e+02, 6.536645656233276e+02
5979, 1.122568149850770e+00, 1.118189636993373e+00, -1.963495547860797e-03, 9.359553969293086e-12, 1.686371055790485e-11, -8.771554724462652e-12, 5.511639415009016e+01, -4.663679702111224e+00, 1.712132681411248e+01, -5.208385811335739e+02, 2.085555737071915e+01, 4.018901443899075e+00, 5.505450906579631e+02
5980, 1.104351516647995e+00, 1.110385181139164e+00, -3.182979909978138e-03, -2.892428435217287e-10, -2.002401563849183e-10, 4.219204079123261e-10, -8.049639881296955e+02, -1.664904413679292e+03, -8.410510447228287e+01, -2.119359757423970e+03, -1.265364735526173e+03, -1.763185730969183e+03, 3.935475604022994e+03
5981, 4.113620578175922e-01, 1.436787993051979e-01, -3.739060033833719e-02, -7.526515949967431e-10, 3.776765126807658e-10, -5.404607068028344e-09, 3.414675376847755e+03, 2.969996920219050e+03, 3.636906677888267e+01, 4.711851874613098e+03, 2.132292458184684e+03, 6.954374903830967e+02, 4.189524275736534e+03
5982, 4.663518982012337e-01, 1.669534810386075e-01, -3.534567338837367e-02, -9.555111789135583e-10, 6.853516507910648e-10, -4.381455778067734e-09, 2.745400787399855e+03, 1.482524874992438e+03, -2.888131194906381e+02, 2.536441844429206e+03, -7.395473664600746e+02, 7.077515815181061e+02, 2.183665971098718e+03
5983, 4.504830136692007e-01, 1.789653224463732e-01, -3.593201886248909e-02, -9.016363708996897e-10, 4.386176756001354e-10, -5.115141472858675e-09, 3.024688355261007e+03, 1.908863067234631e+03, 5.066038372328696e+01, 3.750028221312280e+03, 2.455772695306017e+03, -2.906747601126686e+02, 4.575387417979431e+03
5984, 4.529647824161436e-01, 1.987423596063012e-01, -3.581301381226393e-02, -8.277230031466538e-10, 5.477097955929466e-10, -9.297732030336027e-09, 4.738966752154649e+03, 4.533600248903113e+03, 1.058061657317866e+02, 7.570406009743806e+03, -1.106574630044478e+02, 4.856633879909979e+02, 3.068979192721258e+03
5985, 3.373722624116297e-01, 1.491680854145480e-02, -4.017552679346732e-02, -1.729348349182128e-10, -2.960170409968106e-10, -1.169240435594004e-09, 4.545394180619929e+02, 3.875339847878217e+02, -3.010605008994951e+02, 9.326608055614760e+02, -9.590896131015373e+01, -2.008358033827572e+03, 3.558811649736937e+03
5986, 1.042056459239907e+00, 1.027881797891822e+00, -6.791084954269997e-03, -2.271631878221420e-11, 1.284731448556223e-10, 2.144198072618012e-09, -2.848306159039182e+03, -3.157442278791318e+03, 9.896903383538698e+01, -5.818710002200970e+03, 3.985407698045688e+02, -2.430454361380122e+02, 2.946813043014537e+03
5987, 1.026157395586249e+00, 1.039827807605354e+00, -7.951398969990382e-03, -4.282209631692487e-10, 1.188274233761065e-10, 1.914335796276084e-10, -8.398736802777439e+02, -1.138547866338303e+03, -5.486182003167536e+00, -2.162446405168369e+03, 6.941849753480146e+02, -2.776572322248830e+02, 1.766475530633522e+03
5988, 2.966588917673291e-01, 1.863271637223303e-02, -4.124662375101161e-02, -1.164068001916076e-10, -8.115760606491827e-10, -1.840077671896416e-09, 5.073668757263714e+02, 3.471606854038220e+02, -7.197129220361084e+02, 7.043092418798295e+02, 6.498716878719450e+00, -3.394706697606514e+03, 6.018487448181843e+03
5989, 3.787938041058824e-01, 1.932704100579327e-02, -3.878372676678705e-02, -2.004746363142812e-10, -4.074282976828824e-10, -1.003021114721742e-09, -2.366542312025041e+02, -3.336491250126222e+02, -2.896087852009979e+02, -4.145909372883997e+01, -2.117670594566269e+02, -1.320322405538984e+03, 2.383768330661428e+03
5990, 7.685708345056270e-01, 1.061509847403807e+00, -2.300369291382002e-02, -2.745897149868137e-10, -1.151376815033913e-10, -7.408324911399083e-09, 6.251987382245461e+03, 5.992248250188987e+03, -1.755482943198591e+02, 1.152677429873145e+04, -4.585498377414955e+02, 4.044355321070680e+02, 5.520404856295456e+03
5991, 5.849819345162292e-01, 4.228638750824377e-01, -3.046550985216709e-02, -1.008219077689136e-09, 7.957964952523438e-10, -3.576722680458513e-09, 3.234488017857709e+03, 2.819836506960665e+03, -3.392478563422234e+02, 3.875148648688340e+03, -1.004949392054342e+03, 1.093636830866386e+03, 2.794851433848256e+03
5992, 6.118051715555398e-01, 3.594096004934557e-01, -2.897853380991938e-02, -8.668101689030260e-10, 3.022609401499805e-10, -2.221919749827328e-09, 2.084247614219784e+03, 2.103880207901577e+03, -2.050248746085382e+02, 4.423044915365687e+03, 1.202762418335725e+03, 2.155722527632221e+02, 3.166997582641317e+03
5993, 6.454170357043294e-01, 1.046472216604401e+00, -2.569285005069412e-02, -1.458750993911319e-09, 1.656505541995596e-09, -6.972090942939388e-09, 7.401152530982072e+03, 7.790464998892473e+03, -2.205581138201979e+02, 1.249423504392086e+04, 2.940296273685640e+03, 3.172416783988597e+03, 8.965651236176447e+03
5994, 9.837805965437906e-01, 1.370944501367235e-01, -3.580360599585810e-03, -6.877501582676741e-12, 2.748912744285179e-10, -1.905905762735497e-10, -1.599038916991137e+03, -2.361378966956744e+03, 7.881876165311417e+02, -5.186339606949137e+03, 5.141255225105881e+02, -2.503236852335574e+03, 5.671897754425117e+03
5995, 9.875380787651463e-01, 1.673384961054280e-01, -3.567456611452505e-03, -2.303694234046509e-10, -3.776906850922346e-10, 6.379963816497820e-10, -2.758221038890718e+03, -3.894855889820339e+03, -3.403540525471644e+02, -7.065539762335713e+03, -1.135517032384023e+03, 1.205184816065272e+03, 4.849970675472141e+03
5996, 7.282441161052808e-01, 8.761868531612663e-01, -2.466129632312789e-02, -7.312815393502442e-10, 5.365344577833169e-10, -7.654641465423835e-09, 5.924751111611684e+03, 5.880347418961547e+03, 3.445704137511573e+01, 1.288025112756156e+04, 6.417336699034490e+01, 5.512952811368637e+02, 7.043968911909032e+03
5997, 7.654198596089318e-01, 1.998861858887834e-01, -1.877070167428397e-02, -5.516805352298403e-10, 8.697678917119426e-11, 4.515281771700300e-11, 1.145527430359858e+02, 4.862932632726285e+01, -2.749128641131909e+01, 6.579150850956984e+01, 8.267214174062431e+01, -6.051530640331005e+01, 1.930458913135114e+02
5998, 7.837199177314764e-01, 2.076184920053700e-01, -1.764134044097980e-02, -5.447712119431559e-10, 8.381502865799072e-11, 1.137091151384216e-10, 7.830216452955456e-01, -4.251528491290937e+01, -2.749971887699006e+01, -8.536199096377540e+01, 1.510611315992346e+02, -3.321098403901117e+01, 2.821378773248994e+02
5999, 8.867353614397444e-01, 1.446706638173216e+00, -1.810679191661493e-02, -6.081831560240268e-10, 8.568034146233060e-10, -1.590984782082142e-09, 3.050938850705901e+03, 3.045792837021740e+03, 1.093571981675532e+02, 3.980860202664409e+03, -1.864509760581264e+03, -9.486746960183644e+02, 3.746275958757676e+03
6000, 8.747981431712178e-01, 1.709785190103790e-02, -1.014175128233639e-02, -2.147131549539095e-10, -2.454987676138708e-11, 1.434622035427013e-10, -2.078993258359584e+02, -4.512884790472897e+02, -2.258931310858883e+02, -5.585630563076298e+02, 2.192910743121224e+02, 3.537307413057191e+02, 8.772575113478057e+02
6001, 8.864110083765423e-01, 3.377917671954223e-02, -9.485691136928999e-03, -2.705209400477676e-10, -1.170490755911183e-10, 8.403972106960133e-10, -1.235856879454587e+03, -1.544204341847738e+03, -1.289574810706033e+02, -2.714958428971476e+03, 3.908655906673008e+01, 1.573630075868056e+03, 3.051253932735362e+03
6002, 8.660550221655923e-01, 3.659146259173401e-02, -1.088614866291419e-02, -4.357147480131528e-10, -5.255899812157306e-11, 3.507483465550523e-10, -8.821700660874982e+02, -9.177676846262643e+02, -2.359170448251490e+02, -1.155269408927015e+03, 7.158754899439448e+02, 6.123581363619570e+02, 1.701610979103634e+03
6003, 8.503833137501635e-01, 5.013717271723105e-02, -1.204591116610349e-02, -3.371041309195738e-10, -4.344345904006015e-11, 4.739984838012623e-10, -6.600085310845033e+02, -5.282365882228745e+02, -1.221534635868488e+02, -7.156154373665497e+02, -3.303670904791784e+02, -1.136412452075109e+02, 6.623579472459458e+02
6004, 8.529488462411637e-01, 6.884295901024122e-02, -1.201926764150527e-02, -3.998453155978483e-10, -3.683026592476738e-11, 5.489184870324485e-10, -8.166428120630471e+02, -5.883453795516477e+02, -1.725540778682084e+02, -9.519674226419531e+02, 9.127419732076574e+01, 5.507770250502658e+02, 1.060994999845219e+03
6005, 6.703378197604380e-01, 2.719212395499899e-01, -2.521760253342331e-02, -4.891241855727242e-10, 9.159719831548304e-11, -1.338743014789272e-09, 1.249748909269464e+03, 1.479422649478168e+03, -1.296311771761435e+02, 2.409061299483720e+03, 8.955976265234609e+02, 2.850538092191724e+02, 1.957282991025471e+03
6006, 6.544886154414886e-01, 2.839249581745092e-01, -2.622931945284539e-02, -5.570154037507206e-10, 2.529213052014576e-10, -3.567335015540050e-09, 1.991304303305749e+03, 2.213963887188576e+03, -2.558268148338601e+02, 3.939186819084897e+03, 6.162281176070238e+01, 1.483682366660744e+02, 1.919344280337209e+03
6007, 6.361880473192030e-01, 2.761938620580981e-01, -2.724934620180374e-02, -7.035683040209075e-10, 3.269399643269891e-10, -1.466381601126455e-09, 1.560659193367164e+03, 1.219207827344101e+03, -1.957570251336215e+02, 1.549462762455795e+03, -4.102369158897537e+02, -2.815345630145713e+02, 9.851507039301259e+02
6008, 6.386270304101292e-01, 2.959125900625946e-01, -2.721428787523198e-02, -7.193265154248902e-10, 3.123157947749062e-10, -1.564156651180016e-09, 1.312318153311398e+03, 9.946757209103597e+02, -1.879715087727683e+02, 1.519965501769063e+03, -5.936953391924409e+02, 4.543655480472598e+02, 1.411643804383082e+03
6009, 6.569580958784964e-01, 3.036932274259905e-01, -2.619688045336547e-02, -6.410035009986385e-10, 3.433809213672997e-10, -1.380388200058821e-09, 8.709014176924746e+02, 1.069130232138407e+03, -1.331886305634247e+02, 1.836190808353425e+03, 5.686097148296298e+02, 9.183627464651091e+02, 2.081602545806011e+03
6010, 6.337278472569879e-01, 2.564313095566364e-01, -2.728441684123872e-02, -5.691589620304308e-10, 3.042168557006258e-10, -1.605435711523082e-09, 1.152109888172937e+03, 9.601199966321049e+02, -1.556708746867176e+02, 1.210044752196015e+03, 6.294029697778963e+02, 3.793189992332850e+02, 1.320656179137617e+03
6011, 6.178698332517292e-01, 2.684565637013591e-01, -2.824885536036235e-02, -6.837432166116723e-10, 3.313830000555310e-10, -1.857030085181036e-09, 1.434313674576984e+03, 1.627025707898615e+03, -8.659471656708259e+01, 1.896507856970484e+03, 2.989541932229225e+02, 8.033462612615982e+02, 1.545446026085849e+03
6012, 5.995594482213747e-01, 2.606999499746379e-01, -2.922379045801567e-02, -7.218945722185294e-10, 3.137593430207217e-10, -2.425270264664503e-09, 2.096405525729408e+03, 1.894578236144781e+03, -2.024909605980227e+02, 2.999754831996404e+03, -2.933462544253804e+02, 8.772428326755615e+02, 1.931042094506493e+03
6013, 6.019948297256076e-01, 2.804271113740894e-01, -2.917847074207444e-02, -8.265396046567866e-10, 2.703084618529715e-10, -1.973245264408876e-09, 1.341432363308656e+03, 1.741609454150349e+03, 6.729551178090246e+01, 2.254475274508230e+03, 2.456832305311451e+02, -1.106273954811267e+03, 2.120047924458393e+03
6014, 5.970842581192440e-01, 2.409202125672534e-01, -2.926970360189566e-02, -6.841017988669004e-10, 1.947776806992108e-10, -3.014927256760310e-09, 1.802372868994292e+03, 1.774825893162172e+03, -7.092599186895102e+01, 3.196563455948241e+03, -5.719761902187336e+02, -2.892786371827939e+02, 1.797370336998717e+03
6015, 5.836855757576052e-01, 2.726978137027353e-01, -3.012005699002480e-02, -8.536414280770646e-10, 3.553999839107444e-10, -2.984703399347268e-09, 2.251383971421505e+03, 2.761754428139709e+03, -8.098114445928847e+01, 4.986619348626925e+03, 1.310302921506049e+03, 4.092298357152986e+02, 3.466809699713136e+03
6016, 6.203229579695143e-01, 2.881798579115393e-01, -2.820818496829954e-02, -7.994642472542340e-10, 4.597972874559696e-10, -2.014353968909021e-09, 1.768251377896906e+03, 1.481036971042902e+03, -1.903880948563805e+02, 2.968297400728469e+03, 1.424172871300856e+03, -6.017135061788442e+02, 3.024400517731513e+03
6017, 9.002250123491345e-01, 7.247383995626966e-01, -1.387132988742057e-02, -4.407554090816809e-10, 1.382035759530990e-10, 2.637368733235307e-10, -2.761307274646853e+02, -2.824768137910270e+02, 3.607823119207169e+01, -5.979983016524216e+02, 4.675077136189007e+02, -3.623391588264196e+02, 1.074737507463189e+03
6018, 8.348623885788574e-01, 1.670018536489564e-02, -1.282579894124082e-02, -1.376308694041706e-10, -2.284882903422654e-11, 6.752513294823934e-11, -1.875153685243984e+02, -2.943145261577449e+02, -2.170006531464948e+02, -2.767081879057680e+02, -3.786173691458923e+01, 1.851946398315778e+02, 5.082275560761584e+02
6019, 8.252965884622064e-01, 3.310755465151521e-02, -1.359047364705375e-02, -2.564078062625980e-10, -4.346285299927311e-11, 5.340435967781115e-10, -6.949431432969018e+02, -5.368953050642508e+02, -2.280261918360598e+02, -1.404012577078497e+03, 2.028855311719570e+02, 7.169321963139540e+02, 1.568845512904503e+03
6020, 8.421808416533176e-01, 1.200489481136897e-01, -1.313432199615708e-02, -4.677063812131234e-10, 1.285166344470810e-11, 2.025705699007985e-09, -1.661872397146605e+03, -1.765796131531489e+03, -1.753026031603266e+02, -4.286664600741109e+03, 8.720646046940104e+01, -9.820003248962811e+01, 2.602209387087668e+03
6021, 4.182304988386322e-01, 1.572153284800934e-02, -3.731220046488514e-02, -1.850991890941419e-10, -4.415134908629101e-10, -9.695129488432706e-10, 3.578429014534128e+02, -7.825385030796477e+01, -1.737162366156600e+02, 2.604240646774338e+02, -2.696916210299302e+02, -1.269102808553023e+03, 2.301691831753705e+03
6022, 6.079819583751733e-01, 1.894107875051870e-01, -2.840464065142760e-02, -4.899061594735540e-10, 2.548480782511839e-10, -2.083884043237414e-09, 1.408211392917233e+03, 1.522881470466818e+03, -2.196296352160220e+02, 2.252094885786571e+03, -3.545569558976667e+02, 9.319708779607851e+02, 1.938059074867187e+03
6023, 6.263129893660369e-01, 1.971459452759597e-01, -2.738670153880534e-02, -5.191455007372093e-10, 2.905913054969093e-10, -1.400127937450846e-09, 1.352051965814891e+03, 1.263577922108812e+03, 9.475352066473978e+01, 2.061684053024835e+03, -7.322723496924568e+02, -3.259420119616419e+02, 1.590127992583908e+03
6024, 6.493077203513739e-01, 1.085119163455883e+00, -2.489060891749869e-02, -2.015294578017578e-09, 8.717997814818320e-10, -8.763147751704787e-09, 1.027270634458570e+04, 1.107568296374235e+04, 5.918687601507673e+02, 1.772829847663706e+04, 1.722511869008973e+03, -3.298737813933780e+03, 9.635405550676131e+03
6025, 7.934654216543933e-01, 2.865976271131334e-01, -1.758790458995271e-02, -5.759007895578736e-10, 9.349554947643844e-11, 1.036751558117713e-10, 1.453696930372136e+02, 8.807455038082642e+01, 1.968430186832576e+00, 1.004167182367555e+02, 2.446079394932465e+02, 2.760986302414885e+00, 4.269210016959672e+02
6026, 7.959364610860837e-01, 3.063675232087673e-01, -1.757223988601210e-02, -5.778602970107362e-10, 9.140520695062603e-11, 1.226302484143700e-10, 8.618695789058057e+00, 5.076897528147834e+00, -5.796422654627206e+01, 4.711352554015650e+01, 2.434712727518723e+02, 3.420630768795795e+01, 4.393805733917418e+02
6027, 7.800887520678422e-01, 3.183531950231228e-01, -1.868131952664253e-02, -5.865960701504271e-10, 1.150221225955054e-10, 3.879306814411021e-11, 1.120188350810369e+02, 1.062217720594337e+02, -3.415290856911144e+00, 5.272247508125385e+01, 1.143415000994642e+02, 2.454336010083845e+01, 2.104043194852410e+02
6028, 7.984002009248844e-01, 3.261217857587969e-01, -1.755683010420173e-02, -5.588456407157263e-10, 1.065112307425381e-10, 1.745061025225483e-10, -1.418349741842830e+02, -4.319973011060542e+01, -5.012976654097874e+01, -2.417503463399230e+02, 3.922922893840312e+02, 8.792371268970484e+01, 7.224801791440619e+02
6029, 7.825606897535844e-01, 3.381287968285681e-01, -1.866446016715790e-02, -5.775978610904338e-10, 1.219485549084987e-10, 3.042512194031410e-11, 1.698641086346685e+02, 1.573241674176559e+02, -1.206362253694068e+01, 2.066009958381759e+02, 2.093317854186201e+02, -7.344375075478824e+01, 3.873570228016199e+02
6030, 7.642571708084365e-01, 3.303823753860218e-01, -1.977962648949808e-02, -5.936351894719511e-10, 1.221437841883659e-10, -4.618126108734866e-11, 2.865357037242347e+02, 2.318775234729311e+02, -2.001777553608058e+00, 2.253346100587448e+02, 8.635390038366363e+01, -1.334013981295944e+02, 2.813516640583807e+02
6031, 7.667211642065285e-01, 3.501353773224549e-01, -1.976178535175734e-02, -5.574014294938141e-10, 1.024380338204190e-10, -4.444815920611098e-10, 5.178956614301449e+02, 3.892811137237230e+02, -9.191373158204556e+00, 7.115119180329677e+02, 3.768408444709849e+01, 1.697142689231468e+01, 2.903594783194308e+02
6032, 8.008988630080187e-01, 3.459247767903442e-01, -1.753940702428753e-02, -5.661998115420158e-10, 1.005869550216639e-10, 1.852717093172174e-10, -3.607397775171016e+01, -7.216407398757087e+01, 5.206105359999226e+01, -2.274593103399123e+02, 2.959689981601543e+02, -1.634584256223256e+02, 6.181453710474245e+02
6033, 7.691950333185775e-01, 3.699943589386641e-01, -1.974386083232915e-02, -5.906523853005703e-10, 1.275682632076103e-10, -7.366761185887847e-11, 2.859574585003195e+02, 2.674861236987388e+02, -4.567418648176734e+01, 3.007825358874498e+02, 9.420731954484354e+01, 9.100813515832961e+01, 2.420035230973724e+02
6034, 7.533772487355872e-01, 3.821162853594917e-01, -2.082662899067604e-02, -5.727814975319149e-10, 1.317365138155940e-10, -2.371870777764763e-10, 4.603733138539685e+02, 2.643377059688497e+02, -9.120530392216834e+00, 5.767803629579604e+02, -3.437334795256960e+01, -1.647779200072424e+02, 4.000623818996882e+02
6035, 7.507584711793088e-01, 3.623757561870806e-01, -2.085626227279131e-02, -6.059084079693667e-10, 1.504480488928918e-10, -1.362377443280077e-10, 4.764998034075967e+02, 3.524734002138065e+02, -7.730849245236703e+01, 3.384678489658351e+02, 6.399888475837468e+00, 3.883124877950080e+01, 1.997299293535882e+02
6036, 7.350050001873626e-01, 3.745325154219366e-01, -2.192243830077422e-02, -5.709233516090704e-10, 1.638291292067115e-10, -5.085662088192595e-10, 5.506840597505537e+02, 3.296383118267929e+02, 1.983725112832206e+01, 7.805203781641248e+02, 6.830429756458631e+02, 1.893458101091213e+02, 1.288747249693647e+03
6037, 7.375792915177176e-01, 3.941339309353744e-01, -2.189255166563284e-02, -6.058253986424681e-10, 1.078371257847846e-10, -3.559551192040300e-10, 5.976792976032740e+02, 5.704567603488763e+02, -8.134283119061440e+00, 9.001555610453396e+02, 9.478304213748936e+00, -3.025192057491388e+01, 3.219948421386040e+02
6038, 7.323605280803573e-01, 3.548046476124466e-01, -2.195551357667897e-02, -6.335976373650235e-10, 1.651566298259277e-10, -2.878621539283306e-10, 5.935078126377180e+02, 5.902907923771772e+02, -1.049048858199889e+02, 8.406231423552000e+02, 4.662811277436448e+02, -3.128849527230655e+02, 1.020211579438816e+03
6039, 7.166628962284589e-01, 3.665815841816894e-01, -2.300113169315484e-02, -6.584394734853890e-10, 1.343861524733343e-10, -2.084966025128886e-09, 1.771332929001592e+03, 1.792454146552452e+03, -2.114878009484483e+01, 3.778059660281595e+03, 9.457666139374652e+01, 6.498231164725752e+01, 2.006454065716131e+03
6040, 6.984218467735792e-01, 3.586492970070551e-01, -2.405936739236949e-02, -5.978402906926755e-10, 2.271700343640188e-10, -8.183839901334878e-10, 6.982465418505673e+02, 6.328300590266323e+02, -1.435218910431504e+01, 8.859617527471000e+02, -3.614187860411681e+02, -2.436616445783731e+02, 7.889217637503567e+02
6041, 8.142623799696814e-01, 3.141459683013357e-01, -1.643889431582435e-02, -6.033692673240669e-10, 4.444983964896994e-12, 3.669222263597576e-10, -4.048743427652461e+02, -4.871484033246736e+02, 8.549065929755312e+00, -1.083708070839855e+03, 3.740163323415803e+02, 1.317267434040718e+02, 9.400391263677799e+02
6042, 7.483486141586114e-01, 3.426548915157912e-01, -2.087263384979870e-02, -6.214267731765215e-10, 1.399835174852737e-10, -1.738940800294840e-10, 3.444307491077128e+02, 2.699176082455928e+02, -1.011615208462351e+01, 2.961867619386853e+02, -9.382549145407538e+01, -6.576125575209579e+01, 2.097026129081349e+02
6043, 7.459128358455075e-01, 3.226542265347311e-01, -2.088845223970938e-02, -6.414363354305857e-10, 1.104308802480202e-10, -1.790066077330738e-10, 4.542493070961582e+02, 4.232480602749329e+02, -5.802935057847989e+00, 5.572072536605621e+02, 2.578282253647924e+02, 1.305915016308210e+02, 5.152114762149503e+02
6044, 7.617635646092243e-01, 3.106315520619305e-01, -1.979918893842427e-02, -5.974390112580810e-10, 1.188750487924690e-10, -5.183392300198304e-11, 2.414454609841258e+02, 1.572936902092767e+02, -3.750853192143261e+01, 1.583596178532600e+02, 6.560860925664814e+01, 1.710621288736900e+01, 1.581295776002954e+02
6045, 8.117586151741857e-01, 2.943251710197070e-01, -1.645552204042254e-02, -5.799433174113272e-10, 8.293250349677551e-11, 2.830322058054767e-10, -1.934581349018336e+02, -1.898235629303396e+02, -5.155060118200426e+01, -2.627953547018503e+02, 3.924567589638283e+02, 1.322677472096782e+02, 7.263583540858491e+02
6046, 8.276077251281604e-01, 2.823835055367906e-01, -1.532990471854493e-02, -6.036507060036112e-10, 4.432880219921863e-11, 4.005852802230785e-10, -4.068941635864295e+02, -4.698197620351991e+02, -2.697126635107650e+01, -8.241219793521177e+02, 2.314897237142560e+02, 3.602402338425423e+02, 8.390758449691258e+02
6047, 8.300788165974614e-01, 3.021089704665759e-01, -1.531543372444410e-02, -5.449012972167472e-10, 1.077706580975673e-10, 1.245215118814500e-09, -9.190818476624297e+02, -1.020310764476274e+03, 3.983136531367382e+01, -2.265315263348436e+03, 2.036003173047599e+02, -1.534114838671426e+01, 1.347641972398434e+03
6048, 8.484021477397359e-01, 3.098677973853882e-01, -1.416891398434054e-02, -5.147433448264238e-10, 8.195088528731343e-11, 4.824309318483858e-10, -6.858710008554021e+02, -5.607229942344896e+02, 2.124623698171147e+01, -1.293864822069846e+03, 2.905113186579396e+01, -2.593908822464018e+02, 8.167892793630118e+02
6049, 8.251510603158704e-01, 2.626460593774484e-01, -1.534327640072626e-02, -5.491388033912655e-10, 9.841917499290008e-11, 3.128316052326425e-10, -3.039149231077147e+02, -1.943687840589192e+02, -1.373357007027817e+01, -5.110176941307468e+02, 4.946861343217022e+01, -7.874500749959779e+01, 3.226279837544502e+02
6050, 8.434543247555955e-01, 2.704043348535740e-01, -1.419691110692584e-02, -4.980971948486008e-10, 1.019016141272269e-10, 4.440486480185615e-10, -5.127916805313043e+02, -6.073924442199536e+02, 3.912570735681171e+01, -1.133630253884518e+03, 8.213053725712560e+02, -4.824670928275451e+02, 1.749914720905929e+03
6051, 4.564895732468377e-01, 8.789181354132239e-02, -3.574781899978943e-02, -6.752748475076298e-10, 3.610490759855285e-10, -4.095074660871968e-09, 2.262194415379089e+03, 2.670504742044417e+03, -5.837331486442433e+02, 2.850522204509983e+03, -1.385091894345476e+03, 8.780814448889512e+02, 3.059963971022642e+03
6052, 4.748188011840854e-01, 9.563853734907767e-02, -3.495475346803370e-02, -5.776036302395984e-10, 3.978078815060747e-10, -4.316163461176381e-09, 3.642357095552582e+03, 3.270453591781572e+03, -2.254793026127499e+02, 3.476364256703851e+03, -1.325924497750001e+03, 7.742393133054127e+02, 2.707253614278012e+03
6053, 3.883805514639654e-01, 3.772072348179364e-01, -3.635880736687164e-02, -1.451541742829967e-09, 1.061969020311984e-09, -7.907657899695653e-09, 4.998412947086618e+03, 4.643583517546709e+03, 7.819401231121490e+02, 7.313497124943075e+03, -1.918962670153670e+03, -2.457022238060480e+03, 6.107323289665746e+03
6054, 4.421836888971206e-01, 5.308316555569357e-01, -3.394182383322169e-02, -1.535102212788640e-09, -2.872104171032840e-10, -8.473311708942603e-09, 3.235531697210699e+03, 3.665223245413299e+03, -5.412687672317305e+02, 4.466504015888551e+03, -1.045641679302248e+02, 3.807242007892498e+02, 1.586681649395043e+03
6055, 4.238671652507466e-01, 5.230873259919591e-01, -3.399871791648695e-02, -1.872706823110912e-09, 1.531493816854955e-09, -7.731357459931364e-09, 5.107591576439762e+03, 4.665368244634175e+03, -5.298523412324834e+02, 8.097205844775282e+03, -2.415724819073316e+02, 2.804726461727823e+03, 5.922179160503968e+03
6056, 4.214150441117516e-01, 5.033561794381161e-01, -3.435442782749164e-02, -1.694905541367170e-09, 6.263575307518155e-10, -7.661033351301418e-09, 5.312337931621438e+03, 7.026815522088749e+03, -2.621480265191506e+02, 9.099349738791248e+03, 7.908869487105790e+01, -3.212586852352976e+03, 6.478828415520577e+03
6057, 4.055524812583353e-01, 5.153406986863128e-01, -3.391191554917743e-02, -1.850508108174104e-09, 1.965167233768904e-09, -1.639329339579101e-08, 9.516577996667811e+03, 9.870197218317799e+03, -1.474183126274521e+02, 1.917424645720168e+04, 3.538692540843151e+02, -5.984917018598511e+02, 9.565349612992773e+03
6058, 4.030696453560004e-01, 4.955733806052040e-01, -3.432783438360159e-02, -1.192368971754785e-09, 1.233892093400644e-09, -7.778313906659690e-09, 5.283170724343767e+03, 6.178937552652147e+03, -5.395665902246262e+02, 9.413640201130416e+03, 7.854012705548962e+02, -3.844991281183485e+03, 7.825539879591488e+03
6059, 4.263206426220664e-01, 5.428201079314827e-01, -3.362235707270354e-02, -1.588890073964952e-09, 1.418793645483408e-09, -8.255992733119656e-09, 5.533281446261865e+03, 5.914441891041424e+03, -3.131243102434398e+02, 8.702435894909868e+03, -3.968441269606290e+03, -8.241752004640650e+02, 7.652344738702483e+03
6060, 4.080071124631648e-01, 5.350717281264870e-01, -3.347095974535522e-02, -1.939627899445991e-09, 9.388400036206877e-10, -7.449765919116330e-09, 5.298645279249082e+03, 5.370953903601097e+03, 6.481551908347802e+01, 9.898010846250196e+03, 2.724734208823586e+02, 2.789373803133470e+03, 6.663630050479641e+03
6061, 4.104611236824095e-01, 5.547987812224100e-01, -3.299896014928969e-02, -2.028893803296702e-09, 1.725783222145476e-09, -7.461580165553223e-09, 6.745743850353209e+03, 7.626130438348485e+03, -5.279154453760863e+02, 9.498894661036788e+03, 2.826897647914464e+03, -3.072452646894144e+03, 7.685122885953669e+03
6062, 3.897098902141345e-01, 5.272998000966488e-01, -3.313914740007427e-02, -1.893998542018468e-09, 1.053120111108488e-09, -6.260065484271116e-09, 4.259996061496886e+03, 4.782664257682817e+03, -4.142859079414613e+02, 8.101858204075225e+03, -2.011517534993741e+03, 8.164043252268926e+02, 5.261000142357963e+03
6063, 6.897080603778725e-01, 1.491083089103594e-01, -2.323399002624120e-02, -4.625458364657822e-10, 1.141834724037267e-10, -8.422117448719177e-10, 6.519614456997784e+02, 6.933853613712902e+02, -1.499015561373007e+01, 9.100846168307245e+02, 1.415223519415035e+02, -1.141908312708832e+02, 3.968998869017306e+02
6064, 6.921761534304544e-01, 1.688817876457488e-01, -2.321331656484089e-02, -5.416930296965690e-10, 2.138549988475424e-10, -6.628137105528385e-10, 6.684108501755064e+02, 6.963268621260522e+02, -9.269634231454350e+01, 9.499298878155187e+02, -7.544310690808334e+01, 2.412164971526902e+02, 5.381286107698390e+02
6065, 6.763339950728144e-01, 1.809018729390184e-01, -2.427701678664207e-02, -5.203018385925564e-10, 2.781997297322860e-10, -1.152031363728688e-09, 1.143293623648613e+03, 1.193019122906866e+03, -5.238367868193268e+01, 1.817373290446485e+03, -1.119028180509480e+02, -7.624976374005303e+02, 1.487731120552236e+03
6066, 6.738479949430927e-01, 1.611205552144425e-01, -2.430093762154165e-02, -5.459016037004121e-10, 1.825767497807095e-10, -1.122467272845277e-09, 9.827200050330614e+02, 1.170534879241525e+03, -5.042002957618293e+01, 1.844405758338301e+03, 6.729024123166372e+02, 4.808602539900709e+02, 1.635737944266482e+03
6067, 2.647113373428421e-01, 8.181803345903434e-02, -4.105776060337127e-02, -1.002477902893773e-09, 5.145520648756840e-10, -6.917856261701075e-09, 4.918999317544956e+03, 4.852660761427265e+03, -3.401156005504632e+02, 4.392803540004437e+03, -9.399275281946569e+02, 1.490690051550086e+03, 3.148058665522442e+03
6068, 7.869123857411642e-01, 1.069293035109323e+00, -2.228024201536388e-02, -6.020803481951422e-10, 5.395842208921352e-10, -1.813569709381552e-09, 2.301578995773833e+03, 2.105192809278710e+03, 2.052733197299490e+02, 3.110650988361587e+03, 1.697808081542639e+03, 6.238100756343082e+02, 3.285352472822716e+03
6069, 2.577231639312513e-01, 1.703359209497799e-02, -4.193060113037008e-02, -3.546206608958572e-10, -2.202513352288023e-10, -1.766675278195479e-09, 8.960757747815729e+02, 1.293140176205884e+03, -4.126747515838433e+02, 2.062348853776303e+03, 1.818257424876890e+02, -3.023268986946764e+03, 5.393080452546417e+03
6070, 2.483106863857892e-01, 3.348610887445391e-02, -4.180794573083335e-02, -2.028938573209372e-10, -2.436216766671861e-10, -5.932548507344906e-09, 5.120641340388842e+03, 4.128782100539791e+03, 3.102725638486360e+02, 1.131013100067313e+04, -1.845941042911070e+03, -4.800551394321783e+03, 1.118391044214232e+04
6071, 2.281778748773752e-01, 3.450499955736194e-02, -4.181878416081559e-02, 8.262543645468472e-11, -7.009531211581469e-10, -5.262950608209649e-09, 2.335327034554904e+03, 1.955841263887595e+03, -4.668124080176679e+01, 3.337794960900486e+03, 2.146225320100105e+03, -1.802648836335256e+03, 5.010328230481154e+03
6072, 2.182390925916887e-01, 1.726816836954264e-02, -4.208233367544147e-02, -2.739636779584178e-10, -7.721206628148235e-10, -2.738600848586053e-09, 1.368708260030773e+03, 9.516022670944878e+02, -4.217137374984301e+01, 2.937231370149079e+03, 7.687195710010020e+02, -4.540101739685740e+03, 8.179497452564684e+03
6073, 2.092053048433279e-01, 3.749112317558068e-02, -4.160502814784927e-02, -7.809562123513441e-10, -6.479132958336334e-10, -1.246525824206686e-08, 6.238201444544095e+03, 6.174732655266415e+03, -4.607122627732903e+02, 1.034584729290812e+04, 3.765517879058071e+02, -1.275624859065045e+03, 4.804298852996149e+03
6074, 1.985004442402137e-01, 1.790636157551617e-02, -4.188187336429566e-02, -4.147145877966328e-10, -6.567041339861395e-10, -2.050492258965358e-09, 9.179065998404870e+02, 4.264297153201251e+02, -8.002928314834727e+02, 1.351742887141422e+03, -1.064217027895679e+03, -3.790102837254791e+03, 7.004048972254030e+03
6075, 1.883365693352947e-01, 3.450637183713781e-02, -4.127251414711440e-02, -1.055833713521775e-09, -8.130024989244158e-11, -4.441424710934460e-09, 3.688361183693336e+03, 3.604250400581183e+03, -1.014549844174398e+03, 5.119619076342843e+03, -1.133878258083342e+03, -2.922517281588324e+03, 5.894425642608946e+03
6076, 1.686039495070834e-01, 3.430656339760335e-02, -4.063525345511690e-02, -1.227665906928642e-09, 4.124946971747172e-10, -5.505974975498306e-09, 4.601300125321722e+03, 5.979646802089354e+03, -8.424715779395373e+02, 8.670167659420351e+03, 1.873265387187820e+03, -5.450679106618293e+03, 1.070670656219534e+04
6077, 1.791154586830831e-01, 5.173299463741081e-02, -4.047473187242315e-02, -5.235914587412862e-10, -1.490272472837177e-10, -7.449486160462216e-09, 3.692661944021789e+03, 3.758963181716196e+03, -1.246635857400611e+03, 4.263723144764189e+03, 3.650221403656256e+03, -2.873013290467426e+03, 8.348048428004819e+03
6078, 1.592671490143042e-01, 5.360461136961837e-02, -3.948010863023584e-02, -1.794374968539787e-09, 7.396319924981243e-10, -1.589671244185391e-08, 1.252934744136318e+04, 1.369178966367079e+04, -6.064147966611657e+02, 2.314391752688391e+04, 9.517150591309299e+02, -3.708252943398479e+03, 1.211426706971625e+04
6079, 7.142355939325499e-01, 3.467159151781584e-01, -2.302209256100832e-02, -5.594029150170700e-10, 2.681804095740753e-10, -6.652093573743105e-10, 8.608608677352552e+02, 8.195229939011592e+02, -4.297686283962070e+01, 1.513854432455554e+03, 1.469508825860672e+02, -6.037770307866508e+02, 1.272425875085006e+03
6080, 9.518146928370438e-01, 1.664176901765640e-01, -6.063949324427324e-03, -3.543511119732553e-10, 3.289950701954192e-11, 1.307415291013153e-10, -2.893760839524630e+03, -2.539156484387703e+03, -3.494464696101973e+02, -4.098900817192440e+03, 1.551278275835104e+03, 8.624614945608610e+02, 3.438416112178574e+03
6081, 9.538868986846060e-01, 1.862679609287827e-01, -6.082152298701628e-03, -5.320668294527952e-10, 2.426005686204730e-10, 8.385300793717137e-10, -3.962558775034714e+03, -3.055009265534172e+03, 4.185402104639032e+02, -7.763568619120275e+03, 8.036010719316261e+02, -1.001328372429850e+03, 4.918511346605811e+03
6082, 9.708766918932805e-01, 1.750737688921808e-01, -4.806068497093508e-03, -1.369282211593526e-09, -2.478626803216333e-10, 5.601647402920589e-09, -8.713718206425723e+03, -8.757684630182601e+03, -2.105569504212257e+02, -1.783487409216271e+04, 3.830019494786865e+02, -2.540025560391064e+02, 9.141281047914255e+03
6083, 1.112162010494696e+00, 1.052460522799374e+00, -2.150610980736785e-03, 2.180029170360000e-10, 1.149871313139448e-10, -9.850665825022944e-11, -1.320272803597789e+03, -1.401175775317255e+03, -1.248211904953308e+01, -3.237909929488347e+03, -1.761638224212050e+03, -5.892954871134970e+02, 3.725737177735779e+03
6084, 1.095976408921726e+00, 1.051026077333646e+00, -3.279307476877101e-03, -2.893901336226537e-10, 5.176079313947727e-11, 3.417869598282494e-09, -8.770329008423992e+03, -9.108719433315047e+03, -1.165673460377306e+02, -1.844117739432410e+04, -7.034434549574644e+01, 1.881739131611835e+02, 9.514679772460162e+03
6085, 3.662868936505491e-01, 1.995077793992836e-01, -3.845539391881148e-02, -1.109402300890555e-09, 1.169774182387678e-09, -6.760256481913865e-09, 2.819228852024629e+03, 3.885932985592297e+03, -3.346565496194142e+02, 6.109052817320633e+03, -5.858336992270115e+02, -3.147104813285067e+03, 6.287282808509627e+03
6086, 3.591108932868375e-01, 4.209162638190296e-01, -3.527897364104268e-02, -1.763555165752775e-09, 1.413115863218113e-09, -1.004595118167578e-08, 6.374641235298861e+03, 6.566365779002023e+03, -9.126033255001455e+01, 1.053778686190217e+04, -1.849421593675384e+03, 1.694976237813010e+03, 5.956111314602518e+03
6087, 5.704006106559483e-01, 5.850423501515269e-01, -3.092635592934785e-02, -9.030206892634908e-10, 6.531017152549945e-10, -4.572981972889259e-09, 2.528304316647815e+03, 3.727131176884121e+03, -3.596242203204507e+02, 4.003312625571827e+03, -9.642712804879216e+01, 2.299298374338203e+03, 4.256848379694357e+03
6088, 5.520799484089078e-01, 5.772851362596234e-01, -3.154716352402648e-02, -1.124609319370856e-09, 3.899661402068689e-10, -4.424451137169609e-09, 3.561553646684383e+03, 2.746795958884690e+03, -1.733826789240200e+02, 3.476179731846273e+03, -1.181417510269705e+03, 1.617127753010706e+03, 3.567112685513615e+03
6089, 5.545343327590293e-01, 5.970220329221878e-01, -3.140101773487062e-02, -1.086090854270930e-09, 4.187184538135280e-10, -4.194811247152087e-09, 2.143089701727596e+03, 2.907698802940190e+03, 1.960646903986226e+02, 2.107915278266173e+03, -3.131743191532545e+02, -1.968665077292937e+03, 3.556577584235235e+03
6090, 5.362303041589600e-01, 5.892982022409059e-01, -3.195910590978572e-02, -1.356868080389936e-09, 3.429589232235872e-10, -4.673262869852075e-09, 4.130082250413318e+03, 3.628286631710112e+03, 4.960320693903335e+01, 6.334494414855144e+03, 2.643810252706286e+03, 7.942011951433258e+02, 5.393166250551116e+03
6091, 5.386655933594442e-01, 6.090038508584731e-01, -3.178971606782445e-02, -1.035695060488564e-09, 5.859006154970037e-10, -5.206106658253537e-09, 4.558532818223058e+03, 3.924558310449073e+03, 3.155602402719697e+01, 7.415989424040384e+03, -2.968852852925364e+03, -6.251407678856331e+02, 6.164104853889105e+03
6092, 5.179317192194024e-01, 5.815280000180498e-01, -3.245846226634577e-02, -1.272016985894675e-09, 1.303541591251687e-09, -1.187921679215131e-08, 1.026084933558854e+04, 9.956533322767891e+03, -1.883961424402971e+02, 2.116695337754428e+04, -1.463187523255480e+02, -1.407246481600347e+03, 1.133429973744795e+04
6093, 5.569959967782732e-01, 6.167746682265710e-01, -3.124913958912734e-02, -1.176875928701042e-09, 1.203089294306526e-09, -1.243340353351300e-08, 8.959745044695232e+03, 7.934100651870318e+03, 6.276054211739454e+02, 1.797012500484675e+04, -6.914778195949419e+02, -5.551039099327340e+01, 9.700807892116274e+03
6094, 1.062763931573056e+00, 6.581090104310602e-01, -2.346137738515454e-03, -7.097055427648755e-12, -1.461812061699238e-11, 1.594312180087589e-13, -9.422277332078295e-01, 1.289700670331192e+02, -3.175559147040328e+01, 5.412789617891399e+02, 1.150469432855738e+02, 7.737686181862151e+01, 5.487567859975571e+02
6095, 6.362762748926238e-01, 1.635828372858533e-02, -2.567214281361187e-02, -6.764900438007471e-11, 1.712455583900311e-11, -5.411040390548081e-10, 7.537006300827935e+02, 1.108802134334251e+03, -1.383445188575228e+02, 1.380483056073980e+03, -3.962826151820082e+00, -1.270669014295966e+03, 2.279834613933197e+03
6096, 6.446227803895517e-01, 3.502014016567189e-02, -2.527858467011264e-02, -9.802326273296026e-12, 1.161017898724732e-10, -2.599867339375928e-09, 1.986283299061551e+03, 1.921391812648036e+03, -1.665414142141196e+02, 4.212569615899640e+03, 1.126760641811115e+02, -3.239944911525979e+02, 2.353984240173710e+03
6097, 6.660962042637709e-01, 3.451071761204071e-02, -2.393508399148203e-02, -1.865803137427977e-10, 9.454233516153252e-12, -6.390864830248481e-10, 7.998981455753537e+02, 6.070799165711674e+02, -1.450068348567492e+02, 1.057187080993170e+03, 4.720738483433364e+02, -2.374657710724416e+02, 1.026546901618259e+03
6098, 6.748365807125073e-01, 1.656596325671363e-02, -2.326039886673845e-02, -1.096543916527952e-10, -1.545936103471916e-11, -2.332818773601640e-10, 3.115150848889054e+02, 3.117075065188725e+02, -1.368378007220288e+02, 2.386946861304044e+02, 2.860314130674708e+01, -3.261753644392651e+02, 6.189637590519199e+02
6099, 6.951176485905123e-01, 1.913949117975908e-02, -2.198910871864425e-02, -1.323734786713069e-10, -1.108379224881525e-11, -1.582014824227621e-10, 1.916960598047532e+02, 4.173021866773524e+02, -1.164971132755200e+02, 4.076292736022270e+02, 1.330370250744146e+00, -5.138548750682947e+02, 9.389728223060125e+02
6100, 4.372672753699334e-01, 4.913375819348540e-01, -3.453678529035734e-02, -1.706734613256157e-09, 7.479188800840723e-10, -6.057190774487241e-09, 2.783405867147623e+03, 2.658303346895082e+03, 8.238546907214303e+02, 3.180418960852180e+03, 3.528319809045764e+02, -1.569844346085387e+03, 3.166362591850327e+03
6101, 8.083384445320327e-01, 4.053018282644987e-01, -1.748983288980012e-02, -5.540033908767634e-10, 1.103373131713634e-10, 1.267981518495438e-10, 6.503550838832284e+01, 7.029527521952081e+00, -5.993132214598845e+01, -8.128229640021942e-01, 1.249239963607687e+02, -2.655314866392265e+01, 2.521698105330808e+02
6102, 8.266405560394708e-01, 4.130465208633509e-01, -1.636207011233730e-02, -5.594944319346904e-10, 9.984509966597846e-11, 2.564343718822811e-10, -6.032736598968523e+01, -1.584484489104625e+02, -3.803806174334279e+01, -2.386606192095458e+02, 1.570798347223681e+02, 1.194871479874954e+02, 3.809549653780016e+02
6103, 8.424614996384090e-01, 4.010148265322609e-01, -1.524234547053696e-02, -5.390906498514924e-10, 9.141953879159768e-11, 4.619830017813388e-10, -3.565305029784395e+02, -4.695897702814606e+02, -4.954277047977934e+01, -7.955333024511568e+02, 2.194596333625232e+02, -3.506490463854231e+02, 8.225495927638125e+02
6104, 8.449386689155588e-01, 4.207933580089493e-01, -1.522744096557872e-02, -5.206620224410370e-10, 7.367473154574064e-11, 3.369393404655896e-10, -4.203135306246493e+02, -4.455574698699450e+02, -4.177667262260910e+00, -9.291573232993547e+02, 1.090948701605826e+01, 9.356744672680576e+01, 5.228652318883105e+02
6105, 8.632565961704302e-01, 4.285137902778414e-01, -1.408477429727442e-02, -5.141754562057598e-10, 8.703467640030294e-11, 6.029662828122027e-10, -4.806139278859476e+02, -6.419703294516717e+02, 1.789487885074107e+02, -1.046599785730671e+03, 7.082828654551563e+02, -6.159767766308638e+02, 1.730431872542259e+03
6106, 8.474201252583916e-01, 4.405450157889842e-01, -1.521198232308926e-02, -5.246010951961597e-10, 1.022615747337014e-10, 3.488053793017039e-10, -1.696010014435098e+02, -3.473723945363940e+02, -1.161001413741106e+01, -5.474355575512584e+02, 5.393315481607608e+01, -4.830360208503019e+01, 3.511750152938590e+02
6107, 8.291136344998866e-01, 4.328140885355771e-01, -1.634647818723251e-02, -6.406547971912588e-10, 1.249198492389679e-10, 8.912948355301308e-10, -6.056817670004267e+02, -6.494535147625569e+02, -1.511652079136633e+01, -1.563816028526492e+03, 2.208632948770720e+02, -4.058422942337795e+01, 1.014872686351604e+03
6108, 8.315865328467124e-01, 4.525481343302099e-01, -1.633055559223795e-02, -5.401565558917857e-10, 9.113929341590867e-11, 2.655392805897326e-10, -1.450872691853310e+02, -2.930769251001673e+02, -5.368775642014068e+01, -4.806803795718086e+02, 1.783846020793271e+02, -1.830429169069113e+02, 5.380370040228030e+02
6109, 8.108052556171855e-01, 4.250494217348653e-01, -1.747356480262010e-02, -5.258290639397609e-10, 9.263215200501625e-11, 1.360726128795503e-10, -2.454797981949325e+01, 6.452802793172734e+01, -8.471470895366475e+01, 4.090229395423302e+01, 4.097670759037010e+02, 1.036336030571481e+01, 7.293609102041062e+02
6110, 8.582890681584776e-01, 3.890353867453986e-01, -1.411464221190832e-02, -5.134434978368106e-10, 9.163797925901557e-11, 5.176449770834783e-10, -3.686024466766441e+02, -4.393503313560554e+02, -5.276443934865452e+01, -9.407862052963878e+02, -3.549913890016267e+02, -2.970330975029932e+01, 8.252117928448306e+02
6111, 8.399900015098172e-01, 3.812783446130842e-01, -1.525711306576379e-02, -4.960125096835007e-10, 1.452886555714574e-10, 1.433059478484079e-09, -8.142104961121806e+02, -9.307936712569085e+02, -4.145510021128203e+01, -2.084269345190256e+03, 1.180413054272264e+02, 1.174556165707585e+02, 1.251765918435111e+03
6112, 8.558377271848616e-01, 3.692845841118605e-01, -1.412726522726403e-02, -4.631691844129906e-10, 8.243520922985313e-11, 4.094265948096748e-10, -4.445098644118972e+02, -4.629504337293633e+02, 5.805705348893368e+01, -8.982185095557367e+02, -7.770980065648712e+01, 1.927886933072257e+02, 5.809954286302847e+02
6113, 8.157407694482778e-01, 4.645551573279971e-01, -1.744061328475602e-02, -5.787865985478785e-10, 1.275816943166116e-10, 2.615509241393496e-10, 1.797604063048427e+01, -1.186020842624993e+02, -2.247192839515020e+01, -3.559732561266813e+02, 1.693268646402736e+02, -5.448865777370487e+01, 4.515031920489214e+02
6114, 8.340340500602302e-01, 4.723020954414145e-01, -1.631631966641904e-02, -5.544562417005206e-10, 1.006089080929757e-10, 3.065263539102899e-10, -1.577025263186378e+02, -1.319798673495599e+02, -6.164165359280514e+01, -3.503238923519477e+02, 2.362855978028059e+02, 8.837065422911822e+00, 4.710046626961683e+02
6115, 8.498988138561117e-01, 4.602930218049491e-01, -1.519660231817602e-02, -5.835953583310174e-10, 2.703114939807557e-11, 5.419311828833388e-10, -4.256418393528554e+02, -4.465928434803450e+02, -8.443358706665074e+01, -1.057586951380779e+03, 5.658434165385911e+02, 2.595284546699640e+02, 1.253212730897931e+03
6116, 8.523420489490481e-01, 4.800378881793624e-01, -1.518343090046684e-02, -5.892887331407059e-10, 7.701262398746739e-11, 6.949888421644949e-10, -5.961010864004282e+02, -6.396185216358695e+02, 2.933866365705617e+01, -1.256899252671734e+03, 7.112888349630812e+02, 5.088328871956585e+00, 1.389333331986844e+03
6117, 3.225033340228098e-01, 4.054118387859124e-01, -3.443885871768915e-02, -2.603067640250950e-09, 8.611250744834846e-10, -6.652620736464158e-09, 3.617460534923886e+03, 3.104332248464337e+03, 1.579392572303912e+02, 3.312013364676158e+03, -3.223549684898007e+02, 5.568796720005946e+01, 7.718426538034757e+02
6118, 5.654838003708578e-01, 5.455165911620754e-01, -3.118241005690855e-02, -5.785455089672991e-10, 3.090292786160750e-10, -4.936656064144566e-09, 4.933262937099592e+03, 3.976345849159484e+03, 1.814643968921202e+01, 7.262260760017492e+03, -2.344558493904173e+03, -6.288302706675897e+02, 5.123154593473826e+03
6119, 9.080507267135672e-01, 9.179008627761651e-02, -8.473126013999273e-03, -4.304818595403979e-10, 7.999399975045937e-11, 6.209065344230975e-10, -7.407183620046778e+02, -1.138455104680779e+03, -9.591889764811601e+00, -2.306787097531945e+03, -1.835393015578850e+02, -5.640628400869356e+02, 1.744625869518374e+03
6120, 8.921899909356397e-01, 1.037734178432013e-01, -9.647867809286953e-03, -5.994167692467796e-10, 1.223413913568216e-10, 7.968810122476836e-10, -6.701914880184847e+02, -8.628871067499083e+02, 4.348060148482379e+01, -1.625716193170297e+03, 2.671030930077239e+02, 1.168025113514761e+03, 2.253571723234961e+03
6121, 8.946498652088194e-01, 1.235513369285919e-01, -9.637449955998351e-03, -7.005178420457065e-10, 2.951224060346610e-11, 3.203129843829257e-09, -2.200953139348222e+03, -2.701205533619627e+03, -1.883854082418740e+01, -4.830014649994760e+03, 3.804768486145987e+02, -1.344322553342817e+02, 2.517258674039804e+03
6122, 7.512564864484816e-01, 1.203681930692965e+00, -2.297683188142059e-02, -9.095545836836448e-10, 1.528881424365507e-09, -6.926433196117969e-09, 7.929648725359370e+03, 7.736148896192681e+03, 7.573866916707968e+02, 1.519155317470316e+04, 1.077607390512998e+03, -3.739743602671276e+02, 7.733179360295216e+03
6123, 1.045490405290570e+00, 5.200481164799053e-01, -2.412872143554011e-03, 3.143434204451147e-10, 8.779190132622435e-11, -8.993178949872220e-11, -1.423709468272484e+03, -2.390750668056402e+03, 3.627188324575645e+02, -5.880646536984055e+03, -2.513643897074629e+03, -1.372504777720377e+03, 6.441322443334293e+03
6124, 1.014788346386919e+00, 5.298123788664214e-01, -4.659532727622537e-03, -4.873008174774204e-10, -2.370009520336400e-11, 3.492311830732231e-10, -1.933477529331965e+03, -2.198499106878514e+03, 3.081040685822333e+02, -3.875615430553979e+03, 7.486275851863948e+02, -1.343826805136209e+03, 3.272789818377908e+03
6125, 1.029812501657089e+00, 5.170082276421049e-01, -3.500072740414788e-03, -1.036336890966119e-09, 1.644974518990131e-11, 5.051672359645682e-09, -1.062395729413593e+04, -1.141908221723453e+04, 3.483804181225694e+02, -2.315856620530676e+04, 2.857022736705919e+02, -7.545611746084900e+02, 1.225149525838317e+04
6126, 5.336345971918344e-01, 2.889456358329360e-01, -3.258179958282808e-02, -6.489299888300103e-10, 2.873193574408304e-10, -3.946055109662953e-09, 2.647918181337041e+03, 2.781282734160863e+03, -2.591796577081424e+02, 4.236326495309623e+03, -2.452874688618300e+02, 1.682985359614893e+03, 3.347884255083769e+03
6127, 7.440977484619277e-01, 8.642153571995597e-01, -2.391956812959694e-02, -8.214162766753030e-10, 5.976057091195082e-10, -2.858976563347272e-09, 3.145241799877351e+03, 2.960485354121848e+03, -3.609934848009301e+01, 5.292262705617097e+03, 2.307464758166966e+03, 5.276633582374294e+02, 4.674707032932420e+03
6128, 8.199638566845342e-01, 1.195342037938583e+00, -2.092337423938716e-02, -5.416930941073916e-10, 1.670067957877836e-10, -1.737216728496874e-09, 2.775156967886287e+03, 2.387547585859079e+03, -9.564473798836191e+01, 3.876194593515545e+03, 4.431815796284019e+02, 1.228320019000026e+03, 2.632922538217698e+03
6129, 5.314474149870587e-01, 8.302908664068093e-01, -2.871169133697307e-02, -1.256646054135395e-09, 8.855185153759343e-10, -5.441351774919245e-09, 2.439744736164182e+03, 3.705653814115733e+03, -8.754841561784830e+02, 1.734822849659250e+03, -4.735543263125404e+02, -2.946471139072192e+02, 2.494882174242970e+03
6130, 5.423038252671826e-01, 4.983930258386624e-01, -3.208837788062915e-02, -5.564771901545903e-10, 8.824260435223736e-10, -1.075634663739006e-08, 6.614097952868175e+03, 6.338780062399849e+03, -5.137034834339102e+02, 1.283240116046389e+04, 3.539948927518440e+02, -8.447716170670492e+02, 6.615408759689798e+03
6131, 5.397638061934129e-01, 4.786050324621862e-01, -3.221860810110114e-02, -8.522607553789630e-10, 8.782177805414672e-10, -5.057620886069873e-09, 3.167307667449828e+03, 3.739932749644940e+03, -8.668422807482750e+02, 5.926247540446102e+03, 6.000269307511777e+02, -2.390544009197174e+03, 5.180565228592912e+03
6132, 5.214825234331424e-01, 4.708408945101612e-01, -3.285879050808185e-02, -9.696568034798952e-10, 1.082637769061238e-09, -4.214964692617542e-09, 3.078707557040792e+03, 2.668557001485492e+03, 9.295120040034676e+01, 3.338537672713827e+03, -5.450620928762163e+02, 1.191536702473546e+03, 2.349208719077611e+03
6133, 7.158949198237141e-01, 7.774384325724033e-01, -2.506325975494432e-02, -8.535436272220334e-10, 2.274642846855731e-10, -2.171396067693780e-09, 1.809141650800982e+03, 2.149217180045162e+03, 2.185524463607250e+02, 2.552253906494857e+03, -2.743359675012342e+02, -1.569912224906953e+03, 2.859738145857485e+03
6134, 7.879580799530260e-01, 6.585140646955193e-01, -2.050703934193052e-02, -5.158904833158646e-10, 1.900242589513697e-10, -5.286970759662206e-10, 7.921169268128986e+02, 6.680528480897342e+02, -9.210429585221553e+01, 1.101409862520010e+03, -2.678861858000255e+02, 1.696725211537931e+02, 6.903123073701095e+02
6135, 7.696594771918558e-01, 6.507880055705590e-01, -2.156088739544583e-02, -4.771744011818180e-10, 2.271128233145910e-10, -7.528062697154394e-10, 6.759174589017487e+02, 6.206783060558740e+02, -2.114394623740919e+01, 1.278833805055408e+03, 6.386171310044267e+02, -3.200532731050097e+02, 1.389965138039442e+03
6136, 7.670900299591645e-01, 6.308803243907586e-01, -2.159497056800618e-02, -5.265209431263499e-10, 1.787719646812831e-10, -8.721445255701201e-10, 1.090019578720894e+03, 1.019527050542030e+03, -3.210528493903575e+01, 1.553652762116775e+03, -2.851349897004266e+02, 3.711905942222841e+02, 9.554857964693938e+02
6137, 7.512909751301423e-01, 6.429336190640506e-01, -2.259752103070880e-02, -5.398413457328238e-10, 3.501652720839381e-10, -1.215567485297174e-09, 1.396109404198448e+03, 1.154584345856425e+03, 3.837979662009425e+01, 2.057966533053311e+03, -4.738330345068147e+01, -7.943221835919375e+02, 1.600075637970331e+03
6138, 7.328690063213174e-01, 6.350806456688995e-01, -2.361353263069249e-02, -5.608153251053183e-10, 9.805330334263371e-11, -1.485386198314126e-09, 1.196869708194449e+03, 1.360966858528555e+03, -3.545052705741048e+01, 2.595782559394629e+03, 4.543556174164700e+02, 9.829478998011808e+02, 2.296948943612676e+03
6139, 7.487335341113944e-01, 6.230844691201891e-01, -2.263533901944586e-02, -5.958268093034687e-10, 3.243233586363521e-10, -9.478910589305333e-10, 1.230348028926579e+03, 1.263197935784876e+03, 1.351607178462823e+02, 1.939628792423280e+03, 8.940301635267713e+02, 3.819512057174753e+02, 1.836081082172080e+03
6140, 7.462492021292586e-01, 6.032725213249510e-01, -2.266823070278594e-02, -7.953555703458115e-10, 1.357982925341955e-10, -1.268256484255788e-09, 1.505065044912971e+03, 1.686816678226505e+03, -1.676783895696600e+02, 2.959573818499729e+03, 8.660218484783038e+02, 1.803352699460071e+02, 2.077537524391700e+03
6141, 7.645925192869392e-01, 6.111231660590031e-01, -2.162495725794645e-02, -6.841074673959277e-10, 1.559614933285642e-10, -7.676579001060153e-10, 8.056796673242828e+02, 6.052667023454450e+02, 1.202192548361172e+02, 4.613732424895751e+02, -9.231272159818099e+01, -6.310208863173496e+01, 4.130101008781573e+02
6142, 7.536676117990564e-01, 6.625870995849716e-01, -2.256827309963398e-02, -2.426379671585065e-10, 4.741052734883502e-11, -3.545304415958862e-09, 2.904703096322036e+03, 2.663631629773321e+03, -1.261924009108967e+02, 5.054102117036618e+03, -3.149264642804667e+00, 2.980461758874124e+02, 2.347442920495504e+03
6143, 7.805381669195263e-01, 5.992505361116265e-01, -2.058282429921783e-02, -6.614268620226146e-10, 1.697515157113812e-10, -6.290922389536388e-10, 8.000877717251024e+02, 7.126664793356557e+02, -5.597580997424076e+01, 9.617600670755451e+02, 2.392400534759757e+02, -4.747324427173764e+02, 9.513852923099175e+02
6144, 7.621722362122167e-01, 5.913506416761143e-01, -2.164949839408984e-02, -7.000513764409267e-10, 1.461197194140587e-10, -6.747107420036597e-10, 1.176082914311026e+03, 9.241218828524856e+02, -1.048166127899279e+02, 1.676135767152747e+03, 9.186800300197874e+02, 1.938080886701195e+02, 1.765529477215889e+03
6145, 7.596977287532375e-01, 5.715645626406185e-01, -2.167657423911304e-02, -6.248533641267594e-10, 1.897417176106784e-10, -7.641439555209229e-10, 9.913453147671050e+02, 7.634187274166460e+02, -1.561190666072908e+02, 1.330914559018633e+03, 8.066754154395064e+02, -3.655828580753040e+02, 1.634289541277256e+03
6146, 7.830100148223376e-01, 6.190173421854880e-01, -2.055828038117127e-02, -4.861710743477185e-10, 2.331014706399514e-10, -1.747914910489349e-09, 1.505145456203079e+03, 1.461403571602630e+03, 9.446931292311515e+01, 2.545736544039991e+03, -3.864351941026780e+01, 1.572666539070468e+01, 1.078079719629811e+03
6147, 7.721278377183727e-01, 6.704318892218910e-01, -2.153060392949458e-02, -5.379405456332150e-10, 2.598200785639543e-10, -6.976440139120375e-10, 9.567995407400604e+02, 9.575338475184573e+02, -1.495011995403101e+01, 1.519983471968329e+03, 7.723547061255007e+02, 2.561198559736401e+02, 1.517834367174629e+03
6148, 1.016653288747339e+00, 2.687604880776798e-01, -2.355106656164656e-03, -1.050609888279611e-11, 2.238149458080062e-11, -1.990885413458577e-12, 6.201526595120884e+00, -3.512386750170428e+01, 1.721802744526805e+01, 1.035768401566736e+02, 3.531675457106490e+01, -6.134631342327804e+01, 1.764514790989280e+02
6149, 8.748508449315550e-01, 9.383619065597304e-01, -1.698307402338103e-02, -4.435170555990103e-10, 1.389401875068644e-10, -2.631698824068809e-10, 6.467158431672460e+02, 6.408229733242765e+02, -8.248052099140979e+01, 6.335583699353658e+02, 6.238001296619306e+00, -3.906372758855760e+01, 1.588523880479238e+02
6150, 8.772377991289231e-01, 9.579900579329801e-01, -1.696354063583266e-02, -4.417402096955899e-10, 1.699916941253130e-10, -4.593437392896350e-10, 8.848924370719412e+02, 7.839962646122425e+02, -3.329787167483465e+01, 1.101350693096252e+03, -1.366101642123283e+02, -3.316923528108666e+02, 6.842855618529900e+02
6151, 8.893550196430413e-01, 1.056539053122628e+00, -1.684756482646591e-02, -4.503569893240271e-10, 2.114767162607887e-10, -8.283779692728065e-10, 1.271553666712043e+03, 1.364213907645488e+03, 8.001439466794298e+01, 2.682570957801298e+03, 4.240063433488924e+02, -7.762531706399769e+02, 2.057928209704482e+03
6152, 8.735340465092050e-01, 1.068566592778715e+00, -1.785483278697101e-02, -5.180526263910407e-10, 9.991530136420382e-11, -1.317927060375403e-09, 2.038232630759994e+03, 1.862675390647948e+03, 6.403700115928319e+01, 2.812429812581181e+03, 5.381659856162960e+02, -1.178502012305310e+03, 2.411200658849689e+03
6153, 8.918060686426745e-01, 1.076331698937214e+00, -1.682094189064836e-02, -1.077619817343410e-10, 1.607665562239305e-10, -2.474817371815958e-09, 2.467765375359671e+03, 2.484364613961085e+03, -5.353957640000661e+01, 4.443524860955208e+03, 1.846509078779048e+02, -4.135642934940694e+02, 2.120164753774081e+03
6154, 6.731444156568006e-01, 1.133237387196213e+00, -2.419285736328849e-02, -1.141642494064633e-09, 6.210556612485257e-10, -2.226031457666688e-09, 1.337061175342452e+03, 2.573132327478076e+03, 5.926430381419414e+02, 7.442254862869078e+02, -3.597902568920039e+02, -7.943021793321205e+02, 2.438623668315941e+03
6155, 6.552371682030340e-01, 1.125855860442297e+00, -2.392194607971494e-02, -9.681062350873548e-10, 1.007477642055650e-09, -3.202212494680809e-09, 4.004734464437199e+03, 3.747877574046921e+03, 6.233655250882778e+01, 6.080695639079906e+03, 2.140203533683388e+03, 4.497574837176306e+03, 8.907660999093288e+03
6156, 6.577778716862015e-01, 1.145754112449875e+00, -2.336870784882761e-02, -1.093507062970077e-09, 1.047806008544742e-09, -1.926000934996140e-09, 2.286752607167262e+03, 2.184843791180780e+03, 1.352287625104380e+02, 1.827758428626283e+03, 2.015479558247606e+02, -4.560706760738352e+02, 9.874270019983977e+02
6157, 9.892411657096489e-01, 7.436115809571776e-01, -8.123429955716039e-03, -5.703685528163396e-10, 8.584564805112283e-11, 3.934035896537993e-10, -1.628175804659250e+03, -1.465676867617581e+03, 3.082298321877101e+01, -2.708388994655394e+03, 8.364813715824074e+02, -6.440161795345193e+02, 2.171410573322665e+03
6158, 9.783781525275311e-01, 7.951519463465115e-01, -9.252811609547541e-03, -4.558278835830034e-10, 1.677412036682962e-10, 2.657301834749107e-10, -8.027802300320859e+02, -7.986278083659007e+02, 3.481225668156864e+01, -1.907243297734163e+03, 7.552150085594476e+02, -4.338199942971926e+02, 1.871824317706547e+03
6159, 7.657646409567802e-01, 4.808045916348452e-01, -2.071846908815959e-02, -4.263701658170173e-10, 1.887831229020239e-10, -1.508814685986245e-09, 1.573714063788170e+03, 1.748522904017298e+03, -4.499501752123164e+01, 3.412842682122092e+03, -1.423159050442619e+02, 8.431482671883626e+01, 1.783148434623078e+03
6160, 7.474673777957163e-01, 4.730758420361046e-01, -2.179812663873622e-02, -5.580004131410924e-10, 2.839710868814807e-10, -6.168341790838575e-10, 7.799820678907996e+02, 5.806618950884694e+02, 7.154599167214164e+00, 6.697779418395481e+02, -3.142489747975981e+02, 3.375709880911538e+02, 8.174233362162314e+02
6161, 7.450018094000571e-01, 4.533290146544083e-01, -2.182183670401059e-02, -5.592764397559191e-10, 1.385907879915232e-10, -1.788047360161213e-09, 1.548676825829439e+03, 1.452801564713970e+03, -1.094020814425124e+02, 2.730418120851957e+03, 1.274889200194777e+01, 9.532657610251242e+01, 1.258038086321179e+03
6162, 7.291492313145644e-01, 4.653063856938899e-01, -2.286386997854887e-02, -6.219205320368830e-10, 2.543471242414949e-10, -8.449721471801448e-10, 9.808418684663325e+02, 7.338292968667281e+02, -1.433589949764641e+02, 1.373231159281996e+03, -3.186176507163905e+02, 8.104255374799918e+01, 8.353564309848007e+02
6163, 7.499291792155196e-01, 4.928106507806677e-01, -2.177412023214816e-02, -5.126533229521984e-10, 2.104327716745090e-10, -5.477586353547186e-10, 9.222160415575456e+02, 7.108096525216761e+02, -6.951311659176032e+01, 1.062011967910594e+03, -2.014250494437431e+02, 1.723928472022050e+02, 5.649420920828128e+02
6164, 7.523997481612112e-01, 5.125702112476217e-01, -2.174923917780357e-02, -6.445732815894775e-10, 3.154746767607947e-10, -5.674229673455404e-10, 7.422060342231022e+02, 8.969572065702232e+02, -5.771017562138731e+01, 1.035481463930269e+03, 1.858712929756248e+02, -4.968858952267058e+02, 9.585907733953640e+02
6165, 7.340805439562639e-01, 5.047998949154586e-01, -2.280912354084206e-02, -6.593308355452529e-10, 1.959511266886293e-10, -8.239627645532258e-10, 9.803003222732316e+02, 8.780822876496222e+02, -7.423800213146592e+01, 1.071495504439954e+03, 5.989961332451587e+02, 2.984695349725334e+02, 1.178245312263321e+03
6166, 7.316125828858817e-01, 4.850490565779961e-01, -2.283692630167582e-02, -6.622278124856027e-10, 1.508314784302782e-10, -7.589707038064143e-10, 9.771180577875895e+02, 7.358240269034590e+02, -1.218574519642506e+02, 1.340344764409555e+03, 4.701678745445686e+02, -5.003223739069503e+02, 1.317759282252992e+03
6167, 1.116316561232721e+00, 1.085457733550463e+00, -2.132683878132140e-03, -2.606785272690387e-11, -4.846861629194313e-12, 1.310843220879976e-11, 2.441089986738684e+02, 2.307001987808784e+02, 5.547443194314138e+01, 2.260052316360247e+02, 7.263137040153096e+01, 9.402939937159207e+00, 1.599631958978449e+02
6168, 6.219816153081656e-01, 9.986099809633836e-01, -2.641918125633827e-02, -2.335044994853682e-09, 1.819754185800930e-09, -7.091955796167390e-09, 1.071789381688550e+04, 1.072818974554323e+04, -4.753821987074068e+02, 2.650983397516811e+04, 2.843972303394299e+03, -4.839186384640995e+03, 1.855851723515482e+04
6169, 9.431935815423185e-01, 9.299444296176667e-01, -1.258737906745490e-02, -3.926147010545891e-10, 9.954592440620004e-11, 2.889380598369785e-10, -1.570778457228403e+02, -2.069345316275094e+02, -6.799617305165512e+01, -3.916625945585463e+02, 9.394112873441796e+01, -3.249055190325025e+00, 2.935932392044668e+02
6170, 9.456586733894758e-01, 9.496857810448326e-01, -1.257212052202112e-02, -3.777652371398291e-10, 5.923553772498989e-11, 8.548175714649785e-11, 4.723979152691546e+01, 3.883787823198575e+01, -4.740832374729733e+01, 2.485956878213175e+01, 8.327486919684635e+01, -1.467306823730434e+02, 3.041707880055495e+02
6171, 9.297474872434667e-01, 9.615934105352639e-01, -1.368517838674657e-02, -3.925172981427289e-10, 1.223959653857577e-10, -7.240725577628021e-11, 3.406799512220861e+02, 2.530859149707224e+02, -4.245137599275726e+01, 4.867484341380494e+02, 9.212831564868891e+01, -2.564917355445943e+02, 5.196505688323278e+02
6172, 9.321257649408263e-01, 9.811927521288170e-01, -1.367286274815749e-02, -3.752374507088912e-10, 6.779145657064574e-11, -5.291844181552158e-10, 5.518906000291737e+02, 5.144341999650190e+02, -4.810861885271857e+01, 1.001805840004386e+03, 6.299539782774571e+01, -1.227095754726066e+01, 4.898767371030666e+02
6173, 9.273207994895374e-01, 9.418859924803216e-01, -1.369961894055132e-02, -4.078523262463209e-10, 1.185383886937135e-10, 3.886146138011206e-11, 1.141702131108395e+02, 1.169485540681952e+02, -4.831851004115784e+01, 2.348426170096428e+01, 2.261053959339319e+02, -1.011018713729196e+02, 4.466803869536699e+02
6174, 3.823403563288195e-01, 4.681243773737973e-01, -3.459852825911063e-02, -1.656226817325495e-09, 1.295486660653734e-09, -8.396935169909771e-09, 5.286053472860131e+03, 5.327812822115211e+03, -4.026968987403321e+02, 9.785258529664292e+03, 2.181030344734729e+03, -3.825490290029286e+03, 8.872260617178488e+03
6175, 3.847718977639445e-01, 4.878382481847413e-01, -3.414448953460196e-02, -1.465676979465740e-09, 1.193822713354801e-09, -7.857793302750968e-09, 5.361960287572478e+03, 3.971950928542274e+03, 2.083786659051147e+02, 7.024251271320568e+03, 3.825298422415850e+03, 1.275100995809284e+03, 7.477471101451971e+03
6176, 3.872383083412942e-01, 5.075675850210291e-01, -3.365771576678124e-02, -1.516604909031306e-09, 8.284231139303690e-10, -7.363734807082399e-09, 5.262137307180328e+03, 5.238252258106792e+03, 3.829913937148154e+02, 8.975032435878089e+03, -3.489181094932510e+03, -2.134998732769323e+02, 7.139663252911903e+03
6177, 3.664838406468018e-01, 4.801014562408622e-01, -3.377858633467192e-02, -2.254892506399067e-09, 9.558225271633512e-10, -1.934566364669695e-08, 1.052733924868293e+04, 1.035382252263579e+04, -5.739212966587205e+02, 2.164961510882526e+04, 4.827618213854169e+02, 8.271246529991640e+01, 1.128595973789350e+04
6178, 8.333999962421528e-01, 8.834688466223366e-01, -1.915086020615008e-02, -4.203456128162391e-10, 1.263802036889903e-10, -6.859988206739297e-10, 1.038096082986298e+03, 1.192670004549396e+03, -2.067621481444830e+02, 1.299323872778220e+03, 4.237158349415848e+02, 5.387582074307758e+02, 1.260711050866270e+03
6179, 8.175173495723747e-01, 8.954123019191909e-01, -2.014804079289687e-02, -5.484372055376550e-10, 5.904035223266525e-10, -1.210524131326521e-09, 1.920324230811922e+03, 1.873452427252545e+03, 4.354089653735056e+01, 2.815561709676474e+03, -2.516139663628165e+02, -1.129044220444815e+03, 2.205775884617663e+03
6180, 8.198787447935820e-01, 9.149789908696846e-01, -2.011674049173037e-02, -1.659641766343451e-10, 4.396569564312554e-10, -3.932534945166561e-09, 4.242973964140876e+03, 3.790593536959851e+03, -1.089222339109185e+02, 8.962962057845411e+03, -4.269472733054756e+02, -3.803099390611677e+02, 5.063054109590768e+03
6181, 9.832819693332056e-01, 8.346225800083196e-01, -9.229958876380994e-03, -4.103966999855303e-10, 6.478012221099886e-11, 4.023971262261183e-10, -8.369140022371364e+02, -8.231024733839749e+02, -3.494724831929476e+01, -1.534344270123287e+03, 1.336987727385801e+02, 3.636542861522548e+01, 7.466523048559969e+02
6182, 9.857517224077835e-01, 8.544041193567691e-01, -9.217623469064453e-03, -5.223030776856101e-10, 9.771999014653675e-11, 4.324660348408763e-10, -1.326924686094864e+03, -1.086071604991473e+03, 5.467000057407043e+01, -2.053479091646165e+03, 1.294901317312823e+03, -1.374149014228586e+02, 2.420084220660966e+03
6183, 5.241051488125470e-01, 7.710719383658508e-01, -3.001279187318505e-02, -1.871946789562301e-09, 3.863279214229621e-10, -6.210459610587908e-09, 5.276118342630338e+03, 4.667492544511080e+03, 5.385186730987771e+02, 9.127017813006951e+03, 2.896215279290730e+03, 1.737663492953023e+03, 7.255082909020594e+03
6184, 5.057666776001151e-01, 7.631776011237865e-01, -2.985839359586196e-02, -2.199617269407162e-09, 1.980226839676839e-09, -1.637626573793482e-08, 1.139042898268366e+04, 1.128167076295958e+04, 1.917999993117752e+02, 2.494160005565267e+04, 7.146124104127830e+01, -1.110681276943523e+03, 1.374577708182707e+04
6185, 1.046591351309463e+00, 6.559514249088111e-01, -3.473942316051403e-03, 2.407564854879448e-10, 3.312488446511586e-11, -4.687871693128678e-10, -7.886929975088981e+02, -9.700954062812715e+02, 2.642888490592494e+02, -2.303413307220016e+03, -9.295324563329011e+02, -1.289941567501698e+03, 3.137832983096450e+03
6186, 5.105605780158440e-01, 5.223360722360669e-01, -3.298863164090848e-02, -1.029775222992997e-09, 9.297675608576370e-10, -5.879872618357182e-09, 4.260855027453091e+03, 4.465131208888210e+03, 1.515089509598695e+02, 7.358493045932010e+03, -2.037314800725028e+03, 7.036953503082054e+02, 4.796946685393055e+03
6187, 4.470294356097880e-01, 5.703194098995237e-01, -3.327447112439037e-02, -1.690079543816372e-09, 1.512342518950475e-09, -7.538508439890055e-09, 5.363962251067624e+03, 4.677974422498157e+03, -4.121250635538257e+02, 7.601679820857958e+03, 4.294210344161074e+02, 2.191410186484365e+03, 4.741581016333378e+03
6188, 4.287647300533804e-01, 5.624715359802306e-01, -3.322201604262432e-02, -2.159943569107029e-09, 1.805057745456899e-09, -7.247171973447488e-09, 3.872772770146167e+03, 4.182846167757666e+03, -6.832305829246717e+02, 4.782716967794949e+03, -1.385397192844012e+03, 6.597100345472390e+02, 3.017620699978233e+03
6189, 5.986276557574124e-01, 9.521430855741042e-01, -2.710779301639591e-02, -2.198297030045652e-09, 1.046014773405617e-09, -6.322502588529187e-09, 5.080708450313055e+03, 4.603775118708640e+03, -3.796511351397980e+02, 6.083690625724097e+03, -2.463508836620373e+03, -2.491814174023276e+03, 6.243255579310757e+03
6190, 5.522404506358826e-01, 8.577852728220832e-01, -2.849429136250405e-02, -1.925434515660683e-09, 9.139947755540547e-10, -6.021314735542805e-09, 5.186108896416927e+03, 5.198878496029521e+03, -1.681873877446247e+03, 6.207734475761546e+03, 7.743976117616633e+02, -3.728226498893918e+03, 7.281141999770532e+03
6191, 5.339923253350796e-01, 8.499584558722367e-01, -2.821150667008498e-02, -1.804242535272196e-09, 1.816797416521401e-09, -6.801186014630619e-09, 5.796369746012116e+03, 6.313726925747486e+03, -1.073754850581924e+03, 9.130786519870286e+03, 3.993544668395013e+03, -3.268643542014128e+03, 9.644534541496558e+03
6192, 5.765918699178708e-01, 1.725575320973291e-02, -2.927750705444116e-02, -1.350101228566863e-10, -7.429100116508775e-11, -3.416544668383117e-10, 1.280976612345812e+01, 4.490916564260919e+01, -1.468884525979689e+02, 9.128332063881415e+01, 2.209912794401276e+01, -4.785996926754935e+02, 8.706527899251536e+02
6193, 5.663676142584412e-01, 3.438035892259863e-02, -2.996553892518314e-02, -2.539311266614916e-10, -7.818935331144879e-11, -1.096855920019187e-09, 9.756322680328774e+02, 1.031143045887678e+03, -3.789823902744880e+02, 1.616131276477729e+03, 6.861860614690438e+02, -3.266443404287689e+02, 1.594143121800237e+03
6194, 5.964572749161220e-01, 1.679853552546238e-02, -2.809873749940161e-02, -1.588768766083374e-10, -8.460221568407148e-11, -4.258458139427011e-10, 6.806015466459095e+02, 6.024315626467672e+02, -8.294278775467126e+01, 5.759195490763321e+02, -4.768699545066683e+02, -1.017449644378667e+03, 1.953804133513010e+03
6195, 6.071759284277359e-01, 3.599649595659433e-02, -2.757254421209652e-02, -1.202369177859691e-10, -1.050126166264976e-11, -3.969232148312398e-09, 2.306205721963511e+03, 2.395872604372420e+03, -1.987013398959514e+02, 4.598307941917874e+03, -1.052465770945820e+02, -4.280038028332178e+02, 2.399476200218208e+03
6196, 7.608959823031649e-01, 4.414003150230076e-01, -2.075768367287154e-02, -5.732267002620985e-10, 1.621551114323625e-10, -4.155327431192150e-10, 4.955446042845516e+02, 5.308873250463447e+02, -3.956194922277979e+01, 1.016648419233372e+03, 4.381391042489480e+02, -4.589766460629132e+02, 1.211178277395211e+03
6197, 8.101563196293391e-01, 1.116514864662343e+00, -2.132102949765010e-02, -5.571799683182913e-10, 2.294542955877437e-10, -2.734694888713413e-09, 3.391254326237844e+03, 2.634413470042589e+03, -2.162040298535113e+02, 5.022689612188754e+03, -1.867807754669901e+03, 1.462466556674222e+03, 4.635935861663720e+03
6198, 4.189362701317686e-01, 4.836879798251822e-01, -3.468773850162390e-02, -1.682688890860278e-09, 1.183027482654300e-10, -7.246221381300962e-09, 4.415725934445054e+03, 5.583725081691498e+03, -4.165335467378210e+02, 9.910824832090750e+03, 6.500736051945523e+01, 3.390994124828168e+03, 7.757046151576439e+03
6199, 6.413129095681884e-01, 8.767422685453229e-01, -2.767242961218503e-02, -9.276880225619062e-10, 6.865826618723345e-10, -4.643270180085787e-09, 4.772953923212482e+03, 3.853024397964619e+03, -4.650832727553565e+02, 5.868571487960064e+03, -2.460975940476891e+03, 1.122853824884828e+03, 5.065082067704526e+03
6200, 7.707194349422573e-01, 5.203132024049248e-01, -2.067317647425267e-02, -6.479895144081386e-10, 2.398863330078786e-10, -3.045923546149842e-10, 7.423584894850803e+02, 7.405100390563111e+02, -1.241098733246750e+02, 1.100514395635118e+03, 6.339327006971234e+02, -4.527493068317194e+02, 1.412695542867141e+03
6201, 7.548374358642678e-01, 5.322914519138311e-01, -2.172557186200264e-02, -4.905611765891353e-10, 4.533458058987519e-10, -2.099325322113606e-09, 2.331743113407600e+03, 2.179391992102894e+03, 4.883741398627635e+01, 4.683913116681792e+03, -4.042186351255157e+01, -3.863269295282533e+02, 2.524692629918362e+03
6202, 7.365375111715535e-01, 5.245432016653094e-01, -2.278123471312321e-02, -6.939192467390457e-10, 2.127573577693032e-10, -6.781619978836744e-10, 8.441823779856516e+02, 5.669943812588236e+02, 1.303122596349347e+02, 7.541423835369617e+02, -3.083308658834998e+02, -2.581017842204995e+02, 7.719971483752612e+02
6203, 7.388820136159880e-01, 5.441543298900822e-01, -2.275859702577407e-02, -5.499643242741669e-10, 1.655705650814633e-10, -9.750174216341829e-10, 1.414322841023582e+03, 1.162430167049884e+03, -2.840334464656567e+01, 2.288054041436263e+03, -3.306876573075164e+02, 1.453146779638998e+02, 1.200322837875542e+03
6204, 8.854300745577586e-01, 6.062947941360081e-01, -1.395979684831147e-02, -4.620727250332861e-10, 1.080547226835846e-10, 2.561018750631181e-10, -2.839766805480671e+02, -3.960201288575573e+02, 8.838595844472996e+00, -6.947086930842181e+02, -2.519610600765206e+01, -1.495549916381324e+02, 4.521876486486877e+02
6205, 8.672210358638733e-01, 5.985218967542083e-01, -1.508820180734678e-02, -5.503612534968296e-10, 1.466187970123073e-10, 9.872551934594966e-10, -6.207550074313239e+02, -6.033226964504953e+02, 1.037350399536104e+01, -1.410720868724565e+03, 2.202079679698360e+02, -9.608064721502613e+01, 9.008955691802574e+02
6206, 8.647025533833623e-01, 5.787868241682738e-01, -1.510693845437084e-02, -5.173999303653468e-10, 6.725533352848475e-11, 3.384340537156146e-10, -2.425576683673189e+02, -3.540207593252207e+02, -3.653199886556728e+01, -7.100635429289422e+02, 2.553974671199239e+02, 1.088529054365083e+02, 6.435140543134777e+02
6207, 8.513167059384420e-01, 6.105800811954160e-01, -1.620347795961660e-02, -4.132115735688551e-10, 1.401311722047263e-10, 9.465764161520542e-11, -8.038995784343041e+01, 9.233640031567653e+00, -1.460742435676166e+01, -1.171849896849480e+02, 6.515050161795230e+02, -1.012992096605922e+02, 1.147817513934893e+03
6208, 8.488845898292958e-01, 5.907975321173978e-01, -1.621742312086666e-02, -4.743623488198670e-10, 1.083583723727019e-10, 3.510359605337901e-11, -6.400857057755385e+01, -6.392656154053018e+01, 1.583316827132343e+01, -1.955135136082545e+02, 5.525332668237093e+02, -1.076345154259311e+02, 9.842210161273848e+02
6209, 8.330300647709478e-01, 6.027513411168591e-01, -1.731890330091338e-02, -4.977698546221261e-10, 1.395525586920984e-10, -5.579825231675103e-10, 4.974541021363621e+02, 4.464590141235205e+02, 7.696161934897096e+00, 7.479324351325506e+02, 1.349442405964141e+02, -3.538370447918516e+01, 3.696980058134768e+02
6210, 8.804979761355020e-01, 5.667988504822932e-01, -1.398849861555844e-02, -5.268573142985606e-10, 7.095905650268167e-11, 5.120985091217008e-10, -3.798866564865903e+02, -6.659202430813218e+02, 1.254908819535590e+02, -7.491026204508365e+02, 5.725318685128936e+01, -6.868137846481472e+02, 1.258866420724628e+03
6211, 8.622803836717523e-01, 5.590265166037706e-01, -1.511912063045712e-02, -5.132907959500305e-10, 7.352938103316717e-11, 5.003236633307433e-10, -4.806577152888453e+02, -6.017588273086624e+02, 1.495016769482295e+02, -7.094708148965070e+02, 5.135731870263987e+02, -4.617891682284376e+02, 1.239912743012590e+03
6212, 8.597721149970360e-01, 5.392832195032432e-01, -1.513691397545416e-02, -5.541425613465752e-10, 1.461419852729003e-10, 5.480522982987085e-10, -4.749371442259505e+02, -4.231821672174843e+02, -3.995988633763342e+01, -9.571180163780488e+02, 4.892863361664544e+02, 3.610332092884665e+02, 1.172246091705993e+03
6213, 8.463894981723522e-01, 5.710708246957927e-01, -1.623569501139668e-02, -5.564804927757660e-10, 1.221004627788632e-10, 2.289647741826386e-10, -4.798498273182766e+00, -1.213792282486550e+02, 1.281382616534813e+01, -4.051228606006781e+02, 1.967907317893150e+02, -2.299872818712592e+02, 6.344567467783163e+02
6214, 8.439429827747675e-01, 5.513105517180897e-01, -1.625045244633360e-02, -6.081734084746136e-10, 1.142153791268581e-10, 6.803228566558727e-10, -5.857331956770686e+02, -5.945862767970096e+02, 1.673992303454414e+01, -1.295988694430834e+03, 2.638080036674921e+02, -3.703250218380260e+01, 8.437962924365069e+02
6215, 8.280633389839021e-01, 5.632817112446989e-01, -1.735637467637321e-02, -5.883036480412475e-10, 1.393728875303304e-10, 1.230965475085936e-10, 1.301066375609597e+01, 4.463131677054157e+00, -2.117197541138475e+01, -1.884489957318323e+02, 4.076558642500341e+02, -1.339284819948527e+02, 7.698326151006156e+02
6216, 6.364263022220036e-01, 8.372716124329280e-01, -2.800514665857055e-02, -8.790443910122146e-10, 7.605125199725727e-10, -4.512450004336187e-09, 3.583407279863943e+03, 3.074481893623712e+03, 8.784860131748410e+01, 5.683147706475760e+03, 3.358376650041134e+03, 3.301329458415442e+02, 6.318443059979278e+03
6217, 1.672938403168023e-01, 1.339692531875257e-01, -3.622588969120799e-02, -4.373209159176220e-09, 4.630180192532250e-09, -2.527442137653631e-08, 2.505346563795621e+04, 2.643039706443183e+04, -1.271797502533870e+03, 5.250853072557336e+04, 4.547099881755701e+03, -4.643223022766271e+03, 2.914501871619264e+04
6218, 7.559446459235755e-01, 4.018759021951624e-01, -2.080008766293503e-02, -6.319401190013241e-10, 1.202319241807835e-10, -8.564684997316570e-10, 7.423075372372582e+02, 6.951634863671212e+02, -1.910733178310677e+01, 1.226840612208938e+03, 9.013556771369502e+01, -3.645009097119726e+01, 5.378587860107251e+02
6219, 9.645889381097650e-01, 5.461181613732032e-01, -8.236113296854343e-03, -3.515255266325762e-10, 4.590213379489908e-11, 7.487979897727367e-10, -2.178370712586381e+03, -2.088809949662857e+03, -3.579560627416119e+01, -4.228169354005070e+03, 7.785565080067558e+02, -2.481316996146883e+02, 2.529877435096028e+03
6220, 9.621297227725840e-01, 5.263681495128785e-01, -8.246800802417603e-03, -4.356458332773366e-10, 1.780910581607897e-11, 4.122422963000604e-10, -1.580126598598330e+03, -1.548496228107901e+03, -2.394092512558966e+02, -2.841150186586480e+03, 1.128690926000393e+03, 4.933691343522966e+02, 2.520929770808245e+03
6221, 9.438394680768274e-01, 5.186033672732550e-01, -9.419973719883705e-03, -4.466261418090906e-10, 3.741477231902083e-10, 9.512777751669126e-10, -2.189598152983051e+03, -2.479826200184386e+03, 1.919669796865061e+02, -5.012950342317108e+03, -3.534567939241997e+02, -8.583800320053350e+02, 3.151496760167701e+03
6222, 6.752257420533750e-01, 3.114342946790881e-01, -2.516332607271819e-02, -7.298802074181387e-10, 2.725652775580825e-10, -9.583474630424279e-10, 7.900190314387897e+02, 9.210144661208116e+02, 2.082079840676110e+01, 1.078152582503915e+03, 6.440113620052450e+01, -4.048102234109491e+02, 7.535207723038487e+02
6223, 3.330745626912525e-01, 7.322537794624168e-02, -4.003321508635353e-02, -3.233610278124964e-10, 6.080824033884369e-11, -9.773266335243706e-09, 7.044043047162513e+03, 8.436553703342357e+03, -1.290103558351349e+02, 1.411557178742265e+04, -3.862561755041239e+02, -1.114357715007013e+02, 6.529409761548011e+03
6224, 1.009165953955675e+00, 6.210930510965896e-01, -5.792436897342580e-03, -4.243998688833120e-10, 1.231858980108577e-10, -1.572242021205337e-10, -2.326364844258580e+03, -2.171996097416787e+03, -1.274986361633407e+02, -4.081499598553903e+03, 9.469994365404954e+02, -5.630681036269997e+02, 2.658118552916095e+03
6225, 1.088281158490144e+00, 8.877877962818239e-01, -2.463580888631137e-03, 2.800799510774532e-11, -2.856498957914218e-11, -7.662929806455522e-11, -1.673049781276486e+03, -1.666327245090834e+03, -4.419023510496154e+02, -3.828284880011570e+03, -9.395961600947971e+02, 2.121570671748676e+03, 4.625701504713508e+03
6226, 1.028403594037343e+00, 7.790413561648057e-01, -5.743204773787905e-03, -3.472091709429263e-10, -1.495271137974015e-11, 1.160076242219348e-09, -1.808716307968883e+03, -1.829083203559695e+03, 2.711923190671232e+01, -3.738847776877585e+03, 2.809337497842315e+02, -2.053187852306348e+01, 1.981603860319221e+03
6227, 7.357244212446488e-01, 1.492660738405612e-02, -1.934373666520378e-02, -1.150229270251733e-10, 8.382144500542000e-12, -5.422943922866476e-11, 1.407047485774281e+02, 1.782418667770135e+02, -2.072484021680544e+02, 1.486592562873621e+02, -8.960632365217512e+00, -1.417603603468919e+02, 4.365298372818750e+02
6228, 1.087452597320656e+00, 8.553108473117557e-01, -2.249486064914449e-03, 7.067255418793706e-11, -1.306458960202541e-11, -3.098877480448487e-11, -1.591553574393926e+02, 5.108617432786944e+01, 5.024187384269303e+01, 3.027514819285485e+02, -1.402307562830808e+02, 5.776105762167356e+01, 4.868502649786764e+02
6229, 1.071262930923432e+00, 8.534771481818940e-01, -3.378441821210867e-03, 1.928313526722437e-10, -5.719237457628510e-11, -1.594723932227722e-10, -2.156637363089832e+02, -2.145388612611717e+02, 1.282307839834909e+02, -9.938101517517855e+02, -4.941910302761710e+02, 1.528579700204210e+02, 1.207679108369543e+03
6230, 7.422149325098493e-01, 1.526328430036489e-01, -1.992455153262536e-02, -4.899405107164233e-10, 4.994063718552478e-11, -2.381289943088864e-10, 2.369160763483641e+02, 2.567757200372462e+02, -3.603072025903904e+01, 5.633046009961918e+02, 4.737800810363581e+01, 5.523577909737953e+01, 3.467326836423596e+02
6231, 6.635769034499760e-01, 1.301030067519778e+00, -1.197204053077174e-02, -2.830612734209082e-10, -1.392807862442347e-11, -3.066456369890174e-10, 3.008508536627191e+02, 6.379765054794040e+02, -1.123364864024530e+01, 1.469400146516351e+03, -4.278470836989202e+02, 4.535301105985467e+02, 1.500606498133758e+03
6232, 6.733076025606066e-01, 1.284219445212352e+00, -1.665554232612620e-02, -8.722605145109076e-10, 1.069677094051654e-10, -1.907962423344132e-09, 2.165825587449985e+03, 3.116712932638553e+03, 7.174086694640035e+02, 7.810449319414722e+03, -3.464087458837078e+03, 4.918991349259550e+02, 8.103591067232413e+03
6233, 6.649170746175882e-01, 1.267011928188144e+00, -1.683068904984378e-02, -7.321852708786984e-10, -1.712190755663795e-10, -1.345359201890724e-09, 3.883293809732225e+03, 3.049404985034190e+03, 1.188503455786681e+03, 6.481232283497969e+03, 1.363916791836548e+03, 2.708842986760108e+03, 6.437621157316179e+03
6234, 6.874988459942809e-01, 1.268336602079477e+00, -1.980709929498336e-02, -7.370409246251226e-10, 2.529563502255557e-10, -3.030344070959387e-09, 3.430212437552742e+03, 4.881558930099610e+03, -2.932380193913839e+02, 6.821335566613809e+03, -2.456192107493719e+02, -9.454489420655211e+02, 3.435840677767130e+03
6235, 6.765009403791680e-01, 1.251567328136900e+00, -1.971737342523274e-02, -1.042392270655273e-09, 1.366013979064198e-10, -2.649752391347177e-09, 7.001078728609553e+03, 3.272419188282227e+03, 1.415640903482756e+02, 6.172528762011311e+03, 1.210602027843169e+03, -7.696583903720206e+02, 4.211167459900170e+03
6236, 6.933881142858711e-01, 1.288095091678285e+00, -1.920129432154210e-02, -1.777501377622651e-09, 1.358041146321410e-09, -9.844605523794846e-09, 8.584574282082551e+03, 8.880102906718850e+03, 4.190986211026726e+02, 1.924313094246143e+04, 6.787124773816636e+02, -2.644255723512088e+02, 1.061418410210919e+04
6237, 1.070871340207303e+00, 7.496456665725048e-01, -2.539867002498370e-03, -2.040833153072027e-11, 1.420871894662337e-10, -2.448218149733765e-10, 2.213556431129311e+02, 1.467674870909182e+02, 1.726000424043410e+01, -1.050091557821919e+03, -6.302736378608383e+02, -3.030358616827125e+02, 1.730730185491154e+03
6238, 7.069188346029889e-01, 2.874281230849504e-01, -2.308668485398302e-02, -4.516159828106416e-10, 2.007236162256169e-10, -2.018570968107492e-09, 1.871524778156835e+03, 1.615896311967603e+03, 1.091467643591787e+01, 3.241570893585641e+03, -1.484423691900467e+02, 1.249098486331230e+02, 1.551085191237869e+03
6239, 1.070162964742882e+00, 7.172775890422469e-01, -2.317777392405807e-03, -4.809043345585730e-11, 4.409108550945930e-12, -1.547819129564105e-11, 2.713830043292694e+02, -1.928301459285722e+02, -5.223342933905464e-01, -6.438118161137133e+02, 1.719851170380392e+02, 6.067911547613718e+01, 8.532369323068955e+02
6240, 1.064518232808498e+00, 6.883261352302509e-01, -2.475881063101944e-03, -3.924842490389557e-11, 1.448820989658590e-11, 5.801542417902219e-12, 3.053297977131157e+02, 1.381631100826286e+02, -4.055979116924199e+01, 8.647145572218280e+01, 1.619755090812172e+02, -3.632509180417374e+01, 3.561739388425623e+02
6241, 1.053480933122746e+00, 6.111686125747243e-01, -2.611809630420506e-03, 1.222650804691028e-10, 4.870548004582798e-11, -2.516441561973920e-10, 2.925975171043071e+01, -3.979879424145352e+02, -3.661084079382530e+01, -8.521564759048086e+02, -6.890221313020235e+02, 1.142616027794774e+02, 1.431885052124537e+03
6242, 1.051048581751487e+00, 5.811521267003726e-01, -2.532170440927254e-03, -1.745163994041852e-11, -7.824582438175543e-11, -1.766396690291638e-11, -1.553318646662961e+02, -6.703740388580351e+02, 3.113844400961201e+02, -9.681587046508025e+02, -4.198128367517498e+00, -6.085722255431648e+01, 8.996445387744545e+02
6243, 1.048361380875845e+00, 5.482680008966193e-01, -2.446333694582325e-03, 8.523264669256529e-11, 5.077422079008202e-11, -4.931221456801505e-11, -4.939467442088859e+02, -8.484771607082486e+02, 8.125557478363496e+01, -4.034255633280684e+02, -1.187458410092764e+02, 4.913546332098979e+01, 4.851086715464096e+02
6244, 7.386006179956490e-01, 2.634108612279120e-01, -2.094010562243921e-02, -5.540154495341096e-10, 1.322521681417124e-10, -2.789540229779679e-10, 5.232167567344775e+02, 4.066976589061330e+02, -2.638087921845344e+01, 6.601467781702264e+02, -1.019696295228285e+02, -5.527872997323867e+01, 3.012141694125337e+02
6245, 8.755668525599192e-01, 5.273014213864879e-01, -1.401679482479934e-02, -5.571391796078508e-10, 1.301116177567838e-10, 4.595172476906516e-10, -4.483691603420559e+02, -3.917338412893773e+02, 1.965215161783337e+01, -7.487196647960969e+02, 2.269437579760236e+02, 2.458049212623112e+02, 6.688479935905967e+02
6246, 8.573501148758871e-01, 5.195303133508478e-01, -1.514892058049193e-02, -5.034703944608402e-10, 1.115457369426522e-10, 3.292930956401639e-10, -1.764883805046817e+02, -2.543581353145420e+02, 5.125590876459847e+01, -4.569715726783678e+02, 1.271735573110111e+02, -1.858749706125928e+02, 4.721681078717612e+02
6247, 8.414452704123245e-01, 5.316064589768122e-01, -1.626878025723857e-02, -5.496937586321033e-10, 1.112855708445471e-10, 2.554818779700601e-10, 3.780828804828499e+01, -1.197632088059631e+02, -2.676088507926952e+01, -2.390309663229217e+02, 2.136670393405065e+02, 1.279500380829769e+02, 4.960540861952505e+02
6248, 8.389973937665840e-01, 5.118063602672562e-01, -1.628306003585302e-02, -5.745043189311623e-10, 1.183529954608139e-10, 3.642523421479467e-10, -2.141287737420423e+02, -2.215106814372176e+02, 1.541407316229238e+01, -5.762433761381744e+02, 3.871609933265221e+02, -2.968311967299808e+02, 9.182746563699330e+02
6249, 8.548018637196272e-01, 4.998152546233020e-01, -1.516933104458448e-02, -6.868621147366563e-10, 7.980865157680212e-11, 1.258198035511925e-09, -9.272345485239478e+02, -8.659724666528007e+02, -1.811283356477072e+01, -2.055026375988346e+03, 2.417692911778024e+02, -1.233633003106652e+02, 1.251700934855493e+03
6250, 8.231334704547735e-01, 5.237896889846632e-01, -1.739062485120085e-02, -5.684659818538980e-10, 1.376707706193904e-10, 4.941755881502266e-11, 7.231201055196587e+01, 4.543849088579569e+01, 1.275051607186485e+00, 1.626677279602548e+02, 2.955126125480839e+02, 4.098827793248622e+01, 5.275818651685577e+02
6251, 5.287026935528263e-01, 2.494578059381698e-01, -3.274955098161757e-02, -8.500574674882598e-10, 2.944508877369323e-10, -4.378141062616454e-09, 3.672534276027129e+03, 2.460703003945423e+03, -3.244144262819324e+02, 4.718794398086800e+03, -2.273079429782866e+03, -6.278509884688068e+02, 4.563998361421780e+03
6252, 5.128386133078241e-01, 2.614373203860990e-01, -3.345383333533503e-02, -7.518915920140968e-10, 5.626920059868805e-10, -4.024747617523100e-09, 2.683595513069276e+03, 2.268695223543986e+03, -3.005547104963591e+01, 4.313793695792621e+03, -1.878411642590361e+03, -4.179633776911387e+02, 3.823367509087800e+03
6253, 5.153106028363419e-01, 2.811815982062001e-01, -3.335550052519737e-02, -9.125926384177468e-10, 5.617200898819991e-10, -3.767979576210120e-09, 1.903933536890651e+03, 1.359202261469314e+03, -5.166941499233271e+02, 3.151403747651397e+03, -1.028942247581647e+03, 6.507475732138532e+02, 2.789256589221702e+03
6254, 5.229971729450446e-01, 9.013951974256456e-01, -2.546228763268340e-02, -3.336642171065472e-09, 2.298568935797164e-09, -1.774775379366535e-08, 2.034369879127460e+04, 1.898797577438062e+04, 1.357221429166587e+02, 4.141555766018140e+04, 2.336604525517810e+03, -2.589905758578450e+02, 2.215997466488567e+04
6255, 5.076213367678696e-01, 9.133682198201362e-01, -2.297055901357937e-02, -2.040463601307373e-09, 3.241524996184507e-10, -4.485397321627220e-09, 4.182166008147087e+03, 6.622977803728687e+03, -3.697540927645872e+01, 1.327018912085925e+04, -3.416840323265881e+03, 1.048679509035542e+03, 1.023206984785524e+04
6256, 4.870618652775569e-01, 9.079315742830346e-01, -1.987259625293680e-02, -1.391464184182067e-09, 9.646270773864991e-10, -2.443930543317071e-09, 1.341516426865158e+03, 1.271091070235028e+03, 9.365469037562935e+02, 6.011905972474257e+03, -3.491881381855802e+02, 2.969610090362867e+03, 7.183266786821460e+03
6257, 4.680741278826962e-01, 9.104076069787749e-01, -1.279782890729135e-02, -4.138210548022349e-10, 1.328744826762635e-10, -5.982979495472631e-10, 6.451791570660984e+02, 7.245253402989185e+02, 2.828530967036482e+02, 3.123094316414887e+03, -3.915990387711338e+02, 7.341899806304280e+02, 2.875224873096600e+03
6258, 5.255144957404929e-01, 9.210165302992218e-01, -2.457294609681349e-02, -2.455829770726095e-09, 1.269252326412114e-09, -5.209976706460181e-09, 6.760401072854260e+03, 6.675149542356765e+03, 1.119141029688620e+01, 8.942141322011259e+03, 2.924256131807583e+03, 2.800620755660208e+03, 7.357844956301590e+03
6259, 4.866109645694500e-01, 8.857314825748501e-01, -2.209499047827430e-02, -3.820249098794748e-09, 2.382916779445134e-09, -1.206787175264234e-08, 1.130498819536836e+04, 1.078598236747194e+04, -4.894393314870904e+02, 2.269331542835916e+04, -3.896192952099830e+02, -4.512584917262797e+02, 1.173281454985412e+04
6260, 1.036761745474635e+00, 4.668638206454349e-01, -2.586634451594651e-03, 1.233850982373797e-10, 1.194170288779017e-10, -2.935659856624019e-10, 5.255591841167887e+01, -1.161777487381885e+02, -6.622922243177520e+01, -3.923205834626045e+02, -6.777806469319335e+02, -1.570246418093415e+02, 1.271459582111798e+03
6261, 1.082169883675435e+00, 9.326303431516955e-01, -3.268387585493776e-03, 2.289190669236826e-10, -2.618679567974538e-10, -1.526997978992694e-10, -6.388688409082183e+02, -1.057317298708862e+03, 1.427255972545919e+02, -2.907502550809266e+03, -1.235914916508783e+03, 8.594776599335445e+02, 3.351442393801329e+03
6262, 8.527774959449730e-01, 1.041082840098204e+00, -1.889965548485216e-02, -3.125429436513111e-10, 2.442816493381995e-10, -7.783524090869464e-10, 1.619730383677063e+03, 1.391941718361648e+03, -1.445172474855941e+02, 2.519028738033996e+03, -5.018745646033444e+02, 1.020502693909878e+02, 1.383838101351718e+03
6263, 8.552368989150554e-01, 1.060823906442894e+00, -1.886056441654622e-02, -5.128604916621507e-10, 4.456112614583726e-10, -1.439607651562493e-09, 1.744069877531513e+03, 2.326024469715761e+03, -8.198337312584459e+01, 4.078161768282832e+03, -1.782890138091392e+02, -1.928901217182629e+03, 3.963057539592495e+03
6264, 8.576983571428447e-01, 1.080569028535978e+00, -1.881974072668662e-02, -7.733374714358156e-11, 3.368664767096456e-10, -5.180702107246592e-09, 4.757640750593214e+03, 4.550356403550431e+03, -1.881802707018334e+01, 1.047263133910013e+04, -4.894092140775691e+02, -4.083549815995434e+01, 5.883310413736160e+03
6265, 5.728551282453321e-01, 6.047801705651202e-01, -3.079349849555690e-02, -1.336668299399247e-09, 1.189824791133695e-09, -4.906894235207546e-09, 4.337078809106787e+03, 4.692601460984421e+03, -3.393697082996496e+02, 7.562135069170729e+03, 5.618822123643874e+02, -2.459005664122957e+03, 5.367828286146851e+03
6266, 9.918088495356098e-01, 4.828179986405097e-01, -5.869941275806167e-03, -8.585509953755945e-10, 2.247570353464983e-10, 2.260130840878467e-09, -5.383835272377601e+03, -5.260062180502255e+03, 1.789885646811804e+02, -1.055982216206341e+04, 1.395831763364735e+03, -8.946216182083064e+02, 5.982390921222466e+03
6267, 8.784810688660094e-01, 1.517172721173340e+00, -1.800629839492163e-02, -5.952492198451275e-10, 1.476195453738170e-09, -2.205557910780001e-09, 3.543691019000626e+03, 5.021416902457805e+03, -5.198904983087839e+02, 5.382184546280355e+03, 1.577584222846537e+03, -1.932101033756272e+03, 4.724739179023894e+03
6268, 8.758192176585169e-01, 1.497732195428000e+00, -1.820524015499689e-02, -2.689046681343766e-10, 9.102997645180137e-10, -2.598479930765311e-09, 4.732871576219466e+03, 5.251469855824476e+03, -5.087194080289813e+02, 7.570444114265377e+03, -1.373753408525641e+03, 1.586580949766496e+03, 4.564964487146198e+03
6269, 1.064912222279566e+00, 7.943558662726116e-01, -3.334469500418289e-03, -9.191303348847558e-11, -2.068491502071732e-11, -8.344477787905250e-11, -5.656541097725623e+02, -9.944118197087798e+02, -5.983805622518835e+00, -2.276150720174549e+03, -1.497025260142118e+03, 9.614990585294877e+02, 3.445728637524436e+03
6270, 8.167576654616280e-01, 3.339443488676206e-01, -1.642257167440897e-02, -6.098304409186403e-10, 9.260766440428562e-11, 1.022337617649408e-09, -9.134594870792696e+02, -8.771296726843111e+02, 2.971489913575192e+01, -2.168025400516440e+03, 1.744396978384162e+02, -6.864037577708581e+01, 1.314878202402072e+03
6271, 9.199765914198537e-01, 8.826897991338571e-01, -1.374548554774291e-02, -3.363418580800495e-10, 4.308765665982692e-11, -6.563952743375070e-12, 1.603285993410638e+02, 1.115740579599752e+02, -2.332693679015747e+01, 2.218980116350495e+01, 2.798694157270518e+02, -1.106301360913837e+02, 5.367072085114688e+02
6272, 9.459204137150640e-01, 2.575282153265922e-01, -7.208979517588200e-03, -6.336958314388086e-10, 1.814813809561895e-10, 5.609067918333918e-09, -6.427624365066320e+03, -6.607789580995860e+03, -1.733771716506773e+02, -1.383179996318023e+04, 3.616615532944917e+02, 9.600480789226992e+01, 7.350546090943189e+03
6273, 9.483993643316345e-01, 2.772888087542182e-01, -7.197806139899794e-03, -4.563564676321709e-10, 2.756332587992156e-10, 6.925480292028016e-10, -3.256120309600585e+03, -3.360613653291301e+03, -1.806594887540197e+02, -6.117065181588516e+03, 6.568198063466408e+02, -4.273515392882282e+02, 3.136401292037618e+03
6274, 8.706534356284875e-01, 4.877859094608624e-01, -1.404349019433379e-02, -5.443769909109471e-10, -5.267752041676244e-12, 6.835375058582644e-10, -4.360758489581363e+02, -6.684557183192255e+02, -3.560651710174324e+01, -1.156560574128244e+03, -2.711349899073146e+02, -4.386501501511963e+02, 1.098754012368329e+03
6275, 8.662132862143068e-01, 1.009392129894073e+00, -1.794627283365751e-02, -3.911405119199359e-10, 2.277866229097747e-10, -6.730904676569110e-10, 1.161580781673411e+03, 1.189158784523019e+03, 1.440117708456503e+02, 1.483494437344377e+03, 9.028109959883784e+01, -8.164725689526076e+02, 1.477181025146219e+03
6276, 4.533888513666925e-01, 7.597771175379304e-01, -2.708494220032346e-02, -3.595963231324285e-09, 1.652198198989023e-09, -1.647084657411982e-08, 1.265092273042527e+04, 1.238543437874491e+04, 2.918467176655838e+00, 2.706817682015030e+04, 4.955555191320482e+02, 8.842211873010735e+02, 1.465733963824282e+04
6277, 4.382560479285205e-01, 7.726287630032399e-01, -2.437122767218007e-02, -1.179482321616514e-09, 6.407438805057038e-10, -4.290472609924037e-09, 5.673890060000896e+03, 4.750010083943631e+03, 6.715732214023186e+02, 1.272879972893620e+04, -1.032886686013754e+03, 3.273555389917643e+03, 9.687377642537871e+03
6278, 4.206420993329788e-01, 7.641715647549613e-01, -2.208119226354869e-02, -2.743326299869967e-09, 1.469333171484537e-09, -7.034532121920089e-09, 4.795653518574369e+03, 4.562639683180827e+03, 5.527556200935305e+02, 1.142436201657545e+04, -6.982024992259010e+02, 4.521510309129373e+02, 6.966423097290269e+03
6279, 4.048353118828135e-01, 7.859472580320794e-01, -1.204555074190020e-02, -2.341415179097722e-10, 3.892172286046663e-11, -3.830709969588558e-10, 7.603386619436492e+02, 7.969903969248417e+02, 2.347864810151225e+02, 1.801342286500124e+03, -2.967280432263980e+02, 4.487528442050549e+02, 1.442404701363254e+03
6280, 4.209636904714606e-01, 7.848247945623592e-01, -1.960506948355725e-02, -8.288002737434554e-10, 8.583469990821677e-10, -1.428664095835577e-09, 1.427309114828602e+02, -2.709629608084614e+02, 7.760828804438190e+02, 1.888114604810563e+03, -3.633326653092207e+02, 1.778571546420834e+03, 3.953790260223971e+03
6281, 1.033904875958851e+00, 4.070339655700527e-01, -2.285584441713329e-03, -1.930059034389501e-10, -1.203613811961382e-10, 1.611199697005811e-10, -4.932902461849998e+02, -1.400893376816074e+03, 2.146485743756972e+02, -3.844219139302371e+03, -8.187891670221313e+02, 1.640785531082789e+02, 3.352818035900242e+03
6282, 9.997752285550783e-01, 4.113020050658183e-01, -4.732787203643545e-03, -2.975239964739980e-10, -1.805992266438616e-11, -8.445843231390000e-11, -2.200778580570616e+03, -1.501533202067820e+03, -4.906055285723324e+02, -1.657104198104641e+03, 1.686384913518244e+03, 6.985109057597374e+02, 3.334948301574773e+03
6283, 1.015701600452708e+00, 3.992015893235152e-01, -3.513695407037348e-03, -8.424405849698167e-11, -5.956548342074400e-11, -1.157753454881760e-10, -6.862546629272204e+02, -9.887770051785959e+02, -4.710399691451861e+02, -1.145091683583982e+03, 5.288445663929288e+02, 1.358687455020562e+03, 2.684399972802736e+03
6284, 1.013031661477036e+00, 3.796026564404963e-01, -3.538726881082283e-03, -2.628730849467943e-10, -3.359605833030102e-12, 4.621053468564988e-11, -4.369088620157634e+02, -1.047402310929299e+03, -3.949012413623697e+02, -1.662209474825706e+03, -1.212096216924630e+03, -9.638765697167644e+02, 2.964552691272841e+03
6285, 1.031385476568275e+00, 3.872975631720801e-01, -2.299028791288844e-03, -7.274451532121337e-11, -4.556319143764820e-11, 1.355115039343823e-11, -4.922884570533483e+01, -2.585394090926492e+02, -4.888377602747995e+01, -3.479433414272220e+02, 3.905009913265327e+02, 1.873917809743499e+02, 8.003162778525347e+02
6286, 9.642343086149208e-01, 2.652518355602714e-01, -6.008727084206290e-03, -5.488791295435597e-10, -2.749010081942323e-10, -4.480947810963612e-11, -3.169057421354100e+03, -2.314317097261564e+03, -3.749590129033795e+02, -5.835267715919687e+03, 8.447051137801431e+02, 6.286900548742235e+02, 3.723747082557815e+03
6287, 4.589697321149476e-01, 1.076692076438714e-01, -3.565142076352398e-02, -9.127144669365915e-10, 5.281401185798937e-10, -4.192543772687583e-09, 2.396489213052374e+03, 2.288684921379553e+03, -2.743690828318245e+02, 3.294488527425648e+03, 1.233378444404961e+03, -9.228234821754402e+02, 2.873872751862926e+03
6288, 4.772907792989480e-01, 1.154080643755085e-01, -3.487045582800334e-02, -5.594795045031097e-10, 7.166174350504896e-10, -4.035294375255911e-09, 2.522781622590984e+03, 2.435881373525095e+03, -1.489876705547807e+02, 1.881038005529382e+03, -1.101445279572700e+03, 8.440452717551013e+02, 2.491383791208275e+03
6289, 9.923908651958658e-01, 3.522244260522253e-01, -4.762230023932593e-03, -1.525039135231178e-10, -3.555598634626048e-10, -2.341323237787093e-11, -1.385042354145679e+03, -1.711231677772414e+03, -2.028096448916310e+02, -4.537560878250406e+03, 4.772061422409898e+02, 1.398012507720844e+03, 3.960598933566186e+03
6290, 9.947709789234560e-01, 3.719335252063102e-01, -4.758243917107866e-03, -6.847260207005742e-10, 1.115414585724749e-09, 5.698974661120999e-09, -9.646336282022821e+03, -9.806817717517315e+03, -1.610014123261306e+02, -2.080301241259845e+04, 9.874915861710015e+02, -4.501869935849045e+02, 1.123912476232380e+04
6291, 6.083069513576727e-01, 7.505939897703735e-01, -2.919066325306608e-02, -1.316153798228022e-09, 7.244172674547336e-10, -3.928074577235718e-09, 3.751008943788657e+03, 4.144661021039560e+03, -3.846746099391079e+02, 6.998890323862915e+03, 1.339031910183548e+02, 2.433087882583983e+03, 5.261427939110009e+03
6292, 9.934695723063229e-01, 2.215609242593345e-01, -3.601318697123834e-03, -1.838751110420050e-09, 6.482472213956223e-10, 4.925688900651219e-09, -1.130860605085959e+04, -1.202474007387373e+04, -1.489560661831391e+02, -2.448600158745723e+04, 1.775681262690877e+03, -6.883297711899532e+02, 1.325393937586413e+04
6293, 6.988003716552523e-01, 1.200140946258473e+00, -2.307496134764034e-02, -1.992170290349900e-09, 1.375496314153066e-09, -1.442167266855095e-08, 1.204240428511566e+04, 1.202922857755835e+04, 1.033921032570855e+03, 2.356392807190686e+04, 5.949744835128442e+02, -9.865109179724568e+02, 1.183579577314521e+04
6294, 4.775178559608236e-01, 3.961670103095444e-01, -3.449165740482758e-02, -1.145390132457271e-09, 1.274077926836336e-09, -4.884335641122141e-09, 3.495779664548807e+03, 3.429057986982696e+03, 1.470120698068360e+02, 6.347956024794296e+03, -6.020599618989954e+02, -2.465666578792267e+03, 5.265022795407636e+03
6295, 4.824113333702382e-01, 4.356398499811227e-01, -3.418203469131628e-02, -9.072964181751391e-10, 5.174687296839592e-10, -4.672303936699273e-09, 2.833351405561129e+03, 3.361898944357137e+03, -1.706105931161554e+02, 5.268448705439559e+03, 2.910533386049210e+02, 1.980166597537636e+03, 4.126334450727894e+03
6296, 2.778230022434247e-01, 4.607933851602925e-01, -2.613658889841448e-02, -1.595493750929852e-09, 1.087970928791262e-09, -2.943537492758194e-09, 1.632963568356805e+03, 2.723422633018076e+03, 4.003477752720713e+02, 6.880592345744569e+03, -2.375080198258228e+03, -8.166999586026371e+02, 6.512237228772141e+03
6297, 7.702828398966680e-01, 2.393915772678133e-01, -1.874323633085685e-02, -5.854094289071256e-10, 7.166355194274398e-11, 3.634157838002407e-11, 1.160953319537723e+02, 8.881789204224232e+01, -4.696858950085469e+01, 3.333674055239128e+01, 1.485650320702964e+02, -1.194124306915301e+01, 2.803501952810228e+02
6298, 9.473588471160659e-01, 4.079905204997933e-01, -8.312313987834587e-03, -3.596513321873260e-10, 2.186230710323638e-10, 9.221460676278465e-10, -1.882245542205571e+03, -2.137458944803940e+03, 2.627290019064151e+02, -4.256282249291674e+03, 3.647883989928368e+02, -1.690684829166809e+03, 3.778469937649510e+03
6299, 8.601816380052061e-01, 1.100299859559755e+00, -1.877578637382411e-02, -3.539631080176693e-10, -3.596771435386463e-11, -1.769750970847594e-09, 2.244672037620948e+03, 2.231263417407579e+03, -1.288134624352637e+02, 4.231883101141526e+03, -1.560248757801479e+02, 8.660218559365560e+02, 2.519647780005942e+03
6300, 8.527145816617677e-01, 7.606900514545893e-01, -1.717222877483634e-02, -4.734398541280817e-10, 1.452208559465408e-10, -2.582783951766809e-10, 3.307092062153055e+02, 3.990907273872988e+02, -9.618166773168019e+00, 3.453513626573157e+02, 1.616048047222075e+02, -2.055211012303054e+02, 4.574186348731490e+02
6301, 1.026510458635043e+00, 3.477730994408000e-01, -2.314804674065544e-03, 3.824514581334567e-11, -4.541137547609428e-11, -1.619467541893265e-11, -2.706613525709496e+02, -2.996479974160941e+02, 1.647219554684105e+02, -1.225020928422074e+02, -7.763656121166827e+01, 1.832836920313520e+02, 4.768092298910381e+02
6302, 9.723579548638577e-01, 8.861952174154546e-01, -1.034949319588875e-02, -3.832248895983523e-10, 9.670813742116964e-11, 2.642219327181920e-10, -5.348358096119025e+02, -3.598153748422866e+02, 4.621506957742916e+00, -5.353732580620991e+02, -2.497807133197599e+02, -1.612780208703645e+02, 5.440529341581134e+02
6303, 6.788077910941404e-01, 2.006432195198429e-01, -2.425326978042797e-02, -4.796883605704026e-10, 2.680715348509410e-10, -2.481336351458198e-09, 1.675694982725566e+03, 1.324010046829849e+03, -1.659905147107251e+02, 3.099337149775367e+03, 5.802235808853584e+01, -5.959456863833404e+01, 1.659676381426632e+03
6304, 6.604877295653999e-01, 1.929153916129199e-01, -2.532378824931729e-02, -6.222850142998018e-10, 3.968346829994304e-10, -1.495251687286720e-09, 1.839073200031195e+03, 1.703514208749880e+03, -1.084665643936615e+02, 3.342194024527509e+03, 1.913169342590990e+02, -1.102517131888023e+03, 2.504644399708493e+03
6305, 9.185393611271850e-01, 1.012810959740981e+00, -1.475899851546761e-02, -4.644166744775103e-10, 1.359575517913872e-10, -1.494740685491240e-10, 4.581723291651531e+02, 4.673952588871418e+02, -1.284644422384481e+02, 6.406230600505583e+02, 4.217213199309151e+02, -2.036649278491886e+02, 8.597585496427272e+02
6306, 9.344871447444971e-01, 1.000902961362704e+00, -1.366218603744749e-02, -4.145557050379953e-10, 1.009704583301469e-10, -7.372980954990415e-11, 1.703040647270416e+02, 2.275366087853770e+02, -5.044957970875008e+01, 2.976256295353310e+02, 3.189064828602193e+02, 2.269104898436527e+02, 6.923900878909287e+02
6307, 6.421586843153044e-01, 1.851509714075480e-01, -2.638012903175731e-02, -5.471410399467505e-10, 3.553826420223132e-10, -1.255896437350695e-09, 1.274991370633262e+03, 1.356283159050118e+03, -1.076155413402395e+01, 1.753118901410713e+03, -1.053420823360853e+02, -6.468285073623849e+02, 1.218665704107536e+03
6308, 9.533106727417361e-01, 3.169408188802820e-01, -7.179657806190297e-03, -3.791163394187626e-10, 3.963127961299722e-10, 1.959227150515590e-10, -1.835998400422372e+03, -1.873499168934134e+03, 1.372108872508958e+02, -3.684362634899740e+03, 3.935650532386528e+02, -1.338079706955162e+03, 3.039913537303310e+03
6309, 9.691457548052818e-01, 3.048746666028972e-01, -5.991191074055390e-03, -5.888910849411835e-10, 1.464811978747596e-10, 6.728539736646224e-10, -4.046252963296459e+03, -4.094073514901448e+03, -1.744381219072090e+02, -8.388534773437332e+03, 2.017801943334440e+03, -8.881040801561053e+02, 5.772529290243307e+03
6310, 8.688845335847921e-01, 1.309503762429801e+00, -1.893794080204141e-02, -3.299508170885300e-10, 6.115361659500159e-10, -1.908856010104385e-09, 2.768375598278658e+03, 3.215340583060181e+03, -8.380062909431599e+01, 3.288977028232981e+03, -3.331955558078345e+02, 1.546437541921874e+03, 2.786870219621044e+03
6311, 9.445358710393063e-01, 1.072496244532864e-01, -6.086031347390365e-03, -2.029749869079889e-10, -1.597644464626347e-11, 1.300472655905249e-10, -1.223158987393198e+03, -1.284783087659460e+03, -7.151463184942935e+01, -2.088852000420642e+03, -3.425195207400013e+02, 2.320826973375195e+02, 1.108496007518065e+03
6312, 6.607361563956190e-01, 7.540277447527211e-01, -2.739718182317031e-02, -7.296121063097979e-10, 3.332244087875546e-10, -2.475131886529184e-09, 2.955139532002943e+03, 2.266006601452656e+03, 2.604402440444192e+02, 3.667144689652638e+03, -1.125216071144940e+03, -4.500948478495602e+02, 2.466191160468125e+03
6313, 8.657288846030315e-01, 4.482574591394858e-01, -1.407053697766799e-02, -4.927875821181029e-10, 3.465040645507905e-11, 4.317520254505562e-10, -3.361330778424264e+02, -4.983178470872325e+02, -5.732515820766101e+01, -7.891747118295074e+02, 1.508230696694364e+02, 2.726619054539276e+02, 6.776496358854075e+02
6314, 7.058054183895001e-01, 4.178953968032767e-01, -2.397629381134350e-02, -6.267681332767211e-10, 1.801182590549574e-10, -3.123228412073209e-09, 2.336306349287916e+03, 2.134158530377557e+03, -1.824728575393317e+02, 4.660762924600194e+03, 2.621731559889208e+02, -3.557743183327699e+01, 2.494741774493055e+03
6315, 5.898196552090654e-01, 4.623322184332950e-01, -3.029916067610062e-02, -6.689577891099094e-10, 1.747016778041174e-10, -3.107092356271581e-09, 1.851831620581700e+03, 1.741895090275910e+03, -2.178552384828047e+02, 1.738270359952578e+03, -2.920897908659551e+02, -1.368533755457195e+03, 2.455500690634296e+03
6316, 6.664665094813603e-01, 1.018478457833764e-01, -2.436636230764136e-02, -3.604340516511113e-10, 1.532115055735185e-10, -1.020399251752206e-09, 7.591076160322409e+02, 9.304269665265124e+02, -6.627057955881847e+01, 1.420720376371375e+03, -5.954683469678503e+00, -5.442197291853045e+02, 1.120509607692750e+03
6317, 3.435130557295346e-01, 6.615768054663880e-01, -1.291366954791489e-02, -3.293084263913889e-10, 9.860432324219600e-11, -2.265231436343513e-10, 1.884986682567015e+02, 5.639954029175485e+02, -1.601139482468688e+02, 1.010991340649197e+03, 2.179513130723116e+01, 8.518340767421719e+01, 7.802255010310341e+02
6318, 3.503324750262662e-01, 6.436400479814578e-01, -2.062173191852226e-02, -8.945392046322292e-10, 4.340806797637413e-10, -1.142750201421741e-09, 1.138156818926390e+03, 1.204933290758960e+03, 4.982752207254165e+02, 3.746080219207712e+03, -1.053246363675580e+02, 9.304338056511999e+02, 3.163354431514970e+03
6319, 7.189202128783458e-01, 1.053329958767032e-01, -2.107995731441390e-02, -4.168875731797464e-10, 1.321475114965217e-10, -9.226824862375967e-10, 8.319678581609717e+02, 8.883330270851717e+02, -9.197646195801195e+01, 1.827462060335200e+03, -3.094053883154648e+01, -5.076671549275481e+01, 9.869434014471207e+02
6320, 7.347614398207668e-01, 9.332355904035423e-02, -1.997676582131505e-02, -4.343904577552375e-10, 7.621473160895590e-11, -2.052760273566340e-10, 2.488604287371862e+02, 2.624769075563536e+02, -1.227569019134752e+02, 4.312474111625978e+02, 2.328568720994420e+02, -8.847628413089062e+01, 5.121775566006523e+02
6321, 6.511256283352445e-01, 9.556591640949709e-01, -2.689774111287903e-02, -1.193971854001766e-09, 1.133053220995447e-09, -5.019959549764159e-09, 2.183471119337962e+03, 2.696245441173569e+03, -3.670648320124532e+02, 3.362730777417547e+03, -6.411810995862287e+02, 9.869000339218292e+02, 2.368197877254692e+03
6322, 1.040165716683050e+00, 7.274154512048262e-01, -4.512615045250742e-03, -1.793862517608063e-10, 1.591019333086495e-10, -2.759929518042355e-10, -1.826114931825475e+03, -2.431724996577980e+03, -1.713238771485003e+02, -4.365802026629048e+03, 6.017905451381487e+02, -1.048521203602238e+03, 3.122725630056746e+03
6323, 1.054736317051126e+00, 7.161308345178330e-01, -3.400727050189516e-03, -3.744088534551182e-10, -8.312932504730011e-12, 3.255396517773832e-10, -8.463144292130388e+02, -1.413237192719000e+03, -8.041638309855185e+01, -3.602309809182177e+03, -1.750779423926664e+03, 1.017306323711673e+02, 3.949760620544683e+03
6324, 9.230971548254392e-01, 2.115074915348592e-01, -8.401728398546290e-03, -4.041577831577040e-10, -7.650088859765459e-13, 5.868732874025722e-10, -1.338673480292507e+03, -1.928841571980437e+03, 1.631810311618135e+02, -3.522518010940136e+03, -1.924870888284875e+01, -3.612112782342642e+02, 2.073898840116283e+03
6325, 7.229957962393079e-01, 5.560839323018364e-01, -2.375989237398101e-02, -7.085301004680309e-10, 2.157504758301419e-10, -1.348117928007390e-09, 1.760467762664906e+03, 1.541656406755744e+03, -8.059990008956080e+01, 3.108387885162430e+03, 1.003031839694143e+03, 1.644422454280488e+02, 2.297507061581689e+03
6326, 5.741331181808005e-01, 7.548699573877145e-01, -2.999917696146296e-02, -1.076978361044270e-09, 6.669994839893326e-10, -4.393547692307407e-09, 3.286155508363883e+03, 3.572288891638361e+03, -3.910268810419603e+02, 4.462471580909643e+03, 2.637124133998712e+03, 1.300510576784622e+03, 5.246424397468196e+03
6327, 6.963460033895306e-01, 1.180441480980996e+00, -2.349654981706886e-02, -1.580812940317324e-09, 1.004458159241226e-09, -6.454470959143188e-09, 5.665280061997616e+03, 8.554400093435119e+03, 3.730639534591553e+02, 1.415427348193971e+04, 1.927610215428202e+02, 2.147946957521868e+03, 8.381785721130702e+03
6328, 7.041884801151115e-01, 1.239698393836154e+00, -2.211339753972256e-02, -4.453165763041351e-10, 2.034897041721751e-10, -1.922737724635190e-08, 1.861641548333621e+04, 1.773260486097676e+04, 4.940100127366998e+01, 4.213408247775640e+04, -8.062542193949098e+02, 2.933484113416313e+03, 2.454425374881200e+04
6329, 6.854020089843784e-01, 1.233729937863802e+00, -2.140306080804673e-02, -1.132499118154715e-09, 5.744402236769434e-10, -3.241947612967457e-09, 5.244146932249999e+03, 3.957789702840691e+03, 6.272175424438119e+02, 7.933178122268022e+03, -5.032673504081741e+03, -5.707111137718640e+02, 9.512381680356673e+03
6330, 7.437500565019339e-01, 5.834830006511589e-01, -2.270121920038671e-02, -6.386682004447814e-10, 3.045422217046913e-10, -3.111026307912655e-09, 2.703209881711501e+03, 2.866222519968479e+03, -1.765923324938549e+02, 5.747633406653868e+03, 1.393187757370991e+02, -2.748572984344014e+02, 3.029394581710186e+03
6331, 1.001037836294119e+00, 1.402782351898848e+00, -1.223526045352306e-02, -2.002023226251865e-10, 1.857150469098309e-10, -1.607540854603368e-10, 7.150113056744485e+02, 7.879723210331009e+02, -9.888439522158663e+01, 9.531842995672362e+02, -1.385393582853985e+02, 1.701956122035037e+02, 4.674246600191036e+02
6332, 8.178165193686887e-01, 2.033858626484605e-01, -1.538034158599263e-02, -5.289984387095581e-10, 3.006298487150773e-11, 4.033083944993283e-10, -4.458002222425505e+02, -4.826656098125555e+02, -7.103452861182822e+01, -7.788630768218761e+02, 4.021441072615222e+02, 3.294648703179813e+02, 9.622630070743254e+02
6333, 8.858075727347489e-01, 8.869958296468186e-01, -1.595595910476006e-02, -5.046405542892201e-10, 1.620675477892226e-10, -2.963810407593900e-10, 7.685394044477722e+02, 6.049186628426106e+02, -3.865865973858529e+01, 1.094396393721055e+03, 4.402691800785584e+02, -4.590318958081214e+02, 1.185072427993696e+03
6334, 7.082382672040560e-01, 4.376454071566259e-01, -2.394903923713479e-02, -6.833433174697851e-10, 2.772153349122941e-10, -1.169330493716565e-09, 1.364484073075983e+03, 1.658797676247484e+03, 6.615252358286077e+01, 2.284302587943635e+03, 8.689851676161576e+02, 7.975604204546322e+01, 1.720345520062359e+03
6335, 7.241589981214898e-01, 4.257206455125058e-01, -2.291933685518691e-02, -5.624742343373440e-10, 1.527282616201364e-10, -7.014992017408101e-10, 9.495988869395738e+02, 9.139684035514410e+02, -3.217102000631739e+01, 1.036363960599631e+03, 8.196505906784084e+02, 2.375399801085928e+02, 1.483155795357496e+03
6336, 7.267002070889114e-01, 4.455883072563894e-01, -2.288953038938146e-02, -5.820790640587010e-10, 2.626455636618234e-10, -6.878194849300690e-10, 8.881465109305905e+02, 8.006716174230647e+02, 2.162796088435605e+01, 8.714900643343201e+02, -1.080838411248717e+02, -2.413026592425414e+02, 4.664792059681506e+02
6337, 7.401316562502942e-01, 4.138746038176383e-01, -2.186457189944220e-02, -5.628228472821541e-10, 1.213581429176703e-10, -4.518537276205833e-10, 4.415618836593151e+02, 4.572932251047549e+02, -4.086442604690548e+01, 6.047384673698617e+02, -1.929322132637244e+01, 8.974515842031916e+01, 2.336579883428037e+02
6338, 8.181708726670018e-01, 4.842995437854082e-01, -1.742629286726713e-02, -5.576740857645240e-10, 1.379036895644249e-10, 1.805908329896743e-10, 7.072934888139916e+01, -3.599617466151201e+00, -4.740335365024545e+01, -1.505269003257571e+02, 1.797989584489158e+02, -8.582529524509863e+01, 4.047907469934945e+02
6339, 8.365142756880585e-01, 4.920651661933906e-01, -1.629992103932829e-02, -5.168921135024401e-10, 1.031384678024768e-10, 3.871972223624229e-10, -2.379473836389848e+02, -1.380231049689999e+02, -5.439036907727985e+01, -2.819999628592734e+02, 4.966531381856902e+02, 2.893788159994152e+01, 8.761892330623928e+02
6340, 1.019116273721859e+00, 2.885119777382508e-01, -2.344966813601218e-03, 8.388075623271512e-13, 1.711993210514794e-11, 4.363714906179564e-12, -8.194493173830762e+01, -4.321449403088158e+01, -4.542123899782737e+01, 8.705198003009058e+01, -2.042179835053782e+00, -6.994111633299882e+01, 2.106934651139395e+02
6341, 1.003287567518905e+00, 3.005227987977176e-01, -3.566949399334901e-03, -1.265002749811308e-11, -1.640055072752021e-11, -1.100275975979907e-10, -9.183440731464140e+02, -1.409829237025508e+03, -1.958127595058456e+01, -2.161345841803382e+03, -1.399620022958358e+03, 1.287837873825759e+03, 3.468318354492391e+03
6342, 5.484681071620832e-01, 6.879340584234982e-01, -3.103231141803359e-02, -8.496016015959666e-10, 1.220806291721626e-09, -4.912873642074461e-09, 3.968422066640335e+03, 3.562764543539404e+03, 5.382634993878544e+02, 6.727199527205757e+03, -3.002489708981785e+03, -1.724720792912430e+03, 6.762583198517385e+03
6343, 7.009025977426626e-01, 3.784681534456148e-01, -2.403157194319617e-02, -4.839680423831119e-10, 2.964246121791628e-10, -8.762014122718624e-10, 9.370974696569253e+02, 9.442548640234440e+02, -1.107165136075728e+02, 1.568410793460444e+03, -1.812185803490456e+02, 6.338830511046609e+01, 7.358249622705226e+02
6344, 6.254383925051081e-01, 8.887384911487628e-01, -2.793231205059828e-02, -1.279878851567791e-09, 5.687901961041065e-10, -4.078711675287191e-09, 2.956179990202651e+03, 2.269708820907500e+03, 3.556520148008244e+01, 3.920966906189194e+03, -3.143734731588909e+02, -2.243349904208923e+03, 4.178815374308810e+03
6345, 7.131910713185061e-01, 4.771443722597360e-01, -2.388735086545073e-02, -6.271303164995465e-10, 3.252940131142541e-10, -1.107906222695233e-09, 1.273551389479463e+03, 1.304264136655753e+03, -1.391018643430957e+02, 2.099838697703388e+03, 4.288630741304469e+02, -7.391999388996092e+02, 1.705105474577799e+03
6346, 1.030782689599381e+00, 7.986321288250373e-01, -5.737471657116456e-03, -5.199662876202753e-10, 7.837547914340361e-11, -1.881499792853132e-10, -2.741884564729259e+03, -2.407456955864112e+03, -1.735559428380677e+02, -4.987869904214265e+03, 2.021352114173251e+03, 1.578249961660405e+02, 4.281366110241995e+03
6347, 1.049035641022505e+00, 8.060345455281800e-01, -4.538990088589564e-03, -5.113421341593234e-10, 3.211000578210203e-11, 6.058416857359234e-09, -9.952992048065622e+03, -1.061016862570702e+04, -3.042586993029352e+01, -2.048146351248071e+04, 5.090328413104153e+02, 1.167421083392965e+02, 1.025585365765732e+04
6348, 7.181128230606767e-01, 5.166342884346947e-01, -2.382428605884151e-02, -7.775256406588972e-10, 2.762462456660898e-10, -9.639001504054779e-10, 1.221670162936518e+03, 1.200688531063510e+03, -1.572651442383623e+02, 1.801183929210605e+03, 3.669181030251106e+02, 5.614361714828938e+02, 1.331221605291252e+03
6349, 7.531035572291783e-01, 1.010787117748097e-01, -1.884738172669370e-02, -4.447474321675724e-10, 7.082700006718501e-11, -4.278776816517847e-11, 2.284495119597994e+02, 1.967178248455693e+02, -9.919090801339119e+01, 2.158841380837527e+02, -4.180792516002611e+00, 7.289143068261750e+01, 2.151150758363471e+02
6350, 9.944169557694162e-01, 9.097677755375995e-02, -2.453450643544428e-03, 3.487338138526204e-11, -1.050209380707813e-10, 1.408628809684889e-11, -2.908013718799907e+02, -7.610907548317205e+02, 1.708236048541466e+02, -5.384829528809065e+02, -7.914158666260319e+01, 3.696985955399261e+02, 8.260748695874388e+02
6351, 7.637026239479612e-01, 1.022127234154520e+00, -2.322406225307942e-02, -7.058525418718237e-10, 1.396266007458193e-10, -3.064440879300072e-09, 4.006590401414779e+03, 4.008277264879616e+03, -1.424431827328831e+02, 7.937201094919514e+03, 2.909555418237813e+02, 1.484215060079138e+03, 4.729333088544413e+03
6352, 1.051911199778488e+00, 1.106938194132048e+00, -6.746230392154728e-03, -3.165551598140097e-10, 3.558877279944918e-11, 1.528681232529420e-10, -9.614732822160624e+02, -8.704364014048437e+02, -6.849901153403726e+00, -1.390280594237713e+03, 1.986058992823302e+02, 2.846091419633934e+02, 7.698580835846589e+02
6353, 1.068015572531786e+00, 1.095423727060349e+00, -5.565985575485956e-03, -3.915957666859330e-10, 1.076226023829556e-10, -1.743585527633006e-10, -2.088760204138912e+03, -1.721677714794921e+03, 1.139497722943220e+02, -3.710296211533184e+03, 1.753856893011222e+03, -1.536311032223664e+02, 3.563308750915787e+03
6354, 1.086216870076127e+00, 1.103085019900114e+00, -4.381558958106757e-03, -3.571232291025918e-10, 3.513560056949294e-10, 5.193833869286676e-09, -7.869710491450192e+03, -8.503111956594033e+03, -2.372311047579598e+02, -1.551017714787149e+04, -2.438531368490857e+02, -9.684430753353800e+01, 7.369790409321321e+03
6355, 1.101718481119710e+00, 1.091678011307621e+00, -3.212891054893888e-03, 1.648018864970064e-11, 7.712357309417578e-11, -5.790003397435691e-11, -1.536657029984212e+03, -1.953804985896106e+03, -1.002262833725910e+02, -3.958675758653702e+03, -1.159067643957169e+03, 6.181575423263386e+02, 3.199476918520991e+03
6356, 1.088509959512466e+00, 1.122481924578720e+00, -4.380394297872185e-03, -2.195371430209600e-10, -1.733897955495583e-10, -6.583981129329911e-11, -1.811077302066012e+02, -8.642799046803864e+02, -2.069965469744704e+01, -1.163087024007093e+03, 2.399871038626835e+02, -9.100064492735052e+02, 1.848931771139036e+03
6357, 8.190408681163165e-01, 7.241524152879326e-02, -1.430725376672760e-02, -3.385743529195879e-10, 3.433209419587526e-11, 3.681508500970297e-10, -4.883034665384561e+02, -5.939978498528153e+02, -7.687958086463875e+01, -1.120770309975380e+03, -1.693626111116648e+02, -1.609656064480599e+01, 6.699979160494829e+02
6358, 4.274725414071422e-01, 4.124262913527225e-01, -3.555103013669213e-02, -1.758388216042862e-09, 1.225045852395407e-09, -5.755015328272887e-09, 3.963373248538087e+03, 4.610126442646897e+03, 2.032022219538786e+02, 6.370925582191501e+03, 4.154191005795869e+02, -2.352567739826507e+03, 4.680045213394067e+03
6359, 5.216321187117001e-01, 7.513487493816079e-01, -3.038619585474928e-02, -1.445484235278241e-09, 9.804104582982797e-10, -5.932725259426043e-09, 3.801320457318636e+03, 3.002672435929197e+03, -8.354736855075108e+02, 6.509761973606547e+03, 3.128031266275479e+03, -2.275149978166008e+03, 7.557333887199729e+03
6360, 8.031250326387931e-01, 8.470267460607842e-02, -1.545318566167610e-02, -5.324957510830870e-10, -3.073372724153461e-12, 1.292382525870281e-09, -7.169036960240439e+02, -7.626102028833010e+02, -9.443257446222708e+01, -1.672013141512039e+03, 1.418796733152077e+02, -4.929587981101243e+01, 9.823954045932471e+02
6361, 8.379249372120311e-01, 6.422513304111237e-01, -1.728547929422301e-02, -5.226233830736036e-10, 1.693542787505719e-10, 1.086468127305149e-11, 1.051867080072207e+02, 2.761777773032772e+01, -2.660058510946433e+01, 6.193894621819118e+01, 2.619413807480398e+02, 4.821515205793204e+00, 4.610477203944539e+02
6362, 5.754157652620214e-01, 9.049630087023515e-01, -2.780430283568672e-02, -1.449991589325682e-09, 9.656140333965673e-10, -5.535742082288234e-09, 6.000733006482133e+03, 5.141292913411796e+03, -2.190035099913301e+02, 9.379305312869699e+03, -3.643913972482533e+02, -1.410170463259288e+03, 4.643817577186926e+03
6363, 7.279199829525486e-01, 5.955281936854078e-01, -2.368935505171479e-02, -5.840128250501510e-10, 4.341916778600122e-10, -1.615523949937612e-09, 1.488212962644510e+03, 1.912353244393310e+03, -7.741468486802071e+01, 3.275354069729149e+03, -3.368659892105239e+02, -8.134518023554846e+02, 2.226947792647165e+03
6364, 3.627089550855740e-01, 3.102554375334722e-01, -3.741155652605899e-02, -1.734569235133618e-09, 5.571805170557790e-10, -8.916818864774939e-09, 6.800500424148034e+03, 5.871283454928415e+03, -3.383987117017510e+02, 1.320704897635945e+04, -1.124702376926382e+03, 3.443441522821536e+03, 9.357919538769411e+03
6365, 3.810296397446935e-01, 3.180006592913519e-01, -3.715464999480696e-02, -1.983035503456914e-09, 9.519011870087260e-10, -6.444149026187010e-09, 3.275103096697636e+03, 3.533631003003691e+03, 3.422447790439579e+02, 3.463852465619504e+03, 3.529002606483641e+02, 2.244899536325027e+03, 3.987154129986198e+03
6366, 3.969038018444198e-01, 3.060010655760920e-01, -3.702347028077019e-02, -1.016812683101925e-09, 1.185725794193340e-09, -6.142526818341129e-09, 4.278511643493014e+03, 2.114230152500240e+03, 6.192874083670738e+02, 3.616465592004516e+03, 1.358433799535883e+03, 8.204010934606700e+02, 3.520698373793033e+03
6367, 4.152158003724479e-01, 3.137543848709556e-01, -3.658105466327424e-02, -7.181790164936981e-10, 1.734899797340006e-09, -7.322086802149625e-09, 6.114339739368585e+03, 5.993838669582184e+03, -1.171057576046843e+02, 1.277442356477114e+04, -2.493086696336676e+03, -2.403370319399722e+03, 9.010545825492276e+03
6368, 6.022446187250512e-01, 8.415345472049673e-01, -2.874766641108322e-02, -1.372053559493342e-09, 1.166015663382771e-09, -5.828634805168493e-09, 5.190576552326229e+03, 4.555196421751938e+03, -4.938699111133340e+02, 7.040805485727363e+03, -2.589592165414474e+03, -1.017754921040415e+03, 5.381432353227469e+03
6369, 6.205558615067879e-01, 8.492770705711434e-01, -2.833665928317875e-02, -1.060972558856225e-09, 1.532856164692428e-09, -5.619090978003065e-09, 4.954844306826279e+03, 4.828670209480433e+03, -3.064172658589314e+02, 7.578265399708082e+03, 3.205275527312596e+03, 1.541696070023262e+03, 6.742610360918287e+03
6370, 9.008856871042523e-01, 3.134547037116237e-01, -1.070620765911266e-02, -1.046891432045978e-09, -9.953478445140977e-11, 3.475455907551982e-09, -2.858285452965898e+03, -3.105473001210319e+03, 1.878689037043915e+02, -6.287608632823460e+03, 6.997877484048804e+02, 1.016843365790373e+02, 3.546785182845905e+03
6371, 8.825738196767270e-01, 3.057058313076955e-01, -1.187115232865237e-02, -4.965805273605100e-10, 6.567238466460944e-11, 8.457056301191242e-10, -1.717511901718814e+03, -1.387158685691005e+03, -1.804183307907417e+02, -2.041633673280929e+03, 8.953419875498029e+02, 2.969416351932161e+01, 1.681211532219203e+03
6372, 9.378279523226855e-01, 6.096607306586809e-01, -1.052797557530660e-02, -2.922847951432323e-10, 1.636410688713322e-10, 5.551973916990894e-10, -8.570445856310444e+02, -5.395840729729852e+02, -1.444603233132344e+02, -1.026982290827333e+03, 9.462799441805491e+02, 3.928926715005368e+02, 1.842727874381580e+03
6373, 9.536708613998770e-01, 5.975794734610760e-01, -9.375177545164350e-03, -4.353065085777613e-10, 4.585030633611268e-11, 4.832761050438546e-10, -1.013622968211565e+03, -1.156023826764353e+03, -8.749867785946100e+01, -1.981032169011864e+03, 2.301574305372583e+02, 9.649731101189593e+02, 1.947768815767874e+03
6374, 5.639637259796549e-01, 1.146333145805144e-01, -3.050681299032547e-02, -2.737066589637462e-10, 5.986916614759603e-11, -3.161348003274842e-09, 1.209526894650524e+03, 1.929279134845973e+03, 5.803381518949089e+01, 2.319883863350555e+03, 1.039279631899953e+03, -1.106898915645667e+03, 2.806748978605661e+03
6375, 5.456408454012053e-01, 1.068842131704525e-01, -3.147113204021745e-02, -6.370847495142943e-11, 9.432219870898991e-11, -6.269668175984655e-09, 3.603587521031678e+03, 3.330240726996408e+03, -2.872465813881045e+02, 5.495379782419373e+03, -9.510567377593028e+01, 7.982381199325488e+01, 2.112935012176374e+03
6376, 5.481074895256280e-01, 1.266488433548408e-01, -3.142155100738058e-02, -6.170815629585648e-10, 5.597008103000821e-10, -3.233726077279821e-09, 2.303615402964940e+03, 2.205578569556058e+03, -1.963557006041328e+02, 2.399094369108354e+03, -5.778337194017353e+02, 8.392050137399044e+02, 1.805055450602346e+03
6377, 8.850316721107450e-01, 3.254793137991550e-01, -1.185956418692608e-02, -5.403762756115429e-10, -3.890791581189544e-11, 8.603794028534358e-10, -1.154172448781340e+03, -1.389909966446147e+03, 2.388899634083117e+02, -2.094194406673157e+03, 7.964403286143647e+02, -4.806609477390543e+02, 1.866782443316753e+03
6378, 9.255063442572111e-01, 5.109343156422819e-01, -1.058898203968240e-02, -5.489418877407589e-10, -1.327033843312560e-10, 1.237978775311654e-09, -2.454207780136832e+03, -2.445508163512316e+03, 9.802387372742015e+01, -4.764859571049168e+03, 3.773282029898106e+02, 1.172442446987309e+02, 2.420017265110017e+03
6379, 9.413436943315335e-01, 4.988992247126376e-01, -9.433945998491792e-03, -5.957403631643334e-10, 3.924538814406854e-10, 3.818298526734260e-09, -5.072662776946078e+03, -4.775488297970465e+03, 2.210568188046845e+02, -1.120054180491133e+04, 5.606499906273455e+02, 3.093159182431218e+01, 6.368101537130342e+03
6380, 4.153399815062899e-01, 5.942210516849903e-01, -3.195117266878204e-02, -1.131919044292987e-09, 1.960598026310687e-09, -1.970903839258596e-08, 1.332745053491823e+04, 1.206272747332367e+04, -1.772542620346454e+02, 2.831729384984638e+04, 7.895954853940194e+02, 5.881441490521388e+01, 1.572348387847928e+04
6381, 8.452829516189728e-01, 7.014970921351773e-01, -1.723252140922880e-02, -4.385860782717297e-10, 1.507719906735796e-10, -8.195414182025240e-11, 3.809704448158395e+02, 4.246949547759841e+02, -1.815724844163466e+01, 3.822012145883220e+02, 1.437560373516253e+02, 1.466303681627956e+02, 3.596489666341647e+02
6382, 8.610898245157282e-01, 6.895613271294239e-01, -1.614216614246285e-02, -4.899316548119386e-10, 1.076288741841765e-10, -1.901209389796939e-11, 1.516099395215654e+02, 2.462967878650585e+02, 3.283334861588673e+01, 4.057640300707444e+02, 3.979721907344659e+02, 1.535109204592878e+02, 7.736739231763833e+02
6383, 8.653875610139116e-01, 1.671941493216108e-01, -1.194917645871730e-02, -4.671413869214053e-10, -3.342801300899055e-11, 1.215572031839951e-09, -1.206938437686929e+03, -1.059952634753223e+03, -7.151027857514332e+01, -2.443702214555847e+03, -1.794449805609756e+01, 2.663122215219632e+02, 1.400731935694538e+03
6384, 6.464277271311788e-01, 1.196556825261932e+00, -1.997041372322834e-02, -4.056278158476478e-09, 1.193659930916301e-09, -1.350826842667360e-08, 1.076963085382309e+04, 1.319131548102327e+04, 2.798904277187530e+02, 2.937580770454156e+04, 2.452547765729793e+03, -1.429366896372735e+02, 1.803711066826820e+04
6385, 9.329051507111052e-01, 5.702183127509668e-01, -1.055248945879376e-02, -3.449863101320628e-10, 5.838569324451962e-11, 2.886607155991121e-10, -9.353397375906106e+02, -1.078883550818535e+03, -2.521684183046229e+01, -2.061668294678703e+03, -3.934482182881598e+02, 2.989451647982827e+02, 1.364536607139264e+03
6386, 6.179354807156796e-01, 5.490212339795065e-01, -2.915643496940889e-02, -9.139833938554862e-10, 4.938279369897814e-10, -2.860089033230572e-09, 2.805030594221669e+03, 2.651238714366685e+03, -4.736159360086496e+02, 4.244679816566982e+03, 1.611403898599031e+03, -7.024459395370499e+02, 3.501534351915717e+03
6387, 5.947266434679221e-01, 5.017746474814322e-01, -3.011512734200399e-02, -9.293234935499167e-10, 5.559951893191094e-10, -2.750128293961216e-09, 2.487016617334589e+03, 2.512704091548058e+03, -2.871302223615551e+02, 2.308882511138207e+03, 3.105303638279922e+02, 5.697375241790988e+02, 1.243940744212570e+03
6388, 6.106495332187745e-01, 4.896714191566754e-01, -2.940456009724412e-02, -5.345377865725384e-10, 4.538465112845692e-10, -2.787826708144358e-09, 1.728424376596365e+03, 1.448618230868610e+03, -3.546253294671262e+01, 1.584134117886409e+03, 1.136958747692924e+03, 5.899880578249548e+02, 2.232665209455614e+03
6389, 7.353230074426449e-01, 6.547991777739146e-01, -2.357482670371681e-02, -6.590992155170201e-10, 1.106416631113593e-10, -1.601050162805511e-09, 1.549754895805290e+03, 1.777738047686742e+03, -1.193131438766043e+02, 2.016293744908548e+03, 2.953055302301142e+02, -8.919001128629018e+02, 1.689394033197668e+03
6390, 9.956217709569142e-01, 9.334261295463204e-01, -9.167575825040457e-03, -4.477116756502921e-10, 1.167556195673653e-10, 3.958713751234447e-10, -6.942722615451676e+02, -9.396285283163257e+02, 1.441679309983643e+01, -1.288393497378347e+03, 1.827755017348695e+02, -6.051325624900303e+02, 1.211118825924496e+03
6391, 7.683523570000207e-01, 7.809714324267687e-01, -2.234694210837472e-02, -4.648396239822370e-10, 1.935031469674290e-10, -1.637781939059875e-09, 1.677774949085987e+03, 1.170538018048202e+03, -1.278445583843462e+02, 2.376512992819495e+03, 8.809602263712250e+02, -4.036333334643427e+02, 1.991485615612648e+03
6392, 7.451391163584989e-01, 7.337873085991240e-01, -2.340675537781379e-02, -4.768403546833403e-10, 3.494722223807578e-10, -1.786596248788544e-09, 1.372047577263907e+03, 1.056202673975837e+03, -1.519586521431325e+01, 1.779305215721745e+03, 1.078514895283435e+03, 1.699064535527364e+02, 1.992768809051242e+03
6393, 6.228450406596124e-01, 5.885305334589463e-01, -2.896983627560054e-02, -9.500906221363079e-10, 5.138581614091421e-10, -2.522511571916110e-09, 2.419915051749568e+03, 2.323790732905087e+03, 1.751125763077799e+02, 2.746121155507743e+03, -7.840722106599532e+02, -3.328444744227268e+02, 1.554240623752094e+03
6394, 4.897544977685113e-01, 4.948393373219488e-01, -3.367359709437530e-02, -1.199309249303875e-09, 1.058726559633270e-09, -4.676996966740680e-09, 2.973954729720277e+03, 2.577220125720283e+03, 2.004052453984165e+02, 4.726022075771210e+03, -1.883035181397307e+03, -5.017413158377828e+02, 3.928794775776826e+03
6395, 9.427610672607488e-01, 6.491837507059776e-01, -1.050321957702255e-02, -4.757640122332004e-10, 4.871016239324100e-11, 2.938752693846246e-10, -6.582966731009609e+02, -6.640560747991289e+02, 2.203193843737047e+01, -7.908988482910733e+02, 3.217268718543762e+02, 5.138755379069198e+02, 1.058790707794042e+03
6396, 9.586062599896454e-01, 6.370744755815729e-01, -9.351288731822676e-03, -5.380223851975650e-10, 1.517631808040616e-10, 4.822749067609168e-10, -9.223549427290508e+02, -1.180250252998273e+03, 2.919271339101924e+01, -1.973940275027346e+03, 4.683154689774811e+02, -7.404922702223860e+02, 1.790710463025677e+03
6397, 6.277535482424655e-01, 6.279911201617089e-01, -2.876742579424061e-02, -8.423314036306798e-10, 4.911896424119730e-10, -3.392744837317979e-09, 3.159511822960862e+03, 3.459370513689867e+03, -9.833234423853278e+01, 6.357594749395867e+03, -4.771627488673347e+02, -2.228427844742649e+03, 4.996839928771037e+03
6398, 6.460753480986128e-01, 6.357220789742375e-01, -2.801238055780868e-02, -1.092290961764735e-09, 3.532707092593103e-10, -2.639701584705360e-09, 2.313798668135629e+03, 2.070167448673871e+03, -2.859066602662633e+01, 4.014299537775764e+03, 1.552933466280785e+03, -2.906259932252544e+02, 3.294845097081210e+03
6399, 6.620111696656876e-01, 6.237001682338100e-01, -2.727541106152814e-02, -1.026428832923892e-09, 3.151611837234140e-10, -2.292498430899164e-09, 2.337782189625730e+03, 1.918494697388987e+03, 5.410547722660146e+01, 2.625482031111557e+03, -4.575674588120833e+02, -3.275747647553399e+02, 1.156721215588784e+03
6400, 6.828039697083608e-01, 9.317483506029027e-01, -2.625171187279147e-02, -7.620727061129614e-10, 4.977188010648691e-10, -3.498954479675335e-09, 3.183242399804079e+03, 2.535909709778053e+03, -5.139093705034364e+01, 3.506487266604357e+03, 1.324252537142009e+03, -1.363803219045198e+03, 3.403161606080441e+03
6401, 7.732691610861782e-01, 8.204568927191993e-01, -2.226111618525310e-02, -4.751005816374194e-10, 3.382780934354443e-10, -1.099288296973611e-09, 1.399196870198716e+03, 1.247063732724520e+03, -7.659319932331937e+01, 1.703760042949176e+03, -5.000563926044729e+02, -2.893642297255425e+02, 1.086830751763449e+03
6402, 7.891477582059501e-01, 8.084934982605060e-01, -2.131209747066773e-02, -4.427606298286315e-10, 3.494750070491356e-10, -1.089881166450845e-09, 1.514284507706983e+03, 1.430580557132495e+03, 1.339858849595880e+01, 2.250917102469166e+03, -2.785511263297948e+02, -9.682593684022626e+02, 1.912376102984834e+03
6403, 8.050980910029375e-01, 7.965452786876810e-01, -2.031754444988359e-02, -5.197200134904655e-10, 2.626891713312293e-10, -8.501540491324784e-10, 9.690270147316363e+02, 1.057235819388506e+03, 9.287353635587708e+00, 1.412000809367054e+03, 1.370853701408821e+02, 5.417895502263543e+02, 1.049845749703097e+03
6404, 4.971127880752256e-01, 5.540445280594304e-01, -3.309836597237001e-02, -1.192578369409043e-09, 8.892069203152050e-10, -5.541240540463514e-09, 3.567830408789876e+03, 2.699326636668552e+03, 1.268471387549321e+02, 5.617977045149833e+03, 2.402936018648122e+03, 6.144218205175050e+02, 5.024049935999046e+03
6405, 5.154490914856786e-01, 5.617967030427906e-01, -3.264303029133505e-02, -1.260156246431296e-09, 1.025825088861583e-09, -5.738150526156330e-09, 5.442164804208889e+03, 5.930350667381354e+03, -1.252498193941106e+02, 1.078966688689052e+04, -3.298967051703687e+02, -4.096324732399148e+03, 8.771357707963558e+03
6406, 7.965573046638643e-01, 8.677202265915442e-01, -2.119521109403240e-02, -6.117982332778454e-10, 3.224360704041074e-10, -1.222352022372938e-09, 1.514926720072714e+03, 1.940581740082104e+03, -1.015216880551494e+02, 3.283891931963796e+03, 1.048160075717498e+03, -1.254048119150152e+03, 3.256101939763216e+03
6407, 9.501676404050801e-01, 7.084589291794622e-01, -1.046521248762513e-02, -4.063002420149503e-10, -6.258144501020296e-11, 2.796799698464677e-10, -8.076152588490352e+02, -8.775657925478652e+02, 1.769991134564791e+01, -1.125025109644886e+03, 6.061438124023016e+02, -3.786956319405047e+02, 1.271550656309349e+03
6408, 8.344884938295056e-01, 1.033355017039070e+00, -1.987777351126963e-02, -4.312526575816704e-10, 2.840510412304968e-10, -1.221791928715256e-09, 1.544736863411159e+03, 1.183429185591727e+03, 1.159983140626569e+02, 2.183741106466551e+03, 1.076691048806561e+03, -6.517564148030742e+02, 2.358445196080820e+03
6409, 8.503265668407500e-01, 1.021347041875703e+00, -1.893688677366435e-02, -4.527336903667912e-10, 3.834575981096344e-10, -7.279576414976359e-10, 1.198457015099092e+03, 1.093258621019148e+03, 7.425180481238306e+01, 1.210394672382835e+03, -4.298373847050929e+02, -6.705191344238153e+01, 7.725111215164700e+02
6410, 8.479520613598809e-01, 1.001570299445062e+00, -1.896809659863899e-02, -6.023846871998971e-10, 1.798116265241171e-10, -1.020433288053521e-09, 1.197372485233475e+03, 1.236063638685617e+03, 1.739807141095210e+02, 1.480377075997633e+03, 9.968854229260957e+02, 5.247739874839162e+02, 1.992222766031258e+03
6411, 1.033163488771305e+00, 8.180924750318652e-01, -5.730550248517601e-03, -5.806250753051278e-10, 3.018026442633532e-10, 1.847000470708806e-10, -2.703064590490207e+03, -2.985195244664591e+03, 8.896905621981256e+01, -5.134947995266404e+03, 1.600880400321339e+03, -6.680944977837175e+02, 3.789300353071132e+03
6412, 5.252377370002489e-01, 6.407313307730700e-01, -3.185406433066702e-02, -1.129201241947848e-09, 4.176082050993921e-10, -7.525655897045395e-09, 5.330832946835313e+03, 5.798678010814476e+03, 1.301319229730885e+03, 7.766687096604353e+03, 2.986358318175237e+03, -6.399907441670156e+02, 6.170634471977571e+03
6413, 5.410700298579580e-01, 6.288014617849133e-01, -3.161391792142738e-02, -1.426845985119374e-09, 3.982057067690198e-10, -4.575260548580393e-09, 4.682848367078955e+03, 3.545063443757825e+03, -2.068048329501129e+02, 5.509889058040880e+03, -1.425229719675511e+03, 9.879051505551250e+02, 3.474127085068540e+03
6414, 5.228502779258930e-01, 6.209563348519626e-01, -3.206457745492688e-02, -1.373819318053346e-09, 4.884737970349236e-10, -5.858131936597801e-09, 4.294500229803323e+03, 3.055916610503649e+03, -5.168583999882362e+02, 5.457782187909413e+03, 3.057386781389573e+03, -2.099063928250223e+03, 6.811065556034218e+03
6415, 9.575670180189755e-01, 7.676918553509943e-01, -1.042689382283291e-02, -4.420687200109434e-10, 2.211037380842610e-10, 4.358244243298302e-10, -1.345789459252445e+03, -1.228987735444386e+03, 5.473088761099907e+01, -2.485342289997512e+03, 1.725192135693875e+02, -6.558782271504011e+02, 1.683487102897652e+03
6416, 8.014496858448250e-01, 9.071730796242138e-01, -2.111249066875185e-02, -5.790119082630220e-10, 3.451988135023961e-10, -1.120176590357192e-09, 1.723093372184762e+03, 1.309627381063249e+03, 1.238270014883658e+02, 2.067606728125957e+03, -5.895605678168529e+02, -3.827650153191637e+02, 1.400128448938887e+03
6417, 5.509033469527124e-01, 7.076678846526195e-01, -3.081911758086314e-02, -9.380957761310638e-10, 7.154894047561620e-10, -4.779872339601568e-09, 5.068891180155350e+03, 4.358456159878701e+03, -9.097687130628885e+02, 8.559441537704732e+03, -2.502227381525669e+03, 2.314590257667916e+03, 7.246165610425577e+03
6418, 5.667400034116021e-01, 6.956926338340379e-01, -3.058427934386151e-02, -3.729504773861428e-10, 9.246211844484301e-10, -1.303131275999835e-08, 1.106206097138576e+04, 1.075779855111746e+04, -2.161753643867769e+02, 2.402843749584370e+04, -1.221692725359189e+03, -2.231701863629703e+02, 1.330157458364148e+04
6419, 5.826161789395237e-01, 6.836951093759803e-01, -3.022090214583490e-02, -1.224339140049614e-09, 7.535063178363794e-10, -5.207683098357857e-09, 4.820561530620376e+03, 5.493474687732752e+03, -6.197526687924034e+02, 1.081000036151092e+04, 2.816362135089964e+03, 6.032102773620132e+02, 7.637759651131035e+03
6420, 6.009695349200276e-01, 6.914481158591790e-01, -2.962533207939103e-02, -1.145585281187751e-09, 7.075658235046203e-10, -4.461029947688186e-09, 3.824543308971629e+03, 3.428202132446419e+03, 3.152023689640050e+02, 4.468318062474344e+03, -1.209930716681437e+03, -1.322116801143831e+03, 3.280323128898598e+03
6421, 5.802259609006922e-01, 6.639776243144022e-01, -3.037009387468005e-02, -3.461373667504975e-10, 9.498702449226027e-10, -1.011530055854427e-08, 7.326444062871485e+03, 7.739860381399742e+03, -9.772145884431468e+02, 1.413199630710310e+04, -2.539034677766919e+02, -5.565785749272449e+02, 6.903659402496546e+03
6422, 4.642471174265647e-01, 7.083701341919136e-01, -3.012161689953897e-02, -1.643784051789616e-09, 1.304681635343079e-09, -7.040694692685681e-09, 4.606661291586040e+03, 5.812620210538087e+03, 4.668438947383144e+02, 6.415750733711275e+03, -4.777342339517432e+02, -3.608868226247936e+03, 6.554064636559021e+03
6423, 4.115926498309374e-01, 4.244201632909331e-01, -3.558741732358701e-02, -1.408102351532091e-09, 1.037767036520263e-09, -7.641645323538338e-09, 4.459117704934773e+03, 5.916576390044544e+03, 5.938279003017758e+02, 7.609564592292937e+03, -1.864175131281573e+03, -3.019446001492016e+03, 6.803848850796458e+03
6424, 8.063216749824695e-01, 9.466366199295231e-01, -2.102430295990813e-02, -5.954710194491363e-10, 2.491285760109002e-10, -1.383746036726991e-09, 1.588885999081882e+03, 1.950420058652804e+03, -2.523053333301714e+02, 2.921017252763425e+03, 1.067107855319174e+03, -8.252890828081090e+02, 2.659719423581961e+03
6425, 8.222490432449727e-01, 9.347038103014143e-01, -2.008435851109580e-02, -5.155303131492942e-10, -1.347783105008870e-11, -1.585293874468657e-09, 2.116030145410880e+03, 1.915942366873612e+03, -1.752939851586161e+02, 4.303671661882366e+03, -2.919271861962656e+02, 6.647811890016571e+02, 2.633852944366383e+03
6426, 6.645251470604864e-01, 9.239513991358386e-01, -2.681371944267510e-02, -9.682617658514853e-10, 5.673038049523391e-10, -3.474236972711783e-09, 2.275852286437007e+03, 1.639442881698624e+03, -7.473263564435716e+01, 3.368500175089956e+03, -2.357842601759353e+02, -1.414777441543718e+03, 2.912488783026923e+03
6427, 8.295465198775716e-01, 9.938186234663462e-01, -1.996768437513097e-02, -8.260888211368976e-10, 4.937344109626413e-10, -4.271083296707091e-09, 3.026849736697695e+03, 3.136641361829154e+03, -5.307749574794536e+01, 5.822325001806355e+03, 2.198062421017474e+02, -1.823461191066264e+02, 2.788003357554883e+03
6428, 9.649562235293982e-01, 8.269713039807585e-01, -1.038909566227749e-02, -4.603792818020573e-10, 1.372499301502904e-10, 9.554331766554145e-10, -1.080416786423265e+03, -1.093826542406020e+03, -1.248299522107885e+01, -1.806685818132080e+03, 2.677709761281408e+02, -6.498262248933659e+01, 8.637980224783023e+02
6429, 6.914101482382675e-01, 8.605339406823651e-01, -2.612261866637824e-02, -7.437005797881531e-10, 5.146654304970037e-10, -3.134795111271323e-09, 3.191515439708885e+03, 2.474082040653823e+03, -5.439231256824396e+02, 2.510039877204892e+03, -1.300127619460610e+03, 6.774617527639018e+02, 2.797431349501333e+03
6430, 5.688893525307279e-01, 1.541457905719683e-01, -3.041839587272076e-02, -5.932661036656586e-10, 2.996112419051644e-10, -2.226872750406335e-09, 1.251264585372880e+03, 1.567282033670730e+03, -2.788846042363979e+02, 1.806351913272516e+03, 2.299768944187752e+02, 9.037037121599785e+02, 1.753456834294216e+03
6431, 9.117668997053217e-01, 2.618851207653052e-01, -9.569800069591784e-03, -5.464357539054608e-10, -3.025255300655147e-11, 3.536219065575439e-10, -1.299502441923442e+03, -9.542523127625020e+02, -1.301290561225103e+02, -1.827710855042937e+03, -1.479800876701262e+01, 3.320046352245622e+02, 9.811751589769575e+02
6432, 8.593407248911158e-01, 2.584231171345812e-01, -1.305415880288584e-02, -6.894753447379930e-10, -2.942419384498569e-11, 3.043208453407014e-09, -2.337266704581944e+03, -2.517966661901078e+03, -5.351512529324897e+01, -5.759317155428745e+03, 2.875598145184428e+02, 7.004869835654731e+01, 3.375811220938077e+03
6433, 5.790169600924830e-01, 7.943339980535393e-01, -2.955607650215891e-02, -1.265342472930053e-09, 7.666899008192878e-10, -1.391285928155263e-08, 1.207618526551537e+04, 1.156685752305572e+04, -5.178751373941750e+02, 2.508609048802680e+04, 1.769371187937628e+03, -1.057777767285786e+03, 1.377304043758537e+04
6434, 5.948496990333845e-01, 7.823304168607917e-01, -2.936845898035515e-02, -1.719298221720558e-09, 1.271415129460820e-09, -5.058198399204587e-09, 5.714744888142006e+03, 5.071850286142681e+03, -4.070991701811944e+02, 1.009579798070315e+04, 3.197670056183632e+03, -2.654178276542002e+03, 8.644648783619192e+03
6435, 6.046779237147522e-01, 8.612671752694517e-01, -2.851756584358655e-02, -1.442489548035225e-09, 2.346963435322476e-10, -1.293550546007536e-08, 1.042090481651334e+04, 9.098292515361478e+03, -1.766557263224013e+02, 2.176571084819787e+04, 5.269573807934739e+02, 7.414056584319590e+02, 1.216693997021857e+04
6436, 9.995058913535484e-01, 1.103392634701144e+00, -1.019835942312469e-02, -4.398213948210322e-10, 1.013226493437617e-10, 1.705945368081996e-10, -2.565746865710978e+02, -3.508931529535537e+02, 1.556219053129505e+01, -6.270116769165144e+02, 2.498967393186641e+02, -7.921626395592789e+01, 5.639838861264568e+02
6437, 8.393706722330152e-01, 1.072819284903511e+00, -1.978270350771108e-02, -3.674582786831272e-10, 3.835764040129070e-10, -1.389903626330146e-09, 2.729178949120783e+03, 2.038966601528768e+03, -4.078229130076998e+01, 3.732115859230929e+03, -1.119323890513355e+03, -3.534189444569261e+02, 2.512543994046631e+03
6438, 8.126261060504334e-01, 1.136297488103098e+00, -2.122907933145398e-02, -5.683799099830818e-10, 3.486370458694543e-10, -1.603518891564329e-09, 2.675549747120609e+03, 2.252494831388753e+03, -1.180937460215059e+02, 2.830212740517810e+03, -1.146154196306346e+03, 1.014844868403292e+03, 2.709410284055103e+03
6439, 6.743033920868899e-01, 1.002877251327803e+00, -2.607560110762222e-02, -1.005543540382155e-09, 5.119510206190346e-10, -6.243948782211501e-09, 6.459298871422525e+03, 4.857690030547174e+03, 3.600375756877388e+02, 9.646413221639777e+03, 4.540923830591276e+03, -2.747940176505615e+03, 1.013556775889230e+04
6440, 6.901485897864532e-01, 9.909176493097116e-01, -2.578540811497722e-02, -7.371746984897047e-10, 7.004096631809139e-10, -3.433819727216660e-09, 2.968061335892264e+03, 2.857196361043019e+03, -4.931136204929335e+02, 3.601230697524578e+03, -6.673232522743297e+01, 1.053027162365110e+02, 1.122274259033398e+03
6441, 7.024057201368368e-01, 1.089543618969386e+00, -2.482817950407391e-02, -9.449568949079494e-10, 6.544945536278714e-10, -3.873426849854211e-09, 3.886655026664942e+03, 3.687128380822719e+03, -2.797667998942804e+02, 5.277029850911011e+03, -3.242584590816784e+02, -2.572575759609916e+03, 4.759731821024013e+03
6442, 7.183132368551561e-01, 1.077557219172744e+00, -2.458389165974188e-02, -7.064070658388317e-10, 4.954304704663529e-10, -3.834139856395159e-09, 3.119867594416718e+03, 3.837318369636506e+03, 1.304711925460838e+02, 4.809864201881227e+03, 2.316367977304311e+02, 1.211286571844270e+03, 2.602309601833177e+03
6443, 6.975073632997212e-01, 1.050006739328130e+00, -2.524496308378907e-02, -1.091753554483300e-09, 6.958640071275621e-10, -3.203352288792981e-09, 3.208602176058345e+03, 2.266573138598384e+03, -1.483465066464377e+02, 3.445491127046114e+03, -1.200320639278106e+03, -8.541210673802238e+02, 2.782730442490530e+03
6444, 7.256097875825189e-01, 1.136747618072795e+00, -2.401009273113314e-02, -1.478787898496961e-09, 9.912300030673943e-10, -4.044458149924139e-09, 5.624020512438314e+03, 4.741658300522285e+03, -1.630042535489240e+03, 4.157661199743884e+03, -4.352090236456607e+02, -1.772435597650769e+03, 4.427056944414609e+03
6445, 7.414981195295268e-01, 1.124744835176408e+00, -2.372658192894340e-02, -6.407805901752500e-10, 1.002324833215274e-09, -3.772796964607639e-09, 3.280329364653480e+03, 2.658329949407324e+03, -4.375357525546729e+02, 5.469400492936197e+03, 2.451736907163576e+01, -2.690742341456235e+03, 5.370001451744413e+03
6446, 7.576420232216405e-01, 1.112984977396875e+00, -2.329066244060640e-02, -8.723226482999287e-10, 7.715499100879709e-10, -2.707915827282344e-09, 2.242603557725964e+03, 2.768262327641838e+03, -1.107605706792231e+02, 3.411865420766950e+03, 1.358422172274821e+02, 9.010556576175370e+02, 1.885928053899457e+03
6447, 1.083204747733581e+00, 8.021014308569250e-01, -2.103444514066729e-03, -7.920859475516230e-12, -8.419677300516383e-12, -6.514631274065942e-12, 1.027983306831996e+02, 1.630936277199053e+02, 1.198640340827077e+01, 2.029020456873327e+02, 1.299926827881920e+02, -1.120727552317703e+01, 2.431514276764389e+02
6448, 4.385506187251618e-01, 6.414215728092176e-01, -3.131503224754720e-02, -1.104291012793966e-09, 7.316606431439987e-10, -6.962891169117841e-09, 6.017403417723476e+03, 4.383687441045722e+03, -9.924838276586013e+01, 8.657879647427631e+03, -2.036319396974769e+03, 1.989870776269343e+03, 6.188944071267293e+03
6449, 9.417503469212281e-01, 1.060062192864665e+00, -1.361746034196099e-02, -4.185704058005001e-10, 1.239517079806922e-10, -5.707771437806611e-11, 3.388659449272994e+02, 1.999527445949020e+02, -3.973865445461468e+01, 2.601807223322577e+02, 9.142063038226884e+01, -2.564306865726083e+01, 2.152700705031305e+02
6450, 5.961775428066285e-01, 9.324397111791308e-01, -2.749330863969231e-02, -1.369566000197769e-09, 8.422184106762381e-10, -4.228046539399373e-09, 3.714226865978923e+03, 4.218911454891927e+03, -1.231984441946117e+02, 4.433759352306047e+03, 6.376295328231462e+02, 2.011065945963368e+03, 3.715871785527071e+03
6451, 6.339647354929365e-01, 8.175523505718267e-01, -2.816112440361576e-02, -9.119078836591982e-10, 9.222587563624105e-10, -3.605698071384225e-09, 3.082957615339176e+03, 2.502827687995258e+03, -2.671253264643349e+02, 3.727558279608509e+03, 1.642991178439239e+03, -1.479522395723500e+03, 4.000662482795901e+03
6452, 9.128608257552401e-01, 1.313155634916276e-01, -8.460389675332244e-03, -3.051787366741658e-10, 2.664427809250148e-11, 4.130329121534022e-10, -1.468812532671443e+03, -1.851576824500451e+03, 1.012524064905543e+02, -3.498341528600397e+03, -2.406226757408751e+02, -5.317006692692726e+02, 2.131017595035110e+03
6453, 5.778488339241861e-01, 9.246557787453910e-01, -2.737054059503948e-02, -1.424867682768470e-09, 3.728578226210102e-10, -5.373871047144324e-09, 7.164605108904158e+03, 6.029695841957408e+03, -4.842697584968476e+02, 9.788531178749667e+03, 2.561084624292585e+03, -7.344555334999462e+02, 5.757622323848697e+03
6454, 3.700520217864354e-01, 3.694656036218239e-01, -3.650049870741513e-02, -1.457398040376107e-09, 7.648665730154125e-10, -7.903440704151621e-09, 3.367347781155737e+03, 4.974509556157454e+03, 4.522160020254247e+02, 7.430243118385668e+03, 6.463125539172827e+01, 3.464609753277090e+03, 7.014053690482777e+03
6455, 6.171325961760753e-01, 1.057304567321653e+00, -2.466627054737314e-02, -1.346345864654147e-09, 6.362044852403669e-10, -4.274231159120211e-09, 3.942504834378142e+03, 4.750402842499780e+03, 1.486124839239138e+03, 7.576845238393365e+03, -2.411644316544750e+03, -3.031526348015063e+03, 7.910069217690300e+03
6456, 6.325407100257107e-01, 3.869146501737861e-01, -2.798910643982991e-02, -7.730136202497254e-10, 3.383418868927282e-10, -5.681027738072584e-09, 4.285727661411964e+03, 4.060233285645572e+03, 1.675316450283087e+01, 8.198123250741755e+03, -3.114981844595277e+01, -9.964644029614078e+00, 4.030379756747337e+03
6457, 5.530221404553184e-01, 1.661593440491663e-01, -3.131914765961950e-02, -5.235700977732706e-10, 5.617025269571761e-10, -2.867216495870702e-09, 1.246985916401913e+03, 1.539950195133938e+03, -2.665301670230982e+02, 1.850876107334968e+03, 1.705655092478247e+02, -1.174716167168281e+03, 2.171142594569203e+03
6458, 3.689106234209391e-01, 4.998054554473738e-01, -3.320520214043018e-02, -1.997831785855604e-09, 1.703538766062479e-09, -7.180648800065689e-09, 2.300264945219738e+03, 3.126934434215595e+03, 2.130655883194170e+02, 4.674347764530971e+03, -2.914119522699341e+02, 4.902717367674278e+03, 8.766865815121821e+03
6459, 6.839467635719476e-01, 8.012790531742293e-01, -2.647040810728696e-02, -9.108905751959732e-10, 5.811968018688855e-11, -2.315917132513032e-09, 2.016661682122388e+03, 2.232090236478885e+03, -1.699814520912206e+02, 2.907371678905316e+03, 1.028499989656179e+03, -6.991733551287373e+02, 2.318304833998902e+03
6460, 6.999176529087434e-01, 7.893564035830873e-01, -2.581309797244976e-02, -9.803060702365490e-10, 2.020692752876516e-10, -2.471812787286179e-09, 1.997744399287124e+03, 1.485352208325241e+03, 3.407729602302403e+02, 2.215991209780908e+03, -1.730913054739947e+03, -3.248229865685965e+02, 3.174128848572246e+03
6461, 1.009258543025482e+00, 2.094978786140568e-01, -2.386293069682479e-03, 3.684616457623544e-10, -2.266201500157397e-10, -1.408244550993536e-10, -1.349938568250608e+03, -1.737770389231078e+03, -8.015454365941122e+01, -4.940159491266966e+03, -7.881504285349592e+02, 1.001458130088846e+03, 4.066850204360157e+03
6462, 3.945814291019420e-01, 5.667298179035044e-01, -3.198024882626645e-02, -2.781936906350749e-09, 1.537012941219787e-09, -1.823231361546150e-08, 1.473068999088788e+04, 1.293749391505142e+04, -7.630513720629508e+02, 2.723251054691499e+04, 6.037354444510260e+03, -4.353656037119503e+03, 1.870529165415987e+04
6463, 5.755373409978959e-01, 6.423309269882634e-02, -2.959857766457093e-02, -3.698292717945180e-10, -4.215353727762243e-11, -1.339456966805645e-09, 8.276060457779661e+02, 7.658182272657807e+02, -7.601558784535526e+01, 1.018155859041549e+03, -1.810228509312140e+02, -2.106076865293112e+02, 5.482794383073712e+02
6464, 5.574069188867640e-01, 5.300465184372850e-02, -3.057239755983310e-02, -3.497401439343180e-10, -9.087996862803368e-12, -1.508756364603332e-09, 1.773493819547777e+03, 2.363549731337015e+03, -4.336297465464114e+01, 4.459349551934887e+03, 1.790970835323957e+03, 7.191720221294468e+02, 4.142122375669633e+03
6465, 5.777498188411706e-01, 6.442284148839682e-01, -3.051633339005763e-02, -5.611373613487273e-10, 9.108398262208307e-10, -4.351146277377719e-09, 3.273704161380321e+03, 3.947704295112980e+03, 2.054713941903528e+02, 5.774846431115311e+03, -1.054662204761043e+03, -2.362904453283120e+03, 5.023720091269258e+03
6466, 5.959265579136015e-01, 3.714139390900697e-01, -2.982974141572223e-02, -8.030473654498697e-10, 2.240935713957847e-10, -2.669128845676565e-09, 2.092631404138950e+03, 2.258933632495307e+03, -3.049374625615918e+02, 4.164343670899811e+03, 3.933220094259361e+02, 1.318025773360601e+03, 3.151152293395812e+03
6467, 1.000033334756817e+00, 1.504036127740371e-01, -2.535992372473133e-03, -4.775044520758125e-11, -7.019070071308549e-11, 8.265556041162812e-11, -5.108923201915493e+02, -9.449915420840106e+02, -1.038206944029120e+02, -8.382078416930576e+02, -5.693365395398420e+01, 2.863899939174873e+02, 6.645362219857203e+02
6468, 2.784383447905708e-01, 3.306534022783332e-01, -3.497981496388831e-02, -2.225517166824854e-09, 1.894150072869969e-09, -8.027349390629415e-09, 6.002130506712274e+03, 4.673204566896952e+03, -5.477895635916618e+02, 7.080413280688670e+03, -1.527715017001017e+03, 1.149439697728790e+03, 4.028311114667928e+03
6469, 6.347862182099004e-01, 1.258727274304176e-01, -2.646184862998314e-02, -4.632048727137964e-10, 1.771039339244727e-10, -1.767251265281734e-09, 1.472230450701280e+03, 1.543861852882567e+03, -1.459081326728149e+02, 3.262129131541491e+03, 6.369234771099927e+02, 7.920529285269281e+02, 2.498715873117043e+03
6470, 9.699141631292323e-01, 8.664411378407186e-01, -1.036111030149894e-02, -3.700635716415060e-10, 5.692296674865325e-11, 1.866724091698653e-10, -6.238518156212560e+02, -3.397938384690370e+02, 3.043767226034685e+01, -7.643742206198290e+02, 9.344298384409370e+01, 1.398893016757000e+02, 4.775281880012379e+02
6471, 5.704534429437079e-01, 1.003166647618923e+00, -2.405746755243168e-02, -1.235872358986985e-09, 5.906616790575701e-10, -3.970932566182976e-09, 5.338771101026050e+03, 6.192319079304406e+03, -2.701865675143327e+02, 6.295137648969863e+03, 1.050082403773351e+03, -2.077194680242979e+03, 4.159099796661114e+03
6472, 5.690730286705286e-01, 4.348445529007939e-01, -3.116299330154512e-02, -1.211963986989437e-09, 8.926425647660865e-10, -3.982062989532194e-09, 3.842332161343353e+03, 3.394872781396279e+03, -6.790915959543514e+01, 7.347346302778237e+03, 9.901309535491957e+02, -1.328735256381603e+03, 4.722840300586859e+03
6473, 5.324240386465946e-01, 4.193833692205116e-01, -3.258371732852684e-02, -9.715129210142341e-10, 5.186231850445803e-10, -4.226144261850887e-09, 2.078411103573245e+03, 2.543818318108386e+03, -8.314693951623936e+01, 3.384563739869050e+03, 5.980693505704613e+01, 2.135427535104915e+03, 3.876386054893907e+03
6474, 5.482957911427127e-01, 4.073499254690156e-01, -3.200269295352100e-02, -1.001654326046246e-09, 5.258511056596730e-10, -4.206224631790348e-09, 3.216276243986638e+03, 3.012986376671573e+03, -6.544828556428975e+01, 6.665190569204380e+03, 2.154705900985296e+03, 4.011088149538451e+02, 5.202043249164043e+03
6475, 5.924441206863003e-01, 7.626105743280711e-01, -2.955362139202967e-02, -1.519877042004678e-09, 9.946935749635432e-10, -3.739113282200223e-09, 2.300683127315603e+03, 2.762450688111978e+03, -3.959183955351153e+02, 3.352485417729054e+03, 4.497726559924303e+02, -3.747911160532612e+02, 1.527211431420240e+03
6476, 7.164568629322805e-01, 8.555784281065734e-02, -2.109682371927352e-02, -3.585993841719777e-10, 1.361085567044338e-10, -4.542345020113505e-10, 5.037402520616043e+02, 5.931622693636868e+02, -9.739017472850317e+01, 9.759387831548437e+02, 3.113909868396581e+01, -1.969287614982255e+02, 5.800423129778711e+02
6477, 7.323255885554313e-01, 7.355141291987555e-02, -1.999079856167884e-02, -3.659349830593331e-10, 7.790275255005121e-11, -2.575354898641612e-10, 2.239909373574660e+02, 3.835790882090273e+02, -8.332579039411139e+01, 4.382453975853325e+02, 1.650284772955758e+02, 2.136631506404306e+02, 5.259937844832160e+02
6478, 6.410205492785994e-01, 3.156700553359691e-01, -2.718098457037665e-02, -7.281726445781615e-10, 3.449443836337095e-10, -1.579269270222642e-09, 1.409151007912655e+03, 1.235565964950667e+03, 8.783799854235784e+01, 2.111636338116646e+03, -2.990452925679089e+02, -8.756897929895929e+02, 1.799301807962989e+03
6479, 1.410788797424034e-01, 1.970208989058995e-01, -2.698522558467482e-02, -2.371403898686601e-09, 8.626834043276696e-10, -3.052180201225195e-09, 5.531775613497730e+03, 3.912544474596650e+03, -2.797930054969693e+02, 6.267910841823388e+03, 2.435363772642383e+03, -3.341620837757375e+02, 4.766404622720132e+03
6480, 4.665387857668239e-01, 4.476416422618559e-01, -3.452069323078786e-02, -1.029227871919691e-09, 8.834225894431206e-10, -4.959435760530975e-09, 2.723779399322958e+03, 3.157227437745456e+03, -4.477988626415073e+02, 3.159486230986793e+03, 9.918272138147199e+01, -1.804329325481507e+03, 3.253729770409263e+03
6481, 5.275207152529156e-01, 3.798916590419840e-01, -3.281773139025148e-02, -7.209296044974886e-10, 5.524404744477787e-10, -4.298552634782835e-09, 3.223263037121401e+03, 3.211665239087713e+03, -1.970350864194384e+02, 4.935996224872081e+03, -1.567868206793734e+03, -2.447975809115463e+02, 3.259498672996223e+03
6482, 6.139746953861565e-01, 9.830422422693608e-02, -2.754149069057163e-02, -2.902024342237121e-10, 3.772976011497501e-10, -2.703212070614170e-09, 2.915887276431738e+03, 2.752730112282123e+03, 2.284271978645532e+02, 3.939351697341697e+03, -6.205432134421128e+02, -4.191418747433571e+02, 1.754959703387993e+03
6483, 3.249435746216380e-01, 4.251219337148059e-01, -3.379612805647026e-02, -2.804074724574619e-09, 8.602967024225001e-10, -7.345740058488125e-09, 4.884536723498300e+03, 5.164391894266984e+03, 3.532380501498042e+02, 4.489976787759796e+03, -9.038049974607046e+02, -3.539959170862016e+03, 6.384612022067318e+03
6484, 4.177558890735307e-01, 7.443598866071646e-01, -2.355697504217593e-02, -1.229062274604361e-09, 1.074517982237332e-09, -4.018423798745969e-09, 3.025567541710421e+03, 4.137122651076060e+03, 5.273020318130935e+02, 9.908080607895465e+03, -3.102925424923224e+03, -5.514175417037941e+02, 8.460792698998983e+03
6485, 4.384142149285735e-01, 3.609534131782362e-01, -3.573328440550226e-02, -1.294286388630317e-09, 8.997103584234684e-11, -6.258762375779867e-09, 2.654818492748766e+03, 3.427354813140902e+03, 2.628483945194001e+02, 3.806567766771836e+03, -7.960981939290210e+02, -2.160595413352784e+03, 4.140854147347898e+03
6486, 4.542635774838567e-01, 3.489789633627091e-01, -3.536974575376221e-02, -1.135737798779779e-09, 6.143207931478738e-10, -6.264150882649980e-09, 5.731929165747125e+03, 4.481876232128796e+03, 1.445397986088929e+02, 9.387373374355720e+03, -1.520129026326128e+03, 1.837624501155837e+03, 6.051449983902643e+03
6487, 6.189252316041521e-01, 1.378822708896745e-01, -2.748093839214596e-02, -3.694629393944168e-10, 2.397090621502545e-10, -1.513283665429532e-09, 1.261049092971784e+03, 1.379847546522475e+03, -2.244134355099667e+02, 2.058722211143850e+03, 1.152977390068649e+02, 7.005121861722093e+02, 1.489546906962762e+03
6488, 3.862761593691173e-01, 6.378814147500801e-01, -2.766668737574811e-02, -2.974968436193431e-09, 2.142842106993711e-09, -7.303109151161811e-09, 3.956038351145149e+03, 6.340804715916976e+03, -2.912932140099267e+01, 1.217685100497886e+04, -6.177090235387464e+03, 6.398280602462758e+02, 1.301399902092032e+04
6489, 2.661448913377458e-01, 2.320228322793632e-01, -3.794191430502167e-02, -2.273713971174626e-09, 1.324478558923627e-09, -8.095911599839691e-09, 5.768950785915612e+03, 6.199075785520440e+03, -8.219437617076871e+02, 7.473805283438944e+03, -2.587050616979027e+01, -2.642899654184947e+03, 5.034061389247137e+03
6490, 2.552119722579621e-01, 2.834302099306134e-01, -3.556515949509052e-02, -3.181591812408057e-09, 1.444610195770094e-09, -1.669666907750472e-08, 1.016624078966106e+04, 9.876896494928813e+03, -3.270200322827670e+02, 1.812921639917549e+04, 1.439150063118223e+03, 1.063629712096541e+03, 8.702008489466485e+03
6491, 8.056800349524408e-01, 1.357356360465712e+00, -2.067069789864228e-02, -7.771611611177651e-10, 1.513830694075535e-09, -1.219029179620360e-08, 1.013212350503372e+04, 1.068571349095258e+04, -4.457367136079895e+02, 2.234709429608046e+04, 1.326508638460446e+03, -1.805008609161770e+03, 1.258566546453420e+04
6492, 6.629318788906162e-01, 2.126693656640999e-01, -2.529911540066236e-02, -5.794531021201088e-10, 3.069702651027908e-10, -1.118506125362272e-09, 8.218462985685173e+02, 5.306942221302133e+02, -7.197693351539431e+01, 1.347957878088676e+03, 5.525557871052081e+02, 6.090917286130708e+02, 1.599754773893438e+03
6493, 5.505734647911030e-01, 1.464088668459934e-01, -3.137060788188101e-02, -5.017305007195413e-10, 3.970775455031847e-10, -2.914528826774211e-09, 1.907774559456151e+03, 1.855698944554830e+03, -1.689519576513906e+02, 3.009707218572997e+03, -8.743543913421670e+02, 5.728383557909730e+02, 2.153579280698914e+03
6494, 5.860987315518014e-01, 2.924392989469068e-01, -3.006760355396736e-02, -5.212941895798421e-10, 5.490408862133884e-10, -2.745792743529505e-09, 2.141792294811019e+03, 2.217953607344104e+03, -8.657284402732199e+01, 3.657803172869007e+03, -5.982455911653326e+02, -8.452361864087597e+02, 2.329823752151494e+03
6495, 5.787227424037938e-01, 2.331684456818690e-01, -3.022692522277216e-02, -6.780799175094174e-10, 2.149843646747917e-10, -2.713636952240402e-09, 2.635831198815004e+03, 2.129088564803533e+03, -3.878837559115542e+02, 3.563613751600417e+03, -1.070366636118931e+03, 5.505575152625311e+02, 2.526949129138190e+03
6496, 5.163840596827448e-01, 1.506663632765185e-01, -3.312175983415720e-02, -6.278619556955692e-10, 1.157771364883870e-10, -7.136034214816789e-09, 4.095721441638766e+03, 3.547951274508745e+03, -2.639849055522625e+02, 7.999584940939934e+03, 1.913674993441294e+02, 1.276532994683682e+02, 4.248109824819513e+03
6497, 5.322616762757206e-01, 1.386511469999928e-01, -3.229454406046346e-02, -5.268855128936153e-10, 3.248570265668406e-10, -3.597641563615356e-09, 2.603801908371402e+03, 2.240822762088500e+03, -4.344032931863256e+01, 4.787994804481530e+03, 7.297567457252502e+02, -1.317081264609571e+03, 3.535912049809292e+03
6498, 5.273232614284580e-01, 9.914219496684179e-02, -3.240867980059426e-02, -5.423888344968228e-10, 2.429544084449121e-10, -3.307401667196031e-09, 1.819108392750381e+03, 1.641019432771243e+03, -1.517326574992026e+02, 1.970582051223413e+03, -5.819737214446266e+02, -5.284105412186138e+02, 1.415781575245219e+03
6499, 4.163491701164871e-01, 1.832596576104530e-01, -3.712304040767912e-02, -9.087643801899032e-10, 3.261925032691095e-10, -6.208501645332462e-09, 4.782196105393184e+03, 4.796916087152163e+03, -1.211019329745447e+02, 9.101220367214361e+03, -1.381271695913372e+03, 1.418728622755544e+03, 5.513321642811583e+03
6500, 4.222886381536961e-01, 9.218311987439291e-02, -3.708929457905560e-02, -6.108903858421255e-10, 4.707613980569995e-10, -4.410237464026859e-09, 1.649785521981865e+03, 2.376188284234096e+03, -1.888754202728672e+02, 2.864745769674063e+03, 1.818199967162985e+03, 7.626602815118412e+02, 3.590371310385744e+03
6501, 4.053892904877300e-01, 2.347539413407350e-01, -3.727114684659933e-02, -1.156489039589855e-09, 8.825380720213059e-10, -6.047099798445128e-09, 3.951968796484241e+03, 3.578550793885706e+03, 5.015351339547911e+01, 3.179104553930011e+03, 5.929542977865771e+02, 2.278891044758431e+03, 4.134068507475190e+03
6502, 3.856244691326568e-01, 7.668910635218434e-02, -3.842643652008492e-02, -1.043195389784616e-09, 5.762363474153804e-10, -6.967184548678285e-09, 5.751437102014117e+03, 5.324822752512518e+03, -3.497025310359761e+02, 8.888367738996874e+03, 3.558785359924723e+02, -3.816860819254865e+03, 7.470789581164620e+03
6503, 4.013635151251815e-01, 6.482636844852382e-02, -3.789572568964028e-02, -4.369152384345008e-10, 3.532289664343960e-10, -5.691804111934877e-09, 3.495111107663016e+03, 4.194180975576366e+03, -4.295953651345172e+02, 6.061812928627904e+03, 1.453052044814253e+03, -7.529477605817827e+02, 3.724363203765331e+03
6504, 9.910003665945463e-01, 2.017458280303350e-01, -3.610318420440939e-03, -1.506978364377541e-10, -3.639746138656810e-10, 1.105784674419886e-10, -1.856911773382172e+03, -2.082885144126225e+03, -6.157131365438688e+02, -6.009611063558622e+03, 7.052928934946468e+02, 1.607493620307438e+03, 5.171006219005869e+03
6505, 9.727572222411185e-01, 1.941768604162213e-01, -4.832161268425663e-03, -1.981551961061835e-10, 4.126154072313944e-10, 4.814996430043650e-11, -2.443093240421558e+03, -2.214924787107929e+03, -6.718059004645774e+00, -4.826824335720625e+03, 3.106968864285880e+02, -1.804280519477706e+03, 4.041552258288028e+03
6506, 1.031603160732492e+00, 1.229621652565434e+00, -9.037408568892194e-03, -2.928274707234732e-10, 1.142735085838720e-10, 2.565841850179632e-10, -5.029278609000552e+02, -6.093457088337100e+02, -4.930094992531535e+01, -1.306243050235192e+03, 2.030466229937770e+02, -6.656487146407228e+02, 1.425269503055686e+03
6507, 9.861329262161107e-01, 1.135164657366704e+00, -1.130508627829920e-02, -2.952976883731148e-10, 8.678074849019846e-11, 6.743625626374159e-11, 1.212808149801407e+02, -1.506661928402730e+01, -3.186845287144523e+01, -5.237678292263037e+01, 1.787199588103019e+02, -6.647314879210359e+01, 3.703985969911317e+02
6508, 2.735066904899544e-01, 2.911948277304858e-01, -3.628033244428144e-02, -2.033560363346392e-09, 1.415704832622360e-09, -7.939613123842858e-09, 5.438330791411514e+03, 4.657838823067857e+03, 2.730676922002071e+02, 6.699406066452829e+03, 2.361658496521190e+03, 2.901073324238264e+02, 4.515774012806335e+03
6509, 6.486648835504314e-01, 9.359402911263071e-01, -2.710757341429829e-02, -1.421040743114714e-09, 4.975194992890931e-10, -4.150190181190505e-09, 3.756068892522176e+03, 3.567666541467297e+03, -1.976249217473393e+02, 5.065859883794846e+03, -1.434681922085460e+03, -1.781831852346703e+03, 4.220745588249023e+03
6510, 9.601474836595509e-01, 1.067869895848473e+00, -1.249501508525894e-02, -3.721176452602197e-10, 9.349047384856627e-11, 4.808806396715938e-11, 1.429280237886408e+02, 1.123454877816328e+01, -5.083472156710646e+01, 1.784350791148855e+00, 1.428738971207915e+02, 2.513807356958191e+00, 2.961204533343196e+02
6511, 9.041302463713147e-01, 8.947267128346010e-01, -1.484819759272571e-02, -3.666702702115849e-10, 1.127857264745412e-10, -4.736155450503871e-10, 5.632014150367170e+02, 3.914991685954173e+02, -4.131056852874988e+01, 6.342291773315864e+02, 1.972592761805821e+02, -7.163571011452828e+01, 4.289179537167199e+02
6512, 4.299107509021111e-01, 4.321487102378240e-01, -3.531666964438195e-02, -8.226934774014533e-10, 1.654579365217634e-09, -1.393802337858373e-08, 9.686088478474669e+03, 1.004945663380212e+04, -4.875995627783695e+02, 1.918777203732924e+04, 5.082241786977519e+02, -1.382390056044369e+03, 9.704769955598238e+03
6513, 4.457827227688070e-01, 4.201527657325012e-01, -3.516303153240134e-02, -1.843286549179332e-09, 9.962949445274064e-10, -5.428978188284900e-09, 4.014425333278407e+03, 3.247016274910429e+03, -5.356015727399925e+02, 5.543261236919786e+03, 1.867389842983373e+03, -1.415793363110741e+03, 4.629789688163285e+03
6514, 4.616473721924204e-01, 4.081555738384080e-01, -3.487867323754715e-02, -1.042628761963552e-09, 8.646331552647761e-10, -4.770863294833461e-09, 3.338019184310627e+03, 2.861318017102575e+03, -2.727435862971335e+01, 4.681547662006742e+03, -1.005498489224337e+03, -1.021301276325218e+03, 2.972752355171344e+03
6515, 4.641089677254583e-01, 4.279098601964852e-01, -3.470277270342170e-02, -1.190368905083377e-09, 8.340945069681210e-10, -5.076991693838996e-09, 2.880116011022063e+03, 1.958346639892051e+03, -1.540948226815431e+02, 2.825454493991443e+03, -1.451837834895134e+03, 1.439289471282143e+03, 3.662193171977798e+03
6516, 1.879911113942928e-01, 1.614952211542061e-01, -3.651815739012822e-02, -1.925204917047610e-09, 1.097251039098290e-09, -6.878741612930268e-09, 5.307583406701016e+03, 6.823394473327969e+03, 2.868497550401871e+02, 1.119594159811845e+04, -2.848962376848478e+03, -1.745047299944843e+03, 7.859833670406523e+03
6517, 1.929717702543746e-01, 2.009390869843591e-01, -3.477669475586240e-02, -2.623299881528845e-09, 1.321201864210466e-09, -8.123321121391178e-09, 6.364313354962087e+03, 6.332437046267114e+03, -1.077446163480784e+03, 7.381656582933824e+03, 2.716605889994034e+03, -2.434830159977465e+03, 6.669043379930620e+03
6518, 3.147414974635901e-01, 6.546367627072555e-02, -4.052275697859298e-02, -5.473306810184387e-10, 2.190318410179951e-10, -5.468382095426533e-09, 3.321408828389514e+03, 3.522833531075681e+03, -1.152684107499453e+02, 4.547087264249349e+03, -1.203770084857400e+03, -7.923505506202412e+02, 2.750724173885840e+03
6519, 1.916004194829304e-01, 6.762433491057041e-02, -4.042277258667439e-02, -1.418771520614548e-09, -9.338004549619300e-11, -8.242643009531597e-09, 6.101120901125458e+03, 6.831939064320375e+03, -1.456401622367776e+03, 7.012736814304673e+03, 3.609663722978208e+03, -3.222567877118592e+03, 8.792387508372190e+03
6520, 6.230014589523170e-01, 8.690129894421745e-01, -2.813968662856068e-02, -1.416948561542227e-09, 6.592315733374892e-10, -4.522514848927335e-09, 4.300604614543236e+03, 2.836438138934886e+03, 2.147070591055374e+02, 6.405365267268946e+03, 2.489775035466647e+03, 4.675042057534620e+02, 5.389474738138947e+03
6521, 4.128949798117130e-01, 5.744996218840301e-01, -3.249265757503039e-02, -2.214239723474733e-09, 2.349074382610957e-09, -1.004945544796272e-08, 7.690259091915337e+03, 6.447772232528267e+03, 6.762828887002163e+02, 1.206299853663950e+04, 4.941691259188568e+03, -2.108321218135495e+03, 1.068015745967159e+04
6522, 9.731704146493864e-01, 1.316621482659432e+00, -1.339060253557829e-02, -2.616106760278417e-10, 1.344306732885760e-10, -7.809306653984990e-10, 1.677774458549964e+03, 1.123964182108490e+03, -9.338138054354931e+01, 2.617507480475074e+03, 9.020690880062591e+02, 2.740628548306001e+02, 2.098312486247436e+03
6523, 9.914211288027723e-01, 1.324325385645766e+00, -1.230902974342924e-02, -3.126277327503488e-10, 1.402064377736028e-10, -4.055759385919909e-10, 7.505114039717841e+02, 6.064361521787973e+02, -1.322637013876513e+02, 1.280155048381994e+03, 1.303384191668196e+02, 5.459733457680870e+02, 1.172729578030202e+03
6524, 9.574919519436833e-01, 1.328581884271485e+00, -1.441204747838883e-02, -4.388067775682390e-10, 5.662434032984555e-11, -8.715983551870155e-10, 1.662695434153574e+03, 1.603671554617429e+03, -2.158737763770543e+02, 2.714431129847024e+03, 1.729870567128802e+02, 9.241998708733449e+02, 1.990910230090022e+03
6525, 2.172072794239400e-01, 1.178174390407406e-01, -3.975714125575758e-02, -2.024501750986994e-09, 7.757685775835653e-10, -1.942808088257219e-08, 1.120482709024200e+04, 1.152487941280354e+04, -5.123721107299928e+02, 1.985881329086112e+04, 3.927722669569001e+02, 3.245356813301192e+02, 8.590141919244516e+03
6526, 7.745522650217493e-01, 1.251028795606831e+00, -2.214769679718714e-02, -1.031773280828539e-09, 4.718641271987027e-10, -2.693313131633138e-09, 2.907743021161220e+03, 2.702720874647099e+03, 1.703831309144387e+02, 3.768637000329202e+03, -2.314287276067443e+03, -1.093640302375889e+03, 4.550020902238267e+03
6527, 4.237267540960322e-01, 2.425130904936527e-01, -3.670052848255306e-02, -5.764965495436103e-10, 1.054623396650618e-09, -5.775522712533628e-09, 4.731635105815431e+03, 4.014048304737025e+03, 6.393903454412721e+01, 6.894357455836920e+03, -1.857746931956748e+03, -5.232654896317416e+02, 4.234571489661637e+03
6528, 1.587177969075159e-01, 1.708078730327642e-02, -4.080845987681170e-02, -3.135091985377856e-10, -2.684645690104289e-10, -1.489107903675720e-09, 2.964435707945664e+02, 1.344281893717949e+03, -6.053439801551754e+02, 7.578011048057690e+02, 1.014320857767364e+02, -2.680509220819867e+03, 4.849017042264936e+03
6529, 1.397354400611026e-01, 1.701758683625379e-02, -3.985480692789153e-02, -1.520620268319172e-10, -1.707307521257275e-11, -1.620227240118268e-09, 9.475055953678155e+02, 1.860982386876872e+03, -3.573600964819854e+02, 8.834939499471795e+02, 1.982876277474117e+02, -2.374702917571712e+03, 4.279687488316165e+03
6530, 1.144842888559082e+00, 1.295933828763216e+00, -1.874426088643881e-03, -8.489922921609653e-11, 2.634233898254073e-11, 2.817192471229250e-11, 3.577794354376136e+02, 3.528290861191307e+02, -5.115684907391155e+01, 3.352709759020074e+02, 2.476435943210364e+02, 5.386715441877389e+01, 4.482832162745846e+02
6531, 1.781081143209269e-01, 8.255753343042206e-02, -3.935227610353784e-02, -2.142863075801593e-09, 1.453215542847047e-09, -2.357900110581040e-08, 1.696897528833565e+04, 1.649823607146491e+04, -3.867919776685640e+02, 3.386664446856209e+04, 2.995625357838506e+03, -4.539660009626869e+02, 1.793587488909161e+04
6532, 4.750606356704347e-01, 3.764320816158251e-01, -3.463957506537788e-02, -1.262998673065414e-09, 1.087838281424275e-09, -4.777904837390364e-09, 2.523630523684666e+03, 2.808118890671563e+03, 8.730183671684328e+01, 2.354035116237319e+03, -1.017232336375736e+03, 1.264336942257280e+03, 2.842663816730439e+03
6533, 1.015705470518008e+00, 1.241412806314843e+00, -1.016465399304701e-02, -3.620000507292577e-10, 1.108512732039889e-10, 7.683698091255318e-11, 7.026958395448932e+01, -9.680893244217178e+01, -1.365402522547648e+01, -7.840185206062912e+01, 2.364516745459942e+02, -1.882732563085948e+02, 5.475459442755953e+02
6534, 1.013660859506780e+00, 1.222122512467928e+00, -1.015550123958312e-02, -3.477224352865950e-10, 1.229865681302393e-10, 3.195363576969572e-10, -4.426054031798157e+02, -4.872318798574885e+02, -5.680383283519848e+00, -9.520762992406907e+02, 7.644563720624899e+02, -6.015908513853761e+02, 1.754374052854191e+03
6535, 7.606593287153935e-01, 1.413435201108856e+00, -1.829150384162057e-02, -2.292660539497536e-09, 9.346459626939023e-10, -2.948249993802438e-09, 5.924977210494069e+03, 4.459465568340662e+03, -1.114482570084371e+03, 6.701337239133964e+03, 3.274735501155237e+03, -1.435100124531835e+03, 6.779723669499371e+03
6536, 5.497564841680080e-01, 8.380333268163033e-01, -2.891235249190961e-02, -1.170034750541692e-09, 8.326460596777853e-10, -6.221704359106875e-09, 4.814726939282849e+03, 5.989891438306156e+03, -1.313201135066674e+03, 7.548501585265904e+03, -2.327393638493507e+03, 3.228583346009056e+03, 7.637861407344180e+03
6537, 6.886703919884782e-01, 2.796561562448794e-01, -2.415670626165144e-02, -6.443411940235841e-10, 2.102483773005779e-10, -1.013592164923174e-09, 1.128372346578751e+03, 9.192509402205246e+02, -3.875998166846781e+00, 1.537576956338204e+03, -5.394027100855790e+02, 1.384559035146953e+02, 1.107779152814033e+03
6538, 7.766442346425771e-01, 1.401091386566397e+00, -1.965843853375475e-02, -1.796309441074627e-09, 1.125502068854746e-09, -4.442298582438822e-09, 5.929862372748677e+03, 3.643708694448595e+03, -1.239067468795806e+03, 6.306446341942108e+03, -3.504099883340153e+03, 2.286717604011606e+03, 7.959804501899916e+03
6539, 3.676108087717538e-01, 3.497294586036280e-01, -3.681958794772278e-02, -2.412409737648454e-09, 4.935366822146275e-10, -1.690498371722422e-08, 1.038660121959071e+04, 1.081803080157108e+04, 3.979721923070169e+02, 2.425256951628779e+04, 3.077256041249065e+02, 5.112957438699618e+01, 1.368342401678765e+04
6540, 3.834786544880001e-01, 3.377268521416585e-01, -3.690180764511428e-02, -1.531093641420838e-09, 1.363516736496707e-09, -5.880756796646257e-09, 3.759439748778065e+03, 2.155820941697579e+03, -5.002003679040666e+02, 2.655451812274956e+03, 1.796417667602050e+03, -1.786198624975082e+03, 4.692917423283873e+03
6541, 7.296878992468164e-01, 5.402124194159588e-02, -2.001949231240112e-02, -2.964175720725712e-10, -2.424563185985773e-11, -9.689780519607360e-10, 8.122589684572584e+02, 8.445819416247000e+02, -1.009645969514162e+02, 1.692541575369195e+03, 1.415130641315745e+02, 1.062279669241104e+02, 9.338101658720444e+02
6542, 5.406888058620745e-01, 6.686504891063696e-02, -3.156482339210668e-02, -2.005836138664128e-10, 9.695319227806124e-11, -2.313093356065141e-09, 1.531395105989619e+03, 2.119136100110795e+03, -2.104208539529228e+02, 2.202160437745704e+03, 7.391368029724138e+02, 9.093736639981690e+02, 2.157269374400911e+03
6543, 2.355152432889995e-01, 1.255472407066213e-01, -4.001794452507732e-02, -7.823370586072725e-10, 1.705698504825961e-09, -9.938496584713938e-09, 5.420155904531185e+03, 5.554484168648290e+03, 4.456687962958225e+02, 5.033567082780770e+03, 2.822300515612782e+03, 5.084173779135200e+02, 5.048454429303002e+03
6544, 1.029773774491944e+00, 9.291531341698414e-01, -6.844603252070934e-03, -3.677427743010331e-10, 1.701257574970172e-11, 1.143750226981739e-10, -7.530189106121632e+02, -8.744960308633312e+02, -8.901651731666499e+01, -1.286227347497622e+03, 1.786478393106823e+02, -4.879729232661241e+02, 1.033520680278450e+03
6545, 1.013948343521421e+00, 9.411534813939770e-01, -8.003917701537818e-03, -3.812204286437226e-10, 4.823197733455102e-11, 3.673065843448433e-10, -8.103542380521488e+02, -9.085764067112881e+02, -7.668037591909403e+01, -1.550248541316365e+03, 4.751493898746703e+02, 3.775315927398866e+02, 1.267654499527388e+03
6546, 9.920144345884743e-01, 6.974448540236416e-02, -2.450527629696215e-03, -1.045966695405359e-10, 2.599171991450209e-11, 1.761664188523805e-11, 3.449724495011138e+02, -2.376197981595028e+02, -3.424278158982479e+01, -1.920035952335923e+02, 2.490560924084742e+02, -6.668894984793928e+01, 7.196288506425391e+02
6547, 9.743466841040662e-01, 6.352397168531686e-02, -3.632545119107183e-03, -4.841670719256442e-10, 3.139047614946586e-10, 1.405501263390805e-10, 4.563886718753423e+00, -9.940501559313986e+00, -3.659397765591189e+02, -1.128432632968484e+03, -1.131753862334672e+03, 4.531745798758971e+02, 2.475458713841399e+03
6548, 8.635725545272813e-01, 1.399783232537655e+00, -1.900235863660165e-02, -5.480855380042470e-10, 7.271086344327636e-10, -3.065319404334896e-09, 3.935976217742371e+03, 4.207815551083791e+03, -6.592125529416582e+01, 7.313909319803283e+03, 2.810580234413290e+03, -1.128289689469526e+03, 6.172220593159856e+03
6549, 1.027327121263821e+00, 9.094022852939251e-01, -6.854485251619580e-03, -4.265492184102080e-10, 1.087608306967096e-10, 2.255742572230908e-09, -2.584105581761016e+03, -2.847600570446051e+03, -1.951599618780541e+00, -5.440032881840047e+03, 5.291938799328111e+01, 2.302298789484435e+01, 2.735549452266218e+03
6550, 1.059977061823711e+00, 1.464935550618127e+00, -8.930220757357148e-03, -3.331746522485409e-10, 1.761626931198036e-10, 1.486115360524291e-11, 1.975385845771283e+02, 3.836683547525617e+01, 4.986481764378135e-01, -7.268481453904852e+01, 5.834893685402187e+02, -2.274417063832672e+02, 1.109916152244156e+03
6551, 6.481460298420963e-01, 9.405646113661653e-02, -2.544740264266305e-02, -2.549724080788460e-10, 8.931026722857423e-11, -1.404796523917093e-09, 1.028911789129533e+03, 1.228386733834284e+03, -1.466258083895484e+02, 1.966707953948654e+03, 9.487073413238118e+02, 2.450954673183285e+02, 1.917559560481895e+03
6552, 6.322991771247110e-01, 1.060657178070338e-01, -2.648948683263761e-02, -2.209913189017350e-10, 3.051940179489372e-10, -2.187278576224774e-09, 1.420405738258202e+03, 1.922744354271639e+03, -3.881682757000321e+02, 2.838255303258020e+03, 9.196021654803881e+02, 3.296878005589610e+01, 2.131358713669474e+03
6553, 6.455792309271735e-01, 7.433994677301159e-02, -2.547732908758319e-02, -1.739808457436945e-10, 2.496941650702906e-11, -1.342318396992308e-09, 8.076338642175336e+02, 8.626079086128822e+02, 5.701779394376386e+01, 1.559326012616099e+03, 8.906372589906666e+02, -4.062350136338011e+02, 1.846964428643812e+03
6554, 3.121463143408053e-01, 4.650664712066967e-02, -4.070772306946494e-02, 3.311817118094454e-11, -1.767860912693572e-12, -4.852105264641534e-09, 2.675543434507107e+03, 3.055195730497053e+03, 3.150782985002355e+01, 2.621359153871434e+03, 2.285543401206768e+03, -2.094056090723933e+02, 3.996661014200011e+03
6555, 6.436151288575407e-01, 6.160005497411111e-01, -2.810096567727087e-02, -9.821896324006799e-10, 2.911580120053491e-10, -2.826167134460561e-09, 2.924807044808418e+03, 3.122607485680423e+03, -2.448415988296580e+02, 6.667002147287785e+03, -3.692612388729133e+02, 1.834918795438305e+03, 4.898226835196874e+03
6556, 6.412112880823639e-01, 5.963021206576467e-01, -2.818333683124011e-02, -1.159647260661952e-09, 6.328019704432077e-10, -6.766615666089407e-09, 4.685371719530764e+03, 4.817637062176971e+03, -6.946014844390722e+01, 1.009500520708772e+04, 1.560774512006528e+02, -5.052284472709289e+00, 5.352920024571775e+03
6557, 4.198034466474376e-01, 7.239842931570446e-02, -3.720691135898297e-02, -4.649593645892119e-10, 3.591079952060185e-11, -3.999802069698377e-09, 1.974450328266199e+03, 2.675724689223231e+03, -3.269038933623891e+02, 3.191457478114297e+03, 2.229435137836312e+03, -1.158249267144328e+03, 4.513956344858959e+03
6558, 8.637129521347072e-01, 9.895753615188043e-01, -1.797769811134579e-02, -5.855103700749547e-10, 2.096789402712688e-10, -4.955024657121560e-10, 1.238944424695289e+03, 9.373907369406950e+02, 1.825782716747119e+01, 1.217699413790159e+03, -1.460836688499777e+02, 8.907118584026449e+01, 4.168954950770521e+02
6559, 7.203543388370190e-01, 2.556414891664629e-01, -2.203709830474172e-02, -5.655802214667943e-10, 1.077373639711931e-10, -3.366226229650292e-10, 6.567283761740946e+02, 6.462018050246509e+02, -9.337636678017296e+01, 9.216078796094114e+02, 1.297489578090442e+02, 3.060782530090933e+02, 6.563335567006586e+02
6560, 1.199706758178653e-01, 3.910711604444012e-02, -3.723870177046310e-02, -1.072080010492329e-09, 4.366158547889073e-10, -4.998148656822939e-09, 6.878998791830151e+03, 7.530331259360079e+03, -9.404271225829214e+02, 8.535466162997505e+03, 4.124521283708285e+03, -5.701156410055901e+03, 1.238091262260083e+04
6561, 8.428707348301455e-01, 6.817223920682788e-01, -1.724769565423897e-02, -5.169415999059058e-10, 1.650451257115316e-10, -8.302050568422302e-10, 9.086352919850760e+02, 8.145877192987506e+02, -3.042753786681907e+01, 1.787783742759367e+03, 9.402004949580393e+01, -2.795111019538273e+01, 9.466093863047446e+02
6562, 1.119113024878594e+00, 1.378454877506406e+00, -4.338185009623907e-03, -4.135028234406481e-10, 1.037364936438727e-10, 4.277445167243535e-10, -2.422934687242357e+03, -2.154102975559875e+03, -2.270853384718760e+02, -4.928475766959571e+03, 1.195357907980001e+03, 7.259292976746984e+02, 3.611902595798074e+03
6563, 7.538919082595399e-01, 9.431353514509599e-01, -2.360717700190998e-02, -5.182161366762679e-10, 4.486936295747695e-10, -3.468707183958088e-09, 3.500486928095482e+03, 3.674521777962941e+03, -2.814156130873440e+02, 6.765361928750525e+03, -2.192240685364747e+03, -5.632599287244028e+02, 5.072338910186203e+03
6564, 1.100467269256135e+00, 9.403647617989296e-01, -2.039183866694197e-03, 1.592736560507577e-11, -1.351656214191572e-11, 4.656030029249959e-12, -2.149689580727467e+02, 2.246904758047740e+02, 1.046415592824488e+02, 2.607475887676000e+02, -1.241166272838471e+02, 2.719226165486198e+01, 5.401259294267109e+02
6565, 7.306919966000123e-01, 8.957880958297783e-01, -2.456964759972854e-02, -6.826216769805371e-10, 2.326440821214622e-10, -2.524610810007193e-09, 2.237423275107674e+03, 2.572557961100792e+03, -3.657456804130728e+02, 4.171258872651694e+03, 2.345264182854866e+02, 1.822185064880018e+03, 3.705581311103324e+03
6566, 5.248372694698515e-01, 7.923198258637751e-02, -3.246346035403405e-02, -2.769201775157027e-11, 2.806909303344122e-10, -3.136365555584599e-09, 1.097583811054565e+03, 1.117813669887651e+03, -2.721574867278965e+02, 1.164581381241968e+03, 1.029681475244443e+03, 3.943809123540912e+02, 1.968017377065295e+03
6567, 4.395471368487064e-01, 2.304686459443588e-01, -3.622468853358256e-02, -9.758848203880179e-10, 9.985144154665301e-10, -4.943051360725205e-09, 2.121379311304122e+03, 2.919678261504154e+03, 2.307998720574265e+02, 4.163049916002979e+03, -7.338427789355438e+01, -2.270286726340591e+03, 4.337557323026681e+03
6568, 3.211250182630306e-01, 2.552889682308024e-01, -3.831181096675818e-02, -1.783750793839322e-09, 1.112749392677736e-09, -6.916104877900163e-09, 3.686009125879044e+03, 3.737517545196787e+03, 2.398803185216727e+01, 6.251878877810323e+03, 2.721660071008167e+02, 2.210337676583405e+03, 4.618972182519798e+03
6569, 6.432225210686681e-01, 5.456084880454083e-02, -2.549358172257815e-02, -2.695018694071920e-10, -9.987820574141508e-12, -1.067545580682026e-09, 9.986129114287641e+02, 1.168085008371846e+03, -1.651839542132915e+02, 1.914454795536215e+03, 1.809903373067043e+02, 4.848477068017621e+02, 1.263977500953384e+03
6570, 6.058361832829423e-01, 7.308864637382095e-01, -2.934176262158962e-02, 1.562379200792882e-11, 1.140322652774490e-09, -1.111499678197618e-08, 1.036281383354021e+04, 9.253455151227618e+03, -1.420740991690344e+02, 1.998659107634024e+04, -2.132434612941748e+03, 2.810333356321705e+02, 1.088408528253939e+04
6571, 4.171166518037737e-01, 5.322032062318736e-02, -3.732990195639698e-02, -2.832408634084357e-10, -2.647513186771488e-10, -3.541291540400787e-09, 2.384506978375071e+03, 3.146354155642049e+03, -6.387503662399173e+02, 2.597561702679622e+03, 2.126593136485765e+03, 2.359161672078811e+02, 3.927041991900963e+03
6572, 6.965890012266219e-01, 8.998939961743457e-01, -2.587291496726866e-02, -9.374568989457952e-10, 5.591935941812366e-10, -3.112453392488699e-09, 3.218849588802385e+03, 2.109035955681376e+03, 3.321236003034113e+02, 4.759305632700306e+03, 2.815999563894383e+03, 8.439728271233444e+02, 5.618866391911071e+03
6573, 9.567265725994485e-01, 2.059874572448794e-01, -6.046066657156678e-03, -2.853377356050197e-10, 4.081824511356775e-10, 8.709896606114800e-10, -2.889010276260545e+03, -3.185271762351893e+03, -1.467947565065167e+01, -5.365843072659475e+03, -1.002580265681574e+03, -1.425355868623296e+03, 3.820961592253004e+03
6574, 9.383983131018354e-01, 1.985372768889700e-01, -7.250606028361944e-03, -3.884956409121502e-10, 5.222535423989421e-10, 3.784866269071867e-09, -5.225397656627139e+03, -5.315334754392459e+03, 3.374489479335380e+02, -1.057835702097193e+04, 3.486060236187446e+02, -7.698133237836277e+02, 5.537586525293734e+03
6575, 9.986491292749978e-01, 1.583201727060792e+00, -1.338924032734247e-02, -7.318252533666699e-10, 1.767323499398591e-09, 2.897860717280930e-10, 1.774819275110840e+03, 2.959536913444048e+03, -4.365383672408984e+02, 6.917998444759986e+02, 2.680843657124212e+02, -1.124928293983479e+02, 2.164446354492898e+03
6576, 1.041410880041973e+00, 1.308300847233366e+00, -8.982903428996875e-03, -3.588103254624885e-10, 8.736825558199842e-11, 1.526603181454045e-10, -2.827714675547566e+02, -3.232283484677454e+02, -3.642280216333398e+01, -5.239673946610964e+02, 2.999326414142868e+02, -3.726623618309277e+02, 8.605489742321543e+02
6577, 7.686049517175257e-01, 1.473832193082552e+00, -1.519262062625402e-02, -1.384952004960983e-09, 1.042311400481884e-09, -5.890492706517745e-09, 5.080234652221066e+03, 4.559474536381742e+03, -1.682747294251466e+01, 8.868109790102224e+03, 7.536417348807873e+02, -1.023589559207762e+02, 4.281118149127154e+03
6578, 8.686103817224013e-01, 1.567939303204406e+00, -1.743822660971724e-02, -2.113169498344760e-09, 3.640529044696693e-09, -1.563318432160738e-08, 1.717101161280324e+04, 2.301357841759246e+04, -5.606323893212786e+01, 4.064565903363953e+04, -2.174526325517337e+02, -7.681056897195292e+02, 2.121234800487962e+04
6579, 4.420117299575255e-01, 2.502846676395484e-01, -3.609093710382862e-02, -6.016079942691391e-10, 9.147142780740886e-10, -1.178874041987615e-08, 9.172498645910466e+03, 9.637517706653909e+03, 3.977939559550190e+01, 2.193138343868765e+04, -6.842860035388373e+02, -3.148887346065562e+02, 1.260076240590823e+04
6580, 5.080792922333062e-01, 5.025794645888925e-01, -3.315259601805452e-02, -1.325742369713117e-09, 6.677516269731419e-10, -1.245905807242182e-08, 6.629010121391314e+03, 6.680467700060070e+03, 2.281068489646208e+02, 1.377148265907525e+04, -8.546004851395277e+02, 6.539649542972458e+02, 7.367507186766582e+03
6581, 9.599822794326847e-01, 1.348195888744319e+00, -1.437949015271070e-02, -4.475441537270319e-10, 6.036810852406746e-11, -9.025179865236607e-10, 1.623686331311065e+03, 1.764822587560136e+03, 1.690401122068640e+01, 2.705420410595990e+03, 7.075997497216517e+02, -9.660783203795406e+02, 2.310901897622147e+03
6582, 1.078074584295948e+00, 1.472689224919807e+00, -7.808327885777241e-03, -2.375227327301382e-10, 1.470122245792757e-10, 6.403077788889392e-11, -2.235362569982672e+01, -1.444307683882863e+02, 4.005212348353258e+00, -3.680014624060988e+02, 2.383972025840683e+02, -3.878084054379524e+02, 8.449339839701864e+02
6583, 6.044184593700366e-01, 3.001796829295771e-01, -2.913239517768237e-02, -6.830586943864722e-10, 4.409728939601796e-10, -6.092922809645652e-09, 4.528878042269902e+03, 4.511197033510813e+03, -1.930217171201790e+02, 9.814782927012840e+03, 6.651456500676409e+01, 9.749125896461010e+01, 5.309248680164130e+03
6584, 2.833412446876197e-01, 3.700370478117017e-01, -3.347874704427953e-02, -2.559887200813890e-09, 1.830639257714404e-09, -9.128867855767608e-09, 8.976813944282303e+03, 6.593463247366754e+03, -3.549143061175789e+02, 1.166638837114805e+04, 6.144747468800235e+03, 7.725200689718407e+01, 1.153229945433976e+04
6585, 4.321855071818089e-01, 1.712169147148144e-01, -3.660734353194334e-02, -1.327781117149496e-09, 8.243848648697434e-10, -1.210027640899512e-08, 8.674699316716726e+03, 8.612034697937695e+03, -4.174150107511288e+01, 1.861631040228284e+04, 6.083166228200477e+02, 2.039060821288654e+02, 1.003507112931169e+04
6586, 1.039124329015869e+00, 1.288688004253453e+00, -8.986282985697187e-03, -4.125580578545299e-10, 1.573329235280860e-10, 9.364030350876917e-10, -8.360299576098002e+02, -9.669236154591508e+02, 1.788660093414656e+01, -1.712902569296672e+03, 2.611078863526776e+02, -1.922275513945319e+02, 9.937845511735243e+02
6587, 7.520395786757880e-01, 2.316290337336781e-01, -1.985986954875489e-02, -5.980692831077991e-10, 9.426537270067376e-11, -3.653626549802979e-11, 2.335385903912138e+02, 1.774900578657582e+02, -5.211343461420975e+01, 1.877795897228000e+02, 1.568275916076983e+02, -6.514265499750626e+01, 3.119830227332683e+02
6588, 9.625022305442786e-01, 8.071957838292125e-01, -1.040103349390068e-02, -3.873941100625601e-10, 1.209741898987598e-10, 2.213428314567658e-10, -6.498976441119800e+02, -6.127434122798265e+02, -3.871884680886030e+01, -9.665430553518497e+02, 1.026307140099894e+02, 1.095130791718602e+02, 4.306802196739807e+02
6589, 9.550966411644688e-01, 7.479329493524862e-01, -1.043986954951171e-02, -5.711214428001150e-10, 1.744871570363954e-14, 1.910147866949762e-09, -2.823962795286733e+03, -2.524703461426927e+03, -2.797296214427375e+01, -5.704903632215532e+03, 4.119302618640032e+02, 3.637107678406097e+01, 3.125204047412866e+03
6590, 9.709336590631272e-01, 7.358585042580842e-01, -9.291977482935379e-03, -4.157834072977439e-10, 7.201173796110928e-11, 2.979278407438948e-10, -7.881880739401325e+02, -8.137840921893041e+02, -1.707344452427263e+01, -1.436021097784141e+03, 8.617134921059744e+00, 2.816178462624749e+02, 8.017380766805421e+02
6591, 9.026667521588743e-01, 1.583367138381895e+00, -1.700744827466269e-02, -1.514037186282238e-09, 4.156674086130622e-09, -2.348945755829756e-09, 6.103615299991699e+03, 9.686594021517565e+03, -1.250168780435918e+03, 4.554545193336264e+03, 1.605798112294236e+03, -3.096261904448781e+02, 5.787898906256065e+03
6592, 5.594122301285774e-01, 6.365002940290841e-01, -3.109359740695199e-02, -4.828547617460681e-10, 6.695016971000387e-10, -4.598139102315262e-09, 3.715939750574260e+03, 3.282564018640298e+03, 1.864220717062709e+02, 4.222845934452780e+03, -4.930445747374392e+01, 2.186703509016308e+03, 3.888575356967459e+03
6593, 9.476999585207150e-01, 6.887051860518022e-01, -1.047788838271805e-02, -4.710306089692438e-10, 1.800733703793702e-10, 5.025098213354606e-10, -1.195395607971102e+03, -1.339745448973555e+03, -3.766504386544611e+01, -2.294327278181860e+03, 6.800877963856668e+02, -3.212022794855617e+02, 1.664687355790454e+03
6594, 9.634651057156018e-01, 6.766495304379467e-01, -9.332995176820832e-03, -4.533226697028966e-10, -6.315607309035881e-11, 7.981691277191840e-10, -1.862947544961422e+03, -2.007090401043621e+03, -3.094436554243353e+01, -3.765985809908758e+03, 9.028373482845246e+02, 1.405906710247023e+02, 2.423950934746076e+03
6595, 6.593371213030303e-01, 3.234404521054486e-01, -2.616884539165997e-02, -7.055470251608713e-10, 2.912338045667053e-10, -1.525377714852131e-09, 1.576327706224110e+03, 1.578631833077508e+03, 2.274927929799670e+01, 3.112691787136342e+03, 2.392145103916454e+02, -1.154629598230081e+03, 2.555310506138299e+03
6596, 7.355345900613022e-01, 9.353389248218352e-01, -2.437439887253337e-02, -4.650628360233440e-10, 3.249807851553395e-10, -2.046560519608907e-09, 2.435473312675829e+03, 1.889680353607072e+03, 7.516484546899923e+01, 3.449616167034401e+03, 1.376183253706637e+03, 5.978862730548240e+02, 2.941238175406309e+03
6597, 7.112086132369774e-01, 1.298543016513970e+00, -2.019624993028957e-02, -1.454468293592383e-09, 9.428381898585847e-11, -2.643659555337950e-09, 4.611389077706616e+03, 3.846637292552840e+03, 5.557050807561014e+02, 8.608195749468192e+03, 2.851268182428546e+03, 7.722354392752460e+02, 6.835241896028144e+03
6598, 8.459209522476940e-01, 2.901474655488381e-01, -1.418350579709163e-02, -5.874756806618885e-10, 8.653697377451048e-12, 5.546421848360144e-10, -6.333353903132398e+02, -7.634525534438367e+02, -7.895274726389264e+00, -1.493426522391443e+03, 2.953252841697691e+02, 1.484826625660415e+02, 9.862829174369302e+02
6599, 4.346672658513374e-01, 1.909978950504765e-01, -3.648105696331252e-02, -1.482716789964182e-09, 8.082006985969672e-10, -5.387428873150867e-09, 3.445532713402043e+03, 3.448198991944580e+03, 3.613981575911325e+01, 5.286828206572704e+03, -8.622448633685424e+02, 1.294257883769431e+03, 3.262682037329341e+03
6600, 1.904571089766970e-01, 1.811971312262117e-01, -3.567974152282836e-02, -3.066825362097835e-09, 1.397991546849769e-09, -8.350910505836994e-09, 6.940537911922698e+03, 6.597792174323556e+03, -1.038262267697393e+03, 1.180743887244286e+04, 7.538193752691595e+02, -9.304288908789351e+02, 5.745267572863990e+03
6601, 4.370928145055292e-01, 2.107307595747564e-01, -3.635467456052023e-02, -1.213252432041363e-09, 1.071396710099916e-09, -5.123319957405243e-09, 1.334129999776694e+03, 1.254475694469900e+03, 2.137759049723794e+02, 1.625678371318905e+03, -6.068734730091161e+02, 9.078490695278289e+02, 1.956814961307200e+03
6602, 6.034197154145827e-01, 7.112198720461633e-01, -2.948525827894155e-02, -7.582598297260084e-10, 1.401862662568471e-09, -5.260568297719925e-09, 6.238929615757841e+03, 5.968911170781601e+03, 1.860882775684494e+02, 9.536543893610185e+03, -1.780153936367102e+03, -1.875730751681228e+03, 5.657156067902236e+03
6603, 4.297078877945764e-01, 1.514271180764892e-01, -3.673097036912367e-02, -9.442501723180645e-10, 9.125321242390609e-10, -4.790886764141312e-09, 2.295098852771886e+03, 3.366179886929851e+03, 6.447841854850300e+01, 4.787191760191408e+03, -5.015076630297342e+00, -1.668007637464885e+03, 3.612174480936225e+03
6604, 4.885205384990916e-01, 3.447128761662014e-01, -3.428370409717155e-02, -1.221908433524460e-09, 6.169722023580977e-10, -6.059176616463496e-09, 3.904619675213628e+03, 4.165661713376093e+03, -1.607863827399489e+02, 8.705937101328436e+03, 2.750853793824732e+03, -1.766409406627650e+03, 7.348959071073622e+03
6605, 4.726135559095214e-01, 3.567273201660964e-01, -3.478237197009616e-02, -1.107806285471320e-09, 5.460068239335301e-10, -6.241470289570873e-09, 4.953089419193289e+03, 4.521821810282388e+03, -9.070570536565626e+01, 8.878060140295625e+03, -1.696226179769829e+03, 9.661295176574276e+02, 5.361021424912945e+03
6606, 6.362528496819397e-01, 5.567663264212793e-01, -2.834496935739966e-02, -9.150329592147948e-10, 4.313277044058390e-10, -1.953275752194796e-09, 1.673873138937910e+03, 1.266625038072149e+03, -1.333681128025488e+02, 1.248813422737946e+03, 1.575172117618285e+02, -3.495450790783075e+01, 5.521626981499446e+02
6607, 8.642789579219867e-01, 2.979932738993300e-01, -1.302878676974330e-02, -4.683859441659083e-10, 7.446872322077307e-11, 1.445418659736017e-09, -1.463521547805072e+03, -1.387434924773794e+03, 1.565018283342168e-02, -2.888562178938935e+03, 1.655830525879476e+02, -1.449397767440691e+02, 1.513351368052943e+03
6608, 6.562899444048048e-01, 1.250546384958660e+00, -1.688683506704950e-02, -3.308979943704710e-09, 4.803573104821283e-10, -7.844519931850233e-09, 1.461709615420772e+04, 1.259521927583867e+04, -5.856253533978704e+02, 2.816523765136202e+04, 4.977695600785291e+03, -1.381841510874002e+03, 1.720820989253527e+04
6609, 9.304447290178528e-01, 5.504644895079377e-01, -1.056436457900884e-02, -3.396845334715227e-10, 1.515269883151614e-10, 2.713526084233508e-10, -8.539035981782694e+02, -1.150740896150758e+03, 9.817798134623800e+01, -1.982421285609459e+03, 1.870378573100817e+02, -8.233626727587249e+02, 1.787266883317568e+03
6610, 9.463326963778447e-01, 5.383737464486229e-01, -9.406656789780966e-03, -4.120394258115621e-10, 2.342954528402913e-10, 4.778820923712094e-10, -1.062170751002408e+03, -1.297912761043059e+03, -3.837941408443645e+01, -2.357256865975063e+03, -1.532216496774087e+02, -3.707494451262346e+02, 1.383738107382971e+03
6611, 9.047661763896433e-01, 1.454359797164750e+00, -1.744891052507436e-02, -5.965538811702494e-10, 4.572582940779154e-10, -7.562635904228295e-09, 7.788183741993212e+03, 7.939801307249320e+03, -1.436768686816536e+02, 1.700926487190143e+04, 3.140953906295238e+01, -5.035118905626189e+02, 9.191229988283758e+03
6612, 6.351029768060468e-01, 6.871784585994706e-01, -2.843379152019366e-02, -1.183239780608212e-09, 5.270419035106404e-10, -3.359005898234715e-09, 2.720079177935704e+03, 3.316929803331558e+03, -3.103195174958925e+02, 3.399871023068072e+03, 1.740233990903793e+03, -1.570959672057174e+03, 4.146142055650658e+03
6613, 8.019620958242151e-01, 2.153582401403942e-01, -1.650936745781371e-02, -5.530826512559665e-10, 6.686252953511720e-11, 3.202974442323438e-10, -3.147726392053807e+02, -2.751922005238661e+02, -4.093902681491858e+01, -6.358221765821024e+02, 4.771190207257256e+02, 6.519356646708204e+01, 9.044628201283200e+02
6614, 8.312734562358497e-01, 1.715695272267763e-01, -1.425219289030882e-02, -5.505831325638735e-10, 3.650100203908210e-11, 1.612291100057071e-09, -9.878112087000719e+02, -9.749035040660657e+02, -1.014246864012549e+01, -1.934229851603541e+03, 3.102743935896987e+02, 8.624611578146225e+01, 1.104321209251076e+03
6615, 8.495064972757141e-01, 1.792791464017588e-01, -1.310154773630611e-02, -4.860295352594370e-10, 5.591559092693319e-11, 6.568896736650393e-10, -9.030613718774384e+02, -8.950090264311750e+02, -2.705237334770594e+01, -1.910994122069629e+03, -3.051141278296859e+01, -2.763694219685375e+01, 1.015573348031335e+03
6616, 5.851666696194981e-01, 1.107630074595648e+00, -1.804515153835718e-02, -8.336655010278056e-10, 1.938881137594651e-10, -1.550296428269354e-09, 1.159164194049775e+03, 2.200040259824513e+03, 3.698038950297661e+02, 6.209954228739873e+03, -1.064083837554130e+03, 1.113668699176178e+02, 5.018062598252446e+03
6617, 6.607635767828747e-01, 4.736224921452882e-01, -2.684000061368746e-02, -1.116205020254609e-09, 4.153294151931413e-10, -2.050497637270986e-09, 2.069554434037702e+03, 1.966755810106576e+03, -7.770640318426426e+01, 3.739218718499375e+03, 1.323330624784521e+03, 8.446351104497379e+01, 2.874563359471845e+03
6618, 4.751899614395233e-01, 6.569573483374761e-01, -3.181705532788450e-02, -1.563593078243038e-09, 1.310768321785440e-09, -6.755174800042603e-09, 4.046984538808279e+03, 4.883027493675823e+03, -7.351885455165463e+01, 4.334881722529347e+03, 7.875258906589152e+02, -2.964790631746373e+03, 5.365437057703059e+03
6619, 6.423992192190429e-01, 4.657928031288224e-01, -2.778190870555269e-02, -8.018681041971050e-10, 2.576301481405497e-10, -5.789872460675660e-09, 4.654852105019069e+03, 5.286441937917843e+03, 6.400812587352421e+01, 1.110297443540489e+04, 1.300711580531474e+02, 8.217402854397710e+01, 6.163434363355298e+03
6620, 8.787793777433209e-01, 1.355006574003076e-01, -1.080355713545856e-02, -4.425585856139142e-10, -1.657258992329274e-10, 5.753179132296290e-10, -7.730891836059425e+02, -8.625171704145048e+02, 1.716333832338040e+01, -9.627749466607967e+02, 9.169036324861218e+02, -5.242313741827321e+02, 1.836978767703259e+03
6621, 4.568469148301035e-01, 6.491669209585724e-01, -3.166279122275584e-02, -1.905023899088475e-09, 1.405881700122964e-09, -6.981366599610087e-09, 3.776559858673283e+03, 4.635965595669639e+03, 1.490920920237066e+02, 5.702487599589947e+03, -4.235911081941894e+02, 1.573633646960037e+03, 3.290374558541960e+03
6622, 8.970052904317680e-01, 1.431567054749317e-01, -9.632720086008423e-03, -4.219259200092850e-10, -1.579992818168961e-10, 1.318502467708779e-09, -1.321078915496419e+03, -1.642191125712743e+03, -1.629675730303283e+00, -2.944554225591478e+03, 2.148759379659001e+02, -9.800249944779682e+02, 2.288522958605782e+03
6623, 9.864559975658748e-01, 4.430060901870739e-01, -5.916654094221829e-03, -9.175398339612162e-11, 8.543902269240702e-12, 2.334720256311804e-10, -1.414235489737247e+03, -2.133885177007988e+03, -1.587124371947978e+02, -3.286933380480109e+03, -7.589931703231866e+02, 6.653923596461573e+02, 2.410234096251871e+03
6624, 9.731138180167034e-01, 4.748869903973241e-01, -7.090237391899071e-03, -5.440244777170795e-10, -9.482649914634347e-12, 7.325121964072105e-10, -2.820047440295772e+03, -2.643366285364615e+03, 1.967901692572080e+02, -5.261973860510939e+03, 2.661109719444821e+02, -9.350506517449023e+02, 3.062229037275860e+03
6625, 9.896044958914280e-01, 4.628460520353114e-01, -5.860163018015692e-03, -4.507283978435498e-10, -1.506414432378201e-10, 2.417721773909323e-10, -3.753441024078681e+03, -3.864751344267705e+03, -2.494341558141624e+02, -7.793435155691089e+03, 1.076180682229797e+03, 4.704973880745297e+02, 4.495497712569826e+03
6626, 5.761580712378886e-01, 1.089519277739688e+00, -1.818945217872781e-02, -1.312344610459603e-09, 7.777748585244198e-10, -3.056312093101646e-09, 3.627397540916392e+03, 3.533584141114255e+03, 1.770759617319194e+02, 8.257952127852446e+03, 9.974429555620002e+02, -1.028577736754013e+03, 5.304517539273055e+03
6627, 8.972130204662150e-01, 1.395796982373998e+00, -1.778317834943213e-02, -5.353157877195407e-10, 2.837461013937537e-10, -2.506700785324240e-09, 3.737276182078840e+03, 3.560991348977910e+03, -2.973340038963738e+01, 7.361929535427830e+03, -1.051438253119481e+03, 9.519988573635972e+02, 4.454916899864594e+03
6628, 1.055471523084804e+00, 1.426001393048923e+00, -8.937313613153326e-03, -3.228158668594636e-10, 8.204909588643414e-11, -1.183231445730153e-09, 9.657452880041169e+02, 1.078692222647911e+03, -1.099974812147606e+02, 1.940375522994442e+03, 3.154897402316496e+02, -1.730696086096761e+02, 1.130194028482456e+03
6629, 6.727541866163844e-01, 2.916731666237401e-01, -2.519240342220089e-02, -7.507339514367393e-10, 1.884041552928690e-10, -1.160717655125123e-09, 9.717847282079165e+02, 1.048700180953685e+03, -1.454995851305147e+02, 1.514510698922165e+03, 6.846015448131679e+02, 3.363278648045065e+02, 1.437922447017743e+03
6630, 6.043031525799831e-01, 1.142892550251983e+00, -1.807285730353696e-02, -5.620158859402773e-10, 8.066900376388377e-10, -1.583591575881761e-09, 1.963575955552044e+03, 3.193474911465243e+03, 5.688390679597134e+02, 7.822828489509346e+03, -1.587409912952532e+03, -2.134350874535853e+03, 7.129790210260270e+03
6631, 1.019151730942669e+00, 1.410516723042360e+00, -1.115522509027296e-02, -2.490162020065315e-10, 1.912117150847007e-10, -3.139294575606936e-10, 5.395754859497746e+02, 6.546403864364528e+02, -9.520416132891501e+01, 9.010753493194211e+02, -1.659625698457132e+02, 4.282424957232080e+02, 8.731112546164077e+02
6632, 8.562473627423586e-01, 6.500536456843133e-01, -1.617021262524703e-02, -5.437344044286209e-10, 1.652378133009089e-10, 4.152299505399359e-10, -1.527331532078431e+02, -2.308467970894227e+02, -2.767515537496811e+01, -6.784545045259888e+02, 1.813589509516666e+02, -1.275625570710664e+02, 6.254648175716258e+02
6633, 5.583316629664484e-01, 1.054399722547233e+00, -1.839074004239075e-02, -4.804607689846985e-10, 6.079643702019772e-10, -5.746554739719848e-10, -4.078902987675933e+01, 9.826031934972585e+01, 2.953753817137550e+02, 1.605757350845134e+03, -7.747195926001447e+01, 9.312994498339488e+01, 1.675489070217498e+03
6634, 7.217125322770778e-01, 4.060759555878735e-01, -2.294434213386088e-02, -5.198706687643795e-10, 1.475986410699504e-10, -9.219950290444507e-10, 8.949104586765106e+02, 7.493185067247164e+02, -7.060000236103473e+01, 1.470690665865362e+03, 8.714136198029296e+02, -1.713748181468198e+02, 1.678599113529564e+03
6635, 6.192698632632571e-01, 6.991702943697611e-01, -2.898794521166053e-02, -5.200875145288690e-10, 7.902081468571550e-10, -9.683435960386069e-09, 6.862784794940630e+03, 8.025363145064518e+03, 7.223698442600491e+01, 1.436860898501165e+04, -5.471208675075551e+02, -1.137022036420793e+03, 7.331780963714232e+03
6636, 7.044521679239226e-01, 2.676427728961893e-01, -2.310906285129345e-02, -6.742511815613287e-10, 1.803746977172587e-10, -7.390564514918250e-10, 1.011017608881783e+03, 9.814852866547684e+02, 3.390401002842979e+01, 1.432336984937890e+03, 2.975670588581891e+02, -5.443126514003518e+02, 1.161352836537892e+03
6637, 5.770967526099454e-02, 1.694688597175133e-02, -2.979972771295224e-02, 1.088592219940644e-10, 1.119131248435528e-10, -9.046147491614274e-11, 5.855322788101212e+02, 8.998735582508448e+02, 2.300177712861613e+02, 4.481134202300213e+02, -2.608132541749013e+02, -2.890201860974500e+02, 8.799340841090986e+02
6638, 2.513321377772026e-01, 1.135320912069576e-01, -4.050507620120189e-02, -1.310368861633688e-09, 1.050583151239285e-09, -8.773260466880582e-09, 5.614379454260920e+03, 6.323777301177327e+03, 4.597835958801736e+02, 8.890414545929581e+03, -2.893579110372682e+03, -2.476690911114730e+03, 7.284657552917207e+03
6639, 8.967695859299247e-01, 8.355061247027742e-01, -1.489808381348280e-02, -4.046848826651240e-10, 1.273769267575635e-10, -8.907951753746332e-11, 3.627936403004490e+02, 1.654850876229323e+02, -5.547772699527367e+01, 4.751123265313840e+02, 5.794768778535854e+02, -8.097367508424506e+01, 1.053561335805209e+03
6640, 5.238919411896162e-01, 4.906046602384621e-01, -3.272193001215743e-02, -1.261255599243556e-09, 1.153612723142411e-09, -6.196570509656472e-09, 5.461508186392359e+03, 4.430423753184063e+03, -1.194957916832268e+02, 8.315935222093491e+03, -5.885482757371772e+02, -3.135607301795779e+03, 6.536983134238682e+03
6641, 1.002389247609567e+00, 4.306176636905223e-01, -4.709202316669887e-03, -2.958247217085225e-10, 1.687083533941254e-10, 2.369714804990890e-10, -2.485126927696035e+03, -1.942748420836149e+03, 5.051637880717540e+02, -4.368584674172535e+03, 1.088902066730166e+03, -1.331218195437024e+03, 3.808182594157746e+03
6642, 7.361383930655993e-01, 2.436307902030218e-01, -2.095823978436755e-02, -5.973249822122291e-10, 9.846437573945857e-11, -3.742435952931179e-10, 5.525331048341850e+02, 5.661717518870188e+02, -2.047591571719541e+01, 1.239286848140011e+03, 4.603532007346917e+02, 2.599352500295765e+02, 1.141132036618922e+03
6643, 6.485353729680937e-01, 6.554277758951610e-01, -2.791964375044533e-02, -9.208068525217325e-10, 2.117663271247250e-10, -2.323205768574330e-09, 2.714939705507430e+03, 2.427770582838992e+03, 1.313562995114058e+02, 4.415494341961281e+03, 1.349818377999921e+03, 6.399916439910825e+02, 3.195193149989102e+03
6644, 6.326334573167557e-01, 6.674004731710654e-01, -2.854960490782796e-02, -8.915073180047473e-10, 1.595593518330787e-10, -2.617633200453764e-09, 2.238959980140835e+03, 2.251030403162851e+03, -3.336102930171180e+02, 3.083761566613407e+03, 6.047225027599250e+02, 7.995267100243539e+02, 2.013038147199600e+03
6645, 5.228772321033395e-01, 9.834125430423268e-01, -1.890632111381344e-02, -3.362514809188310e-09, 1.453142603097177e-09, -6.548876107812441e-09, 6.722004369268571e+03, 6.305832807616221e+03, -3.879779276787430e+02, 1.539708226221364e+04, 2.977182543713165e+03, -1.081415520661728e+03, 1.046858647714238e+04
6646, 6.240160859882685e-01, 4.580188351587451e-01, -2.869099747932388e-02, -5.574535835724059e-10, 4.938302530743524e-10, -2.006091337213236e-09, 1.608267728752091e+03, 1.669716411904489e+03, 1.735825983175250e+02, 2.953566306625051e+03, -9.783010395472818e+02, -6.064294158862845e+02, 2.407450687935579e+03
6647, 9.263108688759321e-01, 9.954503718475222e-02, -7.283344261581342e-03, -3.662867538827194e-10, 3.417185443193865e-11, 3.244461411757452e-10, -1.190754367362787e+03, -1.493155596151865e+03, 4.800896195921392e+01, -2.447918341646222e+03, 2.622344816868435e+02, 5.352450180493549e+02, 1.537666046408798e+03
6648, 2.615600411500180e-01, 6.198138046127875e-02, -4.134653581666081e-02, -7.784007123621904e-10, -1.373740826799994e-10, -7.559820581930486e-09, 6.567963599402152e+03, 7.834466931119019e+03, -4.421286311520404e+02, 9.307765161552883e+03, -1.326965319758400e+03, 1.347510266416794e+03, 4.117872180602523e+03
6649, 3.200131448209100e-01, 3.856314304825103e-01, -3.504195943795030e-02, -2.456704333565336e-09, 5.256998980833811e-10, -7.469581367320520e-09, 5.111164280807461e+03, 4.169593462580330e+03, -3.201073393078277e+02, 1.026775009104517e+04, 1.002759200974598e+03, 4.074563665048838e+03, 9.244588411484217e+03
6650, 7.678218834265716e-01, 2.196233920847556e-01, -1.875882080699186e-02, -5.565554549932870e-10, 8.855610283441967e-11, -2.021796969657843e-11, 1.803261782749043e+02, 8.860524256720083e+01, -2.452466369815068e+01, 1.274852749865536e+02, 7.726167736489931e+01, -2.878950697701790e+01, 1.689889313131264e+02
6651, 7.367727786506931e-02, 1.247766008466748e-01, -1.164743106789650e-02, -2.083019449125785e-10, 2.075388727820659e-10, -2.780620745323091e-10, 6.085866071868666e+02, 1.150984990941777e+03, 4.158096937397461e+01, 1.574190544490737e+03, -4.585827284415095e+02, -3.312390489729611e+02, 1.291543327072704e+03
6652, 8.594780169189128e-02, 1.494978436476787e-01, -1.155436236909141e-02, -8.398588311746473e-11, 2.889130221717976e-10, -9.485054780288925e-10, 8.340962416334197e+02, 1.990980063402843e+03, 6.495894533357121e+02, 7.663446786061874e+03, -1.882372962660605e+03, -1.351238368141839e+02, 7.213064710430906e+03
6653, 9.023027317906083e-01, 1.434856206853646e+00, -1.756416402026367e-02, -4.826207926721781e-10, 7.297574285077947e-10, -1.282083656062450e-09, 2.342848355588401e+03, 3.223653875625530e+03, -1.593279433825922e+02, 3.912664168488539e+03, 5.588768430621867e+01, -1.927212255484338e+03, 3.617375475476825e+03
6654, 1.010712621118734e+00, 3.599151877739882e-01, -3.538206598417589e-03, 2.043967139386380e-10, -2.914326144225243e-10, 8.000481970219474e-11, -1.651956523953263e+03, -1.443383469077539e+03, -2.177754544717641e+02, -4.194499409358220e+03, -9.501188174550077e+02, 1.130193670856514e+03, 3.704160084093941e+03
6655, 8.153586877556183e-01, 1.835993879857652e-01, -1.539318514251069e-02, -4.954583829805047e-10, 2.551862633235322e-11, 4.147468987380874e-10, -3.931951240768158e+02, -4.185132838652858e+02, -4.053837107384833e+00, -6.040039342519383e+02, 5.245836848586846e+02, -2.813354435595830e+02, 1.050145892710114e+03
6656, 8.602480312903493e-01, 1.509728191286122e+00, -1.834280595343025e-02, -7.723419393996208e-10, 1.451055734576042e-09, -4.738631514514011e-09, 6.699137624270699e+03, 8.399718464950003e+03, -5.399189477213765e+01, 1.226781103273120e+04, 4.896381781221482e+03, -2.939507857977767e+03, 1.105832933933638e+04
6657, 8.629125037296124e-01, 1.475186376028499e-01, -1.196236641219370e-02, -4.318919673356746e-10, -2.211765659184026e-11, 2.484508482053073e-10, -3.999410375595604e+02, -4.351748320290619e+02, -8.131274388625644e+01, -6.552878931051682e+02, 1.733782891259814e+02, 2.637565280295555e+02, 6.133225064297993e+02
6658, 1.134698378867789e+00, 1.515107317201824e+00, -4.363484690835275e-03, -3.087992262613032e-10, 4.910720945699951e-12, 1.651909574855178e-11, -1.249877700507261e+03, -1.291432951668163e+03, 6.286903137304979e+01, -2.403060314571460e+03, 9.559576498255221e+02, 1.300561730821279e+02, 2.021831506749420e+03
6659, 7.427086507189582e-01, 4.335980295548411e-01, -2.183461601567618e-02, -5.951682930551523e-10, 1.940752779223315e-10, -4.865117385535181e-10, 7.490615679591529e+02, 7.181205249054243e+02, 3.345366222230712e+00, 9.277170051139690e+02, 2.741601676899613e+01, -4.667857994443686e+02, 8.332816660551773e+02
6660, 8.795736662869780e-01, 9.776337696725212e-01, -1.694663992788993e-02, -4.436767585359419e-10, 2.144536321066367e-10, -1.564160047366210e-09, 1.435200886526991e+03, 1.363752738524995e+03, -9.196369695787926e+01, 2.395647487463512e+03, -1.093981381530007e+01, -3.518728201606142e+01, 1.012733962941707e+03
6661, 9.583492807257127e-01, 7.487816522746771e-02, -4.855723543336386e-03, -3.184686373336568e-10, 1.002899550454794e-09, 5.827216278855120e-09, -9.615270183047696e+03, -9.737897503167023e+03, 1.800912847186482e+02, -1.851637708183909e+04, 4.439957345147694e+02, -5.315934082025278e+02, 8.926908339536529e+03
6662, 9.104007386557657e-01, 1.115707728373909e-01, -8.470671170638194e-03, -4.366722524260358e-10, 8.170272111096070e-12, 7.554204808246591e-10, -1.598077095223266e+03, -1.950154265476186e+03, -3.907874811162262e+01, -3.765862533043947e+03, 2.244177303665175e+02, 3.963149252304226e+02, 2.164923147418631e+03
6663, 7.755992705362256e-01, 5.596586357508471e-01, -2.062982382668094e-02, -5.563079816384205e-10, 2.063031215450127e-10, -4.492681116983385e-10, 7.298910278376175e+02, 4.835189817613668e+02, 3.923195253218834e+01, 9.458339130033385e+02, -1.498428635966102e+02, -1.267817037489132e+02, 5.298393115113049e+02
6664, 9.571835862131042e-01, 4.869220104229940e-01, -8.270387138775181e-03, -3.370861248763480e-10, -9.543547689480885e-11, 8.320429590871711e-10, -1.923697587360232e+03, -1.822667367481902e+03, 1.409430511020084e+02, -4.766594598535368e+03, -4.286911444528845e+01, 5.517783624374605e+02, 3.059080781746693e+03
6665, 1.153557611084554e+00, 1.523409884246246e+00, -3.140957752123620e-03, -3.160532075660169e-10, 3.169427266372426e-10, 2.469888560425174e-09, -5.848414299224503e+03, -5.779145171025366e+03, -6.288522741836499e+01, -1.201088924970403e+04, 2.441189406916998e+02, -2.121903511495883e+02, 6.223623145502669e+03
6666, 9.421823150747726e-01, 8.736494439132186e-02, -6.086993654584425e-03, -4.782486946135528e-10, 1.368791681101653e-10, 6.825872081789612e-10, -2.798211255672767e+03, -2.888514673600132e+03, 5.538171962873738e+02, -5.736114132291066e+03, 2.823265277095366e+03, -1.471886441019063e+02, 5.768166066832664e+03
6667, 1.474603553678522e-01, 2.705998464579265e-01, -1.251769571725280e-02, -3.380237147452532e-10, 3.597015339634176e-10, -4.959883118364940e-10, 4.377254202636606e+02, 6.297359671558797e+02, 4.430642721224769e+02, 1.631494067028121e+03, -3.931664614044900e+02, 1.667827293181676e+02, 1.539104396913468e+03
6668, 1.642964239968249e-01, 2.731921054025697e-01, -2.292488665681425e-02, -2.196093041840209e-09, 1.183283421588684e-09, -2.917063294927092e-09, -6.946084414584276e+02, 2.268309831183909e+03, 1.186418734653031e+03, 6.852470237219398e+03, -2.559138646014736e+03, 1.815348197472019e+02, 8.206406563966644e+03
6669, 1.709046451061084e-01, 2.894077013325680e-01, -2.233183861419090e-02, -1.606304031948080e-09, 1.103048912777534e-09, -1.701500550309522e-09, 3.755522078264570e+02, 5.543022855354097e+02, 1.244648172950093e+03, 4.240442317013150e+03, -3.912645257530613e+02, 1.708453665538547e+03, 5.304868568731464e+03
6670, 9.178870156260815e-01, 1.423005818002440e+00, -1.691575943968914e-02, -5.615449165189301e-10, 6.620652109149874e-10, -1.145938721986890e-09, 1.698993263753424e+03, 2.571857924142330e+03, -2.572176722803834e+02, 2.643868623942186e+03, 1.578172524087028e+02, 6.421728668287894e+02, 1.529801775464229e+03
6671, 7.571993567133246e-01, 5.518861435833404e-01, -2.170520171636825e-02, -6.227053779404253e-10, 1.420957059655235e-10, -6.510564886948095e-10, 9.995090099997344e+02, 8.554456870691017e+02, -7.123452199059946e+01, 1.793601210842655e+03, 2.285911515446716e+02, 3.967278202297055e+02, 1.187392071186255e+03
6672, 2.488486075800019e-01, 9.381409843523070e-02, -4.085854206930132e-02, -1.415526808401562e-09, 5.184961744078783e-10, -7.855963959541955e-09, 5.583704795337212e+03, 6.097516340655476e+03, 1.575404905415279e+02, 8.818274066565875e+03, 3.286088361416782e+03, 5.659121879377782e+02, 6.518806534002705e+03
6673, 6.081030005828775e-01, 4.700459158978603e-01, -2.948671921428299e-02, -5.431228815362320e-10, 2.863146638412295e-10, -2.724425990951629e-09, 1.623118187618695e+03, 1.604405071577013e+03, -1.318515742201599e+02, 2.189180708164966e+03, 9.728191683636031e+02, -1.007345839787846e+03, 2.503376238244388e+03
6674, 1.833966946468437e-01, 3.416985367488105e-01, -1.288554122048728e-02, -6.423254997262553e-10, 3.660062796814197e-10, -1.137069486438705e-09, 4.789669484357493e+02, 1.219339588338041e+03, 6.625662571300311e+02, 5.051308528905813e+03, -7.408878591708292e+02, 4.057542714440021e+02, 4.639704597190535e+03
6675, 8.791437667258629e-01, 1.388075463692310e+00, -1.848385236294057e-02, -4.306994779675269e-10, 5.789264595991200e-10, -1.519179819421039e-09, 3.795349913311466e+03, 3.161021975843227e+03, -4.265484950115846e+02, 4.198714300094746e+03, -4.968418412923588e+02, 1.054606339601221e+01, 1.451778226940977e+03
6676, 7.191536495603383e-01, 3.862317557024714e-01, -2.297444076246188e-02, -5.793436098795791e-10, 1.454586994460378e-10, -8.068798914056471e-10, 7.942769001562727e+02, 1.001470265980052e+03, -1.236188513864434e+02, 1.746682198760260e+03, -5.114512223399564e+01, 4.551014670093487e+02, 1.194871228152080e+03
6677, 7.748758890406610e-01, 6.900510738556487e-01, -2.148291170906211e-02, -5.299931221994332e-10, 2.361485919641737e-10, -9.182684215699371e-10, 1.251420000672391e+03, 7.772198502006451e+02, -1.740027053149506e+01, 1.404029291746122e+03, -4.822344008580639e+02, -1.415204906725693e+02, 1.038828780606858e+03
6678, 2.101213509038722e-01, 3.949405651982306e-01, -1.297117336022291e-02, -7.668573331785108e-10, 4.263355236972151e-10, -9.454399439040445e-10, 6.065897590018133e+02, 8.572629848905008e+02, 6.727606036750915e+02, 3.634718120915611e+03, -6.298558841194407e+02, 3.658712846041007e+02, 3.379776460368829e+03
6679, 2.174787639405048e-01, 3.801651625047363e-01, -2.217734541851003e-02, -2.003568793781570e-09, 1.313745497134346e-09, -3.004521249362216e-09, 1.689773470548245e+03, 1.429999912850160e+03, 1.501765059963310e+03, 4.134830550793376e+03, 1.295028556354946e+03, 2.376169163954722e+03, 5.951191398530056e+03
6680, 7.123951740303049e-01, 8.881045941147119e-01, -2.530661237585405e-02, -6.149233442883917e-10, 5.846859550599693e-10, -2.402028953369872e-09, 2.108801648007775e+03, 1.671550967280877e+03, -3.840338754454986e+02, 2.268218622183180e+03, -7.737411870149953e+02, 8.821538521811044e+02, 2.204396899971071e+03
6681, 6.805061972073541e-01, 6.315158317874745e-01, -2.639883421727516e-02, -8.174177936782887e-10, 1.917780703526173e-11, -5.827706836232082e-09, 4.456370622678473e+03, 4.065277393715770e+03, -1.500349429179765e+02, 8.367582457787701e+03, 1.894708360011140e+02, 3.762442813096026e+02, 4.192861638740013e+03
6682, 7.345412638314752e-01, 1.065705155391908e+00, -2.417783098970845e-02, -5.461688458546115e-10, 6.358406136650562e-10, -3.222681652233779e-09, 2.285818446632465e+03, 2.369538710376277e+03, 2.567525358121675e+02, 3.305720388376741e+03, 2.190083285680999e+03, 7.447293310432764e+01, 3.945329040228544e+03
6683, 4.120208295143679e-02, 5.717673630191360e-02, -1.300044827845351e-02, 3.686716680729299e-10, 1.525036414374154e-10, -7.742181446850060e-12, 1.333768319757785e+03, 5.516645116558032e+02, -2.902144308816105e+01, 8.029008108765842e+02, -3.472607570081680e+02, 4.352821448774019e+00, 9.179688731399685e+02
6684, 7.929526650662440e-01, 6.978319296288122e-01, -2.044973185059448e-02, -3.655147892365617e-10, 2.750187008447076e-10, -2.351714330119059e-09, 1.885430286237998e+03, 1.867761109697577e+03, 2.007982662607392e+01, 4.140445563646025e+03, -8.666710904092852e+01, -1.103883234764332e+02, 2.277180333601500e+03
6685, 7.085116674489642e-01, 9.986888452380861e-01, -2.521998594863816e-02, -7.873238222137179e-10, 5.371704424301382e-10, -2.911117734130065e-09, 3.473416365128888e+03, 2.906280171122323e+03, -1.340393917757284e+02, 4.924055453045602e+03, 7.816648259376345e+01, 1.894948862099431e+03, 3.754121788075631e+03
6686, 1.114123354023078e+00, 1.189225548909211e+00, -3.149445885355929e-03, -1.279563757705386e-09, -1.360765945674668e-10, 4.919461589783965e-09, -1.218760855334099e+04, -1.297632240579063e+04, -2.930512235353508e+02, -2.606787709589080e+04, 6.800415732387980e+02, 8.172262233620650e+00, 1.356398065906796e+04
6687, 8.383555654648339e-01, 9.227970692239897e-01, -1.908773220862570e-02, -6.230231331913812e-10, 1.179679139827489e-10, -8.277998971749921e-10, 1.642121385111074e+03, 1.370894247718661e+03, 8.875218228638659e+00, 3.365237305621808e+03, 1.120129772263869e+03, -3.007722934119808e+02, 2.746952635226080e+03
6688, 1.063491876232953e+00, 1.205747594691462e+00, -6.738483115172414e-03, -2.370226419504135e-10, 4.992348056296602e-11, 1.208172170296735e-11, -3.904544855883241e+02, -4.258082261835932e+02, 1.144482043462148e+01, -5.565574439362144e+02, 3.160855917569887e+02, -1.423417138297621e+02, 6.195760365168117e+02
6689, 8.383695920919391e-01, 1.203073813515617e+00, -2.017381964278902e-02, -3.222601932240620e-10, 9.657243264644230e-12, -1.545208559278060e-09, 2.229052437148594e+03, 1.887792980906689e+03, -5.605065193566671e+01, 2.821437275520652e+03, -9.575191627573354e+02, -6.388893352544643e+02, 2.157319484228482e+03
6690, 8.061728405989460e-01, 1.227119116630512e+00, -2.137196318193658e-02, -1.187293034943420e-09, 2.160384560032392e-10, -8.691432093326319e-09, 6.740259796563013e+03, 7.301942607903764e+03, -6.255147329627323e+01, 1.338410635625244e+04, 5.382746256834471e+02, -8.072938967734869e+02, 6.600043739339266e+03
6691, 9.526550164540171e-01, 1.289166965922156e+00, -1.446427798378571e-02, -4.556781601516214e-10, 1.905385684229030e-10, -4.562539118011176e-10, 1.162856044598995e+03, 1.059524666403404e+03, -9.300638140808958e+01, 1.448207498711630e+03, -3.342892066757294e+02, -8.143549201715382e+02, 1.572357712220058e+03
6692, 9.791862092908599e-01, 1.226161650977723e+00, -1.240341860222404e-02, -3.646586019290772e-10, 5.553815164853032e-11, -9.904006599867962e-10, 1.138975553965710e+03, 1.068134869989068e+03, 1.647198677392929e+01, 2.269558564498315e+03, 5.162981392929028e+01, 6.823991823359388e+01, 1.177331122240167e+03
6693, 9.506122974207716e-01, 9.889880197340379e-01, -1.253837611009934e-02, -4.039340816166683e-10, 8.284348143415897e-11, 7.046659018622945e-11, -2.061900589441814e+01, 5.453980290018222e+00, 1.687412168039403e+01, -1.675201597917882e+02, 2.819123528215385e+02, 1.616252127685815e+02, 5.862899978304639e+02
6694, 8.452786487697208e-01, 1.262351987153166e+00, -1.989576571045243e-02, -1.622303776947384e-10, 4.792531725408798e-10, -2.069188009093307e-09, 1.254390924258163e+03, 1.613478159779947e+03, 7.341663399037992e+01, 2.043835214362862e+03, 1.908790181547575e+03, 5.679252181392684e+02, 3.518936430274600e+03
6695, 7.720702262407289e-01, 1.231440489061987e+00, -2.234183039809199e-02, -9.466654233261202e-10, 3.153980108384064e-10, -2.552596394362825e-09, 3.449549794015280e+03, 3.144721611976381e+03, 3.318169654091075e+02, 3.902208684206555e+03, 1.449692779979567e+03, 7.555277451864251e+02, 2.963680982128326e+03
6696, 8.588485480141557e-01, 9.502577650129818e-01, -1.803180834391525e-02, -5.172062234490587e-10, 1.204286970473482e-10, -6.713151049235621e-10, 1.138495399238200e+03, 9.715244503116064e+02, 1.076196468054354e+00, 1.714153044396731e+03, 7.254819747174967e+02, 1.340123827686310e+02, 1.445071916274885e+03
6697, 7.412899280525421e-01, 5.638566212207776e-01, -2.273204721622199e-02, -6.142199195965511e-10, 2.313255474569404e-10, -1.107672410855067e-09, 1.470540374046562e+03, 1.607040821058550e+03, 3.481097417377179e+01, 2.720644551768754e+03, -3.010191249132840e+02, -7.946032883176709e+02, 1.892196913113840e+03
6698, 8.346655647419131e-01, 1.443226849114718e+00, -1.938227581813243e-02, -6.491816614657115e-10, 6.997062762300426e-10, -3.470176296708617e-09, 5.241123517389052e+03, 5.492208677883826e+03, 8.626719596419194e+02, 8.548071396470981e+03, 1.044540684598787e+03, 2.008085242050435e+03, 5.269881020198073e+03
6699, 9.137607219009826e-01, 9.735254494256387e-01, -1.478892002373908e-02, -4.246709266661365e-10, 1.377739693276836e-10, -1.141276833401253e-10, 5.026608163404862e+02, 3.909919688922515e+02, -3.421968499183381e+01, 3.921857144423549e+02, 1.568759244511056e+01, -9.974949662460627e+01, 2.154975655377775e+02
6700, 2.925960512626992e-01, 5.560661401063687e-01, -1.462598004806218e-02, -7.973581328577393e-10, 3.700375350179688e-10, -6.414846592132261e-10, 3.574526211791127e+02, 5.385717728268921e+02, 6.209292291898869e+02, 3.016495555602683e+03, -1.637152182921444e+02, 1.716545864801310e+03, 4.086363460671543e+03
6701, 9.610728633624214e-01, 1.218384769486655e+00, -1.349097257602151e-02, -3.454741364804647e-10, 8.772481158031218e-11, -1.547801234362263e-10, 4.308678731659717e+02, 4.285577859581509e+02, 1.073403324108794e+01, 5.669990647788348e+02, -9.219999704092797e+01, -2.684981818221313e+02, 5.108556649920314e+02
6702, 9.710706012093717e-01, 1.016459479760309e+00, -1.141089272048457e-02, -3.558831564390400e-10, 1.035474708586550e-10, 1.109015920664927e-10, -8.626973767220535e+01, -1.650277663643250e+02, -2.951911369781369e+01, -4.090761850457978e+02, 5.800992638199700e+01, -3.825100244664492e+01, 3.195031088530208e+02
6703, 9.501888558748444e-01, 1.269481660575844e+00, -1.449181383746029e-02, -2.531770546781895e-10, 2.177249368953912e-10, -3.840634095804620e-10, 1.030341363382769e+03, 7.193891739089015e+02, -8.093769640175100e+01, 8.923500566736282e+02, 2.169387537657477e+02, -8.926039931472243e+01, 5.075100228828642e+02
6704, 8.352722272651987e-01, 6.180276547911105e-02, -1.314654183366136e-02, -2.891444605238497e-10, 2.284173341222264e-11, 5.940487018081374e-10, -6.415588551956909e+02, -6.602959955880244e+02, -1.062282416113379e+02, -1.092179153862012e+03, -1.275363886959586e+02, -6.180909667914182e+02, 1.193199747385257e+03
6705, 9.319858068683309e-01, 1.261766424581243e+00, -1.552911100785900e-02, -3.518152372573118e-10, 3.174617656871102e-10, -1.090177615535090e-09, 1.874954332247055e+03, 1.638267585633153e+03, 1.450862010517310e+02, 2.139572088650593e+03, 1.263680257336349e+03, 1.617770161672408e+02, 2.262963431723526e+03
6706, 1.075736738106591e+00, 1.453390142306623e+00, -7.817302175825703e-03, -3.333214226344385e-10, 1.190376788074780e-10, 7.832125219546632e-10, -6.642459033747460e+02, -8.591478992423030e+02, 5.053916218028636e+01, -1.649966623993143e+03, 3.906716479362290e+02, -2.698681909386044e+02, 1.225371512203456e+03
6707, 8.002543258929140e-01, 1.317868661055193e+00, -2.111568794320334e-02, -5.147398548325250e-10, 9.622860783462527e-10, -4.646417268870824e-09, 4.375931314950963e+03, 4.583158443870321e+03, -1.860435149167178e+02, 6.991597949001361e+03, 1.936358506061027e+02, 2.301402168051970e+03, 4.737963154167701e+03
6708, 9.295049830457550e-01, 1.242024536882063e+00, -1.556175858281480e-02, -3.971849411023752e-10, 3.031053224803208e-12, -2.612865820246704e-09, 2.267040120341177e+03, 2.044798411187722e+03, -1.000903948243932e+02, 3.485908328475975e+03, 2.230799265810058e+02, -2.255563054153718e+02, 1.462152387056232e+03
6709, 8.955628777563829e-01, 9.657763535303199e-01, -1.588031690337738e-02, -4.548002439515190e-10, 1.094310606998149e-10, -4.381127592267203e-10, 4.741549411559344e+02, 5.799074497453639e+02, -9.328876061319207e+01, 8.636757967739067e+02, 5.206412220607911e+02, -1.158200551044425e+02, 1.000634979797878e+03
6710, 6.763004981185491e-01, 4.885959110214659e-02, -2.339129958703235e-02, -2.392900475145241e-10, 4.879908511702746e-11, -7.256096402497839e-10, 1.092178137510889e+03, 1.021146325726713e+03, -1.236979973718321e+02, 1.557063935978578e+03, -2.449959744952156e+02, -2.029646853226560e+02, 7.770087908914140e+02
6711, 9.869984950539605e-01, 1.004470442404971e+00, -1.027781866399434e-02, -3.681989655084145e-10, 9.338617746882440e-11, 1.397232274514602e-10, -6.860214538752509e+02, -6.700445991175155e+02, 9.166032211206445e+01, -7.923546560930096e+02, 5.906100837672676e+02, -3.386769261316075e+02, 1.195421564923125e+03
6712, 9.154880640974943e-01, 1.403401928943446e+00, -1.699330565722532e-02, -7.038733014283623e-11, 3.713282108854249e-10, -5.157546328885692e-09, 4.848357060425966e+03, 4.878352626239798e+03, -2.734288904522786e+01, 9.335366101281174e+03, 1.914777662327401e+02, 2.491144991475998e+02, 4.505326591755338e+03
6713, 9.407570416323434e-01, 1.190633916257868e+00, -1.456666200022277e-02, -2.343741152055245e-10, 1.457076528791514e-10, -1.142919189611053e-09, 1.079561189224348e+03, 1.004978583383800e+03, -1.171697651193861e+02, 2.022899562657850e+03, 2.485647164565338e+02, -2.684183784131308e+01, 1.092935247449743e+03
6714, 8.029913889938761e-01, 1.337666920606823e+00, -2.090009404126553e-02, -6.252382270578726e-10, 9.677578148333833e-10, -3.179444550738393e-09, 3.148567929485804e+03, 4.796198778044119e+03, 2.003445689813378e+02, 7.366984603391590e+03, -1.467059230136653e+02, -3.713209594373761e+03, 7.423482430878266e+03
6715, 7.560433093842844e-01, 6.823630801135538e-01, -2.253872229059184e-02, -5.889217894109373e-10, 1.682812474559623e-10, -1.367173059899120e-09, 1.342910051932332e+03, 1.271979519363285e+03, -8.587160022392614e+01, 2.326858528073606e+03, 5.703555812607364e+02, 7.452192592857546e+02, 1.925375607307978e+03
6716, 7.880087959552475e-01, 1.219345261963724e+00, -2.198022423052947e-02, -8.277569756620695e-10, 2.455735077363171e-10, -2.519669646182870e-09, 3.826651033485589e+03, 3.271975051648138e+03, 1.828731618928340e+02, 5.176376877165718e+03, -1.581016941803279e+03, -8.437298330531531e+02, 3.551464119185321e+03
6717, 1.077893525707894e+00, 1.324165109353318e+00, -6.691974645788525e-03, -2.890158470215541e-10, 1.814261711942460e-10, 1.610002657865356e-09, -2.479492938802201e+03, -2.402774035400051e+03, 7.197555436790984e+01, -4.191937571541847e+03, 5.543942969565798e+02, 2.293642120182454e+01, 2.002225779907207e+03
6718, 1.091943046432507e+00, 1.441349419979514e+00, -6.656727399735945e-03, -2.068854894809986e-10, 2.479557684670099e-10, 1.313161257145252e-10, -1.009186859645507e+03, -1.010074174506571e+03, 4.301615776971609e+01, -2.384053864366444e+03, 6.709088610133210e+01, -7.514939591043915e+02, 1.897979022609386e+03
6719, 1.094889400043757e+00, 1.311823975067262e+00, -5.454786269606795e-03, -4.553890454889057e-10, 3.666517933052478e-10, -1.137294286051107e-10, -2.158528623126645e+03, -1.803036317290828e+03, 6.972672585137867e+01, -4.406188482121909e+03, 1.267149179604240e+03, -9.970640124420606e+02, 3.713673642228952e+03
6720, 1.114079836429020e+00, 1.339515325757706e+00, -4.370862879113431e-03, -5.295161198245817e-10, 2.743575965376504e-10, 4.033708860340729e-09, -6.455497337129583e+03, -7.175358170113402e+03, -1.174547334942386e+02, -1.380101174462487e+04, 1.580095718639130e+02, -4.129299102641804e+02, 7.057963917415960e+03
6721, 2.808656426770023e-01, 4.803851094501660e-01, -2.459864213896353e-02, -1.265639948713401e-09, 7.735402792882730e-10, -3.440020786636815e-09, 2.724323164186480e+03, 3.824192974456606e+03, 3.394969719307144e+02, 9.253150780393325e+03, -2.314936994543264e+03, 5.709777223189228e+02, 7.352214929957087e+03
6722, 1.109810219270111e+00, 1.449098664721234e+00, -5.524148308498460e-03, -1.638163675034496e-10, 3.749824129990113e-11, 1.806805494840793e-11, -2.733447427362462e+02, -2.881435009855961e+02, 1.865327675509957e+01, -4.728727355932524e+02, 2.225957834400118e+02, -1.673389156716295e+02, 5.203605263280398e+02
6723, 1.125919525624185e+00, 1.437661115688141e+00, -4.345866591607970e-03, -3.520845006535003e-10, 8.593180136248742e-11, 3.597211514110757e-11, -1.994871349476388e+03, -1.526832964714979e+03, 2.052242007789212e+02, -2.039806876761101e+03, 1.465981830515721e+03, -4.428710094401763e+02, 2.721061185604167e+03
6724, 1.132561057598354e+00, 1.347154143143798e+00, -3.160361757260364e-03, 5.356038686475543e-11, -1.699896815077271e-11, -2.322746044442482e-10, -1.414280171661670e+02, -5.607152641893298e+02, -1.373856686168132e+02, -8.954371253675524e+02, -8.467350450283251e+02, -2.999496614640476e+02, 1.704581972524988e+03
6725, 1.133496353883598e+00, 1.216710664681412e+00, -2.014869522516106e-03, -2.780505772273918e-11, 7.685871620815148e-12, 5.775092557098405e-12, 5.390773026593022e+02, 8.778581640679563e+01, -6.431705837142150e+01, 6.274097903018690e+02, -2.870628457579041e+02, -2.345649343475893e+02, 8.222029816795360e+02
6726, 5.125707896052600e-01, 9.993663571507055e-01, -1.267570745277285e-02, -4.848733739282790e-10, 6.521295940230979e-11, -6.686821977444926e-10, 4.903729808674926e+02, 9.161848746931803e+02, 6.905157741826670e+02, 3.585394582588011e+03, -3.231246030869525e+02, 1.365694940827066e+03, 3.972607471060730e+03
6727, 5.214734113944909e-01, 1.017057897980069e+00, -1.268713540252596e-02, -1.876514958984804e-10, 3.946476248421044e-11, -2.626533671039615e-10, 3.623918084622694e+02, 7.318775004529143e+02, 8.271327315684668e+01, 1.175501121345511e+03, -1.819988103756864e+02, 3.328009080639461e+02, 9.743709072917636e+02
6728, 3.283200391392820e-01, 3.306699917991551e-02, -4.036529242418505e-02, -4.601918953461542e-10, -4.318728918117542e-10, -3.470597194338121e-09, 2.764643845135969e+03, 2.631281937079455e+03, -1.723843591751575e+02, 3.959180338103129e+03, -1.156313064944433e+03, -2.522164820672262e+03, 4.978783331272258e+03
6729, 8.450731897840784e-01, 1.521560284940509e+00, -1.813743776530791e-02, -1.191862891523724e-10, 2.225570223936980e-09, -1.522160937336322e-08, 1.113761819421630e+04, 1.266023626722342e+04, 3.808215315005895e+02, 1.993321645298664e+04, 2.595172187372536e+02, -5.120443968133885e+02, 8.228746485593587e+03
6730, 5.482243609910589e-01, 1.070374071689497e+00, -1.264741612288475e-02, -1.296931708216476e-10, 2.033254887862069e-10, 9.480188403240795e-11, 1.353827693913778e+02, 8.605635107469617e+01, 1.345866748908801e+02, 2.934201147508309e+02, 6.301647612466607e+01, -2.908577965118305e+02, 5.960310693397519e+02
6731, 5.571256811088646e-01, 1.088096502279515e+00, -1.263522602712730e-02, -2.038956424343190e-10, 1.282292094409723e-10, -4.651476193139220e-10, 8.721387706668005e+02, 8.869544270879709e+02, 2.875344382473519e+02, 4.041084002756864e+03, -3.211094395956973e+02, -2.212189518385091e+02, 3.271033297594205e+03
6732, 3.880653640727341e-01, 7.505332594281532e-01, -1.291175666047426e-02, -3.947176001847195e-10, 2.635074419387465e-10, -3.232807961232316e-10, 4.433708706106991e+02, 4.048223367261880e+02, 2.412759871064845e+02, 1.149697897348597e+03, -2.277228814541935e+02, 1.888185799362586e+02, 9.822344607843177e+02
6733, 5.749496258882026e-01, 1.123636298165440e+00, -1.258363023231862e-02, -3.312155169814446e-10, 1.316790492953853e-10, -3.664721692253802e-10, 3.995983684894957e+02, 4.963504641535516e+02, 1.776873117072716e+02, 1.544364922155097e+03, -3.313306285275351e+02, 4.990016094663458e+02, 1.542776388356451e+03
6734, 5.839138931490855e-01, 1.141390437769512e+00, -1.259140867221084e-02, -8.082296802969015e-12, 3.408205330978312e-11, -1.562997650949343e-10, 9.633517272831573e+02, 1.072317989887421e+03, 3.942044905386102e+02, 2.215256654994842e+03, -3.500724198920011e+02, 9.765049051206252e+01, 1.518280174008545e+03
6735, 9.954668094002500e-01, 1.214349314714196e+00, -1.127754382057606e-02, -3.550801174624215e-10, 1.265248322034884e-10, -1.072633414145397e-11, 1.089379425855337e+02, -2.343333251739957e+01, 8.257410959185368e+00, 6.501525220403585e+01, 5.414886192392854e+02, -2.375173527257523e+02, 1.030880721525421e+03
6736, 8.288700414188730e-01, 1.532012739678168e+00, -1.741263211253131e-02, -1.248316319631641e-09, 2.359726518621046e-09, -4.111780845685483e-09, 3.961700190409986e+03, 5.728705021514986e+03, 8.204146959702450e+02, 6.213727717082515e+03, -5.124780464406601e+03, 3.091906504932072e+03, 1.066318963938716e+04
6737, 9.880980490060872e-01, 1.345272413147440e-02, -2.307896982306608e-03, -1.140066488333008e-11, 2.405753040408737e-12, 8.115109329286793e-12, 2.204415100797705e+02, 1.810464411125232e+02, -1.047778962842163e+02, 8.373726986059930e+01, 1.238067678416324e+02, -5.313218092258703e+01, 3.197549118770044e+02
6738, 6.461317824003964e-01, 1.265927183648939e+00, -1.215999887086270e-02, -1.360458119927790e-10, -2.499637022234467e-10, -8.005283145455159e-10, 2.057559189026445e+03, 2.242400222599276e+03, 4.891471954781071e+02, 6.393748265642557e+03, -1.387670666725203e+02, 2.140586592289258e+03, 5.705882311732762e+03
6739, 3.687527362305821e-01, 6.300254496856657e-01, -2.588259694514487e-02, -1.910640784499463e-09, 8.838138035253393e-10, -4.587337492066991e-09, 3.864310513936729e+03, 4.130893744105168e+03, 4.325310896025607e+02, 8.486164189945181e+03, -1.788411475637479e+03, 2.124469328634605e+03, 6.625488312014820e+03
6740, 1.029443861598867e+00, 1.210072987922875e+00, -9.032439964724106e-03, -4.499665961289145e-10, 2.645127831876645e-11, 1.786616769001875e-09, -1.384870237700337e+03, -1.497218795766667e+03, -1.178909887267947e+02, -2.948210326667796e+03, 2.756716513904889e+02, -4.732154077511677e+01, 1.599191310001276e+03
6741, 1.045485959196157e+00, 1.197747877519030e+00, -7.878329910384903e-03, -2.363303312551663e-10, 5.478396094488654e-11, 1.957978698369589e-10, -6.342712239847159e+02, -8.235707142670663e+02, -1.320807275909964e+01, -1.374581043473653e+03, -2.441899987691949e+02, 1.654087909768518e+02, 8.397871663848074e+02
6742, 7.271424731681811e-01, 3.464587412752138e-02, -2.004326063980526e-02, -2.316908394446829e-10, 3.643172050079200e-11, -2.351132756338445e-10, 3.251025747349675e+02, 3.272298328727565e+02, -1.601650930991579e+02, 5.020422773403803e+02, 4.601825284378779e+01, -2.477363569304778e+02, 5.462300840537225e+02
6743, 1.079536147477587e+00, 1.193653113903193e+00, -5.562141654755272e-03, -2.566773602157269e-10, 6.028065671244062e-11, 4.456710005904812e-10, -8.418104413006822e+02, -8.546566403729104e+02, 9.943161706142101e+01, -1.415847770665816e+03, 1.975002705831636e+02, -1.120854717082243e+02, 7.118132841462888e+02
6744, 7.644463207689667e-01, 5.007962266936444e-02, -1.773283352462663e-02, -2.835593319520883e-10, 4.575411968965783e-11, 7.981019895815686e-11, -3.029522741610950e+01, 1.830010572767586e+01, -1.065643329314262e+02, 1.645928576357798e+01, 2.717549824522468e+02, -1.179577436505257e+02, 5.473917338119699e+02
6745, 4.681876919771845e-01, 8.785935350078049e-01, -1.903822971432576e-02, -9.918959564505350e-10, 1.279877401796076e-09, -2.684990267125932e-09, 3.123747515855013e+03, 3.713163107859992e+03, 1.188479293155404e+03, 1.104401419114330e+04, -1.787621461115095e+03, -4.411610066265177e+01, 8.499397950621962e+03
6746, 1.058124858804393e+00, 1.296116726869387e+00, -7.790862586836280e-03, -3.384049740078134e-10, 3.999856922378681e-11, 1.837869100142103e-10, -5.504039358448376e+02, -6.728135729259482e+02, -5.636530111606611e+01, -1.006951948773947e+03, 2.608564004436206e+02, -3.705281927004626e+02, 8.905487533041794e+02
6747, 8.065083129214944e-01, 1.583916506000151e+00, -1.088769081360822e-02, -1.767073199335588e-11, 3.744613604453981e-11, -1.734378102204272e-09, 3.625737737926092e+03, 3.849030196433270e+03, 2.187948535782321e+03, 1.147840274572806e+04, -4.333670837386651e+02, 1.543821753087894e+03, 9.057356162853530e+03
6748, 7.463122967975229e-01, 4.370840132048986e-02, -1.886745531242182e-02, -2.613466760114460e-10, 6.262217516851119e-11, -1.650070001506555e-10, 2.236970539957829e+02, 2.564921975060761e+02, -1.268209491183938e+02, 3.805482011514437e+02, 3.135750121287736e+02, -5.691013187756739e+01, 6.111371870150776e+02
6749, 2.667261955837399e-01, 3.262232547660453e-02, -4.165213752747140e-02, -8.168989896297516e-10, -9.676881721763625e-11, -4.933174516377028e-09, 4.838643389149126e+03, 4.781396083447446e+03, -7.162469157040812e+01, 1.221897233983956e+04, 1.303685071793554e+03, -4.560744990690305e+03, 1.106392316589954e+04
6750, 5.897821079460617e-01, 1.004948248540195e+00, -2.527095975204554e-02, -1.388080873393320e-09, 9.565888082775088e-10, -5.315876433732179e-09, 6.405495436122316e+03, 5.938099674508952e+03, 1.330980141976648e+02, 8.239818198613446e+03, -3.401078130264328e+03, -2.061258376501204e+03, 7.207083623235727e+03
6751, 9.601312484121974e-01, 1.584082828834939e+00, -1.521719838917244e-02, -9.370912413917891e-10, 2.661397189518367e-09, -9.926061544383827e-10, 3.204862158926155e+03, 5.828560068994170e+03, -5.950937106334984e+02, 4.919598855000434e+03, 7.280466823059467e+02, 1.289926096116210e+02, 2.833309785835633e+03
6752, 6.076684831174681e-01, 1.040479096428691e+00, -2.483004530230593e-02, -1.683425079220130e-09, 7.861132903971887e-10, -4.305260709635973e-09, 5.206826976806185e+03, 3.982507861139769e+03, -2.250771807943941e+02, 6.729977160087066e+03, 2.135949369936471e+03, 1.281993808562050e+03, 4.945008431089854e+03
6753, 1.127298608896613e-01, 2.002378682261731e-01, -1.297835897707772e-02, -2.677459824052760e-10, 2.186104256578506e-10, -9.518614770797367e-10, 1.068975582214112e+03, 1.509518153440628e+03, 7.141072510551195e+02, 5.379655070477405e+03, -4.033393462150082e+02, 9.720139228638816e+02, 4.661472531665449e+03
6754, 6.098819172029328e-01, 1.194063059177868e+00, -1.221172695565984e-02, -1.489517629946144e-10, 1.936796641734791e-10, -5.920337623250990e-10, 1.180526214182723e+03, 1.290196979423534e+03, 3.922880359850440e+02, 2.479137193357277e+03, -1.158061013312596e+03, -3.376592353935229e+02, 2.526465002939764e+03
6755, 7.643353081991349e-01, 1.432470596518394e+00, -1.758020095386637e-02, -1.446182391467608e-09, 4.630210447268159e-10, -1.994982001485597e-09, 5.448490405770362e+03, 3.760589665701911e+03, 2.409318311567805e+02, 5.804621151249710e+03, 3.118914198836707e+03, 5.533852595963646e+02, 5.818305499248038e+03
6756, 1.163294143985052e+00, 1.472877358791291e+00, -2.048202816829790e-03, 4.375545882101032e-11, -7.223723580810644e-11, -7.790580466857218e-11, -2.454653341594910e+02, -8.207738273150088e+02, 4.285097251645877e+01, -1.832946637240818e+03, -8.159123136679002e+02, 6.869371726177665e+02, 2.314320772761459e+03
6757, 3.622118247969210e-01, 6.983252671690169e-01, -1.317698199542881e-02, -2.641650831375513e-10, 1.309721261290945e-10, -1.537890915822862e-10, 3.961172140457474e+02, 6.952136528304692e+02, 1.413155749194413e+02, 7.824805362270974e+02, -2.773077021334211e+02, -2.391957883471279e+01, 6.445935165405544e+02
6758, 1.037829037279532e+00, 1.583859249051770e+00, -1.114455702783565e-02, -6.345595279554231e-10, 1.113107650362428e-09, 4.913490948231025e-10, 5.717930008989719e+02, 2.003807988207994e+03, -4.812415049939385e+02, -2.963264619589630e+02, 3.618141738090625e+02, -1.325426199220902e+02, 2.277645646943124e+03
6759, 5.504639829048479e-01, 9.680157995947130e-01, -2.421994837903298e-02, -1.655541777299545e-09, 4.775969815036327e-10, -3.982970225645997e-09, 4.856174454418295e+03, 5.943574783462369e+03, -2.208426609308557e+02, 1.037048080527222e+04, -4.368255786018128e+03, 9.476895886738837e+02, 9.256316352342921e+03
6760, 8.182130261177477e-01, 1.566892320689004e+00, -1.478250641692118e-02, -3.667081682539468e-09, 3.947132340557721e-09, -1.146754942993897e-08, 2.187654647441589e+04, 2.119116000840600e+04, 3.919100691652251e+02, 4.297058238758940e+04, 5.939624767873338e+03, -5.030879639816515e+03, 2.533995126178744e+04
6761, 3.167567721506390e-01, 6.087395694677959e-01, -1.263297137575582e-02, -3.178608686879746e-10, 2.614233460963723e-10, -6.816712606551359e-11, 3.619569197734417e+02, 8.759706436759473e+01, 1.273992851757036e+00, 4.885310266332071e+02, 9.743173640913773e+01, -7.035524484176800e+01, 4.115269964711033e+02
6762, 5.861263755461048e-01, 3.323996724917429e-02, -2.880908052950057e-02, -2.358699229820920e-10, -4.934490365352837e-11, -9.571616368347763e-10, 1.175635625405775e+03, 1.014248139875072e+03, 1.230586871260887e+01, 1.472315125893492e+03, -1.043690201637720e+03, -5.935023725800396e+02, 2.118254521548404e+03
6763, 7.084886504627599e-01, 1.390200119212391e+00, -1.173125260405181e-02, -2.253114970853428e-10, 1.267428038991987e-10, -4.302154037985002e-10, 2.428442028710776e+02, 6.276285982227216e+02, 3.451561562241484e+02, 1.332205073809897e+03, -6.085560959928901e+02, 1.440142455751692e+02, 1.564045160866253e+03
6764, 8.636955041763991e-01, 1.585778908146666e+00, -1.696218988128828e-02, -8.043233428985548e-10, 4.920838551698668e-09, -1.601762805228256e-09, 3.431837257260208e+03, 1.206258034513013e+04, 9.095972580317880e+02, 7.553251840025191e+03, -8.549593144303949e+02, 5.830971448128033e+03, 1.275070844618058e+04
6765, 4.408609357228359e-01, 7.910048871316655e-01, -2.314424477223859e-02, -1.216770944988716e-09, 5.638827916779379e-10, -2.495885054395659e-09, 1.071411027094012e+03, 2.804739262197476e+03, -6.290654592201785e+02, 4.527884372685273e+03, -6.884777420106640e+02, 9.066740482046468e+01, 3.405035757546239e+03
6766, 6.805744750261092e-01, 1.335630609119712e+00, -1.168313393837227e-02, -8.508124006402685e-11, 1.260251795449256e-10, -1.593442086560274e-10, 6.093519170431171e+02, 5.849631553494191e+02, 2.770562361687949e+02, 6.970794425645956e+02, -7.293675769677802e+02, -2.735191237585048e+02, 1.435646297082072e+03
6767, 7.794354752415333e-01, 1.532784558299773e+00, -1.083542254089728e-02, -4.305516094696991e-10, 8.884176361889425e-10, -1.280481776564859e-09, 4.116199347067038e+02, 7.321304652714593e+02, 1.071194565651143e+03, 2.795520952254416e+03, -2.164792979097211e+03, 1.223479944443134e+03, 5.197471935909891e+03
6768, 6.343725979517216e-01, 1.097711508760099e+00, -2.401214442534066e-02, -2.088082115525542e-09, 9.082931052151189e-10, -7.481780753453258e-09, 6.916577926512793e+03, 6.407118597961025e+03, 5.115005062874677e+02, 1.312476713230967e+04, -4.437978489990649e+03, 2.922323907410679e+03, 1.128963110658878e+04
6769, 4.324757917282343e-01, 8.393176596889360e-01, -1.284043171991127e-02, -2.214532502515079e-10, 3.481158118018890e-10, -3.252421664860047e-10, 7.344830237849873e+02, 5.472028000330023e+02, 5.195153980183661e+02, 1.503211350686072e+03, -5.662723807836608e+02, -6.687359800617593e+02, 1.970606541903400e+03
6770, 4.939999370329121e-01, 9.271127320694501e-01, -1.912138519069664e-02, -1.383877316829667e-09, 8.176780726616969e-10, -2.059561140456492e-09, -5.481745739796503e+01, 2.786377637748955e+03, 2.211768220369400e+02, 6.221292245990766e+03, -1.465596726112492e+03, -7.539758049092313e+02, 6.158441999852289e+03
6771, 7.107143785812846e-01, 1.278776478361042e+00, -2.102261729887778e-02, -1.165784666865602e-09, 7.045975116562343e-10, -2.416359289942277e-09, 4.755235027935634e+03, 4.001858898986406e+03, -2.075169577746696e+02, 4.562977715152955e+03, 2.016674560410457e+03, -1.061797953183172e+03, 4.021449960796076e+03
6772, 1.504389666123339e-01, 3.336442645345628e-02, -3.980074921718831e-02, -8.456777207958233e-10, 3.696402705991476e-10, -4.813333186769573e-09, 4.966438532184870e+03, 6.938612177547802e+03, -7.803640589146469e+02, 1.023968733039073e+04, 3.716251281467376e+02, -6.787300325885404e+03, 1.271772057061406e+04
6773, 4.046264248178045e-01, 7.565704825324276e-01, -1.935028370019431e-02, -1.163581269104891e-09, 5.276192180220451e-10, -1.449614144951892e-09, -1.434767971821307e+02, 1.250809894192295e+03, 2.232947376670562e+02, 4.572114911787221e+03, -2.116582947006433e+03, -7.387758080376784e+02, 5.729980331517959e+03
6774, 1.145333373087973e+00, 1.466072195613002e+00, -3.243848759118811e-03, -1.696682343408943e-10, -4.082534807279582e-11, 1.804147576721084e-10, -1.231671657141139e+03, -1.411723067687798e+03, -3.107791837966353e+02, -2.065265836293653e+03, 9.466313385243076e+02, 1.266743475988061e+03, 2.892958492015522e+03
6775, 4.121640612488598e-01, 3.305972850185682e-02, -3.753800676329171e-02, -1.633348404066159e-10, -4.366537752954546e-10, -2.949599258238271e-09, 1.605181772883785e+03, 1.174079068034194e+03, -4.735581082827005e+02, 2.026042095400120e+03, 1.400574454567318e+03, -2.030500907546078e+03, 4.412573742993388e+03
6776, 9.867004094435652e-02, 1.240768816225828e-01, -2.608164871249252e-02, -1.290198273307021e-09, 1.370129830075949e-09, -1.842937045884533e-09, 2.555404814945053e+03, 3.882359797366344e+03, -1.001626465367890e+03, 4.847129419020082e+03, 6.437700781066817e+02, -2.549556807548418e+03, 5.265510613236167e+03
6777, 2.542195997428814e-01, 4.849140563439479e-01, -1.208010614797067e-02, -2.605018850198793e-10, 1.591300295368558e-10, -1.869966632853169e-10, -4.375260416854297e+01, 1.269217383723905e+02, 2.373646612861011e+02, 8.113405323938312e+02, -3.789202034401452e+02, -1.080809556008196e+02, 1.117668793696205e+03
6778, 6.495697916704368e-01, 1.235611690038613e+00, -1.714326185781323e-02, -5.496770488133267e-10, 9.299829013273774e-10, -1.602177102073438e-09, 2.686929936477563e+03, 3.420006909260937e+03, -3.456940043638910e+02, 7.314306579932650e+03, 3.618715835499899e+02, -1.921260567269429e+03, 5.512067293823803e+03
6779, 6.103864269247713e-01, 1.163137091313591e+00, -1.710410391091180e-02, -9.444309012502666e-10, 1.700888928241544e-10, -2.003512340808476e-09, 2.038861017638871e+03, 2.319473362391499e+03, 8.335918645541487e+02, 9.718900649104771e+03, -9.689066722109296e+02, 3.088411938797603e+03, 9.509073015787373e+03
6780, 2.295205948570196e-01, 3.295622268715701e-01, -3.016822405193580e-02, -2.760416376092792e-09, 1.697465049837431e-09, -6.194912550780783e-09, 3.067643932138017e+03, 3.724757893771450e+03, 5.484272441937966e+02, 8.608074407075266e+03, -4.593289370211794e+03, -2.260820120062296e+03, 1.034498121194552e+04
6781, 9.359568158705294e-01, 4.908698050017291e-02, -6.206537859954509e-03, -2.208988855880545e-10, 4.493765539654531e-11, 2.272428364215033e-10, -1.748955386690653e+03, -1.709313688699954e+03, -6.932313690167977e+01, -3.306623223017197e+03, 9.330885225087967e+01, -9.564194908150334e+02, 2.296606321373070e+03
6782, 9.026001917291399e-01, 3.330215398771347e-02, -8.377733023889037e-03, -2.843927000923216e-10, -8.625474106566217e-11, 3.405282864269685e-10, -8.297002835826863e+02, -6.874217926518620e+02, -9.211099539358577e+01, -1.585599360029755e+03, 1.001552181632295e+02, 5.241490908336940e+02, 1.256550070831443e+03
6783, 1.929050296176319e-01, 3.285610919002048e-01, -2.284526443821602e-02, -2.810788402046317e-09, 1.611251441966513e-09, -5.180583621187837e-09, 3.257017342255800e+03, 3.995207413438633e+03, -1.599136535675439e+02, 8.084324824966150e+03, 1.086844637124594e+03, -1.079123788496745e+03, 5.234337306457333e+03
6784, 9.618968844194130e-02, 1.019566442442713e-01, -2.827127693328445e-02, -1.064827602487999e-09, 7.483285550282655e-10, -2.359210175891489e-09, 3.573809195789629e+03, 3.379934155537250e+03, -3.141543818414216e+02, 4.261459604246139e+03, 5.897387148474013e+02, 4.059583976944595e+02, 1.574048827177349e+03
6785, 1.008218078827617e+00, 1.567097565997658e+00, -1.278741249914317e-02, -5.149434500235244e-10, 1.260424384547121e-09, -4.936445425234722e-10, 2.163349977618374e+03, 2.953515300468292e+03, -5.806432766905997e+02, 2.051732457992889e+03, 1.845033505581086e+02, 9.953399115614975e+02, 2.193327363526403e+03
6786, 8.446884966121009e-01, 3.292163751048105e-02, -1.229388372084366e-02, -2.664998512105400e-10, -1.937151657780555e-11, 2.487288466596114e-10, -8.242488157868529e+02, -6.393065529532744e+02, -2.205888343225146e+02, -1.303522786835501e+03, -3.093273507138818e+02, 5.873105144647350e+02, 1.349212601858772e+03
6787, 7.555704589855549e-01, 1.439315852478266e-02, -1.804765378845712e-02, -1.032147790432968e-10, 1.470816079155825e-11, 1.834092914087393e-12, 6.016509299349546e+01, 1.072985919728178e+02, -1.803555598494792e+02, 3.167123668312383e+01, 6.822571303250936e+01, -3.345046446298951e+01, 3.453721327805721e+02
6788, 1.661068661724951e-01, 2.432377937986523e-01, -2.713096090794789e-02, -2.322426470482847e-09, 8.121124409655992e-10, -3.246827098644837e-09, 3.962956731622904e+03, 1.932434961982381e+03, -4.681023328046366e+01, 5.885088565778475e+03, 1.293451109846935e+03, 5.705988242796614e+02, 4.209858661232037e+03
6789, 6.804645429707782e-01, 1.303056656550428e+00, -1.608378867472169e-02, -5.453599901201986e-10, 1.839230361940902e-11, -9.501029114100485e-10, 1.672711427173994e+03, 1.631773775519468e+03, 1.209664893388461e+03, 4.841439553181133e+03, -2.103658101608524e+03, 2.365765158409246e+03, 6.680476641572109e+03
6790, 6.384143275331882e-01, 1.120208517673462e+00, -2.336028916719809e-02, -1.507898305302627e-09, 6.148862954955899e-10, -4.823557171676534e-09, 4.844157721864785e+03, 4.490538527622454e+03, 4.732575223606711e+02, 7.323351660840814e+03, -2.765311697946560e+03, 3.303715938209613e+03, 7.968972398848993e+03
6791, 4.966943457338937e-01, 1.475204172616320e-02, -3.368796171169254e-02, -1.911368285560365e-10, -1.513388341584486e-10, -6.956651189723660e-10, 2.227553941929623e+02, 1.558479175241038e+02, -2.884733481601411e+02, 4.038249581094549e+02, 2.342393575471972e+02, -1.377736331886222e+03, 2.481552891497728e+03
6792, 1.179158315575277e+00, 1.568496014514750e+00, -1.725823778433419e-03, -3.854767356488517e-12, 2.484857485871058e-11, -7.350246539493214e-12, 3.271857845762545e+02, 4.171054447870896e+02, -1.712273386658850e+02, 4.838002207547103e+02, -7.163077518226748e+01, -1.153122248466303e+02, 4.022075906833827e+02
6793, 2.356891688573476e-01, 3.835597369812869e-01, -2.600491200027002e-02, -2.642122525738329e-09, 1.358825028438463e-09, -3.689337958423083e-09, 2.494933638899830e+03, 4.555762476113478e+03, 5.342733432233869e+01, 5.011491954610873e+03, -2.355995151141123e+01, -2.633997261205063e+03, 5.120345562101252e+03
6794, 1.952568344412056e-01, 5.000417864093851e-02, -4.103404459540906e-02, -1.063959828831757e-09, -4.254307299017966e-10, -7.695101092106543e-09, 4.889367370128574e+03, 4.649516411419733e+03, -9.423789813911114e+02, 7.311175795410942e+03, -2.994598876629765e+03, 4.132835511453080e+02, 6.048393936753554e+03
6795, 2.974749980180860e-01, 5.737848009248807e-01, -1.089473111881747e-02, -1.842569432519356e-10, 2.293795640832492e-10, -1.752120461996268e-10, 9.853436199757050e+02, 6.331558065385340e+02, 3.872434123183450e+02, 1.086983099710387e+03, -2.893102699834292e+02, 1.597001361900031e+02, 9.734727035227436e+02
6796, 4.376578181907186e-02, 3.182162825904965e-02, -2.430363851866890e-02, 1.264476388805325e-10, 9.707248887229257e-11, -6.080459446696598e-12, 7.070938954643511e+02, 6.790189685294995e+02, 2.133856937258092e+02, 9.596673071940647e+02, -2.216955370699607e+02, -1.119604027724984e+02, 6.271562816498551e+02
6797, 5.137396811804299e-01, 9.692329104209858e-01, -1.851363211734987e-02, -8.601673457583580e-10, 1.227906376973166e-09, -2.371757494080760e-09, 3.308500011522920e+03, 5.227188845951276e+03, -3.443256157602161e+02, 1.223215614494415e+04, 5.554950063619701e+02, -3.357545650381703e+03, 1.006439412602217e+04
6798, 1.093748723519402e+00, 1.585788534603081e+00, -7.624245080031705e-03, -4.784668089000405e-10, 4.163399980465720e-10, 6.909402715218182e-10, -1.221463351688060e+03, -1.131705430535504e+02, 1.695594823601819e+02, -3.713895163271306e+03, 1.260277086490948e+03, 9.231171410440444e+02, 4.196481331365338e+03
6799, 5.741688519281260e-02, 6.514818935148146e-02, -2.278610956727800e-02, 3.889844081142830e-11, 1.413942968695792e-10, -5.735014174031231e-10, 8.783410429595123e+02, 6.823263626094895e+02, -5.103615865279316e+01, 1.518311155326667e+03, -5.547268722901107e+02, -1.107683439121361e+02, 1.241457084105884e+03
6800, 3.639402261561953e-01, 3.219112828219579e-02, -3.926930089481873e-02, -5.270080532903719e-11, -4.382554039073943e-10, -2.695152762113511e-09, 1.146562711878860e+03, 1.437760658550097e+03, -3.397288091164254e+02, 1.792805908231132e+03, 1.736613932664842e+03, -2.499523572183692e+03, 5.333931657742046e+03
6801, 3.584252200383463e-01, 6.614919397909111e-01, -2.031910621054328e-02, -1.761221841132419e-09, 4.822107391115434e-10, -1.705269135594102e-09, -1.795802637003325e+03, 8.520920363471911e+02, 6.965193791771073e+02, 2.526630987390396e+03, -1.385203796578067e+03, -1.275414331763111e+03, 5.132373839888816e+03
6802, 7.256991692544829e-01, 1.392839805798723e+00, -1.544403274080000e-02, -2.109807595898354e-10, 2.234613269822669e-10, -1.502656244749014e-09, 1.481498592632110e+03, 2.224481062084631e+03, 6.129105997907473e+02, 5.814324049975588e+03, -1.328385004248998e+03, 6.315020380730181e+02, 4.870664110419974e+03
6803, 6.084734285026543e-01, 1.009989679229849e+00, -2.585921388805709e-02, 2.464897640827952e-10, 9.202981805623140e-10, -1.727610677715659e-08, 2.597959096980379e+04, 2.571547537032367e+04, -2.531537284623253e+02, 5.484325070889237e+04, -3.000049024363248e+03, 4.251879502019272e+02, 2.947099337712243e+04
6804, 7.518003341262106e-01, 1.442372505399325e+00, -1.528239587560150e-02, -9.494060735026223e-10, 7.763241433846392e-10, -1.686295435174413e-09, 2.979660230582234e+03, 4.120138698623614e+02, 1.381464453625658e+03, 6.121115259917027e+03, 2.599464942174609e+03, 3.178581942531585e+03, 8.990819132388846e+03
6805, 8.360164821063343e-01, 1.568613248369844e+00, -1.634767047017058e-02, -1.236018597628908e-09, 3.059022192087767e-09, -2.031839879922380e-09, 9.772725593358817e+03, 8.630160593759712e+03, 1.299436744997844e+02, 9.948822666395492e+03, 3.420421900855487e+03, -1.546170121619116e+03, 6.622545391295605e+03
6806, 5.504724881095280e-01, 3.658620868041157e-02, -3.088037991240006e-02, -1.880701288683205e-10, 8.411133734452133e-11, -2.319773797466791e-09, 1.863177612874912e+03, 2.377660154736602e+03, -1.038650908031817e+02, 5.550349248357838e+03, 2.236659216891193e+03, -9.426554979030965e+02, 5.446929126768877e+03
6807, 1.142606239670134e+00, 1.568501894933172e+00, -4.249385929997051e-03, -5.085259721877254e-10, 2.557076728723593e-10, 4.222983828773680e-10, -2.512325540492005e+03, -2.181778896973760e+03, -9.030884497837414e+01, -4.942952202976582e+03, 1.156935528443010e+03, -1.536935706810447e+03, 4.236404507931722e+03
6808, 6.342175590801342e-01, 1.206660546225669e+00, -1.720252364621615e-02, -3.568784048457038e-10, 4.248003510635193e-10, -3.328870003832344e-09, 2.227205121481999e+03, 4.654456720121396e+03, 1.099086474308225e+03, 1.446237249774391e+04, -3.690883554461135e+03, 1.859280871803208e+03, 1.344453997082628e+04
6809, 7.981299200505289e-01, 1.536024005473986e+00, -1.441314995580286e-02, -1.723494645101829e-10, 1.143626383314624e-09, -1.768979905012101e-09, 3.899869138801176e+03, 4.193830938112903e+03, 6.514719416949059e+02, 5.574153527661943e+03, 1.192141796123236e+02, 1.382000916335432e+03, 3.072967431538032e+03
6810, 4.738725012987112e-01, 8.963923016170261e-01, -1.819462070403810e-02, -1.649563159547190e-09, 1.078488692483441e-09, -3.487893066730068e-09, 7.263422281044052e+02, 2.233858059289116e+03, 1.353665652857184e+03, 1.243457014746509e+04, -3.871082882568179e+03, 1.774242380717435e+03, 1.347596951155385e+04
6811, 6.258186593878996e-01, 2.995638240617795e-02, -2.640368456269155e-02, -9.194351011642275e-11, 2.923996815933201e-11, -1.529721751486384e-09, 1.690571607430223e+03, 1.413128335597812e+03, -9.574802100324591e+01, 2.992435980927575e+03, 4.843248294682074e+02, -6.953823386436700e+02, 2.077234601560652e+03
6812, 4.459099331052953e-01, 3.142463009121990e-02, -3.615945299884226e-02, 2.635868647972683e-10, -1.249422540415769e-10, -8.135601630199068e-09, 5.636613055752947e+03, 5.605418973388510e+03, 2.996474592532409e+02, 1.234936100782876e+04, -9.201616305211567e+02, -1.160415070238672e+03, 7.219453139639682e+03
6813, 2.240878698826060e-01, 5.042905440460697e-02, -4.150199085065769e-02, -1.710133051509973e-10, -1.351381040788990e-10, -6.267641075360592e-09, 3.054758912350307e+03, 4.468399833607916e+03, -3.538993409404371e+02, 3.435908165188614e+03, 1.528483178423898e+03, 1.480168750379349e+03, 3.944878011523505e+03
6814, 9.696348705779846e-01, 1.570631262460740e+00, -1.479742714099490e-02, -8.417813525547921e-10, 1.961972844521908e-09, -5.837569172552096e-10, 2.425925707958713e+03, 4.119405624299192e+03, -5.434186347110028e+02, 2.626025297136929e+03, 1.610264056615321e+03, -5.116179446349654e+02, 3.466853131392975e+03
6815, 3.061460090610398e-01, 5.241239008267589e-01, -2.500052818125715e-02, -1.839231704073016e-09, 1.120022423058112e-09, -3.583761830706226e-09, 2.665450097835457e+03, 3.990313502933781e+03, -5.801175735364091e+02, 5.054931256949362e+03, 2.315261697233911e+03, -2.875287513564047e-01, 4.624939646360602e+03
6816, 9.737891415571195e-01, 4.716735908208024e-02, -3.534857140002652e-03, -8.577842737514949e-11, 4.374865259393783e-11, -1.542633894602053e-10, 5.946037475911103e+01, -3.406166549983482e+02, 3.933630075513562e+00, -1.762555917477283e+03, -4.557139924543177e+02, -1.097760494257368e+03, 2.643702817999027e+03
6817, 1.272670730797063e-01, 2.043799311220450e-01, -2.231163857494541e-02, -1.719249407471898e-09, 7.348315820890249e-10, -2.650450541978904e-09, 1.944999221874527e+03, 2.179337457463580e+03, 1.736043529696046e+03, 9.089083880320177e+03, 1.229643546492237e+03, 2.690764500069103e+03, 9.204182732417008e+03
6818, 3.326519614998413e-01, 6.149284369407086e-01, -2.006557316864579e-02, -1.136001680889072e-09, 3.975465801319737e-10, -1.043719495974696e-09, -5.594703159765338e+02, 2.131237698771858e+02, 2.697898380544638e+02, 2.233731293384349e+03, -1.293725302988397e+03, -7.489108141405624e+02, 3.628085332456048e+03
6819, 6.335966898717316e-01, 1.058007852098446e+00, -2.522478839006656e-02, -1.955108162009866e-09, 2.015218501391735e-09, -8.238084846226816e-09, 8.341191613552812e+03, 9.908671260417546e+03, 9.432502895489516e+01, 2.021538793647647e+04, 1.638677813805940e+03, -5.185547499864231e+03, 1.461482688523186e+04
6820, 6.923982601900794e-01, 1.251012222437209e+00, -2.109117248014174e-02, -4.059383806298833e-10, -5.984058535894870e-11, -4.980676942811410e-09, 6.712262762526527e+03, 7.502467399445748e+03, -3.306342320120300e+02, 1.495834488089652e+04, -4.431412486570721e+03, 5.950562161345129e+03, 1.508555528700862e+04
6821, 3.080590041185781e-01, 3.014984542751319e-02, -4.090750726480378e-02, -5.673243996019299e-10, -2.640153665633060e-10, -4.366744338691397e-09, 3.384694563545718e+03, 3.293036849890719e+03, -4.118228244645693e+02, 5.796279577293481e+03, 2.969816636819488e+03, -3.727162260686054e+03, 8.642258155212476e+03
6822, 2.683119932483163e-01, 4.880654162471611e-01, -2.055990457878976e-02, -1.203137924617320e-09, 4.391598658300565e-10, -1.440113106161167e-09, -6.712364060199411e+02, 4.511955487821398e+02, 1.763678651767320e+02, 1.731653328036489e+03, -1.346287634245867e+03, -9.398326257019401e+01, 3.145463234680195e+03
6823, 2.421792124982767e-01, 4.344661598364704e-01, -2.108971077034494e-02, -1.074922229010789e-09, 8.232695111790298e-10, -1.176913662826127e-09, 1.837089122808328e+02, 1.094163172147793e+02, 7.904409718599268e+02, 1.784294571286058e+03, 1.111260735658486e+02, 2.355164179779171e+02, 2.182692661783234e+03
6824, 3.809697169072142e-01, 7.072761474978747e-01, -1.991437414881001e-02, -9.588578669949297e-10, 4.784092055138538e-10, -1.456881101281861e-09, -4.552494864980738e+02, 1.791872229250514e+03, 9.059693923943966e+01, 5.127538084592675e+03, -1.188243432376463e+03, -1.876818525092173e+03, 6.204804911699353e+03
6825, 1.728246643046352e-01, 6.606952612779138e-02, -3.970689290564979e-02, -1.698404269220539e-09, 1.024024547346225e-09, -1.232379405782311e-08, 1.049179821270587e+04, 1.230057522757598e+04, -1.117765698178080e+03, 2.032402401632439e+04, 3.677241363492064e+03, -5.159629867634448e+03, 1.436453578161940e+04
6826, 1.068613814283148e-01, 1.610459716740847e-01, -2.305107569124945e-02, -1.747543761791721e-09, -6.766155310504780e-11, -2.583348978404928e-09, 5.322084735720212e+03, 3.024711354305838e+03, 8.555087233745777e+02, 8.974724521501073e+03, 3.488174778939467e+03, 1.881506291671509e+03, 8.736655678430119e+03
6827, 7.072187611475584e-01, 3.070888567268051e-02, -2.129715906198000e-02, -2.525773522601080e-10, 9.529571469614241e-11, -4.438486170273091e-10, 5.890795193089712e+02, 6.926445817444948e+02, -1.474783116630016e+02, 1.245968703409647e+03, 4.945690661677359e+02, -4.383784489329350e+02, 1.322788942844112e+03
6828, 8.095980417366607e-01, 3.439061275727406e-02, -1.464323692970535e-02, -2.621055850492335e-10, 1.843265516501523e-11, 2.500499685496579e-10, -2.703402416825479e+02, -2.574358546150162e+02, -2.271179036682731e+02, -6.052640103875641e+02, 2.301933040661578e+02, 2.364564816102199e+02, 7.733769723076808e+02
6829, 4.291642880062930e-01, 8.029455537773228e-01, -1.929195761629510e-02, -1.029551505676772e-09, 4.462621385413095e-10, -1.243523251574645e-09, -9.353664063021110e+02, 1.068096894210199e+03, 2.320578575117837e+02, 2.626651656070803e+03, -1.038616768064752e+03, -7.814593280244347e+02, 3.846456599771841e+03
6830, 5.689491742805551e-01, 9.712499018358486e-01, -2.546319786683169e-02, -2.981054105217736e-09, 3.304513383630640e-10, -1.638123248538706e-08, 1.203700546623360e+04, 1.343827472115714e+04, 8.763988284198468e+02, 2.866665941524904e+04, 1.270549975150827e+03, 1.052801152527133e+03, 1.629965062287371e+04
6831, 2.583398805264897e-01, 4.573139802699677e-02, -4.158047453926299e-02, 6.543803959005953e-10, -1.295815336581832e-09, -1.321752854807730e-08, 1.152311405532761e+04, 1.107291929794561e+04, -5.334488731782295e+01, 2.365944474648422e+04, -1.658550179293595e+03, -7.956370318855545e+02, 1.277172378334003e+04
6832, 3.092706750896248e-01, 5.513284481683199e-01, -2.238126837087101e-02, -1.794223020071464e-09, 7.479351091559374e-10, -2.499432409272686e-09, 3.775541169073468e+03, 2.028642195015954e+03, 8.496301485287125e+02, 5.164323768834771e+03, 2.281881412185797e+03, 1.060951250744444e+03, 5.345077287443785e+03
6833, 7.050123944291250e-01, 1.348543734128323e+00, -1.606119641090274e-02, -1.734064749345453e-09, 1.799958801185698e-09, -4.810820905468029e-09, 8.466918172871117e+03, 9.076117930801451e+03, -3.439168141660356e+02, 1.862105309938552e+04, 2.041020291217954e+03, -1.890098827142280e+03, 1.099369057475604e+04
6834, 5.365138265446535e-01, 1.235610635879250e-02, -3.154191325871829e-02, -6.641407755774857e-11, -1.714070661086224e-10, -3.868748652936971e-10, 3.067071879411488e+02, 1.970492877498467e+02, -3.262107822548091e+02, 2.906487795207623e+02, 3.240393046157900e+01, -6.630084447692439e+02, 1.285166470625313e+03
6835, 5.755073865193018e-01, 4.748924188990390e-02, -2.950932761614980e-02, -3.481302132660727e-10, -7.891764602596728e-11, -1.092042048727737e-09, 1.063873292169549e+03, 8.722723712442796e+02, -1.054824454277356e+02, 8.600692099990243e+02, 1.136187244681549e+02, -5.723714327701886e+01, 3.480424129580741e+02
6836, 6.570582789795224e-01, 4.732195374289058e-02, -2.458743712610704e-02, -3.080537572418402e-10, -5.290255989724921e-11, -9.876095555148646e-10, 1.146578456857379e+03, 1.148465244611534e+03, -1.794810581712187e+02, 2.335877369378260e+03, 5.320080004234650e+02, 5.280413281070480e+02, 1.787291898237351e+03
6837, 1.345073513711449e-01, 3.232383830358271e-02, -3.882240183362368e-02, -5.349096984602420e-10, 2.454870249323315e-10, -3.453639653102314e-09, 3.111184919735227e+03, 3.652158515632142e+03, -5.352978699807959e+02, 2.691611798411596e+03, 5.108047685821788e+02, -2.979140063700660e+03, 5.381811454970803e+03
6838, 4.496756647040725e-01, 8.448428998326563e-01, -1.889725521681885e-02, -6.940049753655040e-10, 1.062333172393710e-09, -1.979269451118709e-09, 2.235681103790633e+02, 3.549478935947699e+03, 2.658546916766333e+02, 5.730086567507739e+03, -8.840980960717955e+02, -4.119920334121789e+03, 8.749136766035777e+03
6839, 1.056793841457537e+00, 1.587657900106912e+00, -1.000085070763704e-02, -7.461021135753978e-10, 6.548276514816547e-10, 5.812676741432026e-10, 2.868506153269229e+02, 1.046666672576114e+03, -7.722968153994859e+02, -1.986892926195657e+03, 5.804353311648795e+02, 1.035262282479087e+03, 3.672901251215214e+03
6840, 8.823281053194775e-01, 4.937197789756877e-02, -9.886422631452172e-03, -3.387778443524266e-10, -1.379431024773960e-10, 3.564814272579775e-09, -3.085857660752794e+03, -3.256780100265326e+03, -6.582082963201235e+01, -7.167451613226543e+03, 7.571364992420637e+02, -8.966086792681959e+01, 4.212821984341242e+03
6841, 7.758790898288085e-01, 1.489873251618272e+00, -1.493803514734718e-02, -4.367777921112051e-10, 8.685487259053845e-10, -1.223164752617461e-09, 1.710693596152867e+03, 1.174500672381670e+03, 6.521212750093941e+02, 2.816448563666284e+03, 1.086898819156063e+03, 1.249435409397250e+03, 3.406786611554008e+03
6842, 4.999550079586276e-01, 9.436213544757557e-01, -1.842451937986080e-02, -2.294746412900150e-09, 1.191238972644427e-09, -2.936399576548876e-09, -1.397299894483961e+03, 2.291281036209145e+03, 1.709144284525880e+03, 8.208128741918594e+03, -3.081351638314601e+03, -7.922048614213888e+01, 1.037815116680305e+04
6843, 8.343324240326420e-01, 4.596411793201460e-02, -1.308717373084183e-02, -4.255970851600706e-10, 9.789089087222851e-11, 1.580693901432758e-09, -1.725444686519964e+03, -1.597903326396232e+03, -9.985488629097080e+01, -3.478935876236583e+03, 1.412670857821050e+01, -1.083251569988812e+02, 1.838574313920506e+03
6844, 6.161840647911985e-01, 1.180110466891747e+00, -1.636798017547559e-02, -2.264611437299175e-10, 3.207399123631979e-10, -8.986664151115242e-10, 1.067914468546997e+03, 2.103619042510350e+03, 6.745426686144766e+02, 3.243565526229178e+03, -6.250508336571091e+02, 4.902447434392800e+02, 2.609773655368039e+03
6845, 1.119728284966060e+00, 1.586137510968433e+00, -5.919142131425333e-03, -3.033759518961128e-10, 5.619802739444032e-10, 3.977787210524422e-10, -7.026952632326518e+02, 5.487014255642821e+02, 4.637183816490472e+01, -1.608492704905170e+03, -4.976316951693027e+02, -1.148522716287108e+02, 2.075791580200805e+03
6846, 2.045282575341873e-01, 3.142507496715641e-01, -2.724792082191321e-02, -1.973030621198477e-09, 9.510575274502288e-10, -3.195715149866905e-09, 1.138645317626635e+03, 2.127207100128128e+03, -6.719224668217776e+02, 1.654658116067614e+03, 5.721898369869965e+02, -8.116649029274234e+02, 2.246431804218142e+03
6847, 2.347517226170450e-01, 3.459264442829830e-01, -2.957938762791391e-02, -3.209109995778708e-09, 1.569218673518008e-09, -9.306614838816208e-09, 6.848596079732130e+03, 6.186386584993651e+03, 3.423654237741155e+02, 1.681080809035823e+04, -1.721177615339313e+03, 5.324042301749134e+03, 1.416179860169199e+04
6848, 8.879499272235205e-01, 1.569631180633994e+00, -1.736116685785897e-02, -3.212658239950798e-09, 3.897139230440134e-09, -5.452400372593865e-09, 1.137321449581102e+04, 1.368660454307214e+04, -1.493358262392228e+03, 1.853737113472421e+04, 3.917303156512210e+03, 5.785012648480063e+02, 9.686772687127970e+03
6849, 6.670574347050162e-01, 1.238959613923547e+00, -1.949254573808392e-02, -1.339910419772477e-09, 7.269014934494996e-10, -2.161563531681358e-09, 5.299513907525619e+03, 3.965234857510726e+03, -1.130716679811233e+03, 7.919635557940766e+03, 2.081094814314596e+03, -2.666802294675515e+03, 7.092618868802504e+03
6850, 9.217449680794535e-01, 1.587586606774654e+00, -1.653346428468625e-02, -1.581869566141889e-09, 3.317603600428834e-09, -1.833987726112054e-09, 5.680272090057395e+03, 7.512986317499182e+03, -1.112806072467768e+03, 4.560479175537643e+03, 7.246499783989735e+02, -2.319568953673645e+03, 5.300622911317999e+03
6851, 1.699145183637905e-01, 2.595233218681026e-01, -2.596026431089302e-02, -2.977260909276660e-09, 7.795993920676276e-10, -4.267883174724785e-09, -1.728737974098746e+02, 3.850782013510839e+03, 1.091982826484733e+01, 4.001056997006195e+03, -2.740827277509496e+03, -2.582609728265975e+03, 7.704766233635396e+03
6852, 4.866691560178976e-01, 2.868699348082779e-02, -3.424152230146135e-02, -4.661210830409067e-10, -2.038755726507801e-10, -2.748719927189325e-09, 2.824737566320629e+03, 2.745044907884967e+03, 1.581423771453311e+02, 4.995362369880415e+03, -6.925748254450858e+02, -3.712752863469005e+03, 6.910756398192592e+03
6853, 9.917143795080501e-02, 1.243181398231048e-02, -3.675015275912247e-02, -1.807876554350379e-10, -4.922250337955335e-11, -8.627712648828287e-10, 2.553783955680348e+02, 7.944429109342368e+02, -1.915282786534974e+02, 1.465535463305144e+02, -4.050982695636051e+01, -1.822318936020370e+03, 3.230883518590519e+03
6854, 8.727096053793054e-02, 1.333759921115521e-01, -1.999575504993691e-02, -7.810137005399995e-10, 7.732424262157629e-10, -1.338766713294780e-09, 2.994085602157612e+02, 2.682385486557088e+03, 1.592876774330759e+02, 5.908132980992918e+03, -1.252114301438081e+03, -2.745507881686121e+03, 7.152890096186530e+03
6855, 7.466232335133001e-01, 2.721394412090990e-02, -1.872583069290894e-02, -1.630779217536708e-10, 1.199404233782912e-12, -2.502705697573371e-10, 2.687518812193508e+02, 3.506863064934476e+02, -1.589874404862574e+02, 3.904899598489513e+02, 9.374001975321562e+01, -8.422277661508426e+01, 3.674668573304413e+02
6856, 8.546487004391069e-01, 1.573581628075042e+00, -1.704911193515509e-02, -1.992774519840128e-10, 3.305414358794818e-09, -5.284371380151249e-09, 1.128459922538382e+04, 1.445217366140327e+04, -2.644034075595983e+02, 2.252543631847520e+04, -5.521129440525294e+03, 7.363223435317293e+02, 1.393085095424010e+04
6857, 7.952832844078520e-01, 1.130405416950632e-02, -1.541508327531759e-02, -8.900750497505820e-11, 1.671205840464760e-11, 4.485954616354764e-11, -3.710999818721731e+01, 4.340814625488752e+00, -2.077502584454438e+02, -4.829926461476651e+01, -8.286627981026095e+00, 1.105992988849289e+02, 4.107192505326087e+02
6858, 6.807874318342056e-01, 3.114470011936592e-02, -2.298507126319378e-02, -9.016737345412385e-11, -5.780103383754920e-12, -5.137354646499786e-10, 7.408418807703351e+02, 7.427845884110637e+02, -2.785113577779640e+01, 9.288103929216389e+02, -4.574417343971367e+02, -6.225060307365087e+02, 1.351886800407368e+03
6859, 6.210577411977551e-02, 8.118298571051542e-02, -2.075977140514889e-02, 2.406831907479823e-11, 2.334404564011699e-10, -1.279570264243141e-09, 1.498232686212753e+03, 2.619740423898091e+03, -5.138773778723604e+02, 4.453324878166753e+03, -1.052871494960515e+03, -7.986789852170489e+02, 3.564783318413019e+03
6860, 9.316568866887205e-01, 3.314233738964399e-02, -6.374772358196195e-03, -5.723418626775561e-10, -1.069194353955191e-10, 4.150017003370653e-09, -5.216896438210885e+03, -5.058909463391541e+03, -1.494741196292490e+02, -9.925437368923265e+03, 3.266217093021271e+02, -1.032789519959103e+02, 4.833040254738000e+03
6861, 1.767470434861688e-01, 3.040186907084035e-01, -2.169585766611778e-02, -1.216642884840828e-09, 8.704879062749467e-10, -1.151000079268147e-09, -1.483553662098732e+02, -1.180550778092454e+02, 5.085122308738007e+02, 1.487392260395425e+03, 2.020015194856412e+02, -2.011801675355729e+02, 1.909610711239974e+03
6862, 3.937638516648971e-01, 3.127849924439338e-02, -3.822348711238174e-02, -3.797957139363969e-10, -4.465069925857790e-10, -3.330794210021249e-09, 2.020090964929624e+03, 2.440107418793103e+03, 1.227120826063275e+01, 3.084202468613178e+03, -1.585705310901639e+03, -4.001148379539139e+03, 7.512203643770765e+03
6863, 8.159350568850575e-01, 1.538530384622172e+00, -1.631203054777521e-02, -4.836367713422542e-10, 1.625654590861378e-09, -1.728647007386062e-09, 5.520803353022430e+01, 2.932456387865372e+03, 6.402975398287228e+02, 2.463359732645428e+03, -6.918739055483150e+02, -8.845561982902748e+02, 3.487439248370724e+03
6864, 3.382049709105527e-01, 6.314400251680548e-01, -1.913797370357783e-02, -1.149726148960901e-09, 6.208476225902216e-10, -1.625598111137914e-09, -2.381340374420111e+02, 3.413085882295870e+02, 1.136245431478809e+03, 4.810776323579452e+03, -1.195529613736199e+03, 6.758934160517178e+02, 5.695017616910462e+03
6865, 4.273625311341517e-01, 2.756334873272248e-02, -3.694174828215240e-02, -4.618119745972070e-10, -3.712472719546926e-10, -2.244950276379947e-09, 7.063659013349500e+02, 3.431714113111809e+01, 2.570064035956774e+02, 2.349788957770524e+02, -2.286056626406355e+03, -1.235203100480631e+03, 4.561859474230506e+03
6866, 4.092226423180094e-01, 7.730065470678946e-01, -1.837556966855005e-02, -1.349015457393842e-09, 6.769157354537377e-10, -2.054939130002385e-09, -6.833495731295733e+02, 8.320415226536148e+02, 1.421217421408490e+03, 5.763034144110791e+03, -2.189462994507169e+03, 1.041087339519834e+03, 7.601045372393999e+03
6867, 2.813359199415112e-01, 3.119680439643099e-02, -4.145103964118126e-02, -5.584021898509202e-10, -3.874077387681400e-10, -4.347772415352403e-09, 3.987119616641593e+03, 3.204683474974079e+03, -6.185303032702263e+02, 5.936085097586407e+03, -2.285021705963397e+03, -3.443023694627214e+03, 7.636135284062954e+03
6868, 6.243435313763795e-01, 1.133821715761830e+00, -2.161216032113853e-02, -1.088067293351950e-09, 1.273792358945060e-09, -2.502961135371338e-09, 3.440830572463641e+03, 5.012199131705373e+03, -1.713915263880108e+02, 6.825346136173645e+03, 2.285412756642819e+02, -1.101762484386166e+03, 3.534442478085110e+03
6869, 1.025389013927929e+00, 1.571388656536616e+00, -1.181481728788462e-02, -6.028088531664889e-10, 1.016318594716148e-09, 1.102657326642539e-10, 9.468800226963397e+02, 1.752592995961961e+03, -4.432182721419623e+02, 7.648058749131401e+02, 4.966800882600521e+02, -4.692122800448904e+01, 1.471403866707104e+03
6870, 6.867185755559675e-01, 1.321600969915794e+00, -1.533116218683376e-02, -1.116536192486881e-10, 1.205392338414567e-10, -4.168006857023219e-10, 9.720743574345242e+02, 1.320515254011726e+03, 3.327330995223797e+02, 1.019332122094229e+03, -5.349207619429169e+02, 2.612365427911752e+02, 1.225751207192729e+03
6871, 2.408962986140967e-01, 4.017489143320653e-01, -2.498968524109566e-02, -4.873757662396867e-09, 3.529680658728507e-09, -1.212856256973856e-08, 1.051368609908653e+04, 9.643269028709103e+03, -5.166143466696536e+02, 2.082777857569237e+04, 3.294223817759756e+03, -1.568169820282212e+03, 1.252395960705895e+04
6872, 1.167004617422614e+00, 1.571353272700844e+00, -2.600459981820047e-03, -8.110311355231590e-11, 4.365072118884924e-11, -1.165614380847821e-10, 4.262773890290001e+02, -3.930203973754973e+01, -1.391540173398324e+02, -1.156653557520118e+03, -3.565528350404352e+02, -7.774126192015465e+02, 2.058651727659447e+03
6873, 6.128169984581494e-01, 1.027338365565297e+00, -2.548371775637519e-02, -1.557961682959709e-09, 2.355549421722001e-10, -6.159527614263966e-09, 6.722336421786930e+03, 6.854466048147757e+03, -3.736607325137217e+02, 1.250882350315171e+04, -6.073054045154729e+02, 3.877759871172593e+03, 8.909136661457154e+03
6874, 3.464352348021494e-01, 2.750427755087304e-02, -3.985047946146297e-02, -2.773046852190173e-10, -2.893649468154876e-10, -3.381262984094535e-09, 2.542297349481113e+03, 2.149991137154568e+03, 1.130860389436424e+02, 4.111552647005211e+03, -5.462321440865542e+02, -4.069126215530926e+03, 7.337501853564172e+03
6875, 3.049323337824983e-01, 3.750573167623745e-18, 6.125353107824470e-02, 0.000000000000000e+00, 0.000000000000000e+00, 0.000000000000000e+00, 1.417925520087273e+03, 2.251824671529608e+03, -1.715551167807235e+02, 1.833365894892252e+03, 6.488851925245561e+01, -6.678092424325902e+02, 1.400134175955302e+03
6876, 2.578267572018136e-01, -1.520865517317054e-18, -2.483843910445115e-02, 0.000000000000000e+00, 0.000000000000000e+00, 0.000000000000000e+00, 8.644493409468638e+02, 1.620101246831849e+03, -5.163951358898731e+02, 8.505205734972267e+02, 7.969292302545972e+01, -2.324799641134954e+03, 4.197005351726042e+03
6877, 3.570421488314142e-01, -1.378450166466180e-18, -2.251254310682954e-02, 0.000000000000000e+00, 0.000000000000000e+00, 0.000000000000000e+00, 1.059563606210735e+03, 1.858877669544512e+03, -5.256465274524027e+02, 7.482342727345017e+02, 7.168431852526759e+01, -1.387810831353082e+03, 2.758090696695849e+03
6878, 4.028112610776922e-01, 3.756662285662899e-18, 6.135297720671118e-02, 0.000000000000000e+00, 0.000000000000000e+00, 0.000000000000000e+00, 1.140688701992043e+03, 1.779782504068639e+03, -1.421287163520635e+02, 1.461670805247735e+03, 6.635243993482742e+01, -5.080490359523412e+02, 1.074469101176402e+03
6879, 2.067151337599445e-01, 3.420374957434995e-18, 5.586080697293366e-02, 0.000000000000000e+00, 0.000000000000000e+00, 0.000000000000000e+00, 1.595173044299735e+03, 2.592314408164902e+03, -5.074725425515749e+01, 2.221230900049593e+03, -9.001821687395154e+00, -8.337327628167336e+02, 1.689754734670845e+03
6880, 4.563991789112916e-01, -1.126080214114291e-18, -1.839089288732570e-02, 0.000000000000000e+00, 0.000000000000000e+00, 0.000000000000000e+00, 1.354237795769450e+03, 2.098159199055208e+03, -4.986801473289189e+02, 1.324283532225201e+03, 2.177254135842918e+02, -1.704197186595521e+03, 3.190254349973205e+03
6881, 1.590759434944412e-01, -1.474036893146325e-18, -2.407364437634017e-02, 0.000000000000000e+00, 0.000000000000000e+00, 0.000000000000000e+00, 9.566083107490948e+02, 2.086412989181108e+03, -3.026184261856489e+02, 9.466989108537979e+02, 3.510419850537520e+01, -2.125193345652004e+03, 3.887868749462272e+03
6882, 5.007234743207396e-01, 3.380528995358199e-18, 5.521005153707585e-02, 0.000000000000000e+00, 0.000000000000000e+00, 0.000000000000000e+00, 8.250274508519185e+02, 1.275634172999157e+03, -1.431456661568557e+02, 1.026841917493385e+03, 6.428871285961964e+01, -3.770840149727167e+02, 8.082603329129767e+02
6883, 3.172723408415000e-01, -1.484536678688393e-18, -2.424512455050870e-02, 0.000000000000000e+00, 0.000000000000000e+00, 0.000000000000000e+00, 6.544332256214897e+02, 1.312696960365839e+03, -4.667391542143438e+02, 7.474361286560243e+02, 4.707618808029986e+01, -1.818691080734290e+03, 3.311168495300248e+03
6884, 5.373822370106626e-01, 3.265061087322687e-18, 5.332425521281049e-02, 0.000000000000000e+00, 0.000000000000000e+00, 0.000000000000000e+00, 8.136908432030377e+02, 1.196433700808279e+03, -1.749864616161611e+02, 1.066748213290712e+03, 1.098997883475558e+02, -3.692510184777217e+02, 8.067266242426501e+02
6885, 3.636868702494289e-01, 3.788134389825509e-18, 6.186697264801157e-02, 0.000000000000000e+00, 0.000000000000000e+00, 0.000000000000000e+00, 1.221488282846544e+03, 1.870846546378909e+03, -1.744440646657935e+02, 1.555113731809345e+03, 9.103923214826362e+01, -5.494326709566250e+02, 1.156769230490727e+03
6886, 2.649290194952005e-01, 3.603095418641980e-18, 5.884495711451437e-02, 0.000000000000000e+00, 0.000000000000000e+00, 0.000000000000000e+00, 1.814101404183792e+03, 2.834201508380517e+03, -1.777495924356251e+02, 2.441714024909366e+03, 8.122129179146741e+01, -8.957915795325151e+02, 1.821037405963109e+03
6887, 4.167405218334591e-01, -1.238568143399701e-18, -2.022802085802911e-02, 0.000000000000000e+00, 0.000000000000000e+00, 0.000000000000000e+00, 1.287096148343041e+03, 1.675162549562667e+03, -2.026604831885706e+02, 1.111432681941218e+03, -1.346416561347029e+02, -1.352239144270172e+03, 2.431640048474387e+03
6888, 2.178265414285422e-01, -1.653198461070644e-18, -2.699967146031045e-02, 0.000000000000000e+00, 0.000000000000000e+00, 0.000000000000000e+00, 9.549168358225248e+02, 1.965632507542221e+03, -3.048662818094758e+02, 1.593191272342063e+03, 1.195163402917998e+01, -2.680251190345339e+03, 4.755452097707377e+03
6889, 1.161059013987803e-01, 2.622633516756040e-18, 4.283227028130282e-02, 0.000000000000000e+00, 0.000000000000000e+00, 0.000000000000000e+00, 1.441703994470691e+03, 2.109857871820527e+03, 2.232096185125576e+02, 1.778387391563907e+03, -1.550410996218679e+02, -6.008616733272629e+02, 1.280435112379794e+03
6890, 4.428554199271433e-01, 3.778791062601569e-18, 6.171437949520331e-02, 0.000000000000000e+00, 0.000000000000000e+00, 0.000000000000000e+00, 8.669721925617768e+02, 1.387595767013407e+03, -1.266600924735577e+02, 1.098892741823876e+03, 4.343875116284849e+01, -4.121065863482790e+02, 8.760007819734496e+02
6891, 5.805846843746667e-01, 2.974310298321711e-18, 4.857577766174352e-02, 0.000000000000000e+00, 0.000000000000000e+00, 0.000000000000000e+00, 6.328193914273091e+02, 8.832136114021246e+02, -1.352160360070120e+02, 7.760797294899434e+02, 7.724278457938956e+01, -2.600384944202190e+02, 5.682946044844876e+02
6892, 1.672868455253297e-01, 3.182633803823490e-18, 5.197807105751985e-02, 0.000000000000000e+00, 0.000000000000000e+00, 0.000000000000000e+00, 1.701081161725511e+03, 2.542679675430971e+03, 5.303833176795271e+01, 2.306166809439133e+03, -5.772806268601534e+01, -7.995774276094110e+02, 1.581640441871045e+03
6893, 5.159830887761356e-01, -9.387978267892974e-19, -1.533223837781044e-02, 0.000000000000000e+00, 0.000000000000000e+00, 0.000000000000000e+00, 8.069709342939267e+02, 1.533980627928487e+03, -3.557489474005724e+02, 8.702215618787548e+02, 6.293002893333704e+01, -9.846958245066384e+02, 1.946019019409311e+03
6894, 6.175013684629368e-01, 2.704206783156598e-18, 4.416450681830824e-02, 0.000000000000000e+00, 0.000000000000000e+00, 0.000000000000000e+00, 4.814450430499369e+02, 7.405093538830548e+02, -1.321610545971758e+02, 5.943628334864956e+02, 6.017098217865802e+01, -2.353756900084549e+02, 5.292241450188023e+02
6895, 8.274744984266255e-02, -1.132069883567650e-18, -1.848871484349412e-02, 0.000000000000000e+00, 0.000000000000000e+00, 0.000000000000000e+00, 7.074322635903230e+02, 1.622636433526076e+03, 2.001398281738085e+02, 9.475809326944226e+02, -1.528266044723998e+02, -1.301174387840433e+03, 2.438213510104367e+03
6896, 5.555043169689685e-01, -8.233765418612252e-19, -1.344720349181942e-02, 0.000000000000000e+00, 0.000000000000000e+00, 0.000000000000000e+00, 4.753462746079163e+02, 7.879571386575394e+02, -2.728591233431427e+02, 4.454371520645514e+02, 9.660546877158865e+00, -4.827645921987652e+02, 1.015278908029511e+03
6897, 6.570930263133751e-01, 2.522292774676380e-18, 4.119352748421597e-02, 0.000000000000000e+00, 0.000000000000000e+00, 0.000000000000000e+00, 4.268915242446270e+02, 6.551696265733340e+02, -1.561165390319599e+02, 5.649506613983389e+02, 6.537380625148083e+01, -2.255324105504389e+02, 5.274355591456467e+02
6898, 1.199405749279265e-01, -1.344101456414998e-18, -2.195156757466820e-02, 0.000000000000000e+00, 0.000000000000000e+00, 0.000000000000000e+00, 9.071135250624804e+02, 2.086068173074706e+03, -1.148020210104707e+02, 7.942263313270957e+02, -6.095276216597676e+01, -2.466781885138364e+03, 4.454378665830518e+03
6899, 5.954415139721226e-01, -6.593180114572858e-19, -1.076783587475845e-02, 0.000000000000000e+00, 0.000000000000000e+00, 0.000000000000000e+00, 7.540844490055016e+02, 1.200861559514849e+03, -3.661907858353808e+01, 5.139632556317096e+02, -7.632741774327097e+01, -6.688462306250537e+02, 1.314577864731090e+03
6900, 6.960107567394640e-01, 2.037426874246673e-18, 3.327480488545939e-02, 0.000000000000000e+00, 0.000000000000000e+00, 0.000000000000000e+00, 2.899004592169520e+02, 4.168165978875948e+02, -1.358163763785935e+02, 3.400768903017577e+02, 6.363956400802599e+01, -1.183726572817672e+02, 3.489723286751936e+02
6901, 6.352235281581708e-01, -5.099537216020643e-19, -8.328451342920781e-03, 0.000000000000000e+00, 0.000000000000000e+00, 0.000000000000000e+00, 5.272813993800348e+02, 1.032660103570803e+03, -3.079703396606462e+02, 6.897396513019168e+02, 2.667869444917152e+01, -6.004245526873635e+02, 1.252157640387086e+03
6902, 7.479632064097741e-02, 1.864750029122718e-18, 3.045468485937958e-02, 0.000000000000000e+00, 0.000000000000000e+00, 0.000000000000000e+00, 1.084352623195825e+03, 1.553361603680212e+03, 3.254479533791087e+02, 1.275089130236760e+03, -2.395446138398449e+02, -5.048179457926249e+02, 1.192187131495139e+03
6903, 7.351264849136550e-01, 1.822831284956208e-18, 2.977007720508037e-02, 0.000000000000000e+00, 0.000000000000000e+00, 0.000000000000000e+00, 2.028642067086339e+02, 2.647686383901064e+02, -1.490784284948601e+02, 1.911567392941186e+02, 6.316577078290737e+01, -5.299731558809353e+01, 3.029240684952462e+02
6904, 4.284705609550050e-02, -7.499368748828177e-19, -1.224780310084185e-02, 0.000000000000000e+00, 0.000000000000000e+00, 0.000000000000000e+00, 3.681979875414294e+02, 5.992042560434601e+02, 2.802045175603191e+02, 2.655620825432350e+02, -1.777530034624861e+01, 6.625805950068290e+00, 5.694127372251941e+02
6905, 6.749557714526856e-01, -3.582772625224337e-19, -5.851304974927488e-03, 0.000000000000000e+00, 0.000000000000000e+00, 0.000000000000000e+00, 3.624930230214172e+02, 5.744157892536471e+02, -2.553076036392245e+02, 3.534846715537286e+02, 4.503208098589236e+01, -3.148222891950938e+02, 7.388303511021987e+02
6906, 7.741537558522897e-01, 1.520563084638937e-18, 2.483349984087190e-02, 0.000000000000000e+00, 0.000000000000000e+00, 0.000000000000000e+00, -2.845634403517445e+01, -1.012652859767862e+02, -1.408262820692580e+02, -9.719386249268921e+01, 5.953422057118985e+01, 5.577116436908645e+01, 2.906572659102630e+02
6907, 7.147077571661555e-01, -2.200766743374948e-19, -3.594243548558568e-03, 0.000000000000000e+00, 0.000000000000000e+00, 0.000000000000000e+00, 2.296785881266206e+02, 4.320715463797536e+02, -2.383917379544506e+02, 2.385749019558423e+02, 1.424069239623660e+01, -1.683652326345145e+02, 5.434908568610732e+02
6908, 7.542188251591071e-01, -1.068928860369775e-19, -1.745750962394280e-03, 0.000000000000000e+00, 0.000000000000000e+00, 0.000000000000000e+00, 8.983988578485557e+01, 1.585081699797801e+02, -2.290211502227190e+02, 7.721370665105809e+01, -1.560670986980339e+00, -2.658745322901147e+01, 4.064748682861763e+02
6909, 8.139176279880596e-01, 1.057930671511231e-18, 1.727788963709195e-02, 0.000000000000000e+00, 0.000000000000000e+00, 0.000000000000000e+00, -1.866629180644088e+02, -3.149028785146401e+02, -1.432338501499963e+02, -2.431152082529816e+02, 4.586145819929798e+01, 1.011209283397181e+02, 3.330568465569144e+02
6910, 3.940026148571420e-02, 1.228743342257978e-18, 2.006756437973213e-02, 0.000000000000000e+00, 0.000000000000000e+00, 0.000000000000000e+00, 5.180748740121463e+02, 5.478465536442956e+02, 1.791278173260816e+02, 4.202619048698235e+02, -7.338983657472008e+01, -7.794138355661983e+01, 3.794850368477021e+02
6911, 8.315345124188668e-01, 2.576763355976860e-19, 4.208312896522171e-03, 0.000000000000000e+00, 0.000000000000000e+00, 0.000000000000000e+00, -1.833725303033165e+02, -3.994577790337532e+02, -2.057398698824499e+02, -2.046290439978354e+02, -1.390352756192656e+01, 8.700117076428236e+01, 4.391192009025833e+02
6912, 7.948956862783811e-01, 1.532183974283778e-19, 2.502328963917829e-03, 0.000000000000000e+00, 0.000000000000000e+00, 0.000000000000000e+00, -6.634587067259189e+01, -1.037202776240109e+02, -2.002525294752471e+02, -6.393818103244898e+01, -5.227990088572817e+00, 8.965628267409610e+01, 3.820897782333518e+02
6913, 8.734277011564768e-01, 5.093359623399275e-19, 8.318362235344129e-03, 0.000000000000000e+00, 0.000000000000000e+00, 0.000000000000000e+00, -1.919685992367809e+02, -2.639438622975335e+02, -1.468038061310323e+02, -2.348982921201198e+02, 7.736901907735270e+01, 9.525613094097653e+01, 3.372931667755939e+02
6914, 7.741298564731560e-01, -7.065229505979120e-20, -1.153877649569010e-03, 0.000000000000000e+00, 0.000000000000000e+00, 0.000000000000000e+00, 2.783568436969726e+01, 7.680008634597136e+00, -2.387923524718829e+02, -2.372019520482236e+01, 2.021499213805006e+01, 6.656527681683252e+01, 4.331388058622729e+02
6915, 7.344617069787143e-01, -1.754367647395125e-19, -2.865194422549263e-03, 0.000000000000000e+00, 0.000000000000000e+00, 0.000000000000000e+00, 1.320994264502440e+02, 2.485977298990887e+02, -2.479452014178199e+02, 1.257015108813461e+02, 1.051358502780262e+01, -8.399188145348224e+01, 4.693443489790189e+02
6916, 6.948176187488728e-01, -2.843826623150697e-19, -4.644474715118432e-03, 0.000000000000000e+00, 0.000000000000000e+00, 0.000000000000000e+00, 1.825879950446806e+02, 3.803823402578532e+02, -2.076612251956578e+02, 1.640454044904371e+02, -9.936258087616588e+00, -1.913972853656952e+02, 5.316940415123260e+02
6917, 6.837947390077874e-01, 7.325481904049515e-19, 1.196381495357166e-02, 0.000000000000000e+00, 0.000000000000000e+00, 0.000000000000000e+00, 5.213927465481245e+02, 8.376742138831207e+02, -2.673027132084559e+02, 5.411239402168750e+02, 3.843301080762319e+01, -2.729326020828636e+02, 7.324225569720936e+02
6918, 6.645102557378681e-01, 6.450722473703688e-19, 1.053517720787414e-02, 0.000000000000000e+00, 0.000000000000000e+00, 0.000000000000000e+00, 6.148191126099902e+02, 1.030496453750967e+03, -3.091670360273449e+02, 6.917697140189530e+02, 3.186642617554607e+01, -4.217092892635617e+02, 9.849049575493552e+02
6919, 6.551841302850638e-01, -4.366619911502225e-19, -7.131467018560949e-03, 0.000000000000000e+00, 0.000000000000000e+00, 0.000000000000000e+00, 2.017173608087233e+02, 3.466798363204855e+02, -2.652793752023732e+02, 1.377043486335406e+02, -5.631223374119927e+00, -4.171489530164927e+02, 8.761538617764220e+02
6920, 6.442638117067447e-01, 5.410738800233640e-19, 8.836698884249681e-03, 0.000000000000000e+00, 0.000000000000000e+00, 0.000000000000000e+00, 6.892644898308503e+02, 1.212426481334469e+03, -3.386677743790758e+02, 7.545916492960505e+02, 2.056056473625999e+01, -4.797782802167216e+02, 1.131241269337065e+03
6921, 6.243007236650118e-01, 4.997312884640958e-19, 8.161500826845764e-03, 0.000000000000000e+00, 0.000000000000000e+00, 0.000000000000000e+00, 8.618910242042255e+02, 1.598123150421022e+03, -2.845174876212386e+02, 9.737037358034222e+02, 1.886582138079965e+00, -6.012553856475508e+02, 1.341493612330703e+03
6922, 6.317419680450603e-01, 1.565675927980134e-18, 2.557027281612858e-02, 0.000000000000000e+00, 0.000000000000000e+00, 0.000000000000000e+00, 7.744122990488165e+02, 1.264955213027142e+03, -2.669596103645971e+02, 9.391074446045767e+02, 5.724440102721496e+01, -4.255056410963856e+02, 9.766089399879860e+02
6923, 6.128407611088806e-01, 1.503868383625708e-18, 2.456084567798733e-02, 0.000000000000000e+00, 0.000000000000000e+00, 0.000000000000000e+00, 7.184504210923679e+02, 1.296562205934559e+03, -2.501169621802391e+02, 8.150150166986405e+02, 3.382541609782288e+01, -4.401729291951008e+02, 1.029600606838152e+03
6924, 5.981085261702452e-01, 2.249756017055313e-18, 3.674251746339752e-02, 0.000000000000000e+00, 0.000000000000000e+00, 0.000000000000000e+00, 6.334657083535142e+02, 1.126147128653771e+03, -1.618178928570781e+02, 7.578384098422511e+02, 8.107025033834125e+00, -3.782995713019977e+02, 8.396495646525827e+02
6925, 5.815199977400730e-01, 1.722914939298016e-18, 2.813826555644209e-02, 0.000000000000000e+00, 0.000000000000000e+00, 0.000000000000000e+00, 1.015624402297633e+03, 1.622786261381283e+03, -2.427370531287777e+02, 1.129967659216493e+03, 4.539925046985248e+00, -4.903766915891944e+02, 1.100240247259347e+03
6926, 5.621644524505682e-01, 2.117402003077077e-18, 3.458094099329155e-02, 0.000000000000000e+00, 0.000000000000000e+00, 0.000000000000000e+00, 1.054632786704612e+03, 1.713728843928570e+03, -3.041667292260717e+02, 1.137459996998952e+03, 6.018316431197653e+01, -4.939446643369206e+02, 1.186186791050320e+03
6927, 5.638258233591805e-01, 1.016525377065224e-18, 1.660166753001619e-02, 0.000000000000000e+00, 0.000000000000000e+00, 0.000000000000000e+00, 1.202654623255711e+03, 1.905448168077880e+03, -3.394945286505344e+02, 1.143671185534093e+03, -2.883926742345579e-01, -5.742298995357623e+02, 1.368883040612253e+03
6928, 5.478615883555138e-01, 1.386608185601829e-18, 2.264577807021487e-02, 0.000000000000000e+00, 0.000000000000000e+00, 0.000000000000000e+00, 1.119268220867391e+03, 2.044418810110324e+03, -3.605886670140642e+02, 1.132285077675275e+03, 7.912650323828865e+01, -6.720280838270974e+02, 1.614853338798869e+03
6929, 5.830374607669871e-01, 4.714446011329320e-19, 7.699528908394218e-03, 0.000000000000000e+00, 0.000000000000000e+00, 0.000000000000000e+00, 1.035227820290265e+03, 1.662025737730222e+03, -1.178091913834828e+02, 1.029571070392899e+03, -9.076745973597787e+01, -6.169882132413271e+02, 1.266818789323023e+03
6930, 6.046515614871257e-01, 4.291009807497601e-19, 7.007982269737570e-03, 0.000000000000000e+00, 0.000000000000000e+00, 0.000000000000000e+00, 9.508136114795984e+02, 1.769653907638386e+03, -1.956488883616620e+02, 1.380857062241934e+03, -2.516034993113171e+01, -7.703607798902693e+02, 1.549322974505469e+03
6931, 5.751214315105652e-01, -7.570449410009847e-19, -1.236389046387049e-02, 0.000000000000000e+00, 0.000000000000000e+00, 0.000000000000000e+00, 3.011363793854043e+02, 5.624408294629211e+02, -1.548825273282168e+02, 2.934919426439521e+02, -1.164593631220655e+00, -4.542627302594940e+02, 8.725650252791592e+02
6932, 6.153913553292445e-01, -5.868134608945083e-19, -9.583707598166246e-03, 0.000000000000000e+00, 0.000000000000000e+00, 0.000000000000000e+00, 6.200168467017563e+02, 1.323208866032676e+03, -9.840746737721223e+01, 8.584754830694981e+02, 4.337757713923764e+01, -7.913058072657204e+02, 1.515536505866583e+03
6933, 7.047000949148823e-01, 8.088955140840937e-19, 1.321070255040371e-02, 0.000000000000000e+00, 0.000000000000000e+00, 0.000000000000000e+00, 3.764738213589949e+02, 6.026816579863876e+02, -2.429347231375194e+02, 4.314612852392884e+02, 4.230832081120851e+01, -1.903948638038091e+02, 5.769986524469175e+02
6934, 6.731680004170220e-01, 2.007544261115523e-18, 3.278676865997556e-02, 0.000000000000000e+00, 0.000000000000000e+00, 0.000000000000000e+00, 4.268840989051660e+02, 6.467276742192225e+02, -1.958656380466422e+02, 4.754449631848431e+02, 6.602365621099601e+01, -2.148931415597847e+02, 5.538214170938415e+02
6935, 7.157022647007861e-01, 1.883721633202976e-18, 3.076452489934083e-02, 0.000000000000000e+00, 0.000000000000000e+00, 0.000000000000000e+00, 1.095296839091983e+02, 2.689757430123290e+02, -1.224938691636021e+02, 1.703408231597702e+02, 2.382114731751070e+01, -7.380070195300809e+01, 2.871953339980351e+02
6936, 5.358406122382474e-01, -8.734360848583156e-19, -1.426476487129191e-02, 0.000000000000000e+00, 0.000000000000000e+00, 0.000000000000000e+00, 6.068410171882075e+02, 1.035048966602225e+03, -3.496864430376030e+02, 5.443677883536750e+02, 2.321950495160145e+01, -6.691875427558736e+02, 1.387772189221730e+03
6937, 5.245213409377922e-01, 1.283770750506187e-19, 2.096625983523827e-03, 0.000000000000000e+00, 0.000000000000000e+00, 0.000000000000000e+00, 1.195365830415810e+03, 2.224888369811197e+03, -3.688121270538983e+02, 1.242604982186341e+03, 6.699668615766348e+01, -9.452728255274550e+02, 2.028711263879069e+03
6938, 5.050646969832218e-01, 7.897319463554788e-20, 1.289772740261353e-03, 0.000000000000000e+00, 0.000000000000000e+00, 0.000000000000000e+00, 1.413977686507675e+03, 2.560653146167901e+03, -3.600489470460866e+02, 1.577923823769643e+03, 8.611405778344951e+01, -1.149100217501172e+03, 2.350786355379882e+03
6939, 5.135915367763794e-01, 1.143675256655480e-18, 1.867825122882490e-02, 0.000000000000000e+00, 0.000000000000000e+00, 0.000000000000000e+00, 1.391520940427598e+03, 2.478645468321857e+03, -3.659031626500805e+02, 1.470161315926008e+03, 3.322994571536324e+01, -9.580898138256887e+02, 2.064293705357615e+03
6940, 4.942078596296815e-01, 1.096366495184151e-18, 1.790561500456125e-02, 0.000000000000000e+00, 0.000000000000000e+00, 0.000000000000000e+00, 1.323316952307861e+03, 2.547372950408396e+03, -3.815185842145849e+02, 1.336020710189845e+03, 5.660650555025248e+01, -1.020722034155653e+03, 2.248294232004357e+03
6941, 4.852739374643219e-01, 1.661795671310865e-20, 2.714007919563469e-04, 0.000000000000000e+00, 0.000000000000000e+00, 0.000000000000000e+00, 1.675696490730184e+03, 2.845466106813437e+03, -3.185158715715315e+02, 1.800200919402597e+03, -7.970980492734018e+00, -1.300447175404526e+03, 2.572208597434043e+03
6942, 4.744714224424250e-01, 1.036372359065558e-18, 1.692580404847187e-02, 0.000000000000000e+00, 0.000000000000000e+00, 0.000000000000000e+00, 1.617272566306364e+03, 2.866737116859081e+03, -3.508615432214613e+02, 1.688419986542564e+03, 1.526222743221566e+00, -1.145550825535859e+03, 2.404892092445366e+03
6943, 4.849942484159819e-01, 2.357018658285258e-18, 3.849430718578700e-02, 0.000000000000000e+00, 0.000000000000000e+00, 0.000000000000000e+00, 1.647862292461512e+03, 2.699341474948499e+03, -3.033621444158378e+02, 2.041838591132450e+03, 6.860760149375733e+01, -8.822752100895419e+02, 1.863331247693155e+03
6944, 4.639503792149243e-01, 2.064645435475744e-18, 3.371933240475755e-02, 0.000000000000000e+00, 0.000000000000000e+00, 0.000000000000000e+00, 1.660968795681329e+03, 2.823334302487879e+03, -3.282798790345693e+02, 1.858988686174735e+03, 5.933565651272716e+01, -9.972761608699233e+02, 2.116052546259219e+03
6945, 4.547265063429445e-01, 9.757410676307856e-19, 1.593558721274300e-02, 0.000000000000000e+00, 0.000000000000000e+00, 0.000000000000000e+00, 1.471790252874069e+03, 2.803130109027285e+03, -3.392342186307971e+02, 1.497527635768677e+03, 1.521691162399218e+01, -1.120876301795414e+03, 2.419480998492779e+03
6946, 4.441279965705683e-01, 1.949974324398189e-18, 3.184654919210101e-02, 0.000000000000000e+00, 0.000000000000000e+00, 0.000000000000000e+00, 1.599128733624491e+03, 2.836174358866644e+03, -3.002656141440622e+02, 1.838521850069248e+03, 2.537340155206687e+01, -1.026613865807874e+03, 2.173860292143603e+03
6947, 4.349302188564517e-01, 9.056531296516197e-19, 1.479092651813858e-02, 0.000000000000000e+00, 0.000000000000000e+00, 0.000000000000000e+00, 1.621220359754007e+03, 2.916472440185494e+03, -3.373853555127573e+02, 1.621154104964923e+03, 2.926600643286826e+01, -1.191121233026213e+03, 2.505619540142486e+03
6948, 4.236534773758804e-01, 1.870491963241328e-18, 3.054846085687766e-02, 0.000000000000000e+00, 0.000000000000000e+00, 0.000000000000000e+00, 1.922193104517360e+03, 3.189800214316592e+03, -3.527339916728315e+02, 2.138998259106736e+03, 1.239861746695051e+01, -1.053257764334217e+03, 2.254060612018237e+03
6949, 4.150147964245341e-01, 8.403528265721836e-19, 1.372445641734883e-02, 0.000000000000000e+00, 0.000000000000000e+00, 0.000000000000000e+00, 1.863535186502582e+03, 3.268235115785448e+03, -3.921499519278752e+02, 1.937695101114678e+03, 9.377917761847634e+00, -1.236538700938459e+03, 2.631197754754058e+03
6950, 4.038092395787176e-01, 1.820818824186040e-18, 2.973721014108246e-02, 0.000000000000000e+00, 0.000000000000000e+00, 0.000000000000000e+00, 1.814308225032370e+03, 3.296675613416837e+03, -3.871648703966119e+02, 1.898522446303045e+03, -2.106299778711151e+01, -1.067053044194729e+03, 2.438543858857351e+03
6951, 3.951864821663831e-01, 7.773314457597892e-19, 1.269520517076358e-02, 0.000000000000000e+00, 0.000000000000000e+00, 0.000000000000000e+00, 2.034830868983069e+03, 3.597944409086956e+03, -4.298212968620675e+02, 2.171491355942835e+03, 1.791470114988368e+01, -1.259057576214606e+03, 2.749411566557254e+03
6952, 3.841271969231937e-01, 1.774234846596238e-18, 2.897641092679782e-02, 0.000000000000000e+00, 0.000000000000000e+00, 0.000000000000000e+00, 2.080099727227086e+03, 3.697233547582606e+03, -4.342026436569608e+02, 2.185382085755457e+03, 3.766315663843392e+01, -1.164784546199586e+03, 2.663826377575692e+03
6953, 3.754738137763274e-01, 7.201171680156098e-19, 1.176079424654135e-02, 0.000000000000000e+00, 0.000000000000000e+00, 0.000000000000000e+00, 2.198093258494696e+03, 3.817145616069312e+03, -4.335651251535450e+02, 2.299149791684918e+03, 1.740347941366360e+01, -1.358042753215568e+03, 2.926706732212453e+03
6954, 3.645212106656400e-01, 1.726127846358156e-18, 2.819073804362316e-02, 0.000000000000000e+00, 0.000000000000000e+00, 0.000000000000000e+00, 2.000161724296637e+03, 3.756393218178674e+03, -4.311255316919403e+02, 2.018319722017752e+03, -4.003594946938169e-01, -1.186109685935719e+03, 2.798386292102192e+03
6955, 3.556407479660849e-01, 6.645298927759401e-19, 1.085295516721330e-02, 0.000000000000000e+00, 0.000000000000000e+00, 0.000000000000000e+00, 2.533687451284156e+03, 4.365556413727658e+03, -5.407186324067346e+02, 2.870923126019714e+03, 6.947153359817250e+01, -1.563998175500880e+03, 3.328900705855994e+03
6956, 3.448658038359079e-01, 1.675238894325259e-18, 2.735963093930254e-02, 0.000000000000000e+00, 0.000000000000000e+00, 0.000000000000000e+00, 2.425356713091326e+03, 4.254475552365382e+03, -4.601952287655313e+02, 2.581129594976062e+03, 6.947391311360069e+01, -1.337269721602461e+03, 3.016571489374048e+03
6957, 3.358539429230987e-01, 5.979644343162171e-19, 9.765822828695675e-03, 0.000000000000000e+00, 0.000000000000000e+00, 0.000000000000000e+00, 2.487047629231948e+03, 4.430181593597498e+03, -4.772243533130219e+02, 2.651747831791809e+03, 4.014301501309028e+00, -1.611366132244589e+03, 3.457693050739419e+03
6958, 3.250527077381846e-01, 1.612387351071010e-18, 2.633315344213670e-02, 0.000000000000000e+00, 0.000000000000000e+00, 0.000000000000000e+00, 2.412057562715375e+03, 4.244647490212638e+03, -4.646734199872688e+02, 2.629548576324760e+03, 3.610856823963734e+01, -1.434430751633745e+03, 3.135532926637851e+03
6959, 3.158675863406241e-01, 5.455176070811880e-19, 8.909272851287404e-03, 0.000000000000000e+00, 0.000000000000000e+00, 0.000000000000000e+00, 2.717074585712215e+03, 4.655486688295196e+03, -5.883365203963102e+02, 2.862624180122566e+03, 9.102319039724856e+01, -1.794415940674031e+03, 3.770882127598757e+03
6960, 3.052127013529204e-01, 1.550895244084252e-18, 2.532887795728686e-02, 0.000000000000000e+00, 0.000000000000000e+00, 0.000000000000000e+00, 2.640512785136963e+03, 4.575402287140760e+03, -5.566131986907577e+02, 2.906097823963926e+03, 3.242279512810714e+01, -1.498081644014432e+03, 3.311466352312617e+03
6961, 2.960311334628592e-01, 4.744998791052980e-19, 7.749427032192615e-03, 0.000000000000000e+00, 0.000000000000000e+00, 0.000000000000000e+00, 2.641675258614161e+03, 4.832893477804291e+03, -5.527953150573237e+02, 2.919887810104879e+03, 6.266069122089635e+01, -1.874229960319250e+03, 3.966857193860099e+03
6962, 2.853811526674167e-01, 1.501876163075018e-18, 2.452830917277533e-02, 0.000000000000000e+00, 0.000000000000000e+00, 0.000000000000000e+00, 2.689350740028869e+03, 4.783490753548066e+03, -4.737925149444914e+02, 3.028157190060562e+03, 1.227668650164575e+02, -1.687213621378730e+03, 3.612399012642911e+03
6963, 2.763683412781931e-01, 4.257047250207470e-19, 6.952515372666333e-03, 0.000000000000000e+00, 0.000000000000000e+00, 0.000000000000000e+00, 2.626970268378058e+03, 4.787193437127964e+03, -5.224671685163257e+02, 2.698224761549383e+03, 6.061557707808091e+01, -2.130608969605381e+03, 4.355012979285986e+03
6964, 2.655872498843859e-01, 1.443258698160250e-18, 2.357098170616854e-02, 0.000000000000000e+00, 0.000000000000000e+00, 0.000000000000000e+00, 2.758602892723206e+03, 4.899290986584742e+03, -4.408496155949958e+02, 3.102976842546083e+03, 2.420934338852409e+01, -1.914106090915188e+03, 3.942099888100730e+03
6965, 3.341671860403984e-01, 2.686902120725754e-18, 4.388189090051832e-02, 0.000000000000000e+00, 0.000000000000000e+00, 0.000000000000000e+00, 2.157606875014817e+03, 3.792364758972783e+03, -3.470529661445767e+02, 2.398348049899266e+03, 1.569489406042928e+01, -1.120185175684296e+03, 2.542313292123600e+03
6966, 2.566032740298894e-01, 3.519877842048421e-19, 5.748586606727606e-03, 0.000000000000000e+00, 0.000000000000000e+00, 0.000000000000000e+00, 2.794400605836790e+03, 5.069709666040066e+03, -5.055104370871373e+02, 2.998646620101685e+03, 1.407002294260360e+01, -2.192664445960797e+03, 4.465934769721732e+03
6967, 2.458009985553817e-01, 1.363575814489302e-18, 2.226961848161506e-02, 0.000000000000000e+00, 0.000000000000000e+00, 0.000000000000000e+00, 2.886866166356037e+03, 5.123999695271619e+03, -4.372148455152601e+02, 3.148904024318979e+03, -3.950592259107987e+01, -1.896725936440456e+03, 3.982220114255849e+03
6968, 2.368353646364385e-01, 3.119378217515963e-19, 5.094499481861116e-03, 0.000000000000000e+00, 0.000000000000000e+00, 0.000000000000000e+00, 3.028391302601520e+03, 5.422312196972276e+03, -4.608675948422386e+02, 3.318515852564132e+03, -5.736795321203103e+01, -2.255892256299553e+03, 4.586361734868017e+03
6969, 2.260084367765396e-01, 1.301316506420982e-18, 2.125281323846098e-02, 0.000000000000000e+00, 0.000000000000000e+00, 0.000000000000000e+00, 3.041840894277662e+03, 5.317137507511377e+03, -3.946759184315524e+02, 3.440524675668039e+03, 1.239925557413243e+02, -1.921619215428847e+03, 4.002510525771432e+03
6970, 2.352957232491293e-01, 2.412682320339210e-18, 3.940339379766369e-02, 0.000000000000000e+00, 0.000000000000000e+00, 0.000000000000000e+00, 2.611109462044918e+03, 4.479995432995092e+03, -3.085503960810827e+02, 3.001388353225610e+03, 4.553375001804169e+01, -1.414405304520925e+03, 3.034653645004370e+03
6971, 3.861569743960512e-01, -2.804942013240656e-19, -4.580969230619392e-03, 0.000000000000000e+00, 0.000000000000000e+00, 0.000000000000000e+00, 1.963520627762627e+03, 3.606733490127067e+03, -3.315302231485296e+02, 2.024248426054332e+03, -9.058140398349813e+00, -1.422818141014234e+03, 3.001210602535594e+03
6972, 2.166612485128308e-01, 2.570427648759107e-19, 4.197965559685372e-03, 0.000000000000000e+00, 0.000000000000000e+00, 0.000000000000000e+00, 2.955424299429134e+03, 5.629527926126295e+03, -3.382838329564107e+02, 3.515519528943781e+03, 3.061197782387737e+01, -2.526304723045047e+03, 5.045745731149770e+03
6973, 2.061386432670302e-01, 1.239485320013761e-18, 2.024299998354479e-02, 0.000000000000000e+00, 0.000000000000000e+00, 0.000000000000000e+00, 2.908529308811696e+03, 5.273607159181416e+03, -2.842072462523173e+02, 3.400152296806969e+03, 4.022614161351521e+01, -2.070004902316302e+03, 4.215981066336700e+03
6974, 1.967119497131095e-01, 1.701186469945906e-19, 2.778340100287699e-03, 0.000000000000000e+00, 0.000000000000000e+00, 0.000000000000000e+00, 3.537640680048534e+03, 6.234723578836123e+03, -1.108293712345577e+02, 4.115978999891262e+03, -3.179968888652598e+01, -2.780119509930809e+03, 5.410728376169696e+03
6975, 1.863018144945296e-01, 1.156953151160935e-18, 1.889510286386683e-02, 0.000000000000000e+00, 0.000000000000000e+00, 0.000000000000000e+00, 3.018361134642715e+03, 5.399378805846886e+03, -1.422710989272073e+02, 3.636307805870404e+03, 5.423456879911418e+01, -2.128612756912322e+03, 4.271098859053835e+03
6976, 1.774394891620168e-01, 1.292123837616658e-19, 2.110268060562549e-03, 0.000000000000000e+00, 0.000000000000000e+00, 0.000000000000000e+00, 3.344861178403959e+03, 5.799210520124256e+03, -5.927247147332160e+01, 3.531066585192512e+03, -2.048331671755702e+02, -2.683932782702358e+03, 5.229568350264327e+03
6977, 1.665699897679211e-01, 1.094011331860757e-18, 1.786715099829439e-02, 0.000000000000000e+00, 0.000000000000000e+00, 0.000000000000000e+00, 3.000497148713177e+03, 5.413907974378978e+03, 2.404799439880243e+01, 3.440135072393871e+03, -9.955165304233574e+01, -2.114016099753966e+03, 4.288993485192772e+03
6978, 2.866959362980677e-01, -5.476841231480738e-19, -8.944655912303270e-03, 0.000000000000000e+00, 0.000000000000000e+00, 0.000000000000000e+00, 2.897183434205099e+03, 5.012045202141396e+03, -4.152377269513465e+02, 3.235653954579588e+03, -9.640200655205891e+00, -2.337610669832619e+03, 4.558749945843795e+03
6979, 1.872497211747205e-01, -7.671557163704005e-19, -1.252901740997617e-02, 0.000000000000000e+00, 0.000000000000000e+00, 0.000000000000000e+00, 3.419932012585135e+03, 5.764613891706454e+03, 4.796189650638242e+00, 3.052921391637147e+03, -1.838787347229125e+02, -2.983656711361911e+03, 5.770691323738485e+03
6980, 1.581823242439305e-01, 1.209578834510404e-19, 1.975457387976039e-03, 0.000000000000000e+00, 0.000000000000000e+00, 0.000000000000000e+00, 2.857666015306953e+03, 5.394482384170235e+03, -2.765638112512123e+01, 3.027522417105394e+03, -4.157009237782710e+01, -2.157316258841499e+03, 4.472461643446867e+03
6981, 1.468203378601807e-01, 1.051103535848882e-18, 1.716639036810583e-02, 0.000000000000000e+00, 0.000000000000000e+00, 0.000000000000000e+00, 2.949001533559773e+03, 5.287338387776636e+03, 1.310364191070786e+02, 3.427489054190929e+03, -6.617741783137990e+01, -1.910277300068510e+03, 3.948421535015569e+03
6982, 1.376102869538475e-01, -7.913359173882329e-20, -1.292392310260720e-03, 0.000000000000000e+00, 0.000000000000000e+00, 0.000000000000000e+00, 3.389089613943796e+03, 5.959258440610927e+03, -9.236112513434096e+00, 4.223882241613109e+03, 3.014409395433228e+02, -2.401127204982347e+03, 4.767198332496321e+03
6983, 1.269746928002559e-01, 9.143198311142815e-19, 1.493246916873174e-02, 0.000000000000000e+00, 0.000000000000000e+00, 0.000000000000000e+00, 2.665913599726672e+03, 5.127648511229288e+03, 3.928865651779163e+02, 3.392905526048809e+03, -1.085713181510333e+02, -1.810412142169673e+03, 3.889757544661858e+03
6984, 1.354632114646350e-01, 2.063697231467886e-18, 3.370384654671186e-02, 0.000000000000000e+00, 0.000000000000000e+00, 0.000000000000000e+00, 2.258251316428716e+03, 4.029332823028813e+03, 2.460922994154987e+02, 2.627445643412248e+03, -4.281654401287295e+01, -1.265084319018332e+03, 2.758198676805600e+03
6985, 1.953842621145341e-01, 2.249358031666154e-18, 3.673601765408466e-02, 0.000000000000000e+00, 0.000000000000000e+00, 0.000000000000000e+00, 2.197011263084725e+03, 4.145203598103164e+03, -9.426823551899388e+01, 2.384395824035473e+03, -9.289054579337085e+01, -1.466426509777307e+03, 3.157415203845098e+03
6986, 4.721936619354673e-01, 3.163212344155140e-18, 5.166088407563412e-02, 0.000000000000000e+00, 0.000000000000000e+00, 0.000000000000000e+00, 1.179343029559210e+03, 1.803595476441272e+03, -1.877891992538283e+02, 1.514285053407465e+03, 9.055463589389824e+01, -5.566713121875729e+02, 1.163113289658242e+03
6987, 2.945883133740579e-01, 2.578087384218450e-18, 4.210475270149364e-02, 0.000000000000000e+00, 0.000000000000000e+00, 0.000000000000000e+00, 2.315774300848327e+03, 3.959352521939879e+03, -3.725368217989796e+02, 2.669511078265941e+03, 6.495811757707295e+01, -1.159824933920484e+03, 2.590304300100329e+03
6988, 1.171725619195153e-01, -1.245843959514465e-19, -2.034684787688377e-03, 0.000000000000000e+00, 0.000000000000000e+00, 0.000000000000000e+00, 2.980233219678977e+03, 5.462885282425100e+03, 3.133565590699542e+02, 3.848715876240440e+03, -2.240035107388747e+01, -2.237449905260521e+03, 4.480659738565986e+03
6989, 1.070577816274129e-01, 8.347599497746540e-19, 1.363311479103647e-02, 0.000000000000000e+00, 0.000000000000000e+00, 0.000000000000000e+00, 2.608297299506536e+03, 4.690558754930627e+03, 7.299484401239620e+02, 2.847513054637366e+03, -1.438168110486254e+02, -1.686402024782456e+03, 3.753306085109298e+03
6990, 9.536457464124048e-02, -1.555529321815709e-19, -2.540456068940707e-03, 0.000000000000000e+00, 0.000000000000000e+00, 0.000000000000000e+00, 2.466751289201012e+03, 4.149511480767044e+03, 5.765546994970338e+02, 2.909376332354632e+03, -1.241596044846775e+02, -1.740510108549455e+03, 3.523405467629181e+03
6991, 8.635323382677330e-02, 8.690468749029738e-19, 1.419308126550885e-02, 0.000000000000000e+00, 0.000000000000000e+00, 0.000000000000000e+00, 1.707857131247649e+03, 2.794965896272256e+03, 6.009842622886881e+02, 1.893295489674625e+03, -2.429928826628466e+02, -1.092991458023089e+03, 2.420573287987047e+03
6992, 3.146711142540285e-01, 2.644124504748998e-18, 4.318325634185816e-02, 0.000000000000000e+00, 0.000000000000000e+00, 0.000000000000000e+00, 2.314698240278560e+03, 3.932176323932628e+03, -3.886579165175137e+02, 2.667273750000747e+03, 6.211431343259243e+01, -1.139840984244503e+03, 2.555917365928239e+03
6993, 1.569354745770442e-01, 2.103588961891846e-18, 3.435534946108831e-02, 0.000000000000000e+00, 0.000000000000000e+00, 0.000000000000000e+00, 2.440581929201657e+03, 4.448787481349248e+03, 1.554764792906535e+02, 2.956514955593728e+03, -8.338708198668925e+01, -1.498293662645530e+03, 3.176634631335104e+03
6994, 2.549163165181316e-01, 2.459680630262811e-18, 4.017095979594396e-02, 0.000000000000000e+00, 0.000000000000000e+00, 0.000000000000000e+00, 2.681058397528514e+03, 4.602289434150875e+03, -3.364859439092627e+02, 3.052200163119230e+03, 2.652380655616212e+00, -1.575024596827426e+03, 3.301154759437409e+03
6995, 2.453676043841255e-01, 3.571921496962826e-18, 5.833583152355447e-02, 0.000000000000000e+00, 0.000000000000000e+00, 0.000000000000000e+00, 1.627725446081899e+03, 2.540368432973075e+03, -1.373355646587843e+02, 2.152114288673705e+03, 3.547903670504819e+01, -8.162586291921864e+02, 1.639669170122481e+03
6996, 2.751773151512911e-01, 2.537274191070226e-18, 4.143820066179805e-02, 0.000000000000000e+00, 0.000000000000000e+00, 0.000000000000000e+00, 2.404920492087279e+03, 4.201937239581427e+03, -3.848206897569542e+02, 2.759947726587007e+03, 1.368953978053305e+02, -1.380349509178340e+03, 2.988963011460827e+03
6997, 2.154032644060101e-01, 2.327833920270546e-18, 3.801766850228488e-02, 0.000000000000000e+00, 0.000000000000000e+00, 0.000000000000000e+00, 2.624173825869152e+03, 4.650769677868993e+03, -2.753914022067892e+02, 3.003178110614479e+03, 8.796411622200098e+01, -1.534867860514887e+03, 3.286462971345378e+03
6998, 4.961019961928819e-01, -1.004252741668200e-18, -1.640123356429788e-02, 0.000000000000000e+00, 0.000000000000000e+00, 0.000000000000000e+00, 6.721687361780373e+02, 1.272234021847170e+03, -2.481730124428979e+02, 6.434884585107584e+02, -7.535303077566605e+00, -1.145972528250168e+03, 2.121982546018780e+03
6999, 4.762645414648129e-01, -1.066210295428457e-18, -1.741311062286233e-02, 0.000000000000000e+00, 0.000000000000000e+00, 0.000000000000000e+00, 8.165902625704214e+02, 1.375980984738691e+03, -3.474616867804737e+02, 8.426287370051697e+02, 2.653489132516243e+01, -1.251048120218519e+03, 2.314885671302450e+03
7000, 4.654816881747267e-01, -4.447560394424704e-20, -7.263657224286825e-04, 0.000000000000000e+00, 0.000000000000000e+00, 0.000000000000000e+00, 1.442146495805777e+03, 2.615822770198168e+03, -3.848414076232100e+02, 1.525475491572429e+03, -2.923296681849670e+01, -1.287486878253992e+03, 2.589671458785212e+03
7001, 3.372040379867387e-01, -1.433075642393885e-18, -2.340467429261347e-02, 0.000000000000000e+00, 0.000000000000000e+00, 0.000000000000000e+00, 9.728787789469463e+02, 1.861708071880748e+03, -4.335860130341329e+02, 1.044608898695184e+03, 1.839936083241681e+01, -1.627971189932739e+03, 3.040934655286939e+03
7002, 4.365494617013995e-01, -1.183613862929247e-18, -1.933051970920811e-02, 0.000000000000000e+00, 0.000000000000000e+00, 0.000000000000000e+00, 3.791018704926222e+02, 1.481669982302907e+03, -1.974512867280328e+02, 1.169128983377681e+03, -1.815965583183230e+02, -2.202427353803466e+03, 3.966949997965420e+03
7003, 5.047673469052977e-01, 2.224167419819665e-18, 3.632461015537519e-02, 0.000000000000000e+00, 0.000000000000000e+00, 0.000000000000000e+00, 1.413644849763428e+03, 2.376640572236545e+03, -3.085937437587849e+02, 1.718255986943909e+03, 3.926715258942745e+01, -7.797586111954204e+02, 1.685584760061711e+03
7004, 5.230851066307118e-01, 2.249027330975638e-18, 3.673061672358181e-02, 0.000000000000000e+00, 0.000000000000000e+00, 0.000000000000000e+00, 1.299685353709786e+03, 2.206007040414475e+03, -3.336938792052615e+02, 1.486345832630708e+03, 4.146224341668219e+01, -7.652781003861214e+02, 1.668307697884859e+03
7005, 4.456811926256334e-01, -1.049066965171279e-19, -1.713312954643453e-03, 0.000000000000000e+00, 0.000000000000000e+00, 0.000000000000000e+00, 2.136419107925151e+03, 3.413537698075069e+03, -4.616640924531759e+02, 2.561511483706643e+03, 1.720218433579960e+02, -1.653637437483304e+03, 3.193832825322932e+03
7006, 5.460553334952993e-01, 2.858057890108120e-19, 4.667716905415734e-03, 0.000000000000000e+00, 0.000000000000000e+00, 0.000000000000000e+00, 1.210417789501106e+03, 2.232745351470391e+03, -3.585836403169490e+02, 1.237710030071608e+03, 7.928086382532135e+01, -7.629065297335836e+02, 1.780078387976285e+03
7007, 7.547730514220303e-01, 1.727977650122925e-18, 2.822094862940028e-02, 0.000000000000000e+00, 0.000000000000000e+00, 0.000000000000000e+00, 4.807614237284109e+01, 7.343999323262618e+01, -1.725219123348652e+02, 4.740635009880876e+01, 7.900521769453910e+01, -4.587811968460515e-01, 3.296639159507063e+02
7008, 1.396519552043181e-01, -1.246806174629788e-18, -2.036256256123640e-02, 0.000000000000000e+00, 0.000000000000000e+00, 0.000000000000000e+00, 1.866569417346167e+03, 3.388473942148718e+03, -1.360819743122641e+02, 2.017759945305022e+03, 2.449308799038653e+02, -2.368243479541451e+03, 4.378380324265184e+03
7009, 2.379367665901284e-01, -1.603005199334499e-18, -2.617992621597988e-02, 0.000000000000000e+00, 0.000000000000000e+00, 0.000000000000000e+00, 1.558411506967697e+03, 2.430971800289169e+03, -7.618875578484258e+02, 1.546155521603588e+03, -1.350710874633916e+01, -2.411481818466224e+03, 4.467650917607039e+03
7010, 3.537890996298509e-01, 2.745814977505184e-18, 4.484404264169694e-02, 0.000000000000000e+00, 0.000000000000000e+00, 0.000000000000000e+00, 2.129291995335599e+03, 3.657905568317071e+03, -4.224476219338432e+02, 2.377056040330037e+03, 9.837664400695327e+01, -1.094272191395511e+03, 2.485161112301452e+03
7011, 3.440277310506776e-01, 3.766999387253298e-18, 6.152180046257839e-02, 0.000000000000000e+00, 0.000000000000000e+00, 0.000000000000000e+00, 1.555090013738430e+03, 2.449055970874659e+03, -2.257116914562545e+02, 2.005547029519822e+03, 9.864781714535798e+01, -7.183284913459585e+02, 1.526241252628258e+03
7012, 4.225817909895187e-01, 3.770892714544517e-18, 6.158538542241577e-02, 0.000000000000000e+00, 0.000000000000000e+00, 0.000000000000000e+00, 1.181717450567759e+03, 1.789187585260516e+03, -1.570644498328466e+02, 1.570474428544637e+03, 8.008758618338601e+01, -5.325489679229129e+02, 1.108182609946662e+03
7013, 4.258304742524178e-01, -1.668903711369105e-19, -2.725616613305884e-03, 0.000000000000000e+00, 0.000000000000000e+00, 0.000000000000000e+00, 1.596294966196415e+03, 3.032055081994113e+03, -3.329312250019239e+02, 2.193227413879439e+03, -2.438427777225264e+02, -1.545254103494678e+03, 3.038917881843974e+03
7014, 3.832549654834287e-01, 3.791640758837031e-18, 6.192423789084781e-02, 0.000000000000000e+00, 0.000000000000000e+00, 0.000000000000000e+00, 1.000362899875190e+03, 1.559094250163573e+03, -1.333663859870010e+02, 1.291253850620523e+03, 6.170815280349904e+01, -4.511091302634237e+02, 9.537034039186506e+02
7015, 2.851458285419322e-01, 3.665453742070997e-18, 5.986337945463008e-02, 0.000000000000000e+00, 0.000000000000000e+00, 0.000000000000000e+00, 1.258311143496722e+03, 1.994731432957488e+03, -1.446574847672758e+02, 1.636751800131748e+03, 5.153513117037176e+01, -5.940250290049934e+02, 1.239428486684857e+03
7016, 4.060666540730296e-01, -2.202594801991910e-19, -3.597229093442032e-03, 0.000000000000000e+00, 0.000000000000000e+00, 0.000000000000000e+00, 1.957115640831041e+03, 3.601456819438940e+03, -3.952180612384326e+02, 2.057053912982987e+03, 7.430292556701541e+00, -1.420792742286847e+03, 3.012345693777945e+03
7017, 7.933640205223165e-01, 1.324248171659002e-18, 2.162732812100168e-02, 0.000000000000000e+00, 0.000000000000000e+00, 0.000000000000000e+00, -9.097828665226569e+01, -1.755950245197882e+02, -1.059267301181620e+02, -1.525245763780959e+02, 4.023183113208299e+01, 6.719154909594121e+01, 2.404192625829795e+02
7018, 8.516081274173171e-01, 6.792518778043207e-19, 1.109339136913937e-02, 0.000000000000000e+00, 0.000000000000000e+00, 0.000000000000000e+00, -1.799044405038414e+02, -3.390187926395164e+02, -1.101395229066852e+02, -2.088965454032007e+02, 3.224511324311401e+01, 5.784999951418105e+01, 2.666385419398940e+02
7019, 3.968740637820211e-01, -1.291575491634442e-18, -2.109372514037729e-02, 0.000000000000000e+00, 0.000000000000000e+00, 0.000000000000000e+00, 6.322309967803035e+02, 1.186861777095093e+03, -2.887053018926556e+02, 6.297239091137310e+02, -4.635949299382980e+01, -1.097976782606856e+03, 2.045035697286437e+03
7020, 3.769423209249557e-01, -1.339561122858793e-18, -2.187741585167521e-02, 0.000000000000000e+00, 0.000000000000000e+00, 0.000000000000000e+00, 4.330425094080499e+02, 7.395574014402923e+02, -3.775142236664039e+02, 3.673822756419933e+02, 3.918951370185015e+00, -1.111980583451149e+03, 2.062883414172334e+03
7021, 3.663129956056928e-01, -3.323118615590292e-19, -5.427243791799393e-03, 0.000000000000000e+00, 0.000000000000000e+00, 0.000000000000000e+00, 2.441725699564839e+03, 4.036861315765403e+03, -5.406984458949487e+02, 2.320778889748803e+03, 1.497089540910664e+02, -1.652662527526145e+03, 3.448216257651440e+03
7022, 1.863673115119853e-01, 3.274762987423143e-18, 5.348270449849603e-02, 0.000000000000000e+00, 0.000000000000000e+00, 0.000000000000000e+00, 1.731271485925071e+03, 2.722664341128293e+03, -4.365672612388963e+01, 2.342955684112234e+03, 3.750838527405266e+01, -8.816406700055576e+02, 1.758524150264966e+03
7023, 9.689255742048100e-02, 2.009617450716512e-18, 3.282062753380090e-02, 0.000000000000000e+00, 0.000000000000000e+00, 0.000000000000000e+00, 1.468269946334049e+03, 2.275733994842209e+03, 3.601487464848265e+02, 1.881507284775448e+03, -1.368218675026911e+02, -7.997963456332353e+02, 1.689199101868122e+03
7024, 6.942786161207974e-02, 9.426051167245819e-19, 1.539441819458831e-02, 0.000000000000000e+00, 0.000000000000000e+00, 0.000000000000000e+00, 1.271072575650227e+03, 2.188599539413695e+03, 4.918133150393020e+02, 1.413634743223208e+03, -3.514580445948777e+01, -6.249413470510756e+02, 1.622460114492967e+03
7025, 3.464761473162288e-01, -3.854749328624747e-19, -6.295491308848556e-03, 0.000000000000000e+00, 0.000000000000000e+00, 0.000000000000000e+00, 2.296216776876030e+03, 4.371932238986610e+03, -5.423615082387246e+02, 2.411508297211894e+03, -3.789780984356763e+01, -1.894303920433784e+03, 3.966675333404171e+03
7026, 3.736188070816167e-01, 2.772436666724351e-18, 4.527882217940017e-02, 0.000000000000000e+00, 0.000000000000000e+00, 0.000000000000000e+00, 1.991809039591989e+03, 3.324354599726712e+03, -3.449665361203369e+02, 2.299241641834981e+03, 6.943072765983041e+01, -9.662787469841554e+02, 2.152458126695062e+03
7027, 3.243497546824154e-01, 3.736450386074824e-18, 6.102288093495842e-02, 0.000000000000000e+00, 0.000000000000000e+00, 0.000000000000000e+00, 1.421450331293159e+03, 2.240263254508274e+03, -1.735580421286380e+02, 1.797790612191165e+03, 7.107513986701285e+01, -6.518013970523675e+02, 1.372585777577109e+03
7028, 6.240081331388627e-02, -9.692252312559024e-19, -1.582917201483805e-02, 0.000000000000000e+00, 0.000000000000000e+00, 0.000000000000000e+00, 1.032905319991083e+03, 1.594863804364628e+03, 5.129774889698448e+02, 7.106135851309241e+02, -2.045965798285557e+02, -4.091956406357153e+02, 1.420606942934811e+03
7029, 3.264471814970419e-01, -4.466582843770585e-19, -7.294724267645667e-03, 0.000000000000000e+00, 0.000000000000000e+00, 0.000000000000000e+00, 2.331869852767235e+03, 4.122904020401589e+03, -5.272157006133822e+02, 2.353493411490614e+03, 4.446101091726381e+01, -1.795264037719773e+03, 3.698413289535253e+03
7030, 3.067130418128777e-01, -5.013624940509679e-19, -8.188141315551069e-03, 0.000000000000000e+00, 0.000000000000000e+00, 0.000000000000000e+00, 2.530061994447340e+03, 4.631790936481636e+03, -5.689575015559516e+02, 2.826837744128889e+03, 2.810241837730096e+01, -2.137193398669311e+03, 4.307887212128166e+03
7031, 1.013038411483955e-01, -1.268137683189602e-18, -2.071094403897791e-02, 0.000000000000000e+00, 0.000000000000000e+00, 0.000000000000000e+00, 7.116052414550902e+02, 1.492870723197796e+03, -2.834515623829400e+01, 6.820419805688574e+02, 2.341766343023364e+01, -1.942207936640331e+03, 3.457588322312136e+03
7032, 5.188454505460762e-01, 3.318566541317906e-18, 5.419809444822213e-02, 0.000000000000000e+00, 0.000000000000000e+00, 0.000000000000000e+00, 8.441530016967474e+02, 1.284247096171431e+03, -1.702697430185753e+02, 1.137998051124632e+03, 8.694787353096255e+01, -4.051946398066417e+02, 8.677047290423974e+02
7033, 2.767791619686877e-01, -1.550279958752258e-18, -2.531882925338991e-02, 0.000000000000000e+00, 0.000000000000000e+00, 0.000000000000000e+00, 1.455832725973105e+03, 2.521970555304540e+03, -3.044366209174384e+02, 1.283147334973933e+03, 1.641889047769687e+01, -2.301051975370038e+03, 4.184967243806896e+03
7034, 2.972124352681058e-01, -1.524120233056140e-18, -2.489159440172570e-02, 0.000000000000000e+00, 0.000000000000000e+00, 0.000000000000000e+00, 8.403667062314596e+02, 1.654891402698346e+03, -4.636839314135404e+02, 8.020053784399195e+02, 4.176138940097991e+01, -1.989050985269216e+03, 3.635296438144851e+03
7035, 1.762387017737712e-01, 2.152969885254030e-18, 3.516182777484279e-02, 0.000000000000000e+00, 0.000000000000000e+00, 0.000000000000000e+00, 2.528887755466519e+03, 4.501115679566021e+03, -4.332805622542598e+01, 2.944785876513785e+03, 1.834567245917507e+01, -1.550149657452571e+03, 3.233874128308378e+03
7036, 7.245910856612828e-01, 8.267806248805397e-19, 1.350279822246389e-02, 0.000000000000000e+00, 0.000000000000000e+00, 0.000000000000000e+00, 2.245321248167315e+02, 3.994621041684483e+02, -2.242065720604534e+02, 2.763336297699391e+02, 3.927914323946420e+01, -1.084463080122116e+02, 4.636144699102607e+02
7037, 6.392170232272060e-01, 2.609540408368483e-18, 4.261843653225049e-02, 0.000000000000000e+00, 0.000000000000000e+00, 0.000000000000000e+00, 3.983283612433970e+02, 6.032321700820471e+02, -1.090099286175911e+02, 5.051432421095215e+02, 4.572847388696849e+01, -1.902363920980482e+02, 4.266153325187601e+02
7038, 2.257556316282386e-01, 3.485251103069059e-18, 5.692034982817960e-02, 0.000000000000000e+00, 0.000000000000000e+00, 0.000000000000000e+00, 1.539239529589273e+03, 2.410204552135276e+03, -1.301162325228819e+02, 1.975777601261458e+03, 5.525844984844593e+01, -7.371565161941086e+02, 1.503025796824787e+03
7039, 3.932860813926727e-01, 2.789257743097406e-18, 4.555354027669815e-02, 0.000000000000000e+00, 0.000000000000000e+00, 0.000000000000000e+00, 1.762169720169644e+03, 3.011775945056653e+03, -2.985141302979279e+02, 2.007192382635374e+03, 4.567257999423481e+01, -8.462276681690440e+02, 1.933200400610247e+03
7040, 2.671385494794455e-01, -5.705694895803086e-19, -9.318414652992511e-03, 0.000000000000000e+00, 0.000000000000000e+00, 0.000000000000000e+00, 2.672297402341260e+03, 4.607836810795458e+03, -4.783441737105620e+02, 2.891086980242615e+03, -2.744800009613521e+00, -2.435286637334776e+03, 4.674294695051233e+03
7041, 2.474228033186500e-01, -6.144992598412325e-19, -1.003586594048266e-02, 0.000000000000000e+00, 0.000000000000000e+00, 0.000000000000000e+00, 2.978754644671958e+03, 5.019411363015787e+03, -6.194774097338959e+02, 3.211273278107860e+03, 2.024718450435251e+01, -2.472478262501866e+03, 4.820351330571379e+03
7042, 7.442670075870956e-01, 8.166336449813415e-19, 1.333707999198883e-02, 0.000000000000000e+00, 0.000000000000000e+00, 0.000000000000000e+00, 1.320514408931833e+02, 2.727685876319318e+02, -2.508689378660038e+02, 1.650532514555703e+02, 2.648291410134680e+01, -5.882150913510608e+01, 4.664076867439912e+02
7043, 5.699728385787261e-02, 1.718265985904008e-18, 2.806233987829259e-02, 0.000000000000000e+00, 0.000000000000000e+00, 0.000000000000000e+00, 7.671592807389673e+02, 1.042963887773941e+03, 2.943815330377313e+02, 7.593131705974663e+02, -1.532012295087446e+02, -2.455580689116350e+02, 7.678433061524597e+02
7044, 8.934218793923613e-01, 4.205601322466235e-19, 6.868495021831686e-03, 0.000000000000000e+00, 0.000000000000000e+00, 0.000000000000000e+00, -7.224911509668894e+01, -1.436550379365363e+02, -1.435676737170432e+02, -1.543689797213334e+02, 3.998345186146091e+01, 9.442002172443732e+01, 3.152064638467098e+02
7045, 5.478467304656555e-02, 3.304082004603039e-19, 5.396153619961185e-03, 0.000000000000000e+00, 0.000000000000000e+00, 0.000000000000000e+00, 1.017418140802633e+03, 1.637593667387044e+03, 5.323496805664965e+02, 9.753484466582436e+02, -1.925668529451061e+02, -3.853842008501072e+02, 1.348879390535278e+03
7046, 1.475257288128909e-01, 3.066055816612959e-18, 5.007414516579709e-02, 0.000000000000000e+00, 0.000000000000000e+00, 0.000000000000000e+00, 1.721673447996101e+03, 2.821405196141733e+03, 1.522007759048858e+02, 2.398714194799697e+03, -1.218226160380161e+02, -9.082847576253599e+02, 1.874084301028248e+03
7047, 7.517976771386797e-02, -1.913130915287735e-20, -3.124483078690898e-04, 0.000000000000000e+00, 0.000000000000000e+00, 0.000000000000000e+00, 1.346685274302841e+03, 2.500986968657647e+03, 5.263530206922908e+02, 1.346685296370237e+03, -1.167490549828103e-05, -8.518307809434137e+02, 2.083363127585213e+03
7048, 8.141538023716536e-01, -4.928607237481020e-20, -8.049292284165263e-04, 0.000000000000000e+00, 0.000000000000000e+00, 0.000000000000000e+00, -8.217474552496253e+01, -1.565668332052419e+02, -2.245769773346022e+02, -6.896105230457900e+01, 7.220527054344984e+00, 8.836316594322777e+01, 4.261182819220292e+02
7049, 2.075646421094098e-01, -7.315086069296227e-19, -1.194683670628291e-02, 0.000000000000000e+00, 0.000000000000000e+00, 0.000000000000000e+00, 2.632571083740123e+03, 5.678345961205647e+03, -3.002883347612022e+02, 3.055181044933016e+03, 1.932671399911961e+02, -2.951886172335523e+03, 5.889961011601917e+03
7050, 4.129236891215620e-01, 2.807193332702608e-18, 4.584646035749341e-02, 0.000000000000000e+00, 0.000000000000000e+00, 0.000000000000000e+00, 1.699588171329404e+03, 2.903899372862464e+03, -3.084892549342337e+02, 1.889041250552325e+03, 3.961580192149195e+01, -8.241171994222899e+02, 1.893623522656537e+03
7051, 2.273745610993332e-01, -6.722051567580819e-19, -1.097830588025157e-02, 0.000000000000000e+00, 0.000000000000000e+00, 0.000000000000000e+00, 3.059212584647854e+03, 5.513718805443281e+03, -6.251618408066788e+02, 3.252260983953909e+03, 6.412100725260403e+01, -2.554783490461592e+03, 5.133575997012975e+03
7052, 5.567592002929082e-01, 3.142611742385575e-18, 5.132443960586203e-02, 0.000000000000000e+00, 0.000000000000000e+00, 0.000000000000000e+00, 7.480584412306933e+02, 1.068761128762689e+03, -1.690104834736356e+02, 9.219996298727128e+02, 9.489796405733399e+01, -3.103415304564389e+02, 6.920754598475730e+02
7053, 4.535854576145831e-01, 2.953870760189822e-18, 4.824196364766315e-02, 0.000000000000000e+00, 0.000000000000000e+00, 0.000000000000000e+00, 1.479228328159063e+03, 2.494912418015669e+03, -2.670131894793350e+02, 1.716788501190268e+03, 1.648159746285385e+01, -7.433799412575233e+02, 1.649032197530346e+03
7054, 5.319681298877524e-01, 1.207809620914774e-18, 1.972567947479326e-02, 0.000000000000000e+00, 0.000000000000000e+00, 0.000000000000000e+00, 1.184048336383887e+03, 2.198946886641662e+03, -3.454293992133919e+02, 1.184048342140599e+03, 1.657426433786423e-05, -8.296342786973244e+02, 1.858187982999707e+03
7055, 1.974872806769629e-01, -1.658115356897031e-18, -2.707997311497751e-02, 0.000000000000000e+00, 0.000000000000000e+00, 0.000000000000000e+00, 6.247617696732410e+02, 1.248818985733898e+03, -4.211623048711976e+02, 4.838668709645978e+02, 2.867134467432701e+01, -2.477632279336829e+03, 4.409967073984765e+03
7056, 6.526537436175108e-01, 1.518911425324102e-18, 2.480652530640734e-02, 0.000000000000000e+00, 0.000000000000000e+00, 0.000000000000000e+00, 5.993956088834648e+02, 1.048712171419950e+03, -2.722038944540860e+02, 7.331608915229909e+02, 3.909284701478865e+01, -3.796860393217996e+02, 9.050025774138029e+02
7057, 1.770360984843483e-01, -1.626975893831101e-18, -2.657141029446406e-02, 0.000000000000000e+00, 0.000000000000000e+00, 0.000000000000000e+00, 1.680624069401447e+03, 2.936382629683205e+03, -4.300018365514680e+02, 1.505110870692051e+03, -5.690188974452033e+01, -2.343962363502034e+03, 4.344540659769270e+03
7058, 3.450498933784425e-02, 2.009076967188761e-19, 3.281180047641943e-03, 0.000000000000000e+00, 0.000000000000000e+00, 0.000000000000000e+00, 4.498359979444596e+02, 4.868751463263404e+02, 2.162711205382980e+02, 2.465728653119778e+02, -6.945163680809119e+01, -2.274563444813688e+01, 4.544873671429737e+02
7059, 5.969739054433063e-01, 1.345387260761554e-18, 2.197256704674415e-02, 0.000000000000000e+00, 0.000000000000000e+00, 0.000000000000000e+00, 7.830154863130507e+02, 1.423240787215982e+03, -2.121648023944671e+02, 8.593846285970825e+02, 2.210023736496396e+01, -4.915430245202057e+02, 1.108231849016433e+03
7060, 1.310350586240169e-01, 3.073340173804817e-18, 5.019311167563303e-02, 0.000000000000000e+00, 0.000000000000000e+00, 0.000000000000000e+00, 1.302756177124188e+03, 1.874799798853982e+03, 1.657857994999849e+02, 1.718819118010805e+03, -1.260254888832883e+02, -5.497046902446152e+02, 1.139720987475346e+03
7061, 4.332879719332093e-01, 2.855202359613005e-18, 4.663053316195905e-02, 0.000000000000000e+00, 0.000000000000000e+00, 0.000000000000000e+00, 1.558578947650470e+03, 2.632180568058812e+03, -2.813693877157647e+02, 1.778547242058093e+03, 3.600460756549166e+01, -7.924581645774485e+02, 1.757900222628798e+03
7062, 7.635378260652478e-01, 7.834605992321971e-19, 1.279530514906725e-02, 0.000000000000000e+00, 0.000000000000000e+00, 0.000000000000000e+00, 7.631016148809684e+01, 9.568010986832724e+01, -2.767592542202742e+02, 1.071830968828898e+02, 2.767464248181865e+01, 1.638512290398645e+01, 4.833429988446230e+02
7063, 1.693008140470563e-02, 9.634703775777782e-20, 1.573518501795281e-03, 0.000000000000000e+00, 0.000000000000000e+00, 0.000000000000000e+00, 1.002991456065739e+02, 9.309955679910172e+01, 5.600782633758246e+01, 2.283553039914587e+01, -1.569962419068351e+01, 1.637313792690074e+01, 1.282538223682080e+02
7064, 5.647088732202001e-01, 3.867085686935155e-20, 6.315638776272451e-04, 0.000000000000000e+00, 0.000000000000000e+00, 0.000000000000000e+00, 1.060296114057953e+03, 1.677383605619440e+03, -3.390676750307090e+02, 9.222992480567995e+02, 4.247595313793498e+01, -5.810671123015932e+02, 1.359494942500502e+03
7065, 1.683737871256234e-01, -7.285070411782982e-19, -1.189781579859358e-02, 0.000000000000000e+00, 0.000000000000000e+00, 0.000000000000000e+00, 2.388674688241122e+03, 4.695838290757080e+03, -3.303705893395362e+02, 2.578264148158786e+03, 2.863308406399508e+01, -2.283067179662820e+03, 4.570406451368951e+03
7066, 9.099767422837941e-01, 3.663158647463442e-19, 5.982589647733862e-03, 0.000000000000000e+00, 0.000000000000000e+00, 0.000000000000000e+00, -2.773581774590759e+02, -3.699921261936530e+02, -1.604408895696443e+02, -3.022572947831009e+02, 7.436458780180746e+01, 9.891550406741000e+01, 3.606403397751974e+02
7067, 8.331485081025067e-01, 1.227669435783029e-18, 2.005002557680826e-02, 0.000000000000000e+00, 0.000000000000000e+00, 0.000000000000000e+00, -1.604728763721189e+02, -3.091614871752430e+02, -9.016173956041482e+01, -2.478375679054264e+02, 4.293338673856110e+01, 9.056287908528050e+01, 2.669698631471278e+02
7068, 4.596510940875790e-01, 3.826484228069603e-18, 6.249329372048343e-02, 0.000000000000000e+00, 0.000000000000000e+00, 0.000000000000000e+00, 8.671055253738525e+02, 1.240346404449750e+03, -1.291926574812880e+02, 1.125636743527189e+03, 9.387377156378631e+01, -3.642384313606767e+02, 7.643106130922192e+02
7069, 4.855214143425493e-01, 3.605732336389876e-18, 5.888802267169796e-02, 0.000000000000000e+00, 0.000000000000000e+00, 0.000000000000000e+00, 7.391420675553445e+02, 1.113119251742058e+03, -1.015157692595622e+02, 1.010213189243696e+03, 5.684644428092317e+01, -3.392192831333714e+02, 7.055381970935733e+02
7070, 5.432034524380195e-01, 2.228086661712930e-18, 3.638861834675900e-02, 0.000000000000000e+00, 0.000000000000000e+00, 0.000000000000000e+00, 1.194169605623067e+03, 1.995254828675766e+03, -3.326243816283958e+02, 1.384851129420953e+03, 9.538047384949820e+01, -6.169298205032177e+02, 1.423503171581398e+03
7071, 2.579287220118230e-02, 9.448903192775095e-19, 1.543173961703226e-02, 0.000000000000000e+00, 0.000000000000000e+00, 0.000000000000000e+00, 1.096516567531014e-06, 6.030841121420595e-06, -1.684195767558774e-07, 2.741291418827483e-07, -2.540666909248896e-06, 1.614885195568477e-06, 7.507025338010249e-06
7072, 1.164279686029659e-01, 1.646591343029109e-18, 2.689176547042381e-02, 0.000000000000000e+00, 0.000000000000000e+00, 0.000000000000000e+00, 2.251894295079465e+03, 4.022258137399434e+03, 4.770400455616033e+02, 2.918099542668903e+03, -4.389749374933883e+01, -1.391908203432219e+03, 2.983169423556070e+03
7073, 2.840312675376356e-02, -6.386504515099280e-19, -1.043029785884257e-02, 0.000000000000000e+00, 0.000000000000000e+00, 0.000000000000000e+00, 1.509382600450314e+02, 3.197738672622430e+02, 1.905278948096936e+02, 1.770431506850396e+02, 6.861466227466105e+00, 1.170754129451683e+02, 4.182622678705845e+02
7074, 5.992986371645188e-01, 3.192780880376441e-18, 5.214379086652260e-02, 0.000000000000000e+00, 0.000000000000000e+00, 0.000000000000000e+00, 2.012013800392788e+02, 3.704480371756552e+02, -2.949168456851271e+01, 3.260640097325129e+02, -6.979396751511541e+00, -1.317469978699120e+02, 2.791590106466662e+02
7075, 7.823411031237200e-01, 7.625391292123422e-19, 1.245362033003046e-02, 0.000000000000000e+00, 0.000000000000000e+00, 0.000000000000000e+00, -2.280815798756371e+01, -1.418467066391517e+02, -2.404871058315699e+02, -5.827060986999793e+01, 8.654461103986673e+00, 8.715357625532667e+01, 4.557635830360881e+02
7076, 1.517400912417135e-01, -7.269730023755477e-19, -1.187276221630630e-02, 0.000000000000000e+00, 0.000000000000000e+00, 0.000000000000000e+00, 2.812146288480857e+03, 5.128001985010100e+03, -2.553226858135611e+02, 3.060565879666297e+03, 5.137405280643727e+01, -2.147232412604075e+03, 4.345676469532264e+03
7077, 3.651472700822430e-01, 5.843998075205610e-02, 1.933580439108365e-02, -8.475096275533645e-10, 1.289173693813300e-09, -2.883670204777660e-09, 3.195031808727328e+03, 3.470335505572886e+03, -3.488053608385097e+02, 5.927196263788308e+03, 3.747773357175949e+02, -1.164918714242701e+03, 3.412596707180262e+03
7078, 3.058877858339278e-01, 5.878768216132692e-02, 1.771367129827819e-02, -8.609002617946609e-10, 1.388586262205004e-09, -3.389539470181934e-09, 3.975069221311129e+03, 3.920845185206865e+03, -2.094325706157811e+02, 6.602897526073661e+03, 3.932238126115236e+02, -1.122161902971972e+03, 3.379958020011384e+03
7079, 3.435071760443297e-01, 1.215230268397107e-01, 1.754690650107632e-02, -1.390615114666801e-09, 1.014577761682262e-09, -4.235509070285947e-09, 4.355727727928865e+03, 4.064307878923678e+03, -2.254134163941196e+02, 8.044437078314848e+03, 5.689245551358547e+02, -5.526566501400093e+01, 3.987365957157934e+03
7080, 4.111395071608558e-01, 1.115772901281521e-01, 1.917390596079099e-02, -1.161382245253466e-09, 8.834479824553763e-10, -3.184287199419834e-09, 3.639669811760127e+03, 3.457406410464204e+03, -2.148675724743893e+02, 6.254707715745643e+03, 6.163213440640891e+02, -1.712347022232035e+02, 2.951998150053197e+03
7081, 4.247966977101675e-01, 5.607101710167361e-02, 1.935728356706724e-02, -7.064074934517117e-10, 1.033451552013148e-09, -2.234416978624773e-09, 2.876249600355983e+03, 2.733230622540182e+03, -4.066802945606985e+02, 4.391638529257440e+03, 3.283891754970475e+02, -7.282006322353045e+02, 2.223533410930442e+03
7082, 2.496730354415697e-01, 8.379348013215787e-02, 1.534462334814161e-02, -1.089590552809993e-09, 1.519080295084033e-09, -4.939171662580369e-09, 4.724335946261320e+03, 4.547994668637246e+03, -3.757168907709062e+02, 9.365865624242248e+03, 4.643906671970458e+02, -8.757736633548507e+02, 5.075903015323065e+03
7083, 3.839423498862729e-01, 1.615123164283076e-01, 1.806712094201977e-02, -1.371337536997324e-09, 8.504415501973505e-10, -3.792285442280689e-09, 3.989593602604421e+03, 3.809017620335830e+03, -1.733729347676840e+02, 7.657480843603441e+03, 5.963532278459664e+02, -1.600241494783874e+02, 3.922020661000543e+03
7084, 3.363236067850399e-01, 1.911877283891615e-01, 1.603988188838392e-02, -1.515202592813457e-09, 1.002494584507615e-09, -4.294150872981223e-09, 4.916866674453037e+03, 4.784422341421146e+03, -1.005147957148757e+02, 8.793952770893837e+03, 4.719520449541445e+02, -2.723116582102887e+02, 4.060027459388773e+03
7085, 2.803697977012455e-01, 1.347444979562447e-01, 1.528052929490979e-02, -1.513604991710562e-09, 1.182673726445732e-09, -5.394018586352760e-09, 5.015160020327123e+03, 4.925611074712428e+03, 5.118602510836553e+01, 1.077978879921687e+04, 6.820979650957455e+02, -4.688268490000145e+02, 5.984831591078118e+03
7086, 4.397026775356266e-01, 1.636333349010650e-01, 1.895743415224867e-02, -1.243562000191141e-09, 7.417487863583435e-10, -3.193824487295372e-09, 3.867883950427089e+03, 3.569115636813505e+03, -9.447191831522920e+01, 6.685153666255290e+03, 5.134882631965759e+02, -3.902239728140805e+02, 3.184743591748577e+03
7087, 1.939776616284328e-01, 5.697520797551237e-02, 1.317365424556555e-02, -6.487168693446095e-10, 1.753029713356327e-09, -4.369143278918222e-09, 4.371624558665891e+03, 4.661552646794500e+03, -3.097865196548925e+02, 9.193813031444479e+03, 5.711070966034533e+02, -1.688114347282980e+03, 5.635162396766944e+03
7088, 4.099983181764143e-01, 2.108456594898988e-01, 1.775992257166722e-02, -1.584514299255157e-09, 8.624456721550129e-10, -3.701852762321726e-09, 4.048335002550342e+03, 4.182826649911415e+03, -2.619923429125682e+02, 7.603479164506738e+03, 8.119812745366758e+02, -4.470500491765805e+02, 3.868129107694097e+03
7089, 4.640575469458825e-01, 9.527542335959645e-02, 1.936069775401559e-02, -7.857168064787963e-10, 7.630256936477091e-10, -2.592787010980617e-09, 3.106480718233356e+03, 2.739868352033420e+03, -3.229375209880733e+02, 5.499552806828111e+03, 5.316130837026775e+01, -5.161160521970646e+01, 2.658545475262267e+03
7090, 3.598674561940526e-01, 2.411431469398992e-01, 1.594864278306976e-02, -1.457784539092289e-09, 1.024943299071367e-09, -4.589543354610784e-09, 4.935439684900739e+03, 5.250027264543395e+03, -8.310705297172561e+01, 9.233921041374750e+03, 3.370447065072298e+02, -5.726130264488570e+02, 4.309156907637405e+03
7091, 4.144870724303785e-01, 2.660488266164218e-01, 1.728472644911472e-02, -1.664885780030269e-09, 8.602229449352336e-10, -3.746855024332043e-09, 4.445863574635817e+03, 4.238088550433581e+03, -1.965794860772248e+02, 7.724278567025705e+03, 1.009704098049880e+03, -4.255566523886439e+02, 3.897445451891510e+03
7092, 4.648384244990836e-01, 2.169800840510091e-01, 1.828745785795945e-02, -1.243439727483000e-09, 5.346467796539618e-10, -2.667938350572481e-09, 3.676320044660212e+03, 3.316605448864712e+03, -6.822461730244896e+01, 5.695646795608065e+03, 3.860648841210854e+02, 5.510382379098890e+01, 2.324579058061872e+03
7093, 4.715148581803549e-01, 2.751023012759539e-01, 1.773943554147202e-02, -1.364047992028383e-09, 6.451777069114756e-10, -2.807728932164890e-09, 3.726847964827838e+03, 3.439703393860857e+03, 5.101065508771658e+00, 6.150983520715435e+03, 3.749638713916145e+02, -4.236248878895641e+02, 2.759566718923226e+03
7094, 4.911283061131427e-01, 1.481056413536362e-01, 1.904261694142437e-02, -1.060090603835276e-09, 5.520919212355145e-10, -2.527898683187304e-09, 3.047727359493673e+03, 2.896363202692960e+03, -2.010353969869863e+02, 5.581668831851073e+03, 4.812587579474638e+02, -1.878361741771051e+02, 2.783745922576186e+03
7095, 4.222704126268160e-01, 3.192922074616700e-01, 1.650355408368957e-02, -1.642366285952534e-09, 6.550729344626322e-10, -3.832551142950922e-09, 4.671070680459662e+03, 4.668575794947493e+03, -1.808536786649817e+01, 8.366259973520981e+03, 7.084874381391013e+02, -1.737418139497815e+02, 3.906539703571399e+03
7096, 2.822546826027748e-01, 1.888740870504756e-01, 1.384092976297117e-02, -1.565772150349389e-09, 1.078092896886038e-09, -5.233640524996718e-09, 5.308233267176211e+03, 5.701235258149404e+03, 8.422561915624470e+00, 1.029357590642721e+04, 8.063203411140711e+02, -3.116734788018902e+02, 5.029009204707205e+03
7097, 3.687789383712787e-01, 2.940226263073343e-01, 1.516211086713440e-02, -1.572455573850364e-09, 8.602831077116537e-10, -4.866522762218336e-09, 5.165290585556769e+03, 5.031330853481416e+03, -1.424002625141737e+02, 1.040016050670266e+04, 4.917700025635299e+02, -2.431667490157256e+01, 5.376912746717474e+03
7098, 3.069479222838175e-01, 2.360222084211522e-01, 1.347135858553660e-02, -1.617406158904389e-09, 1.129696436022125e-09, -4.810725042518247e-09, 5.434395918166890e+03, 5.643087789570626e+03, 7.478041848820811e+01, 1.001762843957606e+04, 6.303294784223234e+02, -4.267612451156155e+02, 4.674204407018530e+03
7099, 4.790460900768854e-01, 3.331586718160180e-01, 1.744819407814316e-02, -1.333280280165927e-09, 7.061811374578679e-10, -3.025504715565171e-09, 3.816951762910112e+03, 3.636456351633742e+03, -1.145171899487425e+02, 6.629627530012797e+03, 4.999244253087077e+02, -4.344028873540023e+02, 3.131554261509013e+03
7100, 5.164937450700795e-01, 9.969097529666245e-02, 1.908451069594837e-02, -8.088174282098020e-10, 5.405566732705665e-10, -2.201072858443867e-09, 2.656174420125295e+03, 2.470363362913447e+03, -6.449877062818338e+01, 4.788714372368695e+03, 5.141651455912456e+02, -5.101083387574729e+01, 2.406633723803366e+03
7101, 4.325961469763935e-01, 3.708364584028540e-01, 1.557718486986200e-02, -1.748388489156894e-09, 8.025985348667386e-10, -3.800194397269948e-09, 4.326146327135669e+03, 4.381840112156166e+03, -2.087483752883210e+02, 8.210113578877721e+03, 7.871439829098169e+02, -3.897687779136156e+02, 4.161401720082813e+03
7102, 5.149236123576602e-01, 2.008316519437870e-01, 1.815803165553725e-02, -1.144113008855996e-09, 6.097194226364938e-10, -2.241702939765036e-09, 2.955041396000935e+03, 2.901286440270051e+03, -9.121225778603035e+01, 5.074127110288566e+03, 6.121166378973340e+02, -2.730103323884004e+02, 2.445393323451462e+03
7103, 2.203358510866459e-01, 1.323257481920124e-01, 1.273892029459707e-02, -8.746357723163079e-10, 8.432461152584407e-10, -5.411652549979121e-09, 4.953162988773301e+03, 5.106570854994249e+03, 3.688674197268339e+02, 1.130366699098071e+04, 1.313380655841717e+02, 3.734235882968545e+02, 6.344800382862805e+03
7104, 3.771790148338879e-01, 3.455380879881449e-01, 1.432709496945506e-02, -1.743576878324339e-09, 8.166795407249265e-10, -4.418251949258182e-09, 5.345515213859230e+03, 5.430733855106347e+03, 5.481485591653765e+01, 9.620292553320340e+03, 6.659233920084905e+02, -4.698500540500123e+02, 4.462997414240289e+03
7105, 4.819318014480132e-01, 3.875095209080822e-01, 1.661537975550271e-02, -1.491799798995274e-09, 5.341070673481033e-10, -2.973727624069654e-09, 3.988838173058602e+03, 3.815868024077725e+03, -4.102866778364780e+01, 6.393869986924690e+03, 5.749982431030470e+02, 2.368825514886572e+01, 2.688623774916399e+03
7106, 5.205231329191152e-01, 2.574427911216866e-01, 1.807481889356929e-02, -1.015091687715669e-09, 4.297141268928625e-10, -2.596752177992407e-09, 3.414776053985802e+03, 3.138773496772943e+03, -2.581305843046430e+01, 5.799677794366561e+03, 2.756063866684199e+02, -1.477131941474529e+02, 2.591815164735961e+03
7107, 5.280086783524645e-01, 3.172397811677501e-01, 1.762918766430112e-02, -1.147087534939746e-09, 5.171128828061504e-10, -2.777705282369705e-09, 3.613202018372374e+03, 3.430050308035659e+03, -1.474892849405159e+02, 6.604279891152455e+03, 3.426252432377549e+02, -1.988821508791005e+02, 3.172382415067063e+03
7108, 3.175787576078892e-01, 2.898283822598253e-01, 1.286615834939222e-02, -1.662162629411553e-09, 1.198944154810840e-09, -5.456060740036786e-09, 5.648535655434516e+03, 5.711478829475799e+03, -7.332362644628088e+01, 1.189738856001259e+04, 7.720567106208753e+02, -7.729166277547525e+02, 6.500411212107295e+03
7109, 4.707213217245953e-01, 4.380857283116247e-01, 1.559510228396672e-02, -1.574164796653604e-09, 7.434390130133375e-10, -3.371657108014072e-09, 4.647628434886287e+03, 4.400635434362223e+03, -8.966313725580991e+01, 7.659612092282515e+03, 6.824269621888434e+02, -2.842398953442059e+02, 3.397146602787400e+03
7110, 5.449500240957931e-01, 1.570038356158802e-01, 1.826575818021674e-02, -9.386099819418665e-10, 4.234941702963292e-10, -1.761218075748169e-09, 2.494520990330612e+03, 2.372645390579330e+03, -1.165717257249438e+02, 4.149263870829888e+03, 4.675159791580315e+02, -5.816368037794288e+01, 1.913460205632159e+03
7111, 4.209561727332192e-01, 4.204595590733298e-01, 1.437286255808030e-02, -1.659802740990659e-09, 9.176158565574478e-10, -4.059420161254964e-09, 4.875626724811067e+03, 4.849987576303954e+03, 1.172495347523356e+02, 8.919108134707707e+03, 7.656051979078277e+02, -3.807866177738320e+02, 4.323050122388850e+03
7112, 5.324652669553176e-01, 3.724080162077503e-01, 1.721008172847085e-02, -1.236273007740681e-09, 5.146246385615372e-10, -2.550119353420509e-09, 3.408734288149893e+03, 3.355888058465759e+03, -1.126266716528240e+02, 5.948559556285196e+03, 5.434860038158096e+02, -2.107272446171634e+02, 2.764982573459275e+03
7113, 5.211208453222151e-01, 4.231454442929510e-01, 1.670423688176659e-02, -1.211043075415104e-09, 5.660347976932517e-10, -2.611057536655378e-09, 3.573237681885213e+03, 3.658432704243663e+03, -4.262374165334285e+01, 5.912245702906418e+03, 2.941950116725695e+02, -4.135203161180661e+02, 2.461106355656438e+03
7114, 5.403516933692311e-01, 4.986904767857350e-02, 1.880813543288896e-02, -6.613256332020941e-10, 5.600118282667943e-10, -1.371663758072144e-09, 2.028037980833039e+03, 1.812880395292363e+03, -2.950345305503051e+02, 3.377395390036244e+03, 5.202611009899534e+02, -3.668736599853548e+02, 1.906389911853544e+03
7115, 2.323737388356643e-01, 1.817963516337696e-01, 1.148456958016927e-02, -9.681462915492163e-10, 1.014048642854189e-09, -5.339418923913946e-09, 5.334845486940269e+03, 6.025122593388725e+03, 9.783951272488424e+01, 1.144299507922280e+04, 2.136333709467417e+02, -4.873928117837191e+02, 5.869237490535310e+03
7116, 5.098296524495892e-01, 4.737610041256219e-01, 1.592453526337130e-02, -1.219537853391806e-09, 8.102508717798366e-10, -3.111240305520429e-09, 4.188021703321388e+03, 4.352985586176454e+03, -7.587321774874677e+01, 7.124175704139181e+03, 2.685582921838167e+02, -4.526134774264916e+02, 3.002011295580120e+03
7117, 3.762778681316629e-01, 3.978605568205976e-01, 1.302529492083417e-02, -1.755642982287146e-09, 9.239630716482193e-10, -5.081667626334360e-09, 5.332481842913573e+03, 5.498581910577127e+03, 4.805448227395458e+01, 1.159801643830034e+04, 1.174084739113032e+03, -5.957085768546017e+02, 6.591719504612800e+03
7118, 4.592575833709938e-01, 4.880465881608250e-01, 1.417577653165310e-02, -1.704863621388774e-09, 9.513841863786665e-10, -3.494959708452280e-09, 4.564851999269959e+03, 4.696510413187435e+03, -2.428861761402861e+02, 7.939752149856738e+03, 8.953868445257706e+02, -3.563996608722356e+02, 3.731775315579564e+03
7119, 5.652508128752116e-01, 2.024096570573491e-01, 1.788465773867890e-02, -1.038216665782143e-09, 3.735405120928888e-10, -1.693189470325837e-09, 2.497355514336472e+03, 2.466602146952660e+03, -6.656365234310195e+01, 4.106331740994498e+03, 4.995757448033233e+02, -2.118884130544916e+02, 1.880409991771415e+03
7120, 2.566530216647049e-01, 2.317136552190756e-01, 1.079923451279597e-02, -1.210931194330297e-09, 1.003347284203872e-09, -5.219545720666080e-09, 5.402898661450567e+03, 5.940836930987365e+03, 1.391447549006527e+02, 1.109950763165389e+04, 2.473329518914572e+02, -3.043761402465614e+02, 5.495074742853964e+03
7121, 5.682140140185955e-01, 2.744593049338982e-01, 1.764417005579277e-02, -1.153454464621633e-09, 3.227594617320666e-10, -2.008246121561796e-09, 2.687075467043822e+03, 2.498267973881713e+03, -1.209157847575506e+02, 4.885150057841383e+03, 7.675632362094681e+02, -2.717961061036465e+01, 2.663781366573896e+03
7122, 1.798349249546239e-01, 1.041942873977486e-01, 1.060353582520802e-02, -6.263467595710214e-10, 8.109257534460856e-10, -5.849749470620595e-09, 4.579771468720151e+03, 4.946559190459881e+03, 3.898840747270920e+02, 1.203465260572900e+04, 2.603682903666935e+02, 8.096657444872498e+01, 7.324923044323541e+03
7123, 5.668973152175946e-01, 9.765261001499265e-02, 1.854750849706638e-02, -7.042492591534786e-10, 5.076239761395739e-10, -1.640636491229911e-09, 2.454706513373108e+03, 2.010491409238567e+03, -1.633330384723664e+02, 3.612842177437954e+03, 2.548225810250911e+02, -2.983714396531562e+02, 1.610894119893508e+03
7124, 3.277266431821175e-01, 3.436167711080141e-01, 1.172331354988883e-02, -1.693300146424734e-09, 8.143902881931338e-10, -4.984513284492777e-09, 5.036185538399895e+03, 5.243841004591112e+03, 3.092110497430827e+02, 1.094413692076186e+04, 1.000483473709531e+03, -4.149216209536150e+02, 6.125880161120030e+03
7125, 4.906028249676432e-01, 4.793020596854762e-02, 2.006640779164614e-02, -5.815133553754501e-10, 8.339976784631059e-10, -1.796996025383457e-09, 1.997969331703751e+03, 2.250660173253987e+03, -3.068396929815533e+02, 4.165126728496510e+03, 2.955510221767286e+02, -7.559253952377912e+02, 2.543929173287251e+03
7126, 5.200444108005091e-01, 5.219646644557930e-01, 1.536594571890974e-02, -1.381038714128676e-09, 6.927077874787292e-10, -3.461870209940745e-09, 4.237402668207001e+03, 4.156417094392515e+03, -1.015527500516730e+02, 8.416275818207481e+03, 4.652751314414687e+02, 3.087146928465114e+01, 4.300140553133341e+03
7127, 5.603275410718681e-01, 4.586845220967902e-01, 1.664295785373322e-02, -1.396683739451998e-09, 5.515979073375248e-10, -2.351593860797529e-09, 3.279615433955107e+03, 3.308681365320385e+03, -1.245506027239064e+02, 5.700920371775865e+03, 7.979670785398304e+02, -1.549363003681666e+02, 2.796782732333059e+03
7128, 5.716368377760653e-01, 4.080445513625068e-01, 1.696390469158889e-02, -1.100190170788756e-09, 4.638299973181088e-10, -2.139381370555926e-09, 2.868262169253106e+03, 2.653277677008259e+03, -4.681989370692072e+01, 5.009306953992027e+03, 3.834746369382686e+02, -1.772059516723409e+02, 2.373293718626790e+03
7129, 5.759767418149788e-01, 3.336305930832537e-01, 1.716736859230194e-02, -1.139388921915648e-09, 3.526856511441070e-10, -1.748200448976530e-09, 2.567272199744024e+03, 2.475511537349240e+03, -2.807127167848618e+01, 4.109605881299793e+03, 6.601134700235024e+02, -1.107887720486235e+02, 1.968546313784444e+03
7130, 4.094898542507113e-01, 4.699419016636363e-01, 1.286289976172206e-02, -1.589773169859395e-09, 8.065089789553904e-10, -4.356473096141297e-09, 5.027806826887122e+03, 5.552273165276631e+03, 1.784922222280936e+02, 9.997217064415083e+03, 6.310561596705155e+02, -2.166228605551382e+02, 4.877998062630521e+03
7131, 4.723506461703276e-01, 5.365504277681179e-01, 1.381690456956042e-02, -1.635220915690445e-09, 1.077793081082162e-09, -3.852827580467599e-09, 4.629907447731810e+03, 4.087438965911440e+03, -2.865204120536761e+02, 8.838084339731331e+03, 9.621262993894326e+02, -5.400829179227235e+02, 4.917747421346301e+03
7132, 5.675336053736995e-01, 5.109313837999125e-01, 1.622098951752694e-02, -1.430995907980660e-09, 6.608911742591039e-10, -2.536853172011588e-09, 3.722896278640626e+03, 3.473706227123598e+03, -1.068431950960790e+02, 6.103726779690386e+03, 7.608538980656858e+02, -4.157582298299390e+02, 2.934831497096221e+03
7133, 5.093607388561233e-01, 5.711992118413542e-01, 1.428117425892263e-02, -1.532965552087360e-09, 8.576733863964586e-10, -3.311714196617570e-09, 4.731788352238901e+03, 4.552691574888585e+03, -6.695698681478625e+01, 7.828249280800887e+03, 5.947448372122124e+02, -4.037544683774220e+02, 3.426131798674818e+03
7134, 5.574739984760875e-01, 5.609436071798432e-01, 1.571690372892989e-02, -1.269974331985659e-09, 6.725394581308773e-10, -2.858266918038756e-09, 3.726886045226925e+03, 3.599793443536849e+03, -4.494062142964778e+01, 7.055323699515693e+03, 2.288143420130850e+02, -2.177040347410497e+02, 3.438456292707838e+03
7135, 2.712444014219432e-01, 2.774483646912618e-01, 1.075993906029678e-02, -1.348386369299510e-09, 8.879214386450094e-10, -5.313739638633843e-09, 5.469413253159519e+03, 5.590791225473998e+03, 4.331552367850742e+02, 1.160202968957044e+04, 6.306375237646474e+02, -3.752852343997091e+02, 6.249628059200393e+03
7136, 5.945305909602019e-01, 1.408414663267032e-01, 1.765909142177734e-02, -8.585950429784834e-10, 2.403458938796213e-10, -1.367260155468122e-09, 1.964906450187348e+03, 1.868459419605477e+03, -1.160351918788704e+02, 3.322641955305447e+03, 4.359859001659955e+02, 3.100437234037963e+01, 1.611590740652539e+03
7137, 1.458378842165735e-01, 4.845844307362548e-02, 1.006230517703676e-02, 2.115169260005641e-10, 1.581336025196780e-09, -4.348644441889685e-09, 4.143470335467688e+03, 4.621478257253915e+03, 4.666408125593603e+02, 9.091508339642474e+03, -4.572718010658567e+02, -2.128973471577092e+03, 6.101189054010603e+03
7138, 5.468347364044084e-01, 6.120180137372261e-01, 1.478012490861939e-02, -1.483316484128393e-09, 7.618677646960664e-10, -2.977316354133782e-09, 4.183255725500122e+03, 4.014112028855492e+03, -1.667634684275316e+02, 7.550552325206812e+03, 5.806920891221843e+02, -3.034323292821810e+02, 3.648027765897371e+03
7139, 5.999597228664630e-01, 2.366556293778391e-01, 1.782069856732905e-02, -9.741341600955401e-10, 3.113537233541941e-10, -1.483374892270032e-09, 2.105490751815679e+03, 1.866712674438054e+03, -1.471459866236840e+02, 3.818933208723810e+03, 4.880696530705035e+02, -1.642417400924835e+02, 2.064594475769642e+03
7140, 3.696777391327294e-01, 4.445904396057362e-01, 1.153552479600731e-02, -1.649246354534641e-09, 5.544889183327837e-10, -5.108749343858463e-09, 5.181694957062803e+03, 5.847663036638131e+03, 7.468216955343028e+01, 1.121800138555051e+04, 9.266622609309159e+02, 1.615698699236475e+02, 5.960845323203496e+03
7141, 6.037282338022515e-01, 4.808751990717984e-01, 1.629174720155804e-02, -1.205761693421131e-09, 5.127467950093972e-10, -1.813075660352893e-09, 2.658861801044182e+03, 2.558299353852042e+03, -1.253428245472678e+02, 4.287523590119345e+03, 6.559081238218815e+02, -3.122246354533275e+02, 2.111081662269720e+03
7142, 6.035199392997433e-01, 3.736224734080991e-01, 1.642140831141080e-02, -9.728685720970410e-10, 4.344499870005178e-10, -1.611317898126417e-09, 2.654583700368462e+03, 2.432555557899984e+03, 1.255745782680627e+01, 3.955360751931084e+03, 4.501737280595413e+02, -2.906467194739502e+02, 1.700586757155667e+03
7143, 4.236012209370163e-01, 5.185010514732074e-01, 1.269121463179955e-02, -1.490445336857180e-09, 1.190801208576141e-09, -4.593539526216805e-09, 4.890945375990619e+03, 5.681326193419748e+03, 1.520867681026824e+02, 1.084064244437963e+04, 5.521427441056297e+02, -7.187770482339703e+02, 5.818502206727505e+03
7144, 3.289074916528079e-01, 3.926776710621642e-01, 1.044027192665145e-02, -1.338905995869912e-09, 7.387405040795714e-10, -4.999169411649137e-09, 5.961247519041963e+03, 6.116427380967503e+03, 5.885133107492267e+02, 1.123574731332786e+04, 2.735217056754231e+02, -2.667983534087009e+02, 5.338816622157406e+03
7145, 6.109785817431923e-01, 4.335226774097356e-01, 1.663630795188873e-02, -1.189440298040057e-09, 3.041335051479707e-10, -1.692935532960949e-09, 2.649039310526633e+03, 2.368706195215487e+03, -1.045644301004294e+02, 4.313697936740468e+03, 6.990910428223737e+02, -1.132338340111441e+01, 2.194471374069239e+03
7146, 6.062130351140196e-01, 5.467871416962929e-01, 1.603476575098174e-02, -1.339764147263795e-09, 6.074921913598447e-10, -2.314487125362403e-09, 3.472698002341809e+03, 3.191801145523725e+03, -1.159454934950382e+02, 6.035316400577295e+03, 9.690393044596667e+02, -2.398535570020538e+02, 3.224248491044369e+03
7147, 5.955379569354823e-01, 5.981430942682150e-01, 1.557263492827815e-02, -1.387138107885596e-09, 4.862470528763553e-10, -2.427795815923758e-09, 3.481350649585102e+03, 3.386300441674143e+03, -1.569039313575765e+02, 6.107794873067300e+03, 8.642969326405338e+02, -2.835649547504201e+02, 3.116568500069453e+03
7148, 6.122725039610151e-01, 1.837415104088469e-01, 1.747209357360464e-02, -8.648851600914773e-10, 2.947010359183954e-10, -1.080065206723145e-09, 1.900917179043577e+03, 1.800309236952797e+03, -1.122206012615451e+02, 2.950628551131917e+03, 4.459445559641156e+02, -1.683934007243632e+02, 1.391788154456553e+03
7149, 4.614605673072399e-01, 5.878189636660763e-01, 1.216936154882736e-02, -1.726824560621182e-09, 9.351285955242513e-10, -4.635689335386756e-09, 5.663396001757280e+03, 5.879614277028958e+03, 1.878520957142358e+02, 1.115380474053551e+04, 8.532046215453107e+02, -3.438994714464056e+02, 5.625722344822354e+03
7150, 4.986048597958285e-01, 6.257629451214797e-01, 1.298867703081052e-02, -1.569584486104120e-09, 9.070771286328792e-10, -4.043779436824686e-09, 5.258044214209725e+03, 4.948598217389123e+03, 2.736346577124287e+01, 9.819434073559813e+03, 5.648297503473934e+02, -6.466947314389608e+02, 4.952527087383404e+03
7151, 2.844728336390290e-01, 3.223158232670837e-01, 1.031911624933684e-02, -1.291292561903644e-09, 8.145028277470058e-10, -5.669203103996064e-09, 5.581734243241173e+03, 6.204927036140307e+03, 1.280933085363647e+02, 1.284344157812442e+04, 2.938940203720258e+02, -2.643879781189612e+02, 7.008092948941581e+03
7152, 6.101269433135257e-01, 2.947037466534891e-01, 1.674533685764149e-02, -1.031863121609126e-09, 2.626386719654788e-10, -1.284795120787352e-09, 2.076766267830497e+03, 1.893068045960901e+03, -6.094251332696103e+01, 3.373514304881937e+03, 5.313239394394824e+02, -1.044012711735051e+02, 1.686495493281342e+03
7153, 5.736233060903569e-01, 6.544423008762412e-01, 1.457153164702629e-02, -1.353911476451061e-09, 7.668547936772160e-10, -3.268737009081597e-09, 4.488181113791528e+03, 4.543519086299339e+03, 1.584154737734242e+02, 7.895724409456367e+03, 6.891354167865206e+02, -5.646479990941790e+02, 3.725901019815386e+03
7154, 5.883132797943482e-01, 5.541396518252391e-02, 1.845544100696811e-02, -3.736842919573909e-10, 4.417814989882043e-10, -9.045303080264519e-10, 1.465990102457882e+03, 1.535663546144948e+03, -1.898894355373767e+02, 2.343485918402646e+03, -3.981160543074073e+01, -3.612949109759566e+02, 1.103741846400834e+03
7155, 1.852896649665135e-01, 1.615309582739941e-01, 9.161979162007540e-03, -2.655709867988518e-10, 6.714408134349981e-10, -4.605446844275827e-09, 4.572895540061299e+03, 6.130167284265879e+03, 3.341185560894044e+02, 1.083682964875315e+04, -6.094203375951147e+02, 1.612888938126076e+00, 5.775500937990712e+03
7156, 5.255049125851724e-01, 6.702149022686322e-01, 1.292829031393804e-02, -1.355801318544610e-09, 4.626759115182573e-10, -3.521772146248831e-09, 4.738114529216416e+03, 4.630699097447986e+03, 1.291075946440879e+02, 8.757657604916136e+03, 6.621103662261900e+02, 1.943661128839343e+02, 4.251886269535601e+03
7157, 6.215620368831021e-01, 6.387400335981703e-01, 1.515954528238956e-02, -1.167552219017762e-09, 6.466077139472057e-10, -1.922442837814194e-09, 3.360514224137907e+03, 3.183638172631463e+03, 1.740686136700133e+01, 5.105630496095465e+03, 6.097447657664385e+02, -3.798400374594045e+02, 2.221372461481684e+03
7158, 6.202769621421301e-01, 1.033679015415699e-01, 1.727668793147684e-02, -6.554542136424001e-10, 2.351660522982504e-10, -1.247934320385180e-09, 1.492941374440177e+03, 1.316458751045237e+03, -1.628025325739054e+02, 3.151447207853722e+03, 3.792432450289747e+02, 9.926781594821282e+00, 1.893613241858010e+03
7159, 2.667302782383909e-01, 4.347465010757055e-02, 2.337043150521802e-03, -7.911306780162946e-10, 1.548652935167075e-09, -4.162644009437196e-09, 4.176642158634751e+03, 4.602158887706333e+03, -3.371835036900623e+02, 7.516399680910065e+03, 2.278518957425908e+02, -1.764608012978446e+03, 4.444353048601038e+03
7160, 6.108564092048334e-01, 6.899355018660989e-01, 1.464572404025184e-02, -1.193670208017987e-09, 7.370243368449025e-10, -2.523864803821265e-09, 3.578279683166142e+03, 3.373465908407781e+03, -1.120272709544345e+01, 6.743206383738213e+03, 5.066163725287305e+02, -7.025716909689260e+02, 3.599737237574559e+03
7161, 5.624635614772855e-01, 7.058316107348914e-01, 1.341113347537343e-02, -1.174777204807770e-09, 5.228409773152059e-10, -3.039873694007657e-09, 4.252600732254101e+03, 4.366524625897637e+03, -4.990074559214412e+01, 7.868659572615458e+03, 2.563886343088279e+02, -7.066528271987815e+01, 3.591178230462277e+03
7162, 6.298269756413033e-01, 3.366503284856380e-01, 1.611012917549140e-02, -8.834314995518897e-10, 3.249152588462408e-10, -1.261278428713366e-09, 2.069199941831003e+03, 1.906798399708136e+03, -2.127374297781853e+01, 3.246791678591573e+03, 3.248019294207292e+02, -1.259839842226676e+02, 1.403496263885558e+03
7163, 6.401236745372404e-01, 5.171298887415602e-01, 1.569696895780120e-02, -1.059978693059913e-09, 3.933148791691067e-10, -1.497811148987603e-09, 2.617023927164760e+03, 2.385134606198796e+03, -8.149335400848956e+01, 3.847646605607317e+03, 6.409101544095997e+02, -2.172100369261179e+02, 1.802036256540793e+03
7164, 6.386604648913348e-01, 5.859044487901420e-01, 1.557685301194126e-02, -1.062018216784160e-09, 4.340942983060889e-10, -1.704474830239187e-09, 2.887280851679509e+03, 2.522972510141720e+03, -5.869542624404311e+01, 4.443289808594522e+03, 4.252442934593180e+02, -2.465651250500504e+02, 1.963661924426735e+03
7165, 6.393534082532774e-01, 2.608322072828035e-01, 1.687971626153453e-02, -8.951981257630202e-10, 2.428429615075466e-10, -1.062482674374908e-09, 1.804996248687813e+03, 1.591004580681340e+03, 2.702892259817755e+01, 2.782649228669846e+03, 4.684825328917385e+02, -1.138640016126671e+02, 1.382143895039868e+03
7166, 5.996505812502676e-01, 7.405840054784464e-01, 1.385928795258001e-02, -1.042913786835141e-09, 5.015113037461809e-10, -2.989147899888591e-09, 4.550900021965975e+03, 4.536687042467019e+03, -2.842426828595665e+02, 7.840266845984575e+03, 2.541551736471430e+02, 2.866608889567307e+02, 3.398466930234808e+03
7167, 6.399109827522916e-01, 3.995074714606087e-01, 1.600976970892798e-02, -8.265205419383311e-10, 2.606518913160688e-10, -1.452635896528353e-09, 1.989967994389915e+03, 1.858085160920354e+03, -1.416196688528728e+02, 3.822711303767875e+03, 3.265620432034221e+02, -8.015763787172270e+01, 2.004350502588276e+03
7168, 4.182239549476681e-01, 5.627361390832251e-01, 1.022681931833420e-02, -1.735632252031062e-09, 1.218206481470306e-09, -5.415130593623072e-09, 6.550567668742304e+03, 6.029644900284807e+03, -4.214743802652175e+02, 1.270494481489685e+04, 1.339418959072845e+03, -7.338681476258847e+02, 6.991738878608375e+03
7169, 2.096687513161322e-01, 2.199792449146706e-01, 8.392241124603177e-03, -8.288309394756845e-10, 7.637530094779057e-10, -5.270016099554102e-09, 4.685988660744591e+03, 5.648674403260849e+03, 4.248270640756821e+02, 1.266044019213562e+04, 3.923659720629381e+02, -3.255508960556942e+02, 7.626466265622098e+03
7170, 6.487112631330776e-01, 4.687362832912306e-01, 1.628352193030367e-02, -9.127448790825918e-10, 3.050223890240988e-10, -1.233581948941182e-09, 2.275219214101146e+03, 1.999648182289133e+03, -1.051027699441640e+02, 3.539921485366615e+03, 4.579395967086081e+02, -4.447711470833375e+01, 1.640770239550518e+03
7171, 3.795921758874935e-01, 5.026231388099023e-01, 9.798192611716661e-03, -1.113750409190339e-09, 7.179102760663477e-10, -4.068896248571586e-09, 4.873024431202341e+03, 5.709427123051334e+03, 6.979364415296130e+02, 9.775998415976266e+03, 4.828770235416620e+01, -4.949518562799825e+01, 4.702504968143435e+03
7172, 3.067017598482551e-01, 1.009089064370223e-01, 3.477022615127749e-03, -1.222959138636563e-09, 1.297981853534315e-09, -5.698498663332919e-09, 4.883187802339059e+03, 4.475072957107417e+03, -2.489064398526093e+02, 8.760290968631902e+03, 1.412637707094279e+02, -3.769424991141303e+02, 4.177652043516287e+03
7173, 6.502188625149657e-01, 2.104709751281049e-01, 1.675134893668578e-02, -7.964544577561685e-10, 1.858386002366389e-10, -9.117331734546625e-10, 1.549085059764673e+03, 1.450142434931557e+03, -1.453993567497562e+02, 2.579703002997614e+03, 4.426018811132801e+02, -2.291885201853213e+01, 1.351526192156279e+03
7174, 6.495222227668668e-01, 7.258298469870567e-01, 1.449144168036312e-02, -1.196016100358685e-09, 3.858625988470273e-10, -2.285708613381581e-09, 3.429336410541316e+03, 3.071427719151666e+03, -2.712818422771906e+01, 6.187727483182874e+03, 9.377272908315313e+02, -6.332000657804224e+01, 3.372877937444412e+03
7175, 5.420347798747792e-01, 7.482044912676922e-01, 1.195624384054962e-02, -1.368999258922878e-09, 7.723067320658998e-10, -3.638514817133171e-09, 4.949259493296804e+03, 5.138625232765044e+03, 7.960989860436679e+01, 9.427232363057039e+03, 4.799031884340686e+02, -4.044725012937623e+02, 4.521156289421507e+03
7176, 6.426747810264090e-01, 1.525079836297136e-01, 1.627629800759516e-02, -6.804451311224110e-10, 1.981932341641667e-10, -8.867929246928373e-10, 1.476168525113100e+03, 1.322489894592083e+03, -1.276455788654212e+02, 2.476585280347105e+03, 2.029656888798056e+02, -2.023605351270429e+01, 1.162706914966418e+03
7177, 4.821496374955109e-01, 6.660829226647215e-01, 1.065496792108899e-02, -1.615026857478737e-09, 6.321206496956288e-10, -4.753289141344165e-09, 5.642062687746304e+03, 5.576545966361332e+03, 1.963191541956644e+02, 1.170399031222065e+04, 1.146239751979336e+03, -3.945734306709530e+02, 6.455439683159802e+03
7178, 3.177914423896905e-01, 1.537743809992803e-01, 2.941305377394773e-03, -1.671952608421990e-09, 1.177108487276197e-09, -5.463011497534380e-09, 4.920263297949407e+03, 5.068200139866459e+03, -6.246077236567834e+01, 8.224393197090780e+03, 7.628870458345026e+02, -7.710674669594923e+01, 3.496553658468810e+03
7179, 6.172910869827012e-01, 7.804573264937817e-01, 1.346315811930804e-02, -1.379577883713201e-09, 6.948004085075256e-10, -2.321178995088040e-09, 3.599803594023217e+03, 3.684770758065293e+03, -2.684700081619675e+02, 6.106245682346558e+03, 6.484499801548515e+02, -3.270417922021570e+02, 2.806254737667240e+03
7180, 5.059513267169490e-01, 7.116505374659251e-01, 1.110920821109376e-02, -1.457843905779741e-09, 5.668423077989531e-10, -4.030949660715081e-09, 5.449211211189260e+03, 5.537145474297337e+03, 2.398315801005736e+02, 1.024443884767612e+04, 6.523222372978339e+02, -1.870401313482480e+02, 4.912673224240590e+03
7181, 6.514597913802128e-01, 6.703943261743934e-01, 1.545863481743208e-02, -1.051108477942207e-09, 5.849737519538015e-10, -1.691202937444087e-09, 3.102936512933661e+03, 2.897571220975304e+03, -6.624474523542800e+01, 4.874314956733184e+03, 4.660252002550633e+02, -4.838931440951000e+02, 2.216054473815423e+03
7182, 6.333426042226000e-01, 6.165812954923685e-02, 1.649502306183381e-02, -4.791618860337386e-10, 2.711329968940589e-10, -7.664491120586698e-10, 1.157409371516743e+03, 1.262286122770706e+03, -2.776535750307797e+02, 2.182190333305634e+03, 3.293533945549067e+02, -1.727162162928251e+02, 1.264866644112094e+03
7183, 1.379772440415347e-01, 9.151322648227551e-02, 7.903936691582604e-03, 5.867509235935926e-10, 4.355403460965214e-10, -4.609919487817428e-09, 3.980388465637085e+03, 3.486863200879372e+03, 6.538148562231856e+02, 1.105071868240520e+04, -1.874060088668102e+03, 9.295561528309148e+02, 8.254300232213589e+03
7184, 2.925521336891776e-01, 3.689524771717482e-01, 8.956858563914642e-03, -1.020735475080393e-09, 4.057463562673625e-10, -5.066900625015940e-09, 5.740441246881949e+03, 5.560297824523670e+03, 3.026350162571272e+02, 1.241484579195894e+04, 1.440104885774003e+02, 1.292063203994854e+02, 6.794817253044146e+03
7185, 4.522150728836281e-01, 6.300406836869693e-01, 1.107036176556092e-02, -1.583413716734465e-09, 5.604734184457873e-10, -5.266298146754653e-09, 6.397715922201500e+03, 6.246331343089460e+03, 2.740861481961087e+02, 1.306768208262495e+04, 7.922960523093897e+02, -3.181303783484435e+02, 6.923386848802586e+03
7186, 6.560593935009802e-01, 3.006173381839157e-01, 1.683426976024961e-02, -8.309770812944786e-10, 2.061113641084863e-10, -8.559826005784544e-10, 1.514686311616512e+03, 1.573725947408698e+03, -5.755670680523025e+01, 2.449649405173559e+03, 4.510228212571293e+02, -2.444673057095109e+01, 1.201847657430563e+03
7187, 6.707001542358769e-01, 6.242209359066963e-01, 1.514683650936470e-02, -9.600852300095641e-10, 3.890666105842566e-10, -1.555565095262643e-09, 2.602259748369246e+03, 2.559694258614079e+03, -5.684349345830988e+01, 4.206704169797328e+03, 4.206876846939324e+02, -2.479993663049019e+02, 1.835616156613572e+03
7188, 5.694749223294739e-01, 7.898691496538086e-01, 1.219164828659291e-02, -1.441115990773375e-09, 9.776617151196827e-10, -3.718711443724382e-09, 4.598032599837721e+03, 4.907289959881049e+03, -2.057649390524065e+02, 1.017384956551675e+04, 8.834464851205718e+02, -7.647986507412284e+02, 5.803810313042335e+03
7189, 2.297142567365074e-01, 2.655013332346428e-01, 8.486233906209895e-03, -1.041072124434530e-09, 7.325633685224639e-10, -5.138775133451990e-09, 5.421583205621662e+03, 5.819850584119721e+03, 6.994280483157728e+02, 1.321615806366738e+04, 4.888111529718738e+02, 3.888037009261335e+01, 7.745878393758223e+03
7190, 6.741590904691751e-01, 5.615903509226707e-01, 1.527361536169693e-02, -8.507902761086636e-10, 3.467995978988589e-10, -1.574732352487716e-09, 2.284971696583025e+03, 2.119062576553698e+03, -4.642101751104593e+01, 4.451681581656593e+03, 2.079818659145616e+02, -1.940291219231563e+02, 2.308854801689968e+03
7191, 3.278297669614507e-01, 4.355367813997225e-01, 8.776843812453625e-03, -7.014675570392310e-10, 6.880711259774915e-10, -5.181586268805367e-09, 4.550958180188421e+03, 5.570343290463955e+03, 3.493035540140809e+02, 1.274138419829864e+04, -2.155968232388084e+02, -4.556948964841118e+02, 7.803940314781434e+03
7192, 6.714906726569811e-01, 3.658424202274880e-01, 1.602752826460268e-02, -8.913249542271345e-10, 2.940151917791183e-10, -1.001140685711024e-09, 1.554085358757268e+03, 1.540459116639128e+03, -5.764497161449628e+01, 2.862033487464379e+03, 5.967033607294507e+02, -3.384110432273824e+02, 1.774946768962926e+03
7193, 6.764447961312894e-01, 4.318402779461220e-01, 1.557174938527276e-02, -8.299207080383945e-10, 1.993406932425004e-10, -1.023786748365499e-09, 1.792836796391978e+03, 1.711914469667499e+03, 7.042753721220532e+01, 2.946375863658804e+03, 2.960732582690987e+02, -7.431729995799623e+01, 1.313383145910914e+03
7194, 6.275900840446293e-01, 8.268558429782276e-01, 1.303758376473025e-02, -1.425252464291555e-09, 7.560129698610677e-10, -2.956133613342664e-09, 4.656723236052791e+03, 4.161911559903589e+03, -1.215417072540092e+02, 8.121443461865078e+03, 1.050779705185133e+03, -7.150943787738338e+02, 4.342156134719695e+03
7195, 3.747574685557050e-01, 9.654426646654933e-02, 2.725884029474032e-03, -1.089346477339823e-09, 9.044215220601593e-10, -5.027038029741831e-09, 3.842877141034485e+03, 3.682541345587570e+03, -4.483236549657861e+02, 8.009535810936667e+03, 4.318925765040262e+02, 3.073595574399378e+02, 4.415971258436777e+03
7196, 6.659539250871752e-01, 7.651164451397447e-01, 1.432054972985811e-02, -1.187884065121784e-09, 4.724958020910082e-10, -2.034878063360700e-09, 3.718318606376380e+03, 3.699753897756834e+03, -1.114104690864927e+02, 5.639827435328146e+03, 5.044354573120972e+02, -2.089018403165018e+02, 2.158642000419515e+03
7197, 2.321578470496118e-01, 4.266080868474857e-02, 2.928944480951717e-02, -5.159694512657952e-10, 1.372911150884572e-09, -2.459101767465667e-09, 3.654669143464283e+03, 4.375123669042737e+03, -2.204500813017051e+02, 6.693833348706007e+03, 2.468601829615616e+02, -1.440333183867503e+03, 3.757431009438432e+03
7198, 3.352057447743861e-01, 8.390111374068217e-02, 3.533503193893935e-02, -8.961319656041239e-10, 1.223053068603659e-09, -2.725861668672518e-09, 3.838125615722683e+03, 3.483237472050600e+03, -2.657298175418422e+02, 7.440835465831336e+03, 3.891854629931851e+02, -7.076906055190591e+02, 4.068505110050993e+03
7199, 3.447720189203740e-01, 4.786435183148647e-01, 8.491551787031516e-03, -1.132064749053519e-09, 4.257677366895713e-10, -5.187957397310974e-09, 6.482449358153143e+03, 6.198494663676326e+03, 2.176250578440079e+02, 1.308579060025996e+04, 5.930663342204676e+02, 5.274012162596428e+02, 6.898660502565063e+03
7200, 6.861345352862896e-01, 5.104886288035064e-01, 1.516334410464961e-02, -8.355518317829192e-10, 3.427329837121098e-10, -1.054081273365488e-09, 1.728958217992445e+03, 1.755321435968719e+03, -2.261495062208328e+01, 3.058395846955937e+03, 3.924078941089290e+02, -1.289792022088357e+02, 1.498814282166782e+03
7201, 1.501828215728072e-01, 1.339535756143252e-01, 6.712370878044334e-03, 4.399318672640317e-10, 1.764423450170005e-11, -4.368375303787603e-09, 4.777516788190092e+03, 5.056275102550533e+03, 1.208966200453237e+02, 1.017378445167214e+04, -1.796120608307687e+03, 1.024777192550814e+03, 6.369117442483842e+03
7202, 6.734704770073465e-01, 8.223784701524826e-01, 1.362027267931852e-02, -9.834884696135101e-10, 5.569811195126273e-10, -1.931513887624422e-09, 3.303661188852989e+03, 3.108983504480788e+03, -1.986691841667035e+01, 5.463280038282008e+03, 4.524088933197394e+02, -2.218583901052322e+02, 2.425933121856782e+03
7203, 4.189293097612763e-01, 6.046301965647719e-01, 9.478112836853514e-03, -1.531167588471705e-09, 5.547488555891614e-10, -5.697764023439321e-09, 6.406082977464767e+03, 6.650877410985804e+03, 4.681015747475122e+02, 1.422495369723377e+04, 1.089269537964585e+03, 9.708476729519549e+01, 7.970307748544104e+03
7204, 6.655368279530274e-01, 9.120802037308992e-02, 1.639172442658623e-02, -5.930594602184710e-10, 1.463544119682956e-10, -6.398247752917466e-10, 1.251113545554875e+03, 1.085585883885237e+03, -1.523272023278424e+02, 1.966419706965232e+03, 4.229654466443934e+02, -3.313792227426255e+01, 1.125641892502185e+03
7205, 6.433052342055778e-01, 8.661252920773150e-01, 1.274932171109706e-02, -1.261940409536960e-09, 5.677680707164646e-10, -2.973680200173646e-09, 4.702387364680904e+03, 4.380160757624104e+03, 5.111472449612279e+01, 8.204472917282001e+03, 3.789510533116372e+02, -5.233129941377475e+02, 3.841499403406063e+03
7206, 6.879867167025302e-01, 7.005967417522972e-01, 1.460215348364011e-02, -9.912084037609483e-10, 3.538135342867215e-10, -1.677264535818204e-09, 2.749557854098268e+03, 2.261125134481800e+03, -6.187511987904197e+01, 4.814540630014574e+03, 6.085155222121111e+02, -1.284071268910894e+02, 2.585178857261827e+03
7207, 5.960517508779961e-01, 8.547568080908406e-01, 1.174205381478537e-02, -1.416835414545519e-09, 3.850280848953089e-10, -3.569723641095362e-09, 5.173198755472501e+03, 4.535929672195067e+03, 8.561670848395624e+01, 9.566962357136508e+03, 6.597470446607725e+02, 2.767280051987000e+02, 4.905996788838474e+03
7208, 3.812521505015782e-01, 5.440364317604911e-01, 8.585890735507480e-03, -9.960601651616019e-10, 1.549950623519549e-09, -5.102229505734694e-09, 4.699266762683445e+03, 5.988883452505996e+03, 1.597056550885027e+02, 1.297026115916682e+04, 4.901531940567700e+02, -1.884318751842447e+03, 8.417558239986440e+03
7209, 6.763322271871524e-01, 2.424588428183263e-01, 1.635621641008213e-02, -7.809494780022538e-10, 2.168987863007474e-10, -6.657376203104350e-10, 1.339937692249561e+03, 1.217300057601810e+03, -6.524257017297340e+01, 2.124898643682513e+03, 5.074008580320763e+02, -1.880436986603497e+02, 1.272276466803536e+03
7210, 6.925666701434334e-01, 6.594174727852660e-01, 1.508797695666153e-02, -8.653804069415895e-10, 4.551647815049241e-10, -1.203110589396235e-09, 2.217992538018548e+03, 2.181057340193036e+03, -1.138386258197719e+02, 3.712959058219359e+03, 3.303230777186386e+02, -3.094565706928738e+02, 1.716104251543882e+03
7211, 6.870764549450041e-01, 3.277076573928217e-01, 1.566655843383257e-02, -8.146363276482861e-10, 1.907600096876042e-10, -6.481414800922495e-10, 1.288364961939576e+03, 1.213268812981930e+03, -1.344960674481939e+02, 1.917231583243245e+03, 5.412661109109397e+02, -1.305426132359487e+02, 1.196928079291539e+03
7212, 6.800317057575010e-01, 1.728325890654182e-01, 1.588537624903513e-02, -6.686033365643828e-10, 7.306262182167079e-11, -6.026546804462848e-10, 1.244004470429083e+03, 1.140804928904105e+03, -3.756177384768912e+01, 1.864082517408847e+03, 4.067400225877971e+02, -1.907280850517263e+01, 9.801913152216588e+02
7213, 3.725517001591976e-01, 2.046135513927873e-01, 1.888890835984085e-03, -1.413019839457232e-09, 1.009464605838782e-09, -5.104175648765231e-09, 4.361328579087969e+03, 4.748861520464408e+03, -1.666070855643489e+02, 8.067327006189592e+03, 1.613897031928978e+01, -5.211603724610948e+02, 3.653394204651536e+03
7214, 7.011561779410573e-01, 7.438380409463098e-01, 1.430987323660182e-02, -8.313021688920026e-10, 3.239970528151353e-10, -1.329004192439509e-09, 2.718808615966251e+03, 2.505877888854056e+03, -1.040725524044997e+02, 3.940254899400038e+03, 3.032591096290946e+02, -1.605699902499668e+02, 1.477529586722535e+03
7215, 6.824711389712036e-01, 8.783510602791929e-01, 1.334231951312426e-02, -1.211217948372893e-09, 4.678480060877914e-10, -2.711088431952822e-09, 4.350941416512282e+03, 3.778422880604277e+03, -1.266149759249612e+02, 7.285931260899276e+03, 7.976342769056594e+02, -2.879942770953543e+02, 3.581599703430752e+03
7216, 6.915588661875349e-01, 4.699020398829531e-01, 1.590410869667961e-02, -8.360332160032198e-10, 2.668615359689468e-10, -8.789944943696391e-10, 1.370384206829500e+03, 1.492318451220982e+03, -4.428283106689971e+01, 2.572062549730275e+03, 4.546133924265437e+02, -4.239545016784938e+01, 1.394154976570494e+03
7217, 6.993873626263279e-01, 5.937913211100118e-01, 1.447697955051257e-02, -8.031656519342161e-10, 2.548915442363204e-10, -1.312166138584500e-09, 2.133176595280741e+03, 2.175971303348756e+03, 3.556714415900723e+01, 3.723003055106654e+03, 4.633890069493292e+02, 6.979181027265984e+01, 1.767466908044649e+03
7218, 2.409098437715943e-01, 3.051892957527466e-01, 7.263305163556770e-03, -6.815550365157988e-10, 7.788647726155121e-10, -5.078726328897572e-09, 5.101985944986449e+03, 6.686719730465828e+03, 6.234112075265932e+02, 1.198581423132466e+04, -3.978650745214686e+02, 4.196182096397011e+02, 6.415488334257654e+03
7219, 6.419046572972686e-01, 9.068998074804872e-01, 1.218595287477789e-02, -1.188534246342853e-09, 5.139325529419713e-10, -2.511418871368727e-09, 4.123505454898802e+03, 4.202385808161968e+03, -1.823752763675834e+02, 7.387134647145150e+03, 9.004037282876999e+02, -2.986384775590825e+02, 3.633122494202355e+03
7220, 7.058345079083869e-01, 7.974065829655431e-01, 1.391153785521911e-02, -7.844264682673932e-10, 5.040552191805118e-10, -1.458450837712923e-09, 2.762480712454717e+03, 2.675676284910205e+03, -1.506641959613336e+02, 4.588188249350224e+03, 2.535447363836807e+02, -3.667540181358851e+02, 2.040515117772077e+03
7221, 3.958065899330546e-01, 7.842960590967918e-02, 3.689458115758667e-02, -8.151186778861473e-10, 9.823183668097697e-10, -2.130307392574150e-09, 3.280284522312671e+03, 2.946972405783341e+03, -2.701487824042453e+02, 5.936872859259933e+03, 6.062568388374488e+02, -6.029206606017341e+02, 3.235143701154682e+03
7222, 5.300437462015296e-01, 7.995200016063299e-01, 9.939113117942464e-03, -9.607730534435927e-10, 9.580828475216885e-10, -4.454512713196682e-09, 5.892742154905404e+03, 6.357640781819158e+03, -8.557685058125028e+01, 1.194137991357376e+04, -1.648346999903273e+02, -3.619270114278600e+02, 5.872529369192070e+03
7223, 4.989143658800261e-01, 7.516154552921288e-01, 9.281406978339554e-03, -1.395191430161663e-09, 6.869995382121453e-10, -3.889510234039480e-09, 5.455424192998389e+03, 5.278312174899422e+03, 4.622092839857290e+02, 1.073432843464215e+04, 1.080649113994719e+03, -6.089873424761945e+02, 5.838670446447334e+03
7224, 5.606828398243980e-01, 8.349024862845306e-01, 1.005940473147096e-02, -1.396784465065516e-09, 7.925138952998191e-10, -4.449006686725981e-09, 5.485290918420494e+03, 6.192918453918855e+03, -3.406489874086388e+02, 1.170598224086342e+04, 5.670823034064715e+02, -1.254967682838060e+02, 6.012979737155517e+03
7225, 4.448144579200575e-01, 1.270303846901728e-01, 3.498963120447087e-02, -9.039484249595458e-10, 6.349879751556742e-10, -2.066404477926587e-09, 3.463815365680772e+03, 3.149857063010908e+03, -1.963190551356626e+02, 5.873547625610107e+03, 5.598828283497971e+02, -3.318076427315958e+02, 2.836944416898574e+03
7226, 1.019831826535124e-01, 4.863625495980201e-02, 7.117161098308081e-03, 7.882763225811787e-10, 6.145288749081377e-10, -3.367373304515045e-09, 3.155750008180217e+03, 3.444971455959898e+03, 4.389370434417901e+02, 9.432689160434968e+03, -1.072640360563636e+03, -1.145775117852666e+03, 6.755461480420243e+03
7227, 6.761786715186351e-01, 1.300886078602714e-01, 1.551023887381816e-02, -6.267448094543304e-10, 1.950013723084666e-10, -6.843290472648290e-10, 1.145060355192294e+03, 9.980182562539338e+02, -7.196797250682505e+01, 2.040065547474896e+03, 4.297287775881625e+02, -1.602927794483180e+02, 1.265258501097408e+03
7228, 6.036379719737389e-01, 8.943235250282607e-01, 1.131773733195218e-02, -1.320225224186028e-09, 9.003695576913069e-10, -3.189147969841000e-09, 5.323293545050609e+03, 5.272203349516739e+03, 1.779931337023696e+02, 9.130505641023106e+03, 6.320743193523435e+02, -9.182573341361087e+02, 4.302926150864682e+03
7229, 6.967546193262821e-01, 2.773036271664443e-01, 1.535711629794322e-02, -7.409989793544149e-10, 1.781651162168497e-10, -4.848721093861002e-10, 1.049092538713087e+03, 8.607945531034505e+02, -4.785821155013652e+01, 1.502325146807232e+03, 3.856819106829634e+02, -1.091586771095402e+02, 9.028224630726843e+02
7230, 6.984449991266415e-01, 3.980738767047681e-01, 1.599980590775544e-02, -8.664333359062785e-10, 2.704931435070300e-10, -6.808402782060427e-10, 1.371417955768336e+03, 1.265115567531371e+03, 3.653042507499682e+01, 2.083440689734771e+03, 6.057267328130598e+02, -1.980857770888045e+02, 1.347738199423695e+03
7231, 3.942362163090147e-01, 3.856173780772292e-02, 8.763225240909014e-04, -5.851562172017301e-10, 1.094076126803448e-09, -2.493331494977473e-09, 2.841823578876331e+03, 3.336791626777731e+03, -4.080573242879950e+02, 4.644623469356253e+03, -8.760268647831950e+01, -1.619924204393505e+03, 3.316288706777460e+03
7232, 3.348570607203731e-01, 4.003155340761302e-02, 3.866973319034309e-02, -5.334536029904677e-10, 1.113386267885842e-09, -1.569261986278565e-09, 2.930273657199861e+03, 3.625527778346025e+03, -2.584011431994729e+02, 4.707495029963487e+03, 2.936540523399516e+02, -1.142932512817892e+03, 2.604643807420061e+03
7233, 6.895400720885969e-01, 9.178917923342386e-01, 1.336575081203889e-02, -1.066459891697925e-09, 4.696194328065107e-10, -2.134631488703672e-09, 3.806159430274224e+03, 3.780804661592387e+03, -1.469699139271962e+02, 6.065405707110672e+03, 6.290467837606410e+02, -3.083519726776488e+02, 2.588293283783634e+03
7234, 6.560769922261019e-01, 9.465555561652466e-01, 1.172554334692929e-02, -1.304255640215668e-09, 6.577460708588438e-10, -2.703984500499139e-09, 4.529091207345451e+03, 4.283927043714508e+03, 6.924697828269979e+01, 7.979816152344387e+03, 5.952031028387830e+02, -4.949119040060345e+02, 3.824343240256959e+03
7235, 4.728128581225318e-01, 1.804490080978995e-01, 3.366310428991829e-02, -9.948006311032410e-10, 4.953144686792921e-10, -2.028864377365071e-09, 3.302106702901756e+03, 3.144122412842596e+03, -7.999047453308242e+01, 5.943314906623715e+03, 5.984530352803577e+02, -2.621542056993408e+02, 2.952628867861922e+03
7236, 7.103318338064738e-01, 5.424466060203810e-01, 1.449058975590055e-02, -9.010953381815747e-10, 3.931965774065833e-10, -1.099715468082763e-09, 1.890847717053334e+03, 1.760428840567089e+03, -1.266306287989619e+02, 3.203441590771736e+03, 7.246365706213787e+02, -3.340357241193123e+02, 1.967038078131594e+03
7237, 7.170786944017207e-01, 8.475689276155459e-01, 1.341663736403153e-02, -8.484995938767608e-10, 4.448782013724338e-10, -2.122183798203401e-09, 3.231875438815789e+03, 2.939314926048324e+03, -2.229543357072509e+01, 6.247023378315655e+03, 3.522802531762036e+02, -5.252757408005714e+02, 3.355646164150752e+03
7238, 3.783491668299110e-01, 1.264874934670838e-01, 3.646438637637461e-02, -1.078815186466367e-09, 8.117865163708140e-10, -2.611890812668372e-09, 3.950416664337863e+03, 3.738613795624358e+03, -1.022496421255150e+02, 7.328231953681031e+03, 6.823727745061216e+02, -3.290593158611573e+02, 3.731357719457347e+03
7239, 4.669019217724997e-01, 7.030616973960735e-01, 9.452871889826207e-03, -1.284487914954461e-09, 4.896373510940305e-10, -4.063106309060930e-09, 4.495485470850228e+03, 6.202435854886000e+03, 4.039428189604637e+02, 1.093010232154435e+04, 8.986265141708664e+02, -1.920386592368908e+01, 6.020598519139298e+03
7240, 4.424815686007889e-01, 6.697868533237357e-01, 8.194974019234774e-03, -8.730860864584947e-10, 2.102723175691748e-10, -4.569120727028457e-09, 5.208686043059226e+03, 5.754125611834898e+03, 8.964958215290703e+02, 1.231917796216775e+04, -2.685395753662767e+02, -6.192613548292597e+01, 7.043948845086177e+03
7241, 2.924802386164776e-01, 4.088865470206099e-01, 7.992135967610087e-03, -7.654730134937152e-10, 2.004138361888785e-10, -4.814156606211415e-09, 4.868090949190164e+03, 5.314544322188613e+03, 8.043220526336344e+02, 1.332975095342764e+04, 3.033967315981342e+02, 2.274399588546987e+02, 8.390078153358229e+03
7242, 7.233802128079520e-01, 6.255330396771309e-01, 1.416356549627582e-02, -8.041292488796326e-10, 3.228584203197467e-10, -1.000812718087422e-09, 1.864598328507378e+03, 1.875537841311644e+03, -4.362943304536916e+01, 3.114824291717743e+03, 3.598895635825763e+02, -8.479622272315379e+01, 1.401909784354119e+03
7243, 2.489564791912492e-01, 3.430829165184251e-01, 6.359870448920557e-03, -4.068296028309581e-10, 9.137639571025332e-10, -4.779264854812441e-09, 3.843593105590794e+03, 4.656645358547009e+03, 3.737993152512747e+02, 1.248529663890705e+04, -8.480726894142497e+02, -2.802260243418764e+02, 8.433645529343685e+03
7244, 7.276869572383635e-01, 6.964747300296577e-01, 1.433300431605118e-02, -7.521245329918390e-10, 3.085182369121825e-10, -1.078055319983599e-09, 1.990990142247042e+03, 1.929081660245987e+03, 2.197723431326495e+01, 3.321855135197653e+03, 3.505351165384246e+02, -2.118410477339251e+02, 1.536922122244990e+03
7245, 5.539141434352585e-01, 2.389260579029007e-01, 7.097883077963520e-03, -1.165617582873724e-09, 5.488893868692116e-10, -2.458409570560502e-09, 2.152784843268571e+03, 2.301656324971533e+03, -2.578004925016961e+02, 4.703827493772915e+03, 5.808808500894031e+02, -6.102772565366494e+02, 2.911901403006366e+03
7246, 3.476645453541630e-01, 1.575389326747094e-01, 3.456710922934404e-02, -1.164920051706574e-09, 7.456143717110377e-10, -2.921533558471101e-09, 4.534239196499467e+03, 4.392265676556717e+03, -5.159356799572216e+01, 8.282050745662509e+03, 6.370023604202772e+02, -2.606140663965429e+02, 4.003423368974535e+03
7247, 2.139901197899689e-01, 8.795352248486416e-02, -1.765508824668575e-03, -1.275195045758129e-09, 1.265832625243948e-09, -7.434375810043560e-09, 6.167454663411710e+03, 6.062155848179250e+03, -9.341809588414661e+01, 1.190485400261010e+04, 5.201715312016992e+02, -1.003279666115205e+03, 6.114785909883623e+03
7248, 6.973874263765565e-01, 9.698311495994310e-01, 1.244562475196107e-02, -1.147231946294264e-09, 6.574521980778779e-10, -2.032256400569864e-09, 3.987490560747045e+03, 3.462596615537966e+03, -3.142872148945643e+02, 6.400629201392870e+03, 5.189222711620042e+02, -4.476761272637504e+02, 3.011777828749681e+03
7249, 7.160167729538310e-01, 4.337068563527053e-01, 1.502339321028630e-02, -8.351696337127059e-10, 2.575611606362700e-10, -6.723700924591020e-10, 1.431149592545966e+03, 1.296019272181573e+03, -6.776524133194035e+01, 2.281875441599912e+03, 6.135619114090512e+02, -1.597397770984951e+02, 1.441060359808643e+03
7250, 7.293548858111859e-01, 8.859975377033052e-01, 1.354668735566496e-02, -1.025061559416212e-09, 3.367979923089821e-10, -1.575063063451540e-09, 2.764875332513739e+03, 2.889320193750229e+03, -1.301144771942005e+02, 5.020566958237961e+03, 6.523583249599842e+02, 1.787434070829148e+02, 2.499254509485212e+03
7251, 4.466416504621409e-01, 2.483730877656866e-01, 2.973868024143608e-03, -1.527151374654867e-09, 6.834564682911649e-10, -3.861983275161788e-09, 4.149937857536794e+03, 3.715052755110969e+03, -1.133133933990167e+02, 6.469541004586488e+03, 4.794599569487609e+02, -1.861634354299892e+02, 2.722238135193677e+03
7252, 2.846427321702381e-01, 8.844885556507930e-02, 3.480342985494104e-02, -9.233256723759184e-10, 1.249640401968636e-09, -3.073161334181925e-09, 4.434468833750979e+03, 4.128498441578234e+03, -1.589360922233273e+02, 8.488260423933098e+03, 5.548785899531653e+02, -7.582400132798736e+02, 4.526745065316481e+03
7253, 6.995613561640442e-01, 2.073606354271488e-01, 1.603433106793991e-02, -6.806065113796102e-10, 1.079561729637991e-10, -4.490704170243810e-10, 1.003632285980937e+03, 9.266769333430618e+02, -5.211153971723542e+01, 1.417917472311595e+03, 4.722647081280815e+02, -2.381716634388502e+01, 9.425424542705421e+02
7254, 6.754398817917284e-01, 4.011479516383865e-02, 1.600994310283405e-02, -3.345809829373724e-10, 1.963712832443533e-10, -4.237488760807829e-10, 7.779673711874551e+02, 7.353880989799380e+02, -1.541624189183319e+02, 1.337312591534863e+03, 1.825791987422005e+02, -1.958203897206021e+02, 7.904663832786498e+02
7255, 7.278016974572643e-01, 9.260855350116540e-01, 1.285366547817340e-02, -9.060422987136273e-10, 4.621529774523356e-10, -1.681577305190307e-09, 3.056265803361440e+03, 2.718210915218246e+03, -7.176513442604642e+01, 5.188875594959292e+03, 6.689481539360933e+02, -2.596234202689106e+02, 2.635030048736770e+03
7256, 3.853402974341509e-01, 5.842087690786602e-01, 7.950733312090445e-03, -9.404648783112275e-10, 2.613382466501217e-10, -6.765151772421096e-09, 5.501324332703233e+03, 6.789168205016043e+03, 9.048896739703246e+02, 1.713678493830059e+04, 1.312183880319236e+01, 1.478992102480476e+03, 1.144888964629933e+04
7257, 3.359578740338922e-01, 4.032820305943356e-02, -1.481401139933711e-03, -5.949332270316827e-10, 1.391797626021247e-09, -3.104789117970965e-09, 3.631823047949423e+03, 3.883413407684780e+03, -1.904429274085720e+02, 6.030315681938106e+03, -3.511731578947431e+02, -1.952521811818533e+03, 4.138650089456758e+03
7258, 7.410869205855106e-01, 7.644914976140910e-01, 1.367596461361114e-02, -7.950825835783850e-10, 3.808825088624646e-10, -1.253498058207601e-09, 2.394201395214564e+03, 2.452326734527305e+03, -1.181075394366526e+02, 3.959967790011383e+03, 5.804967966394405e+02, -1.633156484692768e+02, 1.869969524780903e+03
7259, 3.912248819652573e-01, 3.813938538835463e-02, 3.943812990854671e-02, -4.743490937824442e-10, 8.705690759614814e-10, -1.249943421445670e-09, 2.532181781497379e+03, 3.082239711265310e+03, -3.180973087963091e+02, 3.946493868891037e+03, 2.776472691024751e+02, -9.934100240950089e+02, 2.240602813405080e+03
7260, 7.424617575678883e-01, 8.124672588454469e-01, 1.371935955316601e-02, -9.009761461232136e-10, 4.293629166088803e-10, -1.310470462644939e-09, 2.546449284239044e+03, 2.728264476644923e+03, -1.445981245991124e+02, 4.149594122598240e+03, 5.456371590553647e+02, -8.316283653716425e+01, 1.813363670858121e+03
7261, 6.492232226354491e-01, 9.855108860414569e-01, 1.066022624413965e-02, -1.069244171576025e-09, 1.049586363065948e-09, -3.703124454598666e-09, 5.383058029850765e+03, 6.445126244478320e+03, 2.721494688406412e+02, 1.080296973411528e+04, 5.343163095341425e+02, -1.422942205472490e+03, 5.648016213129747e+03
7262, 7.099026701402219e-01, 3.593000152451442e-01, 1.469935574283626e-02, -7.684107428670364e-10, 2.030751404623058e-10, -5.133429076048936e-10, 1.204999093361954e+03, 1.104699267338115e+03, -4.270928188735614e+01, 1.668774947072095e+03, 4.172064460347104e+02, -1.359516551802998e+02, 9.245372879347262e+02
7263, 7.249595677724243e-01, 5.062380768115299e-01, 1.514071543286559e-02, -7.938549218014300e-10, 2.217025238856230e-10, -7.047173227130719e-10, 1.474283624808970e+03, 1.362059395089679e+03, -5.103788859900695e+01, 2.211275577630650e+03, 5.167897745939351e+02, -5.282558315641286e+01, 1.206590655017128e+03
7264, 4.552962779032544e-01, 3.712984863100614e-02, 4.501194741953473e-03, -3.114716497411862e-10, 6.956138690336408e-10, -2.137962741431191e-09, 2.820961106525552e+03, 2.736250287992217e+03, -3.908351935288051e+01, 4.386368185914492e+03, -1.832471141948259e+02, -8.333299293331884e+02, 2.186074004789201e+03
7265, 6.034691398921289e-01, 9.404437164432281e-01, 9.825108881688346e-03, -1.147792221669241e-09, 5.526800684958131e-10, -3.332608303357795e-09, 5.265636397818530e+03, 4.936103154081266e+03, 5.622159523164004e+02, 9.900654182057344e+03, 5.719469470841757e+02, -8.526144222246910e+02, 5.218223719338667e+03
7266, 7.337748376957430e-01, 5.734548423608795e-01, 1.418107403029082e-02, -7.818521255649221e-10, 2.968477221882577e-10, -7.736045864284645e-10, 1.447849527601143e+03, 1.316742364672070e+03, -1.626917963608778e+00, 2.396309066652330e+03, 4.763690002557232e+02, -2.583268929239072e+02, 1.386399289284934e+03
7267, 5.622815117481300e-01, 8.735857767580869e-01, 9.714028534279742e-03, -1.672471187861869e-09, 8.397464316267989e-10, -4.197448183319590e-09, 5.783009902422290e+03, 5.266343669282283e+03, 7.828839627589663e+01, 1.172107395051131e+04, 1.683920902230599e+03, -5.796870338830790e+02, 6.937493281091009e+03
7268, 4.957827897885176e-01, 3.015431047516002e-01, 3.199319812270646e-02, -1.036297418097808e-09, 4.246512432577388e-10, -1.918684746465645e-09, 3.481074854233414e+03, 3.349514744311271e+03, -3.882097324589589e+01, 5.831689989139027e+03, 6.647709973672249e+02, -2.453377415146494e+02, 2.713448216467479e+03
7269, 6.868114087837717e-01, 1.020154780493222e+00, 1.134160470265733e-02, -1.885199998791488e-09, 5.021232204755566e-10, -3.009698514595518e-09, 4.704361776176587e+03, 3.942581869930296e+03, -8.369081768012346e+01, 9.200282941913139e+03, 2.199603872126421e+03, -1.570344665989442e+02, 6.231234361747005e+03
7270, 3.408570664729931e-01, 7.894309826814580e-02, -2.474535535477815e-03, -9.461770618607104e-10, 1.087473363729113e-09, -5.723380238744308e-09, 5.527527267321892e+03, 5.437429329245618e+03, -3.169469453348372e+02, 9.141905315382892e+03, -3.514388754822095e+01, -4.455826274909289e+02, 3.781295721448099e+03
7271, 7.421195735534315e-01, 6.592851223738968e-01, 1.416175661987219e-02, -7.502528704459604e-10, 2.888405226044105e-10, -1.017592899161978e-09, 1.687883888549488e+03, 1.559873779165257e+03, -4.961910414385124e+01, 3.279686771659823e+03, 5.332454564345932e+02, -2.975049899292434e+02, 1.969760351407995e+03
7272, 4.556986034970086e-01, 3.065935482298934e-01, 2.214181500166591e-03, -1.537149416815345e-09, 7.948402163160238e-10, -3.683848751239621e-09, 3.920573932492229e+03, 3.626676562294367e+03, -7.105542513760353e+00, 5.921035984344030e+03, 6.353237213615167e+02, -2.303519342692804e+02, 2.458943029264847e+03
7273, 7.057420423771691e-01, 1.055989929021155e-01, 1.500580580807134e-02, -5.285059515055581e-10, 1.045525959863775e-10, -3.018057330136714e-10, 7.612069524273044e+02, 6.582132382975873e+02, -7.250137282279556e+01, 1.036146582987539e+03, 2.721143107782116e+02, -4.113680836380667e+01, 5.979140505935929e+02
7274, 4.879617133238595e-01, 2.436248725067139e-01, 2.780191038019138e-03, -1.234684605504112e-09, 6.179640915035107e-10, -3.409692820203696e-09, 2.806853448531676e+03, 3.044164098994327e+03, -1.533629164563679e+02, 5.574108444261391e+03, -1.574065444719346e+02, 3.379964268050748e+01, 2.684331524584327e+03
7275, 2.489705493839286e-01, 1.519885655570244e-01, 2.909826299971142e-02, -8.464101230549026e-10, 7.210447903398040e-10, -3.853699855774405e-09, 4.953255635034914e+03, 5.280243257271549e+03, 1.192027471295403e+02, 1.108420028779007e+04, 2.158281646864573e+02, -1.478126020870445e+02, 5.994879414714434e+03
7276, 7.339379003641571e-01, 9.844637521022019e-01, 1.256670629575336e-02, -9.050732345974071e-10, 3.017434392639136e-10, -1.758489968914693e-09, 4.006958197081353e+03, 3.511398083833383e+03, 2.387596261044441e+01, 5.441960736489679e+03, 5.418430367059161e+02, 7.603416154389534e+01, 1.978832365337661e+03
7277, 7.371994772133651e-01, 4.675277379863814e-01, 1.469085260304180e-02, -7.144434629293990e-10, 1.752323738872616e-10, -4.790926882281158e-10, 1.248718413112496e+03, 1.019766165075832e+03, -8.917082586446816e+01, 1.679803220299066e+03, 3.524715739330135e+02, -2.555324221737138e+01, 8.575971799043546e+02
7278, 7.153185312032921e-01, 2.438636387113184e-01, 1.526383154820861e-02, -6.493655784278956e-10, 1.227702153759892e-10, -3.362530300605697e-10, 8.778440526998240e+02, 7.364981041532468e+02, -4.047529804812674e+01, 1.218170826421744e+03, 3.424672617243426e+02, -3.236274853115909e+01, 7.374368234111032e+02
7279, 4.154413212648866e-01, 6.426997340299262e-01, 7.499485810040021e-03, -1.348919673443420e-09, 8.482936397772059e-11, -5.360115276888709e-09, 3.787727721155177e+03, 4.551176297452980e+03, 4.793527284892792e+02, 1.441741652492190e+04, 1.056772753710165e+03, 4.448777723813065e+02, 1.049244055407559e+04
7280, 7.115038649145975e-01, 1.444991450941377e-01, 1.504760660176432e-02, -6.238835388595739e-10, 1.227080151917915e-10, -3.148674815071322e-10, 6.611647820315541e+02, 5.647322309951134e+02, -3.961566008011179e+01, 1.098780702145586e+03, 3.732935623588512e+02, -1.268613052413274e+02, 8.450095709259363e+02
7281, 4.398285100001802e-01, 2.897734082820468e-01, 3.315044044912861e-02, -1.289164648725229e-09, 5.577388641746655e-10, -2.360037016620785e-09, 4.218195711668981e+03, 3.943955895260202e+03, -5.104298965172784e+01, 7.183076734975962e+03, 9.450432942311533e+02, -3.344648483225745e+02, 3.563923713459261e+03
7282, 4.117235698961675e-01, 1.453548243481920e-01, 3.828582863971854e-02, -1.005062719501232e-09, 6.521930324386168e-10, -2.199273131626056e-09, 3.780451904428871e+03, 3.546200081323705e+03, -9.423333778974312e+01, 6.869370843090888e+03, 6.745106465905375e+02, -3.541979187012821e+02, 3.476748641883754e+03
7283, 4.595984439995367e-01, 1.365070936349042e-01, 1.297069592443845e-03, -1.115025112659841e-09, 6.135916429724957e-10, -3.632944288934849e-09, 3.633625474312065e+03, 3.516614856528287e+03, -1.355787399708521e+02, 5.703664505717148e+03, 1.751337069248052e+02, 1.005685104753052e+02, 2.172204393723911e+03
7284, 2.780112003443066e-01, 3.906811541826581e-02, 3.897467137261631e-02, -5.063962840361111e-10, 1.131978254739647e-09, -1.763605991219521e-09, 3.243381958575721e+03, 4.004736863274877e+03, -2.652290249762744e+02, 5.647787509542813e+03, 3.644508082286450e+02, -1.204006058240117e+03, 3.080361282719610e+03
7285, 7.237897616714606e-01, 1.034614511216619e+00, 1.217757007617887e-02, -1.043192090615033e-09, 5.140295949564974e-10, -2.010930226766875e-09, 4.422037319816545e+03, 4.362220466742484e+03, -1.591422339290689e+02, 6.633097533186119e+03, 5.424347746754335e+02, -3.768980956422388e+02, 2.531692263421095e+03
7286, 7.194589636590664e-01, 3.078006675649569e-01, 1.447511684095473e-02, -6.847891133989845e-10, 1.280048586983384e-10, -3.680662257668795e-10, 8.755391452402207e+02, 7.408620042337153e+02, -3.421166391896383e+00, 1.268436198293593e+03, 4.049391400317065e+02, 2.186612315297156e+01, 8.478306994768119e+02
7287, 3.097518866074297e-01, 1.210857512753250e-01, 3.621233422264405e-02, -1.078807264823741e-09, 9.627657982010555e-10, -3.084995691622124e-09, 4.599942608500569e+03, 4.295179189347690e+03, -1.497089274131568e+02, 8.941119780731849e+03, 7.130970897065276e+02, -4.576289792510029e+02, 4.741599465934429e+03
7288, 1.755321921937805e-01, 1.998717781407527e-01, 5.926695067694936e-03, 8.570654562724958e-11, 7.430308738368108e-10, -3.813467242413956e-09, 4.045270364054013e+03, 4.486486736938142e+03, 2.319864291275002e+02, 1.008141028765008e+04, -1.273196934636217e+03, -1.537011126707685e+02, 6.249946384628355e+03
7289, 4.128103931841489e-01, 1.444473668470008e-01, 4.430968430309615e-04, -1.490503116832561e-09, 1.013154830902180e-09, -4.542966062626521e-09, 4.291909979719760e+03, 4.099506719584066e+03, -1.604657726344081e+01, 6.961787793239633e+03, 6.936263606454381e+02, -2.932367255014376e+02, 3.062849676876491e+03
7290, 7.013120050371593e-01, 6.788215842556336e-02, 1.461576037926454e-02, -4.802623582410305e-10, 1.138173489202465e-10, -3.605490362024124e-10, 7.413715827158554e+02, 6.803608280393436e+02, -1.291012999279801e+02, 1.325398903819910e+03, 3.494405724796353e+02, -4.348164910973063e+01, 8.957911090406677e+02
7291, 7.527034114162134e-01, 7.283324256679600e-01, 1.395092451496394e-02, -7.956031073688033e-10, 2.613597440000512e-10, -9.085268471595140e-10, 1.635899285970096e+03, 1.605317671019837e+03, 8.869977279254611e+01, 3.066766748031760e+03, 7.132150185754342e+02, -7.514192864732608e+01, 1.912758226357141e+03
7292, 4.326215396982473e-01, 8.749410714026012e-02, 3.879173836215326e-02, -7.009918675622238e-10, 7.316673934848714e-10, -1.816039207917433e-09, 3.174826028457177e+03, 2.832190168870465e+03, -2.220609500458357e+02, 5.614211038004366e+03, 4.744732813000591e+02, -4.343455052084929e+02, 2.879773475636683e+03
7293, 3.938979805111648e-01, 2.397826027262533e-01, -6.361430024930601e-04, -1.816613768070230e-09, 9.503323216134143e-10, -5.486134520195589e-09, 4.377211075448273e+03, 4.412395017483840e+03, -2.939067247061908e+02, 8.291557245670094e+03, 7.592191314393748e+02, 9.011794587741136e+00, 4.144182659558514e+03
7294, 5.228305366011696e-01, 8.364982007167742e-01, 8.869000997725036e-03, -1.285704825211337e-09, 1.541557586137509e-09, -5.219690444900534e-09, 7.239314405666166e+03, 8.206508063998323e+03, 1.299262888092549e+02, 1.519248171755724e+04, 8.294141060052964e+02, -1.790267784902496e+03, 8.259883951981828e+03
7295, 7.586484228147803e-01, 9.524002094912669e-01, 1.264960920812752e-02, -7.613289432354083e-10, 3.628127814529290e-10, -1.796069931042558e-09, 2.464304794167072e+03, 2.351605614217282e+03, -3.966115460852157e+01, 5.396687955546457e+03, 1.444113682330657e+02, -2.971126739652316e+02, 3.045350564772558e+03
7296, 4.327268701256608e-01, 8.739199979275004e-02, 4.046348715491810e-05, -1.087584229533694e-09, 8.563428236250095e-10, -3.905453786757892e-09, 4.334562909618316e+03, 3.924351727023350e+03, -1.947606459638516e+02, 5.789828253136891e+03, 6.582622054727331e+02, -2.894729220748305e+02, 2.132637519805064e+03
7297, 4.508957502289769e-01, 4.039792333235997e-01, 3.032309659458358e-02, -1.416817310385273e-09, 5.711638675713786e-10, -2.559990347005463e-09, 4.485753170891945e+03, 4.443337341455489e+03, -7.838318963415782e+00, 7.945328377585850e+03, 9.200870682860880e+02, -2.999181197793989e+02, 3.863536988094988e+03
7298, 3.680409563921159e-01, 1.903785487058308e-01, 3.665371653438345e-02, -1.124818478067016e-09, 7.297650313373376e-10, -2.653150337047834e-09, 4.393345064468123e+03, 4.470243648067774e+03, -1.940654877391516e+01, 8.160444136230607e+03, 6.421131456291768e+02, -4.003997843921401e+02, 3.953009221534204e+03
7299, 5.679436567915306e-01, 3.684303002171592e-01, 5.345744075683757e-03, -1.182458487155793e-09, 5.932185196242257e-10, -2.332786843061394e-09, 2.798198953457416e+03, 2.707558323983023e+03, 5.548109697994116e+01, 4.083128244126059e+03, 5.071664428648564e+02, -3.145086663938267e+02, 1.689189381877404e+03
7300, 4.351130157012362e-01, 2.329941130048722e-01, 3.579219514065667e-02, -1.200400300021135e-09, 5.561799437666662e-10, -2.159885348670436e-09, 3.950131434436341e+03, 3.770754030768349e+03, -1.145482814301099e+02, 6.730016342203240e+03, 8.994978680857481e+02, -3.124132125644202e+02, 3.319343927222753e+03
7301, 3.439129072424126e-01, 5.172362772870361e-01, 7.772999113880491e-03, -6.901778584495174e-10, 6.475896557591804e-10, -3.733829788049259e-09, 5.600684642714577e+03, 7.161720376295367e+03, 1.075372662290463e+03, 9.912760122906309e+03, -3.435235500229174e+01, -1.362270428789208e+02, 4.222323573677447e+03
7302, 2.517132340473648e-01, 1.172642659968925e-01, -2.639424929977569e-03, -1.387447114225386e-09, 1.254003423110977e-09, -7.130926291272732e-09, 5.406471392770196e+03, 4.485257811098309e+03, 2.789001366286735e+02, 9.937474420590066e+03, 4.831527186118755e+02, -5.014486859631915e+02, 5.219258787423453e+03
7303, 3.547486535019411e-01, 1.508645975029777e-01, -3.004363106856776e-03, -1.426954367766957e-09, 1.094112532448620e-09, -5.512348143436174e-09, 4.603836119539756e+03, 4.585248599805915e+03, -4.200317791955123e+01, 7.842496471232504e+03, -1.174939846829480e+02, -2.350101253829223e+01, 3.255430729667240e+03
7304, 7.603135175403515e-01, 8.453755636749544e-01, 1.370547175792020e-02, -8.777164580195262e-10, 3.289573184114446e-10, -1.198548856468118e-09, 2.712397908489986e+03, 2.248993177218098e+03, -1.225229931504674e+02, 4.121752580877001e+03, 8.357553057559572e+02, -1.967375225713722e+02, 2.260694487094724e+03
7305, 7.638207507535691e-01, 9.017331314670909e-01, 1.304745976063779e-02, -6.885447368778773e-10, 3.544877833973213e-10, -1.256034448410563e-09, 2.965994262162356e+03, 3.103766203977668e+03, 1.735045724325870e+01, 4.175336068718801e+03, 3.579970484269766e+02, -1.829818318352188e+02, 1.341905798303777e+03
7306, 3.306402462893040e-01, 2.594906021790266e-01, 3.060789207093979e-02, -1.271898905528176e-09, 8.808879894795001e-10, -3.392368838151683e-09, 5.260094331315084e+03, 5.252239891399583e+03, -7.951474346183156e+00, 9.827549947147239e+03, 5.259735025731255e+02, -5.472233929246786e+02, 4.756688099915350e+03
7307, 7.372351036111571e-01, 3.850239115939993e-01, 1.451765104858446e-02, -6.973046309607827e-10, 1.982376980559899e-10, -2.669060062187998e-10, 8.894848662384316e+02, 6.700365655931355e+02, -4.085557074436794e+01, 1.006338120716051e+03, 4.331593248557447e+02, -1.136688404855974e+02, 8.331301452120933e+02
7308, 4.632569608032270e-01, 7.406298551373642e-01, 7.304127982261099e-03, -1.253265967676064e-09, 6.144839880115764e-10, -5.223570186292982e-09, 5.493277551887289e+03, 6.347827578425809e+03, -1.644474763349912e+01, 1.446019418461021e+04, 1.256537439330371e+03, -4.415390584130748e+02, 8.876683576561783e+03
7309, 3.092404687786678e-01, 1.725343257650251e-01, 3.454641232698370e-02, -1.288757694226029e-09, 7.561540655311317e-10, -3.107263560609182e-09, 4.961222516344283e+03, 4.910791562578966e+03, 3.793038692277458e+01, 9.255642497562680e+03, 8.580626002643384e+02, -2.782381688448726e+02, 4.594185217009338e+03
7310, 4.943566289005758e-01, 7.886595676045013e-01, 8.454838702731875e-03, -6.732769945194485e-10, 7.197516780965534e-10, -4.295535723372441e-09, 5.436216343028271e+03, 6.812624990881959e+03, 3.995236844139426e+02, 1.213455434094943e+04, 3.959507775929295e+01, -4.129184965017858e+02, 6.207869863465770e+03
7311, 5.723104509333636e-01, 9.145543968072624e-01, 8.231625497946631e-03, -1.644926459529226e-09, 6.837149369243091e-10, -3.911882422649113e-09, 4.956805983122731e+03, 5.196803104771006e+03, 2.428691362637750e+02, 1.057093718943926e+04, 9.494500471117364e+02, -9.522652824079288e+02, 5.985853524956411e+03
7312, 4.395870458021972e-01, 1.960523769381408e-01, 2.685176603759651e-04, -1.385052999835513e-09, 7.903087555353441e-10, -4.116543718119650e-09, 4.264895097010887e+03, 3.748392330158199e+03, -1.978870813704727e+02, 7.167754037722308e+03, 2.623270976988883e+02, 1.417352177626127e+02, 3.252213221459997e+03
7313, 3.456630968466980e-01, 2.704637890172192e-01, -2.178847935113276e-03, -1.513841576521479e-09, 1.436584335501682e-09, -6.247779116308369e-09, 4.978091488181615e+03, 4.747992813682553e+03, -2.743022113557539e+02, 9.879171870193590e+03, -2.696561959732903e+02, -5.196990495694649e+02, 5.143480943716787e+03
7314, 7.493463073093705e-01, 5.395756556154719e-01, 1.442852995953115e-02, -7.346803081362378e-10, 2.294698991950755e-10, -5.273844818792004e-10, 1.251897414564155e+03, 1.118783101922794e+03, -5.825120254843532e+01, 1.791625005812263e+03, 4.408197329545874e+02, -1.285543151738821e+02, 1.011728775333583e+03
7315, 5.425049973663506e-01, 1.223029777956354e-01, 5.093627384738370e-03, -7.898722965708730e-10, 4.327975122269935e-10, -2.440990895604851e-09, 2.155548897730955e+03, 2.025695388752114e+03, -1.446299790501960e+02, 4.241536296648716e+03, 2.238287792303075e+01, 1.183196527582516e+02, 2.178378580171949e+03
7316, 5.214714489217980e-01, 1.331641915343358e-01, 3.434630387007499e-02, -7.746234910189441e-10, 3.913943041426259e-10, -1.463093651149405e-09, 2.674865563336311e+03, 2.524110446929709e+03, -1.408701373730337e+02, 4.608874035155846e+03, 5.990553182603594e+02, -1.936981577734934e+02, 2.302904575809884e+03
7317, 7.542086385445665e-01, 6.046096649911326e-01, 1.370822046432785e-02, -8.367850714805622e-10, 2.484412081892267e-10, -7.245648608823994e-10, 1.431284210552876e+03, 1.351181059146553e+03, -8.775686386354111e+01, 2.319942727626178e+03, 6.006346511410341e+02, -1.412733717875522e+02, 1.425685474858282e+03
7318, 2.633957129981643e-01, 1.619425019411989e-01, -3.888859260986074e-03, -1.641796318371703e-09, 8.381972064591029e-10, -7.618681673141634e-09, 6.109062124403751e+03, 6.759577162221834e+03, -7.338002960093749e+01, 1.193430463631022e+04, 9.646869984599613e+01, 9.250196406947358e+02, 5.760058055906488e+03
7319, 2.192047796525521e-01, 3.623103564438248e-02, -5.376026121939747e-03, -9.428672625356257e-10, 1.572885243320927e-09, -4.096251615719910e-09, 4.250179852821564e+03, 5.111481144056864e+03, -5.683468635795606e+02, 8.491164270489100e+03, 1.002118020027826e+03, -1.990725033066501e+03, 5.562891146893414e+03
7320, 5.009019054105422e-01, 3.594776397844228e-01, 3.186914890066873e-02, -1.088209896538607e-09, 4.199925623097761e-10, -2.085067783097484e-09, 3.736647628902670e+03, 3.483696171631852e+03, -9.972778222440314e+01, 6.579361930015598e+03, 7.436128186538743e+02, -2.543310984434127e+02, 3.278238497929349e+03
7321, 4.904071824261559e-01, 5.031996461965802e-01, 2.761715523928326e-02, -1.187968013089974e-09, 7.294318061921925e-10, -2.532648257696586e-09, 4.596827178993785e+03, 4.273756197125068e+03, -1.472663863825087e+02, 7.681820622426393e+03, 6.220936212654437e+02, -4.859671059792197e+02, 3.542991241449734e+03
7322, 7.093105483141257e-01, 1.071171364615545e+00, 1.099945238464389e-02, -1.093594023815339e-09, 5.716912574239477e-10, -2.451215165370139e-09, 4.841029128484422e+03, 4.575538619748557e+03, 9.582441303636313e+01, 8.214549550751002e+03, 2.600427203724132e+02, -2.912057791323029e+00, 3.546435103976384e+03
7323, 6.124870182249513e-01, 9.802824740488101e-01, 9.694236973539785e-03, -9.324461077219533e-10, 3.980632757527657e-10, -3.584650612665482e-09, 4.511735960789153e+03, 5.506952314784347e+03, 4.359563994707133e+02, 1.043535973759662e+04, 4.045230308189250e+02, 2.660037878080203e+02, 5.608729947351410e+03
7324, 4.412112521108169e-01, 4.549880083844632e-01, 8.085599068925267e-04, -1.911633128051768e-09, 8.798771981907337e-10, -5.008349591733079e-09, 5.721721186933924e+03, 5.477394023111512e+03, 2.179468816969120e+02, 9.173981248436565e+03, 7.521217895674104e+02, -8.727882661167287e+01, 3.831930724100666e+03
7325, 6.514908047260453e-01, 1.031294433560089e+00, 9.787701241525781e-03, -1.052855724118175e-09, 1.860089778427088e-10, -4.581687344175250e-09, 3.947082219512767e+03, 5.046882882798986e+03, -2.515105534291131e+01, 1.347313277298274e+04, 1.005769479810729e+03, 6.261758019800645e+02, 9.256962071883680e+03
7326, 3.990436512579331e-01, 3.717380626939726e-01, -2.140258474161924e-04, -1.671406943583892e-09, 1.235621732684651e-09, -5.712599021451758e-09, 5.719953545395334e+03, 5.596931273440691e+03, -1.266446638952959e+02, 9.657902965716599e+03, 3.112911967515099e+02, -7.195041809447175e+02, 4.230711245208194e+03
7327, 4.887986634354177e-01, 1.160566494124105e-01, 3.714848328053537e-02, -7.621476040920147e-10, 4.965183539139883e-10, -1.642689738171193e-09, 2.852973982059934e+03, 2.761196737124910e+03, -1.662897948241224e+02, 5.301506675785921e+03, 5.673971328953750e+02, -2.576919359688330e+02, 2.734309018404490e+03
7328, 1.496397487620862e-01, 1.709570566513958e-01, 5.939982040334347e-03, 2.581725344166440e-10, 4.145341137114118e-10, -2.412260108613083e-09, 3.701849129017499e+03, 3.814526176723614e+03, 5.386954099111719e+01, 6.120066166466168e+03, -1.028851961169983e+03, 1.484816628352245e+02, 2.972952651782251e+03
7329, 5.414061492701747e-01, 4.880147925026108e-01, 2.883777497950848e-02, -1.142307333838106e-09, 5.965175995627750e-10, -2.134794490164178e-09, 3.571553007065485e+03, 3.791703467781735e+03, -7.042931160353685e+01, 6.823168293727225e+03, 7.899454037386340e+02, -3.945598246087141e+02, 3.501368024990134e+03
7330, 7.551706948732413e-01, 1.014860459101491e+00, 1.212263106425222e-02, -9.390244682166596e-10, 4.090856835516853e-10, -2.013343678001377e-09, 3.414800069825700e+03, 3.283585554865871e+03, -2.343801649121471e+02, 6.172106919884968e+03, 5.100151103545420e+02, 2.666541880986797e+01, 2.988149687082187e+03
7331, 7.724565522385782e-01, 7.904077952599614e-01, 1.316695148654096e-02, -8.097530855073506e-10, 2.548935406877248e-10, -8.839371366830864e-10, 1.811102360716553e+03, 1.642481801194307e+03, -1.426893775559792e+02, 2.900961831427517e+03, 7.170601578167590e+02, -1.378898007719643e+02, 1.749470391118752e+03
7332, 3.815775372279981e-01, 2.649482661226413e-01, 3.392002571935417e-02, -1.315552429750539e-09, 6.871705109815728e-10, -2.983676520526271e-09, 4.529478071574325e+03, 4.619887386152092e+03, -6.409676736928782e+01, 9.213929492613002e+03, 8.000951585904031e+02, -4.706292669763773e+02, 4.911822331278880e+03
7333, 1.943862257229159e-01, 2.538891704541326e-01, 5.638283804811337e-03, -2.018423049816499e-10, 8.749447292541517e-10, -4.278300614471197e-09, 5.323512471031701e+03, 5.824723749579514e+03, -2.662592699167277e+01, 1.301645551197143e+04, -7.845894499879861e+02, -5.317200200753437e+02, 7.633730590861212e+03
7334, 7.355977093673687e-01, 2.741701749826261e-01, 1.740582041051743e-02, -6.445982196566965e-10, 1.280636279024754e-10, -1.902921109386501e-10, 7.129383919987911e+02, 5.046713847537116e+02, -5.244273542223313e+01, 8.145371179838564e+02, 4.033316780496339e+02, -9.279861852736664e+01, 7.726395730752441e+02
7335, 4.015370826449817e-01, 2.948599529492912e-01, -1.682295592948458e-03, -2.002194863427144e-09, 8.344537400095498e-10, -5.699736929658092e-09, 5.063311456904525e+03, 4.589971041792997e+03, 1.018075814495940e+02, 8.545850583378044e+03, 1.117079012182920e+03, 2.009594840039072e+02, 4.230413866715397e+03
7336, 2.532242012109484e-01, 1.157266657268052e-01, 3.415677360059980e-02, -9.567362398432984e-10, 9.641631160513290e-10, -3.461401975929900e-09, 4.884370130475940e+03, 4.710956358640095e+03, 1.193654228507627e+02, 1.042999279541653e+04, 5.672140773661446e+02, -4.702736004108530e+02, 5.780752714016136e+03
7337, 4.394184036338225e-01, 1.957173118471706e-01, 3.715126791968212e-02, -1.055731144803453e-09, 5.160955063631646e-10, -2.082615201533966e-09, 3.784808821494130e+03, 3.571835552368972e+03, -1.746686325634195e+02, 6.534395854833951e+03, 6.623365103466623e+02, -1.977130988613000e+02, 3.117056747528057e+03
7338, 3.094571992112869e-01, 4.676232085515100e-01, 6.016414736780086e-03, -9.384869098300514e-11, 5.478259814998987e-10, -4.335568257856295e-09, 3.948877878421236e+03, 5.375840221884449e+03, 1.185233133867751e+02, 1.215402853628722e+04, -1.037332671079777e+03, -3.112204141592368e+02, 7.823884764885593e+03
7339, 4.566913988694867e-01, 5.899781593628830e-02, 3.847942155507125e-02, -4.515596462113924e-10, 7.529708581696173e-10, -1.460926407787402e-09, 2.571090169282770e+03, 2.517380479423510e+03, -2.186150498208420e+02, 4.652465275211041e+03, 2.293752027910727e+02, -6.141503593193779e+02, 2.424779502620825e+03
7340, 4.466621093453885e-01, 3.415126425858442e-01, 3.275354065105487e-02, -1.272530701723303e-09, 5.554868097772442e-10, -2.347230623681419e-09, 4.248863859211954e+03, 4.046809622795030e+03, -6.125140711421592e+01, 7.278143632524006e+03, 8.636197041168117e+02, -3.460020167585648e+02, 3.526664861080674e+03
7341, 3.421936673233320e-01, 3.127316681932265e-01, -2.024829894820210e-03, -2.080808899027549e-09, 1.000386179079442e-09, -6.493565353408182e-09, 5.373892566322914e+03, 4.848511743812179e+03, -7.131847808693794e+02, 1.012649797731090e+04, 1.375812402877376e+03, 7.524415425249661e+01, 5.708035816993480e+03
7342, 7.582027426959330e-01, 1.057532708804156e+00, 1.204719252433801e-02, -8.251952826901998e-10, 5.509481515845333e-10, -1.684466479762414e-09, 3.296183172687504e+03, 3.298951635298529e+03, -1.034026975517170e+02, 5.599788445738763e+03, 2.761437889930241e+02, -5.520903814595190e+02, 2.544696715018772e+03
7343, 5.923227762026508e-01, 8.180073845862735e-01, 1.751660135712545e-02, -1.513598096046392e-09, 9.274226034283917e-10, -3.340025665586828e-09, 5.533012964123186e+03, 5.197522891224334e+03, 1.412209577162953e+02, 9.779401383274520e+03, 1.080735800853140e+03, -6.625061584266950e+02, 4.944646830250470e+03
7344, 7.266465939556791e-01, 1.777645328328021e-01, 1.487232757249846e-02, -5.975383807863098e-10, 5.038739367291133e-11, -2.347911423129998e-10, 6.127667320549546e+02, 5.196312391014684e+02, -1.453066553425353e+01, 9.178716811792023e+02, 3.458131722271539e+02, 2.371724546789621e+01, 7.008998102759150e+02
7345, 4.898887571103189e-01, 1.801064772581527e-01, 1.254985654050772e-03, -1.167534980315934e-09, 5.421119600993333e-10, -3.500908803575633e-09, 3.531365311782677e+03, 3.660037249349450e+03, -1.794283152994896e+02, 5.761543238684653e+03, 2.852421576034998e+02, 2.928558628413110e+01, 2.246449309753820e+03
7346, 5.768004513759909e-01, 1.701092214483512e-01, 3.052411208707333e-02, -8.166162520072255e-10, 2.592770815414528e-10, -1.100347662831412e-09, 2.142409202078637e+03, 2.123641496244732e+03, -8.774930606297568e+01, 3.592299477974177e+03, 5.888147694244226e+02, -1.205408334279970e+02, 1.799039674631806e+03
7347, 5.012163658797241e-01, 2.307943437218665e-01, 3.470343786432972e-02, -8.894567707370089e-10, 4.447836571833691e-10, -1.727459909523833e-09, 3.036197340578027e+03, 2.931692424894498e+03, -7.763429656712153e-01, 5.595841784273893e+03, 5.318149904291316e+02, -2.478170435620446e+02, 2.804089799527379e+03
7348, 2.181031812674323e-01, 7.651258428097370e-02, 3.301274539894910e-02, -6.531286447759923e-10, 1.397478867679891e-09, -3.217495802540587e-09, 4.384062978001914e+03, 4.423219137529829e+03, -2.196949100458539e+01, 9.433248147465412e+03, 3.768562691893952e+02, -1.169465900946475e+03, 5.461552780967544e+03
7349, 3.559538664609214e-01, 3.709727109361181e-01, -1.147253671525451e-03, -1.636157512517694e-09, 1.345089792437888e-09, -6.601993847743020e-09, 5.559296589134432e+03, 6.737049811919414e+03, -5.022764836407541e+01, 1.020168456474223e+04, -1.024931840829320e+02, -7.674259966903138e+02, 4.390579957098746e+03
7350, 6.700726918503936e-01, 1.062954047280095e+00, 9.235407972055215e-03, -1.645801943355952e-09, 9.899878371427857e-10, -3.908882304901585e-09, 5.535840147062366e+03, 6.454352661601603e+03, -1.427361679893400e+02, 1.194048665193154e+04, 1.741711932860886e+03, -1.542214092306490e+03, 7.230317369069548e+03
7351, 4.887324840198569e-01, 1.145892713109378e-01, 7.154777192336856e-04, -9.916794485651198e-10, 3.365461168450849e-10, -3.427625866672492e-09, 2.882577981805721e+03, 3.326384603938925e+03, -1.302523354606179e+02, 5.356365775288255e+03, 2.267070329361586e+02, 4.944728314257464e+02, 2.481391213133109e+03
7352, 4.017186478946932e-01, 2.953679655260370e-01, 3.475203370992757e-02, -1.318528980318939e-09, 5.750533485251557e-10, -2.712248465624808e-09, 4.458498663578403e+03, 4.400730034078951e+03, 8.612240494170718e+00, 8.634064004297616e+03, 9.389106872835569e+02, -2.099408995375645e+02, 4.522942372872920e+03
7353, 3.340227427382085e-01, 2.228310314801564e-01, 3.413242597472756e-02, -1.123631121700593e-09, 8.107225184718947e-10, -2.934805503794863e-09, 4.769691380843175e+03, 4.874250092371137e+03, 2.749612982773154e+01, 8.975934732228372e+03, 5.826334924029197e+02, -5.350232718570917e+02, 4.375273642321820e+03
7354, 7.437198142133675e-01, 1.091262461522567e+00, 1.149708408600648e-02, -9.617558635857404e-10, 7.533325399227131e-10, -2.086765590350937e-09, 4.558671150366194e+03, 4.303391464620636e+03, -1.566785392353961e+02, 7.778244610544637e+03, -9.048967220955609e+01, -6.131849264818088e+02, 3.532550011405774e+03
7355, 5.155487143524082e-01, 1.691033528628682e-01, 3.566171600757796e-02, -8.543939331378692e-10, 3.895404969734037e-10, -1.481386655923359e-09, 2.868211883953028e+03, 2.722320628796966e+03, -1.020892931158625e+02, 4.857104779790735e+03, 6.975581715785720e+02, -2.458843320128228e+02, 2.437118684859733e+03
7356, 7.353745184670096e-01, 2.136264375477962e-01, 1.382076758716921e-02, -6.557601283889863e-10, 7.396213327648619e-11, -1.346343606910813e-10, 5.544514842754350e+02, 5.417328819329497e+02, -5.155474530005306e+01, 6.366799321725451e+02, 3.825255734108498e+02, -4.518974156492440e+01, 6.790041000436075e+02
7357, 7.642221654172207e-01, 6.935276724856136e-01, 1.342751552566705e-02, -8.197014696595439e-10, 2.964519174277711e-10, -6.284879767502790e-10, 1.480341075575262e+03, 1.372147342821469e+03, -7.467147398091575e+01, 2.248063362268804e+03, 5.192863654859676e+02, -1.484532802358159e+02, 1.255381909088011e+03
7358, 5.024883451892398e-01, 2.839047814041172e-01, 9.861088423052007e-04, -1.198508164436893e-09, 6.348655127468107e-10, -3.335871725924414e-09, 3.463195427616427e+03, 3.128870454165155e+03, -2.608178172255035e+02, 5.455988973403227e+03, 3.509566793389490e+02, -7.683801353057764e+01, 2.310961221640560e+03
7359, 7.523209051582226e-01, 4.323859494489819e-01, 1.341162803232993e-02, -7.354079891317083e-10, 1.999364238802016e-10, -3.044731336936387e-10, 8.210751185195652e+02, 7.173080976570919e+02, -5.216868162543943e+01, 1.000495359507861e+03, 4.338079779294454e+02, -1.904866819764586e+02, 8.620704429391294e+02
7360, 4.086374424800645e-01, 3.491202642973757e-01, 3.221007891870391e-02, -1.374209388143528e-09, 6.291570607331740e-10, -2.785200792048737e-09, 4.676613667724805e+03, 4.756337043127828e+03, -3.566479143831634e+01, 8.733637113719213e+03, 8.861586428193584e+02, -3.822354071552059e+02, 4.352047165065515e+03
7361, 4.637560138173834e-01, 3.609622825953483e-01, 4.846130153419309e-05, -1.576411992519613e-09, 6.653232780611542e-10, -4.128781771956061e-09, 3.984528848668380e+03, 3.441342718494763e+03, -2.147939497976389e+02, 6.803857062397690e+03, 1.555097511158734e+02, 4.051168523625596e+01, 3.160848856154852e+03
7362, 6.490009154219949e-01, 7.965417158377727e-01, 2.015000644290492e-02, -1.189278157423555e-09, 5.622112186998485e-10, -1.682559002370035e-09, 3.496695953801214e+03, 3.183990415330236e+03, 8.972856372538944e+00, 5.364090192940285e+03, 7.600253402866799e+02, -2.970956174555203e+02, 2.483313316331575e+03
7363, 7.860266171422486e-01, 9.910162319885344e-01, 1.240466953667268e-02, -8.717707595327032e-10, 2.580965624855652e-10, -1.325589637186954e-09, 2.270552290533944e+03, 2.458300395763781e+03, -1.087697769154769e+01, 4.262204860784803e+03, 8.022643271055404e+02, -1.740002141616671e+02, 2.376987087978783e+03
7364, 4.063049956411628e-01, 1.811524398599495e-01, 3.868673726833142e-02, -1.023718124218017e-09, 5.775266310025896e-10, -2.281556223667171e-09, 4.016456389239384e+03, 3.944229772506375e+03, -1.316343377062329e+02, 7.282723182397733e+03, 7.289868969454382e+02, -3.197150521347791e+02, 3.586436738059093e+03
7365, 7.465181251627894e-01, 3.320882928680733e-01, 1.422255414468770e-02, -6.127637791523433e-10, 1.445066875260685e-10, -1.146325318437294e-10, 5.852973825774909e+02, 5.248023886495461e+02, -1.385874328809684e+01, 5.892265267044486e+02, 3.106365666265752e+02, -4.568362749231222e+01, 5.479372056630211e+02
7366, 7.112175754760613e-01, 1.118072139369899e+00, 9.992489101699854e-03, -9.280405075505218e-10, 6.531875489012980e-10, -2.774197662233564e-09, 4.630074604973486e+03, 5.044261427971936e+03, 3.716471381888082e+02, 1.074641538336644e+04, 9.269109669068037e+02, -3.426211724781204e+02, 6.196119099692852e+03
7367, 4.068218162389322e-01, 1.808501160671514e-01, -2.272643807739998e-03, -1.528574589060886e-09, 9.038032337289628e-10, -4.567280157086212e-09, 3.837529431295280e+03, 3.738285620363898e+03, -8.730337888632539e+01, 6.493891632139094e+03, 4.094085108581772e+02, -1.301823835720303e+01, 2.802848021901973e+03
7368, 3.094501398650017e-01, 2.045307067462115e-01, -4.274278132839482e-03, -1.732363233439289e-09, 1.181867798429116e-09, -6.063518482703577e-09, 5.171323257974396e+03, 5.370239832875250e+03, -1.982808257109878e+01, 8.857312951368693e+03, 4.046853325773200e+02, -2.559373403585158e+01, 3.658871220759226e+03
7369, 1.658489709057581e-01, 7.504587051209473e-02, 2.599980643162678e-02, -6.352582701591406e-11, 1.105366100288212e-09, -3.753549986097819e-09, 4.319319916990360e+03, 4.198876609488962e+03, 2.437553041638909e+02, 1.120443797456346e+04, -3.796931556092395e+01, -9.163635518605755e+02, 7.137952442939425e+03
7370, 7.723248878284433e-01, 6.394751141124844e-01, 1.311271977294616e-02, -7.302163800122076e-10, 2.377203824101691e-10, -5.365955984746185e-10, 1.324196750704788e+03, 1.200373517645626e+03, -1.247053672283448e+02, 1.919638191138676e+03, 4.710397736384751e+02, -1.340504233675798e+02, 1.099913826257786e+03
7371, 7.864716577987250e-01, 9.296420825826945e-01, 1.273341208922304e-02, -7.683997445592465e-10, 4.490700374984353e-10, -1.297622446046314e-09, 2.445045944114848e+03, 2.014641331535394e+03, -3.362260514682748e+02, 3.948269120050486e+03, 7.784622720328923e+02, -6.349673786814046e+02, 2.541382960480575e+03
7372, 7.696896997792387e-01, 5.704105223054664e-01, 1.327360680828695e-02, -7.283543959456699e-10, 2.287289517446124e-10, -4.076663782872365e-10, 1.046707731666956e+03, 7.775536774830791e+02, -7.373713029927912e+01, 1.269955107209078e+03, 4.249278964157936e+02, -1.384522711931775e+02, 8.932418320870084e+02
7373, 5.374174813390479e-01, 2.858046175449320e-01, 3.256946482693742e-02, -9.341871648032892e-10, 3.256072983131977e-10, -1.654174248172275e-09, 2.889409971074872e+03, 2.915383087130465e+03, -1.263489980600558e+02, 5.357158050982177e+03, 6.194497763806623e+02, -1.306611359871762e+02, 2.697521707613732e+03
7374, 7.608870742363156e-01, 5.055313206193160e-01, 1.413814674376165e-02, -7.056027270477836e-10, 1.426446597850879e-10, -3.112567056240159e-10, 8.787898807215799e+02, 8.526775903462548e+02, -6.482926217270875e+01, 1.143857438642542e+03, 3.900548328627371e+02, -9.103557034499622e+01, 7.561503989529871e+02
7375, 5.094190172380771e-01, 3.431324292331062e-01, 1.002698362070252e-03, -1.337626124430743e-09, 4.927748297051862e-10, -3.532072123744685e-09, 3.602588108171473e+03, 3.527975030328796e+03, -1.370568614768927e+02, 5.524086446348990e+03, 3.912016460176245e+02, 4.008862589734813e+01, 2.088392469637479e+03
7376, 7.799836321661175e-01, 1.094788196857313e+00, 1.198732224370484e-02, -8.448057875985797e-10, 4.497001141188924e-10, -1.561271467405731e-09, 3.578833615842358e+03, 2.855567605905613e+03, 1.283262680265493e+01, 5.079379666075531e+03, 4.618520935808582e+02, -1.868988166771097e+02, 2.145985956494504e+03
7377, 7.839771755070568e-01, 8.721829377180140e-01, 1.269912400491385e-02, -7.530341886197136e-10, 3.202522204905703e-10, -9.298778258859586e-10, 1.968990871799818e+03, 1.696151106622638e+03, 1.770547598321546e+01, 3.419631824924572e+03, 5.072875410018628e+02, -2.883823214115042e+02, 1.896588710993025e+03
7378, 6.116585630977436e-01, 1.017677298339705e+00, 8.195224549106671e-03, -3.145620086680728e-10, 7.198914805054563e-10, -4.795141082066319e-09, 7.361958558887773e+03, 6.538638956768626e+03, 5.840951771448839e+02, 1.366734498745244e+04, -9.927490890714864e+00, -2.770981991929156e+02, 6.846988305484410e+03
7379, 5.585974588677612e-01, 3.056993099344593e-01, 2.955301206174987e-03, -1.233024389443533e-09, 3.744554251072385e-10, -2.640858445997152e-09, 2.407760061461645e+03, 2.397641184307283e+03, -1.011205042056640e+02, 4.310487497709072e+03, 6.613180980166304e+02, -2.239042119300454e+02, 2.265574494752856e+03
7380, 7.913775417390991e-01, 1.044185152108418e+00, 1.234852547200350e-02, -8.773943204536233e-10, 4.051607448518301e-10, -1.360107225541518e-09, 3.285863872133881e+03, 3.107270858043379e+03, -1.126840725260559e+02, 4.761514017725516e+03, 6.689542417566552e+02, -2.434447974627212e+02, 2.007826726996549e+03
7381, 6.413053454893660e-01, 5.515743823279786e-01, 2.508872844864701e-02, -9.101060994260395e-10, 3.826965137060065e-10, -1.172235613323261e-09, 2.668651323919903e+03, 2.271758642628675e+03, -4.103626985341916e+01, 3.936134132609749e+03, 4.844280453713876e+02, -2.224751528199280e+02, 1.767665189407348e+03
7382, 7.537440783091446e-01, 1.142183259550925e+00, 1.080975649159818e-02, -1.372314705303694e-09, 7.036284025505346e-10, -2.668853559821815e-09, 4.600160681272174e+03, 4.041807014238804e+03, -2.927995720180439e+02, 1.000331604411764e+04, 1.101581449153025e+03, -4.594302061567568e+02, 6.087165718246453e+03
7383, 5.638728523828894e-01, 1.303827908816065e-01, 3.236293887513431e-02, -6.698197715948373e-10, 3.105688806806205e-10, -1.216638130616103e-09, 2.267483561722373e+03, 2.010552703249617e+03, -1.321691725397204e+02, 4.024480886569570e+03, 5.011811812693566e+02, -1.111857593778396e+02, 2.108914534947660e+03
7384, 4.311684478403584e-01, 7.037537334202326e-01, 7.084683301445228e-03, 2.698294419265119e-11, 4.305498238450894e-10, -3.450655129983833e-09, 4.459993454408595e+03, 5.772291173054865e+03, 9.320688497166806e+01, 1.023848924961196e+04, -9.386273094224807e+02, 1.492303530903842e+01, 5.495436875030293e+03
7385, 2.622024077140486e-01, 3.888179602171694e-01, 6.529929436446515e-03, -3.206601380049594e-10, 3.921089911326090e-10, -3.727137660540177e-09, 4.623547747307035e+03, 4.386497650144005e+03, 5.436021416971415e+02, 1.054148740949259e+04, -3.719966237148309e+02, 3.750908014909140e+02, 6.181001894789226e+03
7386, 7.765702716799595e-01, 7.549171872906270e-01, 1.347642732277633e-02, -7.081431590902283e-10, 2.968700086133479e-10, -1.003293900984423e-09, 1.954377742508470e+03, 1.783021856106028e+03, -1.272707508543656e+01, 3.504304907455260e+03, 3.186166913551119e+02, -1.604327452018916e+02, 1.754844129888296e+03
7387, 4.071224503839371e-01, 3.913939244717820e-01, 2.964536573381225e-02, -1.400309368112101e-09, 6.526945589082821e-10, -3.006397894705837e-09, 4.908072192606805e+03, 4.944019532523609e+03, 3.160689117638702e+01, 9.230049330477068e+03, 8.768436336462211e+02, -3.001194664256233e+02, 4.594038675601532e+03
7388, 3.864542865580016e-01, 2.297068346938718e-01, 3.684472501257032e-02, -1.252100981272748e-09, 6.944307857843019e-10, -2.620158787996560e-09, 4.337468470499949e+03, 4.434727347176520e+03, -1.106423274565343e+02, 8.407846376895652e+03, 8.495109988082588e+02, -4.724127853663942e+02, 4.364952314932889e+03
7389, 2.797405901854430e-01, 7.720273801001272e-02, -4.972512317578330e-03, -1.212816798063974e-09, 1.134286216048911e-09, -5.893033876136735e-09, 4.026658266700519e+03, 4.451240454735609e+03, -2.932464791425822e+02, 8.343215453781297e+03, 3.389951865680800e+02, -2.592170528572456e+02, 4.217169291370642e+03
7390, 3.543302832322309e-01, 3.230650442042599e-01, 2.978829249333875e-02, -1.327058753717026e-09, 5.829873318211978e-10, -3.264060050010975e-09, 5.195654418346474e+03, 5.243308357541356e+03, 2.125641640885104e+01, 1.003586770677840e+04, 8.413635152898903e+02, -2.125734001347901e+02, 5.045778026957762e+03
7391, 7.908760112031886e-01, 8.208081564550531e-01, 1.348430517709120e-02, -7.641800820775947e-10, 2.496266782344018e-10, -7.561642095804480e-10, 1.611568960210560e+03, 1.470716485043157e+03, 1.382674494601502e+00, 2.653817606236667e+03, 5.304044722518448e+02, -2.389716545962289e+02, 1.506067649363273e+03
7392, 4.005389059456413e-01, 7.311123227502953e-02, -3.497952535337108e-03, -1.113702566156059e-09, 9.830751866658905e-10, -4.311178593442033e-09, 2.807763166638076e+03, 3.022436624270262e+03, -4.255652255816622e+02, 6.046260315225819e+03, 5.652119074669085e+02, -6.837615861021045e+02, 3.569738029462420e+03
7393, 5.269406078142881e-01, 8.717008129524733e-01, 7.170865420662191e-03, -1.444271956911871e-09, 9.070002277103504e-10, -5.796759590134427e-09, 5.889455753240277e+03, 5.695317778202872e+03, -6.142682915981995e+01, 1.616238401310270e+04, 1.324979910088369e+03, -3.821252317003357e+02, 1.064336432742238e+04
7394, 7.347392649084049e-01, 8.326611347222544e-02, 1.391774734636559e-02, -4.738698040328229e-10, 8.082688002780807e-11, -1.198575337540803e-10, 3.704488859945271e+02, 3.163696602440911e+02, -7.764082911152782e+01, 4.929795320127981e+02, 2.841440225575456e+02, -2.121716371190488e+01, 5.349887476832097e+02
7395, 5.138665065512334e-01, 6.790407597351751e-02, 1.907866972604644e-03, -8.268427316073072e-10, 3.876659127641269e-10, -2.770355623422520e-09, 2.712040346770006e+03, 2.784267957575054e+03, -3.022054764181424e+02, 5.572640613517345e+03, 5.028762098066421e+02, 4.095583817209621e+01, 3.003216014588873e+03
7396, 6.837115717719008e-01, 1.095649813126554e+00, 9.967176511117087e-03, -1.228736546975993e-09, 3.132753059527431e-10, -3.177722196681278e-09, 5.858605388133617e+03, 4.854845493137762e+03, 1.014707734554427e+03, 9.676244687415308e+03, 1.302161096138508e+03, 2.819195401119268e+02, 5.275234475383588e+03
7397, 5.459090692730649e-01, 3.436753406819597e-01, 3.288152297162161e-02, -1.024066370682599e-09, 2.784381588232816e-10, -1.579754969720370e-09, 2.979550960424265e+03, 2.955528513202378e+03, -5.520137998918918e+01, 5.376416154821097e+03, 7.798651203380305e+02, -1.087241480260412e+02, 2.769890182231331e+03
7398, 1.021412286484606e-01, 8.508868237078734e-02, 5.407232253667738e-03, 5.627241460019100e-10, -8.483771268075204e-11, -2.316428461540651e-09, 3.312682606177731e+03, 2.755221727165628e+03, 2.492416243577660e+01, 6.200370789944487e+03, -1.062644534889348e+03, 7.408045369035435e+02, 3.910902302721351e+03
7399, 5.395718799701118e-01, 2.208458280181903e-01, 3.412446362566118e-02, -8.827101042946776e-10, 4.158015541314019e-10, -1.497799677644506e-09, 2.847998145830847e+03, 2.746998513551900e+03, -1.000301498867367e+02, 4.912396383012602e+03, 6.887723820605149e+02, -3.543871351165774e+02, 2.512061995725369e+03
7400, 6.006388793985913e-01, 5.139482059217798e-01, 4.296598399533955e-03, -1.448939899264443e-09, 5.840749420308331e-10, -2.613192265883982e-09, 3.300811579225893e+03, 3.176714750347469e+03, -2.083969771038381e+02, 4.276481969633775e+03, 5.155267946056191e+02, -2.587611932252008e+02, 1.488917032128257e+03
7401, 7.155940589811460e-01, 3.484747850300415e-02, 1.404755174328930e-02, -2.984568085193100e-10, 1.175817554794203e-10, -2.121975444509366e-10, 4.592250689177930e+02, 4.453250469952023e+02, -1.798725475786697e+02, 7.183625925146565e+02, 1.555890445800682e+02, -1.260799920562850e+02, 5.369564504616759e+02
7402, 3.873084002209072e-01, 6.208348799454636e-01, 6.704883790786993e-03, 3.453218335824184e-11, 5.964838145554414e-10, -5.408756252286527e-09, 4.995897351563266e+03, 6.606315901403201e+03, 6.980789324367441e+02, 1.511906007340272e+04, -1.504503647564581e+03, -2.540322055154827e+02, 9.859790855635263e+03
7403, 2.076031314827773e-01, 2.931028528874826e-01, 5.964013278165883e-03, 7.225460310960426e-11, -5.607609229408523e-11, -3.169993813029037e-09, 3.536978792344257e+03, 4.537038125629580e+03, 4.907702811733955e+02, 8.947313628770544e+03, -1.090304857298764e+03, 9.777496447011649e+02, 5.658447615584044e+03
7404, 7.168152385302564e-01, 1.156306073131442e+00, 9.417807378896595e-03, -8.764347521602606e-10, 5.484753780684279e-10, -3.517732158456492e-09, 4.773638071522520e+03, 4.792197243076272e+03, -1.195591470745270e+02, 1.043820045967135e+04, 1.585526334417612e+03, -1.150815396411963e+03, 6.598497903094300e+03
7405, 1.171568067140676e-01, 1.204120445457006e-01, 5.017711620282379e-03, 2.582550763402386e-10, 5.921422865304170e-11, -1.943754868385748e-09, 3.228667535027125e+03, 3.260016728514800e+03, -4.754589441628823e+02, 5.024506437476022e+03, -6.838490983192362e+02, 7.436008691358478e+01, 2.295090998719344e+03
7406, 3.413032742691132e-01, 2.193899861410810e-01, -4.487525513978040e-03, -1.777951576256581e-09, 1.302968740247179e-09, -5.630991067559027e-09, 4.330792064702136e+03, 3.927167165208083e+03, -3.028128071995117e+02, 7.178862769954424e+03, 3.842710383326780e+02, -3.786171925333246e+02, 3.251477275105683e+03
7407, 1.741670452688169e-01, 3.433513041106368e-02, -5.709479682505458e-03, -2.951528633422629e-10, 1.597554267959865e-09, -3.993793190513778e-09, 3.414822672128849e+03, 5.010337757414372e+03, -3.205711928795242e+02, 5.791682181380783e+03, 3.002840631441652e+02, -3.108615612307534e+03, 5.828558707911705e+03
7408, 1.718611473633440e-01, 3.491291318862731e-02, 3.012979681903439e-02, -6.262572497690494e-11, 1.255651919989603e-09, -2.076497915680831e-09, 3.502227018436038e+03, 4.650231381020968e+03, -1.276614665835185e+02, 7.040078395048874e+03, -4.125876842839116e+00, -1.726257733310326e+03, 4.331475299382160e+03
7409, 7.718314136091414e-01, 4.723160775764429e-01, 1.375255612640755e-02, -6.629891472157765e-10, 1.571917039823259e-10, -2.107349501197970e-10, 6.019319175368682e+02, 4.151478602379841e+02, -1.918101960567346e+01, 8.535854906077866e+02, 4.913700711707384e+02, -1.365283359310595e+02, 9.625902632558684e+02
7410, 7.388648871709999e-01, 1.228793953512262e-01, 1.350568476717937e-02, -5.268833758206618e-10, 6.998069296203163e-11, -1.026073559269243e-10, 3.642796468546990e+02, 3.621739622333339e+02, -5.295379396161047e+01, 4.962193860695529e+02, 3.370271618495408e+02, -5.084449304626442e+01, 6.120621503972212e+02
7411, 5.411475662555768e-01, 8.078284275595789e-02, 3.528685113051216e-02, -6.165037439258168e-10, 4.874333677254835e-10, -1.104905062248770e-09, 2.223585329190296e+03, 1.965735321251725e+03, -1.068616283065938e+02, 3.744111380357115e+03, 5.797515454734261e+02, -3.589899032494778e+02, 2.049333743290669e+03
7412, 7.571807793506848e-01, 2.415588162545541e-01, 1.349697328267781e-02, -6.126872522363907e-10, 1.200755198130328e-10, -4.906566317856913e-11, 3.531333970923146e+02, 2.783402991742252e+02, -1.941256602022702e+01, 3.032154033329292e+02, 3.641471829360596e+02, -8.887545077374541e+01, 6.534438653258666e+02
7413, 8.046079403290594e-01, 9.594088808047684e-01, 1.291498330676502e-02, -8.778990832216011e-10, 1.996340584405333e-10, -1.281116883353907e-09, 2.771788955127418e+03, 2.311529115481390e+03, -3.241775332106390e+01, 4.270351174145143e+03, 9.280119910359473e+02, -9.492264202934803e+01, 2.400220463520626e+03
7414, 4.697799053667956e-01, 2.460380446191547e-01, 3.721177917199203e-02, -1.028095204453860e-09, 4.548696217402356e-10, -1.785529834324472e-09, 3.683753850860071e+03, 3.418905482161361e+03, -8.866203267246074e+01, 5.943658485359536e+03, 6.769348917500517e+02, -3.030141100049091e+02, 2.729396221694712e+03
7415, 8.070126549014585e-01, 9.014844712121026e-01, 1.282103888736924e-02, -6.869437055898291e-10, 2.748405916561033e-10, -8.271318483402382e-10, 1.836476129714940e+03, 1.810130991947282e+03, -3.792654860292559e+01, 2.995731656620665e+03, 3.963252638780301e+02, -1.926858185454827e+02, 1.400724125995589e+03
7416, 3.539550227147791e-01, 5.670743283322494e-01, 6.106119674654180e-03, 7.097176759066771e-10, -1.761141661171006e-10, -4.673310246736466e-09, 5.517343543325614e+03, 5.649281214946030e+03, 6.723424728808865e+02, 1.557056212303204e+04, -2.221376642024858e+03, 1.357349257743192e+03, 1.102021233420923e+04
7417, 8.043827933925742e-01, 1.127129633290042e+00, 1.132329461684312e-02, -8.114976414647445e-10, 4.138907772700636e-10, -1.481013215440994e-09, 3.606865052239626e+03, 2.895353704642576e+03, -4.466741447530349e+02, 4.944825577186490e+03, 2.823719556157453e+02, -1.006166197008515e+02, 2.028912790491370e+03
7418, 7.906754601434418e-01, 5.981481997954238e-01, 1.311398865781471e-02, -6.703823999722924e-10, 2.206884095974231e-10, -3.459901475105740e-10, 9.116753482983660e+02, 7.411261810231667e+02, -6.303889593948998e+01, 1.175722760277474e+03, 4.354175306272043e+02, -2.467701919080463e+02, 9.524781826606979e+02
7419, 4.919325498383559e-01, 4.159207329863405e-01, -5.526175968906533e-04, -1.633517664204329e-09, 7.557958231791501e-10, -3.534163885487481e-09, 4.332179966393318e+03, 3.958263875805145e+03, 1.267195822718181e+02, 7.218060978620391e+03, 1.258514792959787e+03, -6.293503251159209e+01, 3.789305249035643e+03
7420, 7.679224241673678e-01, 1.181370143205385e+00, 1.065676245546967e-02, -1.437982849447000e-09, 6.985435126631047e-10, -2.414397754679782e-09, 4.724099958886482e+03, 4.835015718960307e+03, -2.301956387043061e+01, 9.074399357947588e+03, 1.382814163208431e+03, -6.565572292162469e+02, 5.048386605588840e+03
7421, 2.541233219835201e-01, 2.023283083645439e-01, 2.916784675441731e-02, -9.329864961086382e-10, 6.828910850908465e-10, -3.499395257916174e-09, 5.148472020792623e+03, 5.626010618546173e+03, 1.102784672215378e+02, 1.119959312836834e+04, 3.896161673474695e+02, -2.890717302371529e+02, 5.890419303630674e+03
7422, 7.595047035776515e-01, 2.998716261949464e-01, 1.373007079756892e-02, -6.212577130312051e-10, 9.745572223896297e-11, -7.939150842578526e-11, 4.760610013325887e+02, 3.605087600995107e+02, -4.339466327975867e+01, 4.262973947140274e+02, 3.556994784139850e+02, -1.103867122939884e+01, 6.290148207665893e+02
7423, 4.938507861128744e-01, 8.142855284626718e-02, 3.859064240326328e-02, -6.340696485594621e-10, 5.956819107077536e-10, -1.442816831728238e-09, 2.439786153574044e+03, 2.311681101112884e+03, -1.411854646412920e+02, 4.794631129238477e+03, 5.272640937564928e+02, -4.249747168501967e+02, 2.701667283897428e+03
7424, 7.974311149971975e-01, 6.826369007783538e-01, 1.319784685648667e-02, -6.942191102983576e-10, 2.353757784437925e-10, -3.561016924544990e-10, 9.150521200335124e+02, 8.109153506463806e+02, -1.012599605874394e+02, 1.237929981461781e+03, 4.017018912442455e+02, -2.208572750952165e+02, 8.999476721255627e+02
7425, 7.949643523947553e-01, 7.255023197337893e-01, 1.334897136949485e-02, -7.142141238146534e-10, 2.724138389071649e-10, -5.071898768754983e-10, 1.194967638033718e+03, 1.135390103295743e+03, -8.030752777170031e+01, 1.522034701714416e+03, 3.726390931454912e+02, -1.834634519767521e+02, 8.166469794490272e+02
7426, 3.819883487667509e-01, 1.295619040469281e-01, -4.794861304818925e-03, -1.259570483941125e-09, 9.862374284904839e-10, -5.230919739816725e-09, 4.335500540785247e+03, 4.398639189524187e+03, -1.350046347609430e+02, 8.478254095379478e+03, -3.842205926894116e+02, -2.814010899211401e+02, 4.199992917560603e+03
7427, 6.436295523768713e-01, 4.362480999991610e-01, 5.416356325123491e-03, -9.302159912965350e-10, 3.196216556888459e-10, -1.479144016573385e-09, 2.115277207031572e+03, 2.157551629160786e+03, -4.442014424826547e+01, 3.158535232180201e+03, 2.692467602674305e+02, 1.495336796157536e+01, 1.127006217679107e+03
7428, 7.677633939742390e-01, 4.013690316666983e-01, 1.334069824725546e-02, -6.640621681667392e-10, 1.579131897528657e-10, -1.276439555272356e-10, 5.685931282407964e+02, 4.347999461893517e+02, -4.253722862879030e+01, 7.089629160255952e+02, 3.996936961986316e+02, -9.139374949200865e+01, 7.524205377297093e+02
7429, 7.635318748297484e-01, 3.623576376587386e-01, 1.365718228239898e-02, -6.421307641280117e-10, 1.464587626514489e-10, -7.090054084285317e-11, 5.918378964699921e+02, 4.540831749602434e+02, -7.125733919052894e+01, 5.851826602122875e+02, 2.806970166180328e+02, -2.496108178856862e+01, 5.211317517126683e+02
7430, 5.113469173242502e-01, 3.944861889439870e-01, 3.331377235790551e-02, -1.014722986383025e-09, 3.783132265915204e-10, -1.810500221863279e-09, 3.629363116977860e+03, 3.538851098362873e+03, -4.076381719365558e+01, 6.119476149504119e+03, 6.881265315960279e+02, -1.760644964105107e+02, 2.820066675621148e+03
7431, 2.559876365617356e-01, 2.006811020277935e-01, -5.349490877394010e-03, -1.712909099316687e-09, 1.241125206945107e-09, -7.365549412188348e-09, 4.973540496379312e+03, 4.764080810390895e+03, -3.974168189400472e+02, 1.077030864867560e+04, 5.488803142686513e+02, -1.451452349229501e+02, 6.025065494102560e+03
7432, 2.994084327205661e-01, 3.428389466903805e-02, -6.555460844330466e-03, -8.129119444225857e-10, 1.422619222625203e-09, -3.303076104362942e-09, 3.852282861148477e+03, 4.376186446527145e+03, -6.635383540509965e+02, 7.234885024465972e+03, 9.013694442116549e+02, -2.303562421241378e+03, 5.442588034493596e+03
7433, 5.783335141644037e-01, 9.757611637173292e-01, 7.453481108360194e-03, -6.768675275200194e-10, 1.213686979816027e-10, -3.445872108150229e-09, 6.043194715895200e+03, 6.057754559049140e+03, 7.261257311562634e+02, 1.395053424723062e+04, 1.593099879509205e+03, 5.000356901226794e+02, 8.506285047793725e+03
7434, 8.120162378525296e-01, 1.016019207153234e+00, 1.207009805859408e-02, -6.874058575228032e-10, 2.890440838623910e-10, -9.886222556646192e-10, 2.479789090643833e+03, 2.317957735776090e+03, 7.070022795125692e+01, 3.603722764220286e+03, 5.555891684468824e+02, -2.361767463559424e+02, 1.606136950803124e+03
7435, 3.000639678419175e-01, 2.651444239909637e-01, -3.828415925121332e-03, -1.879930505781502e-09, 1.807505770928039e-09, -6.754634222858851e-09, 5.528209156162869e+03, 5.338273771150862e+03, 3.446620075259175e+02, 9.389652804976091e+03, 7.008590712189429e+02, -1.419439409983877e+03, 4.853314127155823e+03
7436, 8.145431929544751e-01, 1.077040605530653e+00, 1.165176872593470e-02, -7.225393482911815e-10, 3.878863537138254e-10, -1.029033153308734e-09, 2.063254025208229e+03, 2.294661516532813e+03, -6.078049756013132e+01, 3.623847704251282e+03, 4.355165587863690e+02, -5.667723598209039e+02, 1.916159841719661e+03
7437, 4.998963310558619e-01, 4.452240416308045e-01, 3.229188523390532e-02, -1.087485144971907e-09, 6.073515102638455e-10, -2.030747657701214e-09, 4.194321586698992e+03, 4.016015643335886e+03, -9.747995160016885e-01, 6.899135127085138e+03, 6.087617603952493e+02, -4.089411219676688e+02, 3.073038829042693e+03
7438, 4.809744348658897e-01, 4.662763058352292e-01, -1.224971155243337e-03, -1.631253728946292e-09, 9.684239324422995e-10, -3.935764231312785e-09, 4.199008674750911e+03, 3.903654164715963e+03, -1.500817816116446e+02, 6.577207836151988e+03, 5.929563841433777e+02, -3.814953875883897e+02, 2.829215266151711e+03
7439, 4.913368710641815e-01, 8.228705887810087e-01, 6.307611737212476e-03, -2.372062866301639e-10, 6.718804736302433e-10, -3.452989335591474e-09, 5.143258152206905e+03, 6.099182640281266e+03, 3.759399140090025e+02, 1.487956711963095e+04, -1.390882783880107e+02, -3.129806805331030e+02, 9.336928166917343e+03
7440, 7.836561444656208e-01, 5.386831549001486e-01, 1.264669638853341e-02, -6.397423916711623e-10, 1.823031551565437e-10, -2.067458092224263e-10, 7.088620559161981e+02, 6.353867785966512e+02, -4.110133628790923e+01, 7.073985605739992e+02, 3.552863968285339e+02, -1.086590727884060e+02, 6.515111976133244e+02
7441, 3.025205736846340e-01, 2.084596562298992e-01, 3.395691899886268e-02, -1.172520181786105e-09, 7.488460172334746e-10, -3.055466379775220e-09, 5.011009804800639e+03, 5.161595839757440e+03, 1.317405161328310e+02, 9.832040516703302e+03, 7.770195967990168e+02, -3.794396755421028e+02, 4.983402636156421e+03
7442, 7.387735407060870e-01, 1.204786861486757e+00, 9.301341301977482e-03, -8.334590068462749e-10, -3.277679359805441e-10, -3.623220902995118e-09, 6.078040802890008e+03, 5.774358744215455e+03, 5.837084104842661e+02, 1.375369931985748e+04, 4.737578085191327e+02, 1.315376162111874e+03, 8.259845367459180e+03
7443, 5.278516824609979e-01, 6.384469133931873e-01, 2.576958820994786e-02, -1.365454514549377e-09, 5.708360791181757e-10, -2.749826181893167e-09, 4.882015759351519e+03, 4.580598482902193e+03, 4.249663677411545e+01, 9.005324830476558e+03, 8.967236148016082e+02, -3.437609121358091e+02, 4.594305058582716e+03
7444, 4.488044362661860e-01, 5.587357307234809e-01, 2.531438241008436e-02, -1.363710319407034e-09, 6.849266652227256e-10, -3.199291333640872e-09, 5.245014769126880e+03, 5.344242367303079e+03, -6.238247515318108e+01, 1.095197987564517e+04, 8.045057739312541e+02, -2.215208872372489e+02, 5.840683714582907e+03
7445, 4.533750249439533e-01, 4.144820688951437e-01, -2.216439607530575e-03, -1.581942005084697e-09, 9.681406933163609e-10, -4.433263802476484e-09, 4.868670744384830e+03, 4.346890183042003e+03, -1.818473930620341e+02, 6.625883504826117e+03, 5.317822422461353e+02, -3.683621191785243e+02, 2.373096191756077e+03
7446, 3.665835134734780e-01, 9.507071090555369e-02, 4.303677593166401e-02, -8.691797614676041e-10, 9.352569887426104e-10, -2.159513464013774e-09, 3.696894521123119e+03, 3.388436045154931e+03, -1.740017484577544e+02, 7.215200826240478e+03, 6.729972815097049e+02, -5.709137750415750e+02, 3.998288477917149e+03
7447, 5.395893142674359e-01, 9.037561396165192e-01, 7.579352010262538e-03, -9.900871358460031e-10, 1.619077746529816e-10, -4.360206118524789e-09, 5.907405716405321e+03, 6.140101947004709e+03, 9.052195950063257e+02, 1.348734628502838e+04, 8.445728011346736e+02, 2.618493991721643e+02, 7.781368483721029e+03
7448, 8.082452882741883e-01, 7.847693096457700e-01, 1.257448841523150e-02, -7.378968559125018e-10, 2.030517589329656e-10, -5.926342864379227e-10, 1.416443295121592e+03, 1.286671026523887e+03, 3.462738223793821e+01, 2.437975291988201e+03, 5.802202606780324e+02, 5.281014036286621e+01, 1.488242432965492e+03
7449, 7.516973034330143e-01, 1.545506261924090e-01, 1.370816974160425e-02, -5.805979893183368e-10, 6.851074949345342e-11, -6.725381293751551e-11, 3.435658905805430e+02, 2.406997772031868e+02, -4.656496075446962e+01, 3.666890543971955e+02, 3.981048634597363e+02, -2.373553678464569e+01, 7.050901848256784e+02
7450, 5.309560328635852e-01, 4.516633634569192e-01, 5.217773858537250e-04, -1.435059441266783e-09, 7.164784412196057e-10, -4.234462904305019e-09, 4.217693404330087e+03, 4.350519445721140e+03, -6.349362430676871e+01, 8.339433032365772e+03, 4.003692830848846e+02, 7.362728263504735e+00, 4.117286679228657e+03
7451, 5.421097706080993e-01, 4.010431806238062e-01, 1.086727671425980e-03, -1.356086556788907e-09, 4.869356273160313e-10, -3.039769124938937e-09, 3.203410508797561e+03, 3.026546644532411e+03, -8.912352941708610e+01, 5.438142879239490e+03, 5.583971701666749e+02, -5.568826315399373e+01, 2.527668442263667e+03
7452, 1.731641185460223e-01, 7.435089829168690e-02, -6.965419064447836e-03, -9.188743716681844e-10, 1.900169193275430e-09, -8.314777939049823e-09, 6.192060371826245e+03, 6.452115253683364e+03, -7.788439478206749e+01, 1.638344711281577e+04, 1.121474940365084e+03, -1.980370641677541e+03, 1.080919016711307e+04
7453, 4.058436270197759e-01, 6.757329120144774e-01, 5.844379670211775e-03, 7.439294877871427e-11, -4.662735494845665e-10, -2.945014206213643e-09, 3.786069113429165e+03, 5.697130520315188e+03, 6.208308901027850e+02, 7.827325312793179e+03, -8.100820389904366e+02, 1.069067232094835e+03, 4.337571274810675e+03
7454, 5.805667136554953e-01, 3.030510954617757e-01, 3.198852409263011e-02, -9.746951179292186e-10, 2.508411697754159e-10, -1.166389082118878e-09, 2.488396322137043e+03, 2.356871362723863e+03, -4.603868409273831e+01, 4.042363657177191e+03, 7.993877015325868e+02, -1.377012433155392e+02, 2.148675046303314e+03
7455, 8.054303661029457e-01, 1.161349540407737e+00, 1.128237043324762e-02, -8.879569411650366e-10, 3.111043302091342e-10, -1.313343975784416e-09, 3.240686835809844e+03, 2.735203565206552e+03, -5.554211985786750e+01, 4.524949060810028e+03, 5.923705964986747e+02, -2.820850874634036e+02, 1.963337823951545e+03
7456, 5.404809233996695e-01, 1.860989666913372e-01, 9.058083865035593e-04, -8.850668273612542e-10, 4.059335328903329e-10, -2.499545804265490e-09, 2.871099102235066e+03, 2.587945272132315e+03, -6.402041414233427e+01, 4.844676127724787e+03, -2.758576979109829e+02, 1.614246302006187e+01, 2.185263884962430e+03
7457, 5.506142199789863e-01, 4.300314754352930e-01, 3.242844825705665e-02, -1.038183048496276e-09, 4.512483437557783e-10, -1.646213022687405e-09, 3.153958521480170e+03, 3.178345486614297e+03, -1.369961512786088e+02, 5.662765971607685e+03, 7.930522217965919e+02, -3.318765780879918e+02, 2.916685250623463e+03
7458, 6.816531073935846e-01, 1.135070269520859e+00, 8.801905819568648e-03, -4.756563929513665e-11, 7.753648491930966e-10, -2.785278176521513e-09, 4.435030765532601e+03, 5.940623389528843e+03, 8.680482373190233e+02, 7.868665949087669e+03, -6.454406634210434e+02, -1.084788967556666e+03, 3.990940917459540e+03
7459, 6.358336463962215e-01, 1.065596950121441e+00, 8.208043722221021e-03, -2.467612255773253e-10, 4.241989213849475e-10, -4.034252428751479e-09, 3.831475328656227e+03, 5.457154765740415e+03, 5.755758464648756e+01, 1.237713444986183e+04, -1.350616029894108e+02, -9.469980620908703e+02, 8.033287039786187e+03
7460, 4.702657003593372e-01, 6.797373477852300e-02, -1.242628697589059e-03, -4.588816489969280e-10, 8.136380314158487e-10, -3.572588326294353e-09, 3.221728752245481e+03, 3.064624053675020e+03, -3.557113533371121e+02, 6.288690522874634e+03, -4.338473411886055e+02, -5.078251398967401e+02, 3.410380016727886e+03
7461, 6.146181070228596e-01, 3.368206599234263e-02, 6.630328684486330e-03, -3.427973500501368e-10, 3.149213472077108e-10, -1.025346242677280e-09, 1.377746751847901e+03, 1.548150402532345e+03, -2.495031225165294e+02, 3.047256362394871e+03, 2.310102355116625e+02, -3.559569568295410e+02, 1.805208544158074e+03
7462, 2.972951923465638e-01, 2.668957947509472e-01, 3.017429120097845e-02, -1.074389756462215e-09, 8.771259764798348e-10, -3.476781475349356e-09, 5.464297360069420e+03, 5.718553447730883e+03, 2.481966240290737e+02, 1.128694563233708e+04, 5.825281414338267e+02, -7.543903438266364e+02, 5.949585822804882e+03
7463, 7.979210703217162e-01, 1.197881494014365e+00, 1.085034895052200e-02, -1.040900730689287e-09, 5.197256108313216e-10, -1.484057401806280e-09, 4.031308178955353e+03, 3.426101265300165e+03, 3.072171502544432e+02, 5.513859625098783e+03, 6.265536622930306e+02, -3.469819787852313e+02, 2.298592976602963e+03
7464, 6.393600874290509e-01, 3.673405442904243e-01, 4.874543600843384e-03, -8.677869928525893e-10, 4.008698786497786e-10, -1.619489140172149e-09, 1.749142375906248e+03, 1.903769868951259e+03, 1.721924696656858e+01, 3.318596693032063e+03, 2.219626052866568e+02, -4.181608484336068e+02, 1.708122629077830e+03
7465, 1.917223530708902e-01, 1.316042498845863e-01, -5.506981132788885e-03, -8.291969573730836e-10, 6.064558540326798e-10, -7.597745177258366e-09, 5.635955961512464e+03, 4.922333250524498e+03, 1.517071138349688e+02, 1.191879769691773e+04, 1.480019688053641e+03, 1.531629876114762e+02, 7.153861396216877e+03
7466, 5.761540689028465e-01, 6.232388894077263e-01, 2.779624558771897e-02, -1.193493339483698e-09, 4.620314397027793e-10, -1.974694321273047e-09, 3.753070560023785e+03, 3.787630228218938e+03, -1.638043077700283e+02, 6.737383266194974e+03, 9.667008303681630e+02, -2.102217979867681e+02, 3.438137067518777e+03
7467, 5.166494399463792e-01, 1.593049476166950e-01, -3.102936305742453e-04, -1.019828495131526e-09, 3.791271961068987e-10, -3.069295242356111e-09, 2.839919223265616e+03, 2.791548685174771e+03, -1.852394787267032e+02, 5.804285839023078e+03, 3.280240003768660e+02, 3.188904864350545e+02, 3.108699214269238e+03
7468, 7.817354644283271e-01, 1.228592329883581e+00, 1.010351312458918e-02, -7.502788622955546e-10, 4.161784589427326e-10, -2.572086702523788e-09, 5.186858247276411e+03, 4.790408599214067e+03, 6.232116328321389e+02, 7.275056783209801e+03, 2.087844484731611e+02, -2.383081575066872e+02, 2.609968278168440e+03
7469, 5.605140439334025e-01, 9.466003794994803e-01, 6.695831230289093e-03, -5.355141777058252e-10, -1.005051256948410e-10, -4.374422918886438e-09, 5.876357574595484e+03, 6.779273434114746e+03, 7.953625096707567e+02, 1.565171627389405e+04, -2.912774761995798e+01, 6.341213686608093e+02, 9.521199920190078e+03
7470, 3.515788579805424e-01, 4.145263607627256e-01, -2.947151207429943e-03, -1.582553989297041e-09, 9.433307282266363e-10, -7.515805782451962e-09, 6.662665323521970e+03, 6.792208153413774e+03, 1.633473404183262e+02, 1.507758984865239e+04, -2.012713016013283e+02, 2.681178144089121e+02, 8.375851116795642e+03
7471, 5.134284620022436e-01, 3.341094534927364e-02, 4.611393560907681e-03, -4.302669002479101e-10, 7.003548603293144e-10, -1.379190999281614e-09, 1.614053551121644e+03, 2.000748986199376e+03, -3.517641041071674e+02, 2.888041999768118e+03, 1.149243197722443e+02, -1.106622183781144e+03, 2.316162588185724e+03
7472, 8.190532792305392e-01, 8.507572275929823e-01, 1.266988381864132e-02, -6.784884026289210e-10, 2.066389815206184e-10, -5.064826530782065e-10, 1.390492924894957e+03, 1.232867252475717e+03, 1.739580469051415e+01, 1.972466489621324e+03, 3.843007149727059e+02, -2.452436693784280e+02, 1.039074294684854e+03
7473, 3.918966050456997e-01, 4.234214720397462e-01, -2.654062210973390e-03, -2.066743776178230e-09, 1.060306048089440e-09, -5.970980449678577e-09, 5.807997825448789e+03, 5.518931179450408e+03, 2.978657734286763e+02, 1.282989796238582e+04, 1.587179091498745e+03, -3.585631941434675e+02, 7.722028576420917e+03
7474, 2.865969524596070e-01, 4.424367471523968e-01, 7.834419169722624e-03, 4.004958365638678e-10, -4.696856043012543e-11, -3.355652247665321e-09, 5.210746273433514e+03, 6.325836908010680e+03, 5.717530124100817e+02, 9.968338353834904e+03, -1.426428968278582e+03, 2.919757188583690e+02, 5.090531990103505e+03
7475, 4.634343251876454e-01, 7.746272267349247e-01, 6.681407916711818e-03, -3.574985064692496e-10, -4.815620830920370e-10, -2.970272772832604e-09, 4.787008241516340e+03, 5.449530072027893e+03, 1.106097759846472e+03, 1.231668805149462e+04, 3.826646538634922e+01, 2.020021690291391e+03, 8.250009005067868e+03
7476, 4.905715387473221e-01, 5.961586175506343e-01, 2.719608281265754e-02, -1.333188390998419e-09, 6.512661045206073e-10, -2.733680159610454e-09, 5.226766899818448e+03, 5.123119288018145e+03, 1.006917952883261e+02, 9.302121197264412e+03, 9.706918198653925e+02, -4.474936963341208e+02, 4.527643137711476e+03
7477, 7.946089596389924e-01, 5.049697392253564e-01, 1.315007454479818e-02, -6.242231494532418e-10, 1.425557877279156e-10, -5.195259627322223e-11, 5.300736201520435e+02, 4.006044287931823e+02, 3.546378401747688e+00, 5.992956113700135e+02, 3.066076869200072e+02, -9.415194782538522e+01, 5.823850874456675e+02
7478, 5.723190442685786e-01, 7.580662305845994e-01, 2.295759500290298e-02, -1.201335246188855e-09, 7.741592414872768e-10, -2.362693225409379e-09, 4.526736239991802e+03, 4.646727938510674e+03, -7.914472307106810e+01, 8.010010580969563e+03, 9.659239342519711e+02, -4.110930294027687e+02, 3.880005847414333e+03
7479, 5.182743933326098e-01, 2.290560283595857e-01, -4.168272157662606e-05, -1.242999076093223e-09, 5.828718948288269e-10, -3.464643236500525e-09, 4.215130983678188e+03, 3.816336500447207e+03, 1.554932191495697e+02, 5.789220114893317e+03, 3.565960677143069e+02, -3.232733893868443e+02, 2.008000357942421e+03
7480, 5.367008328024544e-01, 5.835257372646054e-01, 2.964422325167312e-02, -1.183147441861585e-09, 5.404753108876769e-10, -2.225363873626464e-09, 4.366224389392253e+03, 4.308317032158118e+03, -1.110420973031326e+02, 7.803232671350488e+03, 8.673923119177714e+02, -4.258558576676388e+02, 3.854032460118039e+03
7481, 8.286073220946344e-01, 1.045304732495481e+00, 1.183608059883696e-02, -8.594980681980411e-10, 4.021663465339281e-10, -9.911884314614888e-10, 2.308620350276567e+03, 2.096109792596402e+03, -4.010249151466311e+01, 4.098240721728224e+03, 7.551428700177700e+02, -2.507929459167370e+02, 2.352116755450532e+03
7482, 5.180798917004121e-01, 6.009674600403059e-01, 1.286457793436765e-03, -1.718599207712578e-09, 8.556615122644640e-10, -4.721309175404061e-09, 5.152595580404083e+03, 5.177331503232288e+03, -1.497369947370734e+02, 7.860774167873315e+03, 4.597359053193514e+02, 1.212310785739784e+02, 2.830773668963149e+03
7483, 4.412132925238472e-01, 4.411848595269079e-01, 3.152714479838593e-02, -1.259758233468412e-09, 6.302778407827906e-10, -2.559781442460078e-09, 4.582205206114911e+03, 4.601491902279109e+03, 1.881775603033838e+01, 8.556387179225274e+03, 9.044556862574882e+02, -4.207456117015001e+02, 4.324824700512435e+03
7484, 5.375968349589673e-01, 2.796672782271088e-01, -5.055874938069069e-04, -1.190590401886803e-09, 1.941869644549330e-10, -3.420127858618312e-09, 3.094826737002712e+03, 3.299029964963820e+03, -1.503595009227697e+02, 6.265519194764769e+03, 9.998891267241571e+01, 9.810007907594003e+02, 3.525964963837439e+03
7485, 3.790810038758587e-01, 2.695442208818581e-01, -5.395751308842706e-03, -1.733547626398248e-09, 1.050565491640258e-09, -7.222225823649525e-09, 6.004705917499731e+03, 5.136322056286180e+03, -1.228601140199569e+02, 1.216683185493332e+04, 2.913445998118384e+02, -4.654265158623660e+02, 6.710199079715414e+03
7486, 3.988783133646553e-01, 4.418486456963039e-01, 2.788613669063333e-02, -1.333160253579524e-09, 6.430591862008373e-10, -3.020451536094921e-09, 5.240040995618940e+03, 5.281906779228613e+03, 2.043765085994594e+02, 1.016529559716149e+04, 8.970662037340788e+02, -2.564212520181972e+02, 5.175947658099900e+03
7487, 6.357382561769667e-01, 7.547188779228070e-01, 2.458140661787219e-02, -1.061576820857645e-09, 4.279252272389320e-10, -1.658727252182940e-09, 3.346900947925817e+03, 3.589195822703227e+03, -8.599801190206745e+01, 6.021900513526962e+03, 7.719118317087364e+02, -1.482154184879824e+02, 2.905481858541642e+03
7488, 7.851519583838125e-01, 4.394754295742473e-01, 1.345424289660776e-02, -6.304128293928851e-10, 1.301025575193487e-10, -7.388059571788351e-11, 4.178054061496250e+02, 3.517331270424781e+02, -7.185453818693649e+01, 4.594303736789660e+02, 2.816050967446675e+02, -5.540280571079818e+01, 5.210089909151623e+02
7489, 4.366573449305280e-01, 2.796561905693263e-01, -3.903318053351264e-03, -1.616350277890882e-09, 8.295900991422449e-10, -4.484791704123993e-09, 3.627652711018638e+03, 3.925505477959308e+03, -2.478434642909139e+02, 5.586408879121686e+03, 3.871220103597054e+02, -3.238079479935610e+02, 2.071339015001103e+03
7490, 7.228849586087220e-02, 3.266582552385285e-02, 7.535375147715968e-03, 7.317321149762996e-10, 4.897769414188546e-10, -7.707210478616862e-10, 2.073910257100536e+03, 1.836498790288151e+03, 5.120358039103860e+02, 2.949151882729462e+03, -1.255219713439095e+03, -6.149658204179783e+02, 2.770924929926342e+03
7491, 5.809350073044774e-01, 4.366099839439317e-01, 1.983213521528592e-03, -1.296513070155410e-09, 4.249287215158209e-10, -2.591521168666350e-09, 2.779780016971316e+03, 2.571288226556522e+03, -2.253702858616060e+02, 4.428311839399340e+03, 2.096618631798222e+02, 1.480515704466717e+02, 1.858719650146659e+03
7492, 4.203863248520102e-01, 3.461256090709486e-01, -3.457581127572530e-03, -1.688014646822901e-09, 9.605673362158187e-10, -5.357487486990304e-09, 4.365894733280378e+03, 4.775194936378910e+03, 8.506197499599662e+01, 8.102514406548567e+03, 5.079094560509720e+02, 8.599019888358674e+01, 3.663094273433524e+03
7493, 5.978730667011232e-01, 2.671986741227649e-01, 3.148531309614073e-02, -8.529979854046349e-10, 2.284642977735547e-10, -1.027283634987393e-09, 2.259907856264992e+03, 2.035020232063781e+03, -5.905516861017227e+01, 3.617323277670629e+03, 6.731195462876689e+02, -3.139133293646111e+01, 1.889736901241961e+03
7494, 6.018751590638122e-01, 4.042899100856065e-01, 3.104022998184734e-03, -1.045228191126448e-09, 4.979999899116288e-10, -2.346385603695447e-09, 2.479068153188471e+03, 2.036480672057968e+03, -2.082912578619276e+02, 4.011102593363233e+03, 4.750146716294731e+02, -2.870899215505632e+02, 2.067705708383031e+03
7495, 5.473681760554903e-01, 5.330464740076082e-01, 3.118864612999156e-02, -1.097180063841798e-09, 5.476268861086985e-10, -1.955994027876325e-09, 3.794667593072331e+03, 3.609342945345842e+03, -2.356848158454665e+00, 6.834475438213009e+03, 8.380187046363412e+02, -3.750719216577959e+02, 3.516675678805159e+03
7496, 2.063181238666164e-01, 1.078310806712205e-01, 3.084794415416887e-02, -6.212121592842957e-10, 8.693309067405028e-10, -3.608490616334127e-09, 4.967910828372917e+03, 4.778354845851166e+03, 2.787800622556644e+02, 1.149489991700784e+04, 1.285772769745582e+02, -1.813357086930922e+02, 6.652529376020230e+03
7497, 4.244573906106760e-01, 3.271644572093307e-02, 4.404491736366931e-02, -3.374757279476539e-10, 7.110308293937986e-10, -9.581630890190124e-10, 2.205511138860348e+03, 2.698843382657611e+03, -2.527238486322570e+02, 3.308713211972291e+03, 2.038544143074730e+02, -8.148070101924293e+02, 1.795604536660294e+03
7498, 8.082540002750094e-01, 6.314057955618189e-01, 1.289366272993124e-02, -6.454857487841103e-10, 1.345560276673593e-10, -2.645891155993899e-10, 7.155878810057658e+02, 5.667185354919837e+02, -6.179342689120977e+01, 1.017555779761234e+03, 5.339211828928360e+02, -3.107786059945060e+01, 1.013838610958689e+03
7499, 2.149310334851631e-01, 1.593783142780264e-01, -6.129956987792520e-03, -1.287733546295946e-09, 1.158021869759741e-09, -6.901602105554069e-09, 5.538708818081517e+03, 6.556754076737122e+03, 2.414804470884043e+02, 1.264709772757865e+04, 8.413768453957587e+02, -8.407698298166778e+02, 6.981999179204456e+03
7500, 5.863109468505558e-01, 5.695667949703287e-01, 3.015366707057463e-02, -1.116557548588949e-09, 3.839954699962242e-10, -1.707689684107618e-09, 3.307549566650288e+03, 3.238003641662607e+03, -8.066108712705073e+01, 6.050427897304085e+03, 9.500258281403870e+02, -2.044181937468596e+02, 3.251384387029895e+03
7501, 7.757783394099587e-01, 2.692512384616093e-01, 1.322426608442750e-02, -5.610070103688661e-10, 1.110696346037427e-10, 1.861668302849001e-12, 1.790297988522446e+02, 8.328865299734242e+01, 3.003538934553900e+00, 1.436683216242588e+02, 3.777013337846649e+02, -8.737127652599540e+01, 6.767085258693807e+02
7502, 5.454569501193917e-01, 3.394526894304011e-01, -3.086081703644536e-04, -1.253969675160104e-09, 5.747804154662186e-10, -3.388593962899621e-09, 3.082538777212053e+03, 3.481248554301295e+03, -6.711985146533155e+01, 4.761713689986259e+03, 4.524015205128857e+02, 2.769568661804145e+02, 1.779529816191201e+03
7503, 7.594462945787277e-01, 1.905648435133674e-01, 1.269336755651939e-02, -5.626989786488214e-10, 6.855462332473991e-11, 6.509101583893341e-12, 2.373324257510610e+02, 1.155066613831234e+02, -2.316039856052129e+00, 1.032270890760391e+02, 3.305783576038911e+02, -4.316891269021184e+01, 5.915582657532285e+02
7504, 8.034553359207479e-01, 1.257068079784322e+00, 9.964747453546630e-03, -9.410941697744809e-10, 3.742776917497238e-10, -2.614886782393431e-09, 4.214984507166019e+03, 4.188781110802641e+03, -1.734498519304787e+02, 9.791433623350553e+03, 1.099129373272190e+03, -8.618075244078518e+01, 5.914421808352435e+03
7505, 4.852796558059506e-01, 4.151608667625074e-01, 3.487988280162987e-02, -1.119210046446298e-09, 4.993747909356236e-10, -1.916073741111405e-09, 4.112627616123804e+03, 3.989324861035244e+03, -1.689952887422287e+01, 6.884739529148523e+03, 8.983936055919178e+02, -3.555058765193472e+02, 3.292865065970512e+03
7506, 5.010065152041927e-01, 5.432442487119093e-01, -1.774794076430660e-03, -1.715052431181471e-09, 6.890395548184639e-10, -4.758080799488893e-09, 5.240431860339970e+03, 4.623911052125448e+03, -4.017297732996645e+02, 7.620360465457446e+03, 5.009002094131181e+02, 1.981730824263561e+02, 2.977602186822376e+03
7507, 8.322702243614578e-01, 9.834258381247194e-01, 1.157125311921859e-02, -7.081676975049334e-10, 3.130340147302244e-10, -7.709587072156831e-10, 1.864818964394627e+03, 1.762218142114197e+03, 4.396435324875075e+01, 3.774887874846333e+03, 5.459520511038023e+02, -4.025179320790303e+02, 2.289304782799800e+03
7508, 4.592348089293723e-01, 3.721412354781078e-01, 3.536863336193661e-02, -1.230336864026890e-09, 5.001658672173279e-10, -2.156039904859973e-09, 4.278731217603351e+03, 4.024165430978504e+03, -9.492103524657995e+01, 7.414183171565280e+03, 9.526145019669760e+02, -3.347124726420483e+02, 3.712087281207841e+03
7509, 4.947528596596626e-01, 2.693858130990002e-01, 3.787490666858359e-02, -9.107348418083445e-10, 3.991343835661406e-10, -1.661639950337612e-09, 3.504420422176346e+03, 3.265922481224311e+03, -8.726735161714845e+01, 5.924709162178541e+03, 6.703732166278163e+02, -2.623693845418122e+02, 2.840681843562357e+03
7510, 5.723271951260647e-01, 2.457579477599671e-01, 3.394122334881076e-02, -8.653351225510124e-10, 3.082088789000753e-10, -1.236590986671298e-09, 2.558824343536725e+03, 2.392025326255429e+03, -1.016788887477131e+02, 4.467133587380256e+03, 7.812244309593693e+02, -2.849276592329343e+02, 2.468455412939182e+03
7511, 7.046044505165684e-01, 1.190243800961493e+00, 8.123992781155984e-03, -6.952325929058340e-10, 5.278781057122737e-10, -4.457995195808716e-09, 6.321187700528890e+03, 6.447074585172255e+03, 5.244510157372242e+02, 1.515928958274998e+04, 4.884809692660303e+02, -5.577575937897412e+02, 8.915691753989180e+03
7512, 6.195222501202075e-01, 2.134056042275407e-01, 4.363253859779750e-03, -9.690509515526180e-10, 3.826586508270025e-10, -1.489610488479482e-09, 1.883892501431863e+03, 1.673569489565261e+03, -1.444622805955311e+02, 2.701642980770267e+03, 3.214628670271312e+02, -2.372970987728117e+02, 1.194360194825294e+03
7513, 5.461102044462961e-01, 7.783782550182979e-02, 8.042343011491621e-04, -9.056831208150493e-10, 3.753760958664097e-10, -1.965096306506978e-09, 2.325959998995248e+03, 2.342786873440717e+03, -7.882409320731381e+01, 3.197833267422548e+03, 5.943096708512343e+02, -1.037729903516783e+02, 1.362473268021388e+03
7514, 5.955082956425101e-01, 8.558224671059474e-02, 3.147243638171043e-02, -4.872681469668690e-10, 3.881319952594512e-10, -9.030943571268411e-10, 1.701344232068198e+03, 1.534810932790813e+03, -1.617637572083755e+02, 3.102160939219011e+03, 3.619110231829546e+02, -3.475579434784594e+02, 1.748466268617500e+03
7515, 6.463451473163142e-01, 1.213689975136837e-01, 2.701334609424075e-02, -6.218619393288789e-10, 1.573148589943090e-10, -6.880046163743810e-10, 1.458374013008766e+03, 1.331469643924476e+03, -1.495170547767979e+01, 2.425978858447568e+03, 4.951871223473889e+02, -6.511584926546156e+01, 1.350621663762827e+03
7516, 7.693008757364425e-01, 1.261753345392464e+00, 9.066451124102804e-03, -7.193339227711561e-10, 4.107569192004358e-10, -2.250251158290735e-09, 4.641731157298915e+03, 4.075548946013785e+03, -1.774343658689272e+01, 7.440977399403051e+03, 3.919169537573036e+02, -3.733286108454506e+02, 3.259001256086946e+03
7517, 4.434681761988319e-01, 5.406509042327847e-01, -1.981445578715171e-03, -1.689324308797857e-09, 1.297174545701216e-09, -7.306756957025486e-09, 6.876347938896328e+03, 6.505841496756243e+03, -1.359681970568316e+02, 1.420908474553219e+04, 2.008986105228436e+02, -5.906459943536370e+02, 7.605672961897360e+03
7518, 5.664050164763222e-01, 3.378593787652608e-02, 4.027785184093814e-03, -3.302167536636278e-10, 4.027907039700134e-10, -7.732737578702550e-10, 1.582540707107947e+03, 1.415481635016091e+03, -3.285940872213925e+02, 1.644118873994998e+03, 1.895152271915529e+02, -4.384885559428656e+02, 1.024926691616618e+03
7519, 8.255445815969328e-01, 9.290783324996903e-01, 1.251078182793430e-02, -6.413422714432562e-10, 2.712857444402906e-10, -7.672999037042425e-10, 1.565233884747631e+03, 1.443751209391813e+03, -2.779045151609196e+01, 2.811940971900518e+03, 4.358287772260574e+02, -1.039451797722215e+02, 1.524815009060562e+03
7520, 5.945867447161003e-01, 2.074168534985386e-01, 3.265903046895515e-02, -7.620688938443030e-10, 2.721374877128362e-10, -9.242332421861888e-10, 2.175781067336005e+03, 2.027591974259415e+03, -8.916692254677129e+01, 3.547136424029704e+03, 6.391362204998672e+02, -2.694886262125357e+02, 1.890239490779208e+03
7521, 6.471551508998842e-01, 1.096930716407476e+00, 8.612121179032456e-03, -6.597151413994317e-10, 4.788879280144204e-11, -5.114913766147400e-09, 7.163916303185079e+03, 7.447089139717862e+03, 5.988365355685213e+02, 1.830630310119555e+04, 8.402281457543106e+02, 1.268141323335027e+02, 1.114987713872744e+04
7522, 8.148073066672354e-01, 7.521794722746974e-01, 1.312681853993344e-02, -6.507229726475827e-10, 2.505989695909547e-10, -4.087354325007250e-10, 1.112311087877928e+03, 9.556786772729611e+02, -8.943956234491333e+01, 1.454257833983363e+03, 4.941625786680255e+02, -1.567044101478772e+02, 1.012560278328784e+03
7523, 7.829794833895263e-01, 3.280072425724663e-01, 1.289079472060526e-02, -5.844568214103448e-10, 1.065408846654988e-10, 5.366195126665202e-11, 1.346629947307646e+02, 1.122103778066520e+02, -2.669242912886546e+01, 2.796151691474527e+01, 3.676764052583350e+02, -5.803940995518542e+01, 6.536777428990025e+02
7524, 3.510109046977016e-01, 3.592596365689327e-01, 2.957705626081805e-02, -1.239911035829546e-09, 6.446519467213867e-10, -3.310129798071992e-09, 5.290395253769261e+03, 5.564317202843489e+03, 1.842939218391775e+02, 1.075523015767683e+04, 7.974764177189178e+02, -4.544374360847591e+02, 5.574213338416789e+03
7525, 5.433898784552256e-01, 1.867890275718308e-01, 3.706760633601555e-02, -7.894243274467170e-10, 3.226028199146119e-10, -1.153466886577250e-09, 2.650069684297127e+03, 2.541428885416243e+03, -1.168803462724600e+02, 4.381790302105289e+03, 6.919051774033951e+02, -2.739802758258705e+02, 2.213858978546867e+03
7526, 8.358425676950135e-01, 1.103255701392784e+00, 1.095909641583837e-02, -5.773553326905764e-10, 3.158576351318402e-10, -1.086373267302157e-09, 2.150311640463038e+03, 1.813459965835012e+03, -1.746827238470281e+02, 3.558316089360431e+03, 4.653012932401618e+02, -3.667898567374463e+02, 1.927406722731489e+03
7527, 8.335617782933974e-01, 1.212811170613303e+00, 1.107628137264667e-02, -6.410648557689339e-10, 4.938295206283855e-10, -1.521881862480720e-09, 3.310285009196334e+03, 3.008681176537751e+03, -3.782543509529547e+02, 5.028770078768270e+03, 3.544576977803520e+02, -3.966945333488443e+02, 2.200160673342697e+03
7528, 7.549753736623732e-01, 5.709633499227784e-02, 1.318577093514987e-02, -4.243776162992468e-10, 5.216729405123711e-11, -1.351587701883818e-11, 1.637189831950177e+02, 1.181047595133108e+02, -8.937117387310509e+01, 1.334633916259943e+02, 2.945037086886927e+02, -3.056502975301325e+01, 5.371941543667297e+02
7529, 5.669124010547315e-01, 5.893055871357489e-01, 1.647870746299261e-03, -1.297319152406093e-09, 6.204762839227753e-10, -3.465109039477536e-09, 2.935794114833421e+03, 3.833922450130024e+03, -2.803320488853691e+02, 5.899567767100559e+03, 1.944839920135544e+02, -1.092228724273651e+02, 2.704396202844207e+03
7530, 2.126647582195151e-01, 1.607837394436295e-01, 2.754966968475511e-02, -4.094539682408253e-10, 4.942553408949129e-10, -3.516432272439813e-09, 5.033456822437062e+03, 5.629319728987519e+03, 2.439093009128090e+02, 1.120812654058584e+04, -9.726759793486482e+01, -1.804889694342184e+02, 5.925110048655871e+03
7531, 3.421838362023696e-01, 2.927518671493023e-01, 3.469348902415038e-02, -1.213312264570077e-09, 6.690876334636826e-10, -2.967552617216200e-09, 5.274419907023794e+03, 5.160400273224574e+03, -7.722095366855213e+01, 1.033281795691146e+04, 8.183434336622777e+02, -3.864415707207297e+02, 5.352766239741109e+03
7532, 5.775668882600361e-01, 5.388238005165630e-01, 1.728919188397061e-03, -1.347642993389455e-09, 6.507538015507414e-10, -3.592871945353695e-09, 3.604006404301272e+03, 3.661944508632655e+03, -7.385534448553339e+01, 7.976178059954137e+03, 5.102079593308647e+01, -2.134072931108936e+02, 4.361963742596541e+03
7533, 3.124412504958173e-01, 3.189796537736355e-01, 2.785232963671796e-02, -1.204121797513746e-09, 6.090091805390065e-10, -3.578966379147862e-09, 5.377031570260909e+03, 5.558620425320607e+03, 1.612376437354277e+02, 1.160390157794079e+04, 7.549694579238197e+02, -1.627509655038741e+02, 6.288366037398559e+03
7534, 8.363628802904702e-01, 1.136856253184238e+00, 1.132501153254244e-02, -6.907132796591163e-10, 1.838292660488789e-10, -1.172680672167732e-09, 2.478104733706307e+03, 2.653409828662848e+03, 1.940695826182883e+02, 3.921671055286577e+03, 6.420563123010688e+02, 3.146331449525690e+02, 1.873027242443607e+03
7535, 4.646630711455774e-01, 3.110549373333407e-01, 3.721521087354437e-02, -1.088243859213643e-09, 4.785698289822960e-10, -1.900295493834276e-09, 3.962274380409756e+03, 3.796773233988053e+03, -4.139603151916688e+01, 6.688664942315510e+03, 8.120274869209343e+02, -3.391893045344982e+02, 3.200042477039668e+03
7536, 4.298104429161340e-01, 4.904236385385106e-01, 2.888886149788767e-02, -1.190391036601735e-09, 7.183489557947159e-10, -2.793212819859329e-09, 4.610485893951801e+03, 5.224727213668967e+03, 1.442126315696869e+02, 9.524339893494485e+03, 8.967665864976184e+02, -4.619477726171195e+02, 4.961865715359419e+03
7537, 5.099133517255386e-01, 3.883496409702525e-01, -7.000215315919808e-04, -1.439821587961225e-09, 7.389443717670823e-10, -3.610107808933453e-09, 3.722470742710932e+03, 3.741386905717102e+03, 1.044953443242548e+02, 5.687848939275774e+03, 3.840006504227350e+01, -2.330326037041742e+00, 1.965474415916105e+03
7538, 4.679028611276094e-01, 1.491658674533287e-01, 4.214461702200284e-02, -8.117986319976764e-10, 4.622795966136101e-10, -1.558900173573931e-09, 3.222782206137901e+03, 3.077521443978205e+03, -1.151623948813952e+02, 5.788131790961222e+03, 7.005981583524180e+02, -3.414997486275180e+02, 2.972697516104981e+03
7539, 4.740649273295687e-01, 4.656723354451289e-01, 3.332235278066527e-02, -1.127728354646296e-09, 6.129109243479839e-10, -2.192503027370299e-09, 4.531117465079849e+03, 4.441825604505775e+03, 3.586631906411867e+01, 7.738853905542370e+03, 8.670735249574127e+02, -3.673292615059464e+02, 3.639790089206719e+03
7540, 7.636017134096881e-01, 9.973862563938372e-02, 1.286066020206116e-02, -5.004619772268160e-10, 4.342292585942340e-11, 1.837895587348975e-11, 4.353892732866799e+01, 2.431121785031888e+01, -5.796487288613659e+01, 1.652609627326760e+01, 3.137556724395223e+02, 2.258952406254433e+01, 5.545435133583799e+02
7541, 1.799103829735354e-01, 1.335042856287211e-01, 2.536970886596186e-02, -1.997596445649199e-10, 3.368665806718712e-10, -3.675045314251424e-09, 5.007495296417675e+03, 5.268932045795527e+03, 3.561619873021216e+02, 1.218579672385772e+04, -3.435959931057724e+02, 3.597028132436516e+02, 7.130398012065451e+03
7542, 3.788435879366833e-01, 3.185146797315930e-01, -4.343384323790271e-03, -1.993678257616905e-09, 1.006213443222697e-09, -5.950080340812801e-09, 5.024905236147006e+03, 5.377355228500158e+03, 7.014398322131052e+01, 8.500318969100579e+03, 4.452273971308049e+02, 2.655161039348220e+02, 3.434931049332541e+03
7543, 5.898889055868299e-01, 4.546267422156989e-01, 3.046373434048462e-02, -9.507997530639436e-10, 3.411209617208967e-10, -1.321058970370477e-09, 2.947338901813821e+03, 2.831800414847446e+03, -1.082275707027431e+02, 4.827499632572431e+03, 7.532556551465026e+02, -1.696928137642208e+02, 2.364168619596230e+03
7544, 8.231697542422052e-01, 8.144316851188644e-01, 1.210699873693386e-02, -6.367405010331962e-10, 2.506948743236299e-10, -4.264833923995328e-10, 1.288428909697575e+03, 9.379618159833577e+02, -5.941423736250150e+01, 1.613956599971705e+03, 3.498609747956960e+02, -1.330592037278002e+02, 8.796560233379249e+02
7545, 4.991090774192188e-01, 5.448320308593224e-01, 3.098553435951121e-02, -1.210911672694876e-09, 5.913033210378037e-10, -2.358883699860296e-09, 4.700881439651473e+03, 4.595084819271833e+03, -1.698410438140737e+02, 8.458720188495054e+03, 8.385040789201838e+02, -2.937666281390067e+02, 4.121263560337624e+03
7546, 3.136947309351388e-01, 5.014999227192370e-01, 5.523465226280642e-03, -2.526408886467895e-10, -4.843365937207614e-10, -3.924220024977491e-09, 4.488904790504133e+03, 5.405578648192383e+03, 9.148722363595843e+01, 1.263268752601309e+04, -2.480281760811912e+02, 1.599711603029820e+03, 8.220899632733017e+03
7547, 1.688356257375924e-01, 2.325003946066556e-01, 4.322287996706958e-03, 2.910377069503664e-11, 1.830452011837744e-10, -2.416681873261046e-09, 4.456278482958731e+03, 3.528826332129763e+03, -6.759610230013095e+01, 7.677573995720438e+03, -1.415511222325892e+02, 1.385522946584263e+02, 3.788920400219871e+03
7548, 5.815432458473550e-01, 6.833821333659695e-01, 2.787706647394044e-02, -1.079264501175975e-09, 5.511915613209712e-10, -2.062530985671235e-09, 3.907491586612055e+03, 3.891434394188749e+03, 2.021170212764893e+02, 7.290126227039897e+03, 8.907513109277116e+02, -3.612486979318695e+02, 3.793568239701214e+03
7549, 8.359267186572031e-01, 1.173364245849976e+00, 1.090300255254856e-02, -8.101500433407883e-10, 2.312694290819104e-10, -9.574224228341687e-10, 3.264863432040444e+03, 2.564696226069254e+03, -1.392330668626562e+02, 4.778086263956680e+03, 8.660469377491626e+02, -1.845668853723097e+02, 2.500010139777607e+03
7550, 5.319952354289943e-01, 4.569565911350912e-01, 3.320244446794895e-02, -1.041484274068725e-09, 5.268218507259419e-10, -1.849628293036824e-09, 3.461288939312433e+03, 3.636068603489503e+03, -7.743568194471879e+01, 6.662846930613091e+03, 8.109548670391467e+02, -3.879303643047306e+02, 3.487600381120948e+03
7551, 5.750662474020277e-01, 4.831440716409976e-01, 5.819873194034368e-04, -1.310397839067613e-09, 6.142015404148638e-10, -2.754742741876597e-09, 3.443365747783686e+03, 3.027712413001914e+03, -2.962474992137252e+02, 5.380009898234995e+03, 2.765519151055631e+02, -1.731113922842764e+02, 2.304552917519102e+03
7552, 5.287646030146319e-01, 4.947443086526213e-01, -6.082865477623628e-04, -1.138685754396864e-09, 1.112290957388483e-09, -4.294758128876055e-09, 3.839304478586186e+03, 3.886618771348067e+03, -2.001011786691532e+02, 8.200447962511826e+03, 1.372368547220829e+02, -7.880278314344155e+02, 4.566733362859459e+03
7553, 5.453352423054535e-01, 3.977216024288853e-01, 3.349127283815526e-02, -9.307487696090328e-10, 3.849076675394382e-10, -1.564781316938429e-09, 3.231850986081348e+03, 3.213071782975095e+03, -2.198338012697466e+01, 5.595458538201894e+03, 6.944749470031780e+02, -2.195405432953177e+02, 2.687807712374001e+03
7554, 8.033820864154844e-01, 5.663207997528004e-01, 1.179196441723695e-02, -6.393098879647616e-10, 1.897804289080053e-10, -1.456423595082886e-10, 5.192469621641226e+02, 4.611646134209900e+02, -2.077256763423739e+01, 8.632237520858879e+02, 4.242642760875108e+02, -9.604523526950753e+01, 8.429956461077608e+02
7555, 7.423543587754016e-01, 1.243252290740611e+00, 8.665262964426372e-03, -8.530037447857078e-10, 3.099449086601660e-10, -2.442819924305546e-09, 4.113184758872682e+03, 4.872724831190764e+03, 3.108092902723066e+02, 7.512713557449584e+03, 6.480129369930215e+02, 3.045149683279292e+02, 3.373333138957541e+03
7556, 3.805468931823029e-01, 4.722116316392717e-01, -2.198411047004516e-03, -1.904464978480915e-09, 1.259439129813728e-09, -6.025789844142457e-09, 6.292393047598060e+03, 6.481033437138083e+03, 1.706366936324860e+02, 1.265091003205132e+04, 1.533054488485707e+03, -6.412072042205626e+02, 6.902058330032813e+03
7557, 6.025958466549208e-01, 6.613533220445853e-01, 1.181217851683672e-03, -1.345628808737335e-09, 8.601739751016029e-10, -2.784179859837961e-09, 3.425749371700650e+03, 3.397721934026664e+03, -2.452207498024345e+01, 5.337980547488105e+03, 6.630785761258932e+02, -3.999826172145146e+02, 2.347720260182296e+03
7558, 6.201490265158338e-01, 7.187509935135779e-01, 2.685278332461070e-02, -9.926057299549261e-10, 4.274987762859269e-10, -2.038991781127186e-09, 3.724252752211721e+03, 3.532652028425708e+03, -4.823492682612006e+01, 7.161581424572927e+03, 7.840211666562152e+02, -1.794550672888579e+02, 3.802393148798034e+03
7559, 6.416005317620219e-01, 6.161364999786914e-01, 2.754135393473017e-02, -9.139768751306646e-10, 3.822011373109606e-10, -1.150477847929102e-09, 2.871714145227077e+03, 2.734477955678974e+03, -3.371962787342461e+01, 4.310817690641956e+03, 6.790758804827867e+02, -2.079795893775175e+02, 1.950374219515415e+03
7560, 2.835855236862040e-01, 2.244441620484700e-01, -6.268109762897711e-03, -2.041697727270127e-09, 1.199284049488195e-09, -6.902240595208379e-09, 5.254843002814675e+03, 6.218382894975456e+03, 1.416934877068145e+02, 1.005928318046138e+04, 1.090800440249768e+03, -6.214903275585982e+00, 4.797047902981531e+03
7561, 5.347664395907613e-01, 7.189934007079981e-01, 2.445320474444106e-02, -1.125667024362448e-09, 5.429789986060186e-10, -2.367534153287286e-09, 4.682036080126171e+03, 4.905299494030475e+03, 1.184305962774072e+02, 8.596511415426326e+03, 8.122898154345149e+02, -3.091207747788242e+02, 4.099657691446631e+03
7562, 5.548154636506223e-01, 6.769572056401473e-01, 3.887619319355093e-04, -1.310750226889852e-09, 6.141482124757511e-10, -4.266341301032502e-09, 4.641813576172504e+03, 4.417690481048633e+03, 5.696194968702810e+02, 7.364065745616221e+03, -1.434015157093551e+02, 7.159309912329444e+01, 3.020178046245955e+03
7563, 5.920440070521509e-01, 1.116952780067956e-01, 3.396942276771182e-03, -6.493923744433415e-10, 3.375732985072399e-10, -1.936165138418307e-09, 2.075025749695069e+03, 1.699091114384184e+03, -4.182108740817612e+02, 3.509534219645005e+03, -2.942450535100871e+00, 7.590412413042256e+01, 1.811196871328902e+03
7564, 5.476897902864150e-01, 6.410760429562995e-01, 4.469050415852049e-05, -1.564158200629593e-09, 6.180468862073388e-10, -4.246475256571242e-09, 5.071054147717367e+03, 4.536967755960288e+03, -2.985394042862234e+02, 7.986065130996109e+03, 7.348917709322717e+02, -1.348980083200396e+02, 3.504507453996946e+03
7565, 2.369116607333008e-01, 6.451912710365909e-02, -8.996836190147448e-03, -9.151188432754712e-10, 1.552961440476657e-09, -5.966465998361474e-09, 4.581784700710741e+03, 4.891020815629925e+03, -4.915856687697429e+02, 8.061870209546059e+03, 1.616352391386485e+02, -1.108427830527871e+03, 3.952168775307663e+03
7566, 6.026509543426658e-01, 3.450256183142278e-01, 3.209343215159711e-02, -8.524524907275703e-10, 3.045681859835502e-10, -1.005181638775778e-09, 2.461926600740914e+03, 2.343546212909990e+03, -1.703690284257156e+01, 3.927243086579967e+03, 7.064972461950015e+02, -2.156826479510446e+02, 1.993106598374425e+03
7567, 8.236488322002574e-01, 1.284901717159695e+00, 1.005799327412822e-02, -9.938748089196142e-10, 3.551617220435874e-10, -1.690554988247017e-09, 3.057207093804813e+03, 3.958303601942717e+03, -7.213627042707300e+00, 5.576420170550493e+03, 8.025954440601619e+02, -3.968508363553124e+02, 2.700640950771748e+03
7568, 4.327503355704829e-01, 1.194441993830693e-01, -5.451195265454810e-03, -9.790447736614053e-10, 6.609564133756322e-10, -4.161764759026472e-09, 3.902091171808956e+03, 3.181010686994865e+03, -3.535735103681722e+02, 6.770846185794029e+03, -1.650301850201002e+02, 1.517090342091206e+02, 3.368101856079912e+03
7569, 2.805114349917522e-01, 2.361519326784383e-01, 3.271489772822767e-02, -9.917618549250556e-10, 6.745278793661331e-10, -3.063899180926598e-09, 5.152816212023233e+03, 5.561176573361427e+03, 1.567979024519009e+02, 1.065514137471321e+04, 5.784530278676450e+02, -3.615381409430535e+02, 5.446569455547649e+03
7570, 2.053428830519524e-01, 1.904027424863475e-01, -4.410895748655955e-03, -1.441078036000996e-09, 8.455561637104024e-10, -6.981953648938893e-09, 5.061930599150231e+03, 6.357284704985044e+03, -9.734292595731270e+01, 1.110931644549448e+04, 9.205023331755563e+02, -2.081131114400834e+02, 5.754619494088641e+03
7571, 4.518184514086460e-01, 5.161827415146468e-01, 2.872324313433913e-02, -1.325116784934645e-09, 9.323488745130239e-10, -2.808686935304379e-09, 4.851879253765745e+03, 5.167235102780024e+03, 9.048270893247127e+00, 9.432516208578785e+03, 1.055802986814318e+03, -9.022890953069361e+02, 5.042215371881804e+03
7572, 6.687486863789400e-01, 5.934113938989913e-01, 2.538377599077608e-02, -7.591073186300411e-10, 2.434133375658058e-10, -1.077550971213857e-09, 2.458299766053713e+03, 2.301998157479218e+03, -1.081213175657747e+02, 3.878558828424002e+03, 4.745552382294761e+02, -7.002860833353702e+01, 1.728856694874930e+03
7573, 2.798059716402118e-01, 1.587222273308535e-01, 3.742040543620236e-02, -1.023806947093380e-09, 6.868404013689369e-10, -3.129422277413223e-09, 5.007146954675350e+03, 5.204896420045146e+03, 6.661141986768358e+01, 1.064252623421406e+04, 6.512535053409775e+02, -2.856838022070875e+02, 5.675628737733035e+03
7574, 8.213614336526378e-01, 7.044528184548692e-01, 1.174165274932445e-02, -6.126599690206571e-10, 1.827590177808809e-10, -2.139631268172724e-10, 8.234714154707272e+02, 6.615349819221724e+02, 8.031794062255848e+00, 8.868324948170113e+02, 3.549085673101282e+02, -8.454793524679177e+01, 6.633380471244822e+02
7575, 5.916495931319934e-01, 7.120397834305429e-01, 7.184271396846464e-04, -1.226759776972043e-09, 6.248171635289824e-10, -3.924253619626135e-09, 4.450851118633379e+03, 4.323658333162328e+03, -2.926406388942064e+01, 7.773714448307187e+03, -1.120556667698996e+02, 6.057046394162674e+01, 3.395804451376086e+03
7576, 4.823706889164601e-01, 5.106495536404757e-01, -2.875664313261233e-03, -1.771692850003420e-09, 1.069290594980793e-09, -4.162977484491916e-09, 4.635081830731586e+03, 4.016902531848624e+03, -1.894022439357504e+02, 6.353603292320469e+03, -4.071029562103571e+01, -4.787454022827029e+02, 2.279912091924202e+03
7577, 4.281483544991086e-01, 4.907922754434935e-01, -3.458986133457808e-03, -1.810567152087579e-09, 1.311544457231899e-09, -5.602407007702216e-09, 4.550579989064403e+03, 5.277359831606117e+03, 2.640010271867734e+02, 8.528227411770848e+03, 6.040779834526911e+02, -4.730181528583927e+02, 3.928622247998865e+03
7578, 4.250983692529194e-01, 3.202375561337775e-02, -5.205564160739307e-03, -4.618029680266325e-10, 7.081285031690919e-10, -1.859382984664578e-09, 2.330184647544787e+03, 2.153524052170674e+03, -5.666089438467118e+02, 3.389168319314363e+03, -2.864507910537177e+02, -8.280584041314771e+02, 2.146177411996560e+03
7579, 6.032976947347995e-01, 3.233070655706212e-01, 3.001477407916210e-03, -1.143400850803690e-09, 3.172962154182609e-10, -1.867958504133925e-09, 2.446177526116870e+03, 2.442800061895189e+03, 1.305783213465912e+01, 3.633992122243786e+03, 4.555223204078216e+02, -1.286235025253925e+02, 1.444843248817038e+03
7580, 8.347905394383297e-01, 1.248721272768556e+00, 1.075355335436675e-02, -1.032876856489526e-09, 4.004908817873851e-10, -1.730532478425858e-09, 3.878568197034014e+03, 3.433835356513453e+03, -9.522675588234850e+01, 7.152661983869922e+03, 1.118733189473928e+03, -3.642688961652104e+02, 4.068604944366638e+03
7581, 7.996842874797215e-01, 3.963273447877068e-01, 1.232396612185646e-02, -5.729199224863630e-10, 1.140304342739497e-10, 6.839442066081565e-11, 1.317066560110284e+02, 4.088671410087680e+01, -3.330574352769046e+01, -4.563678267595628e+01, 3.415377379662986e+02, -7.584972013997621e+01, 6.277930180014208e+02
7582, 5.330093349199171e-01, 5.471168314179048e-01, -1.602676577217438e-04, -1.407933928226201e-09, 6.987275400093336e-10, -3.868331478177521e-09, 4.257606866451722e+03, 4.326152463340217e+03, 6.982827028706680e+01, 6.620726026695163e+03, 1.643147426755498e+02, 4.517132434901463e+02, 2.476854816095113e+03
7583, 8.372715283782025e-01, 8.861413671076834e-01, 1.275346737632669e-02, -5.989025374356107e-10, 2.351727841181592e-10, -5.758410600368921e-10, 1.324329725931860e+03, 1.180878421060703e+03, -5.337901742695504e+01, 1.907391035082859e+03, 4.782411050692911e+02, -1.329527408741825e+02, 1.091741997393008e+03
7584, 2.604224703422601e-01, 6.697715036980992e-02, 4.175839800482518e-02, -6.676225650779206e-10, 1.282098620784701e-09, -2.297752622563322e-09, 3.972637859655708e+03, 4.026740385000460e+03, -1.393858933715495e+02, 7.907812638310440e+03, 4.706921522875889e+02, -1.003725415441247e+03, 4.361302264909787e+03
7585, 5.157383252491100e-01, 3.739888125307674e-02, 3.777503519695743e-02, -4.300031113171982e-10, 5.420349876663962e-10, -7.767010417115913e-10, 1.735412171231707e+03, 1.972576310961648e+03, -2.675262345533804e+02, 2.975208410670688e+03, 3.762465026721357e+02, -6.372952213619222e+02, 1.776833443035142e+03
7586, 6.397618560531124e-01, 6.975190549690274e-01, 2.478516587847885e-03, -1.274370902683789e-09, 7.516754761950600e-10, -3.260001390002411e-09, 4.186266800992502e+03, 3.712779408007313e+03, -3.462549732841396e+02, 6.343109799384204e+03, 8.277516121858021e+02, -6.551352958124278e+02, 3.098419352003915e+03
7587, 6.299512522862547e-01, 2.324200941751237e-01, 2.892475413317393e-02, -7.629479884487934e-10, 1.881675004812364e-10, -7.685604287876172e-10, 1.766122526496525e+03, 1.586575022885254e+03, -7.756598258656626e+01, 2.800438569774756e+03, 6.336059555614943e+02, -1.561106162482980e+02, 1.607260522193144e+03
7588, 3.812008036805171e-01, 3.722349433496185e-01, 3.210817748614897e-02, -1.294914897545653e-09, 6.633430101957398e-10, -3.004985821186740e-09, 5.115093507208877e+03, 5.293138520682638e+03, 6.606824203005068e+01, 1.014489098097142e+04, 9.495587119259019e+02, -4.989838572821544e+02, 5.282051423868101e+03
7589, 7.866648050700711e-01, 1.296838057042104e+00, 9.083493217633826e-03, -6.925060742189704e-10, 6.587940337001867e-10, -2.435870283927525e-09, 4.763808071896378e+03, 5.250896037677134e+03, 1.302493710404618e+02, 9.856584212039090e+03, 1.534287842000379e+02, -1.145946443355347e+03, 5.268214987477767e+03
7590, 6.081373737249409e-01, 1.049512200489296e+00, 5.975325857640334e-03, 1.809247270551329e-10, 3.369054037868183e-10, -2.906604437756764e-09, 4.524219644160489e+03, 4.717526278034301e+03, 9.238215899999625e+02, 8.620541060889725e+03, -6.197810928132744e+02, 4.147311906524034e+02, 4.500455663652028e+03
7591, 5.946608035117527e-01, 6.272065353297324e-01, 1.755322013306259e-03, -1.635523590742061e-09, 3.365302869207604e-10, -2.821743818778637e-09, 3.629712621483156e+03, 3.726203808473670e+03, 4.875273607281630e+01, 6.593709996205399e+03, 7.574539225632200e+02, 5.774675946330469e+02, 3.352213843477216e+03
7592, 3.859299171891715e-01, 3.234212302953192e-01, 3.605822790214656e-02, -1.237056749782209e-09, 5.462323477862271e-10, -2.620165582868923e-09, 4.770284110612100e+03, 4.927322160354853e+03, 3.467464324005794e+01, 9.116030348327207e+03, 8.443025990201327e+02, -2.859905943140131e+02, 4.540401225302727e+03
7593, 5.722863309067036e-01, 1.573555802244346e-01, 1.375337619227555e-03, -8.860023118917623e-10, 3.159937466113874e-10, -2.056758855596101e-09, 2.299432183243171e+03, 2.336444198549428e+03, -1.497375368372310e+02, 3.272192100368311e+03, 2.871504808648890e+02, 2.359840985972294e+02, 1.180391295659912e+03
7594, 8.488142968654907e-01, 1.011449415405579e+00, 1.164024622949954e-02, -5.810211257544380e-10, 2.488786816850201e-10, -7.335058378244236e-10, 1.593226556201412e+03, 1.578647736324736e+03, 1.363698896876589e+02, 2.513441486305712e+03, 4.668506132205579e+02, -9.413369275872930e+01, 1.263584539815349e+03
7595, 8.090813223050297e-01, 4.749864057772341e-01, 1.226060178646196e-02, -6.056854874715117e-10, 1.241245928428356e-10, 6.191712271694977e-11, 1.271475127133343e+02, 2.281405793212918e+01, -3.621679819676851e+01, -1.247965182003636e+02, 4.001005528174384e+02, -8.065515901465889e+01, 7.428103148713477e+02
7596, 4.910902665819351e-01, 2.120363770709394e-01, -2.355998916586645e-03, -1.173486155014379e-09, 6.740962486436157e-10, -3.713742427428129e-09, 2.918912136008702e+03, 3.081881072900037e+03, -3.947015787044113e+02, 5.529714828626298e+03, -2.121148037555673e+02, -2.564884777955314e+02, 2.686461414437125e+03
7597, 4.218587604426102e-01, 3.940376596242883e-01, -3.850595861227053e-03, -2.064868134662431e-09, 8.739503428680116e-10, -5.481973861208587e-09, 5.016553632745157e+03, 4.648160487217769e+03, -2.757181323370921e+02, 8.948847413396936e+03, 6.383255666812954e+02, 8.000957935993208e+01, 4.303129397673249e+03
7598, 8.235921341624551e-01, 6.640653414052937e-01, 1.216070379862313e-02, -5.850166085932899e-10, 1.890105055418178e-10, -1.631971425955510e-10, 6.234358995343698e+02, 5.451500445443957e+02, 1.796755137941881e+01, 6.474797466451564e+02, 3.576423462471605e+02, -1.090495269268527e+02, 6.549481773147118e+02
7599, 6.121796571016873e-01, 5.746849725812545e-01, 1.370437270918380e-03, -1.365846069716901e-09, 5.067356535873020e-10, -2.503645684770860e-09, 2.983194146662815e+03, 2.339291505618525e+03, 2.076241727496757e+02, 4.071987711246998e+03, 6.456284651210914e+02, 2.861598036413796e+02, 1.981578442839333e+03
7600, 1.235673754906994e-01, 1.520250769601737e-01, 4.236961913866993e-03, -1.801695540676359e-11, 1.695275091910744e-10, -1.395972175675338e-09, 3.220320444633270e+03, 2.724083044913681e+03, 2.514018386864292e+02, 4.413210046174848e+03, 5.137351767299083e+01, 2.840016506075843e+02, 1.643377854740216e+03
7601, 6.107621681336628e-01, 2.626577042662069e-01, 2.477064534714853e-03, -1.028804284424156e-09, 1.106195524756517e-10, -1.775028388811910e-09, 2.204760497675467e+03, 2.172755623765239e+03, -5.783975314674332e+01, 3.745600969344674e+03, 2.118366023162021e+02, 4.130862390860193e+02, 1.755308903937106e+03
7602, 6.820569305971971e-01, 1.167259679479547e+00, 8.212689957453587e-03, 4.831084384872496e-11, 7.776915282125562e-10, -3.578058323533660e-09, 4.337623166396166e+03, 4.213369078904109e+03, 6.644812457086017e+01, 1.121441418557383e+04, -2.111825634766066e+03, 4.601995998791122e+02, 7.885948440269655e+03
7603, 7.775437666150787e-01, 2.169283395257088e-01, 1.232316131189876e-02, -5.736163190086003e-10, 7.431471391018132e-11, 7.987888047656796e-11, 1.158770535757775e+02, 3.601598536092877e+01, -4.291308308647423e+01, -3.957229112254914e+01, 3.151462854151988e+02, -3.617105232113239e+01, 5.705515884419719e+02
7604, 8.138183505874891e-01, 1.315342719441798e+00, 9.652002328094517e-03, -8.945410040280643e-10, 2.705259543199860e-10, -2.494491160493994e-09, 4.506214286890546e+03, 4.886778763028288e+03, -6.883055195427252e+01, 9.625882121512903e+03, 1.126178734522838e+03, 5.483538651227994e+02, 5.397090771423913e+03
7605, 3.004270595286935e-01, 1.296946114827075e-01, -9.267952750657744e-03, -1.664906914084710e-09, 1.134666085231249e-09, -6.727777828586816e-09, 5.000126839710851e+03, 4.167835320903562e+03, -5.001045509449789e+02, 7.729227428282042e+03, 8.066979579659219e+02, -3.419772354716830e+02, 3.669543599575745e+03
7606, 6.516619495688866e-01, 1.807152913505462e-01, 2.815658572059900e-02, -6.384873824515233e-10, 1.538226524263747e-10, -6.316271791778743e-10, 1.493490032024876e+03, 1.433765602544712e+03, -8.257688530571791e+01, 2.393045773955016e+03, 5.008813562981488e+02, -1.078317525851425e+02, 1.294016723078550e+03
7607, 7.122997913246217e-01, 1.222604641000633e+00, 7.906404610909603e-03, -6.030783230331179e-10, -2.756116841286629e-10, -3.780369695203348e-09, 4.750750335328808e+03, 5.644806571000744e+03, -5.018215398427539e+02, 1.204231927504493e+04, 1.268196237927853e+03, -3.694782520929623e+01, 7.282291986001960e+03
7608, 5.773408215348852e-01, 3.810922107515902e-01, 3.311756996805449e-02, -9.031687496861398e-10, 3.578105629252048e-10, -1.313762610461643e-09, 2.784334700217305e+03, 2.667963280746425e+03, 1.744450216844882e+01, 4.694905017206738e+03, 7.090295506225456e+02, -3.260608424069375e+02, 2.390436295952450e+03
7609, 5.763275879361462e-01, 4.834709779360832e-01, 3.249311063380514e-02, -1.052726611512413e-09, 4.475093846036225e-10, -1.465287184667397e-09, 3.206835321486162e+03, 3.136804312265098e+03, -7.783697837602972e+01, 5.388626238661514e+03, 8.306363246334199e+02, -3.750186277326533e+02, 2.725412221813363e+03
7610, 3.583181786065197e-01, 4.196482538998942e-01, 2.775324957950072e-02, -1.055011857712610e-09, 4.460712565852968e-10, -3.490218968516883e-09, 5.102090969542150e+03, 5.523622231531517e+03, 2.281753691080990e+02, 1.185902461550138e+04, 6.414037952298994e+02, -2.336351845295129e+02, 6.673809018463887e+03
7611, 5.689609905845197e-01, 7.346928633096749e-01, 1.550050993357401e-03, -1.526430964050498e-09, 9.829518404461290e-10, -3.406334489287741e-09, 4.273363630621285e+03, 4.399455082492677e+03, -2.967527208070730e+02, 7.754795222823719e+03, 6.718217576745629e+02, -6.879716051204448e+02, 3.838674375861867e+03
7612, 3.107872948295072e-01, 3.159778917344422e-01, -6.557616611728531e-03, -2.017582524045033e-09, 1.370116774239601e-09, -7.977129142428179e-09, 6.108655323012150e+03, 5.699641337719202e+03, -1.125499365820970e+02, 1.375638425400456e+04, 1.011279930604447e+03, 4.369602259823864e+02, 8.090855628837073e+03
7613, 4.596669605022911e-01, 1.717550021095552e-01, -4.540635554667157e-03, -1.181511513392837e-09, 7.180763797211593e-10, -4.168183517567973e-09, 3.432150594962069e+03, 3.136289853192193e+03, -5.756354271601003e+02, 5.244092979957092e+03, 5.507568767093954e+02, -2.985478735118966e+02, 2.465402958585035e+03
7614, 6.217521406388277e-01, 1.321034442081420e-01, 3.684324990986251e-03, -7.418641216441426e-10, 1.409259967150814e-10, -1.364279097700822e-09, 1.467631736577195e+03, 1.651177166253738e+03, -4.734790317436919e+01, 2.343317148567385e+03, 1.966487951135344e+02, 3.384816423308661e+02, 1.051776114280601e+03
7615, 4.954487942220233e-01, 3.147489008327032e-01, -2.717746354496516e-03, -1.450482328442525e-09, 7.715015365997698e-10, -3.392125782626504e-09, 2.858128191607833e+03, 2.492578420196706e+03, -3.318992440648776e+02, 5.033216184994766e+03, 2.542099493568252e+02, -3.147571621266245e+02, 2.545838362142210e+03
7616, 4.232967604700113e-01, 2.282785449080766e-01, -5.459520006368294e-03, -1.657623985304326e-09, 8.083822912711092e-10, -4.871521692257370e-09, 4.224892205305763e+03, 3.833179538544028e+03, -1.582556644544512e+02, 6.527543052284933e+03, 7.286333647713107e+02, -4.859157977640763e+01, 2.834176242214306e+03
7617, 8.417405089259287e-01, 7.820735741119121e-01, 1.184800526993400e-02, -5.253877428876941e-10, 2.058778526827904e-10, -2.111478365983908e-10, 8.066268152919241e+02, 6.455347594497986e+02, -7.536217530304872e+01, 1.110126434828096e+03, 3.283897268358382e+02, -1.859424188743870e+02, 7.818155837895367e+02
7618, 8.142875982953159e-01, 5.299937712200458e-01, 1.256031376137350e-02, -5.979551843946617e-10, 1.358341677322037e-10, 1.338968372565212e-11, 1.513786722774873e+02, 1.032925242679745e+02, -2.523360184085504e+01, 1.038637341129957e+02, 3.891201003827653e+02, -1.850118048889774e+01, 6.778389035896688e+02
7619, 8.239426086793055e-01, 5.944065747954062e-01, 1.201076363524421e-02, -5.475681166752796e-10, 1.890185041371450e-10, -6.842531527714860e-11, 3.476173531860066e+02, 2.703861342938426e+02, -8.888432676238610e+00, 5.199465513380634e+02, 2.735447248811376e+02, -1.588098111576597e+02, 5.910584051752410e+02
7620, 8.016117490225542e-01, 3.557361118899568e-01, 1.267823836711179e-02, -5.580296556262684e-10, 1.045609968026852e-10, 1.150112782020752e-10, 9.441366948846424e+01, -4.614733681467703e+01, -1.604880566198329e+00, -2.241199703410358e+02, 3.819107966118849e+02, -1.063515675873975e+02, 7.402397798390084e+02
7621, 6.606950772900769e-01, 4.959631083958143e-01, 2.766575153021448e-02, -7.880616093811184e-10, 2.802145594722397e-10, -8.038792097205199e-10, 2.212377585564689e+03, 1.986909797840118e+03, 1.713757376052065e-01, 3.243354277587239e+03, 5.202135007755621e+02, -1.842541387525096e+02, 1.503301635387858e+03
7622, 6.595430176990644e-01, 3.385984540854095e-01, 2.731688135632588e-02, -7.783605004700170e-10, 2.338022567843101e-10, -6.877556773846047e-10, 1.588247075557935e+03, 1.547997507196531e+03, -4.879310649531561e+01, 2.708332437776819e+03, 6.308011177532170e+02, -2.006717953242691e+02, 1.619559865915439e+03
7623, 4.768004645739894e-01, 5.638089115620500e-01, -1.868156450890134e-03, -2.015719455582746e-09, 7.807978947863842e-10, -5.277197683905850e-09, 4.867460139435831e+03, 5.384153532269988e+03, 4.341876795325612e+01, 8.116096178458793e+03, 7.656406694952008e+02, 2.488075223210161e+02, 3.330472552240697e+03
7624, 8.491505823328199e-01, 1.071548193589158e+00, 1.038715409924512e-02, -5.100964657413144e-10, 4.439525865780836e-10, -1.012479447955217e-09, 2.255926208889892e+03, 2.037098311403933e+03, 7.909184239444812e+01, 4.317691096342845e+03, -1.372761503032666e+02, -6.130585514921578e+02, 2.439826821904171e+03
7625, 5.215140402059846e-01, 7.708459211619516e-01, 2.055943295688232e-02, -9.532682912312705e-10, 7.077630321844717e-10, -2.753966058618798e-09, 4.991262396064209e+03, 5.492016499336164e+03, 4.133594308205240e+02, 1.031354081543690e+04, 6.421039659989041e+02, -6.119157334812141e+02, 5.365171260011397e+03
7626, 8.506636534098486e-01, 9.575548474564952e-01, 1.175780866291062e-02, -6.708638357493579e-10, 2.169607767413338e-10, -4.092120602597028e-10, 1.463584002833791e+03, 1.355390329257146e+03, -4.668149169614414e+01, 2.223980197212878e+03, 5.819306820309508e+02, 6.095266135752274e+00, 1.301828406107169e+03
7627, 6.657327808472437e-01, 5.326836255017420e-01, 5.025459900103765e-03, -9.562134364003236e-10, 4.456670899268266e-10, -1.574033009716405e-09, 2.063613526588872e+03, 2.219178479128233e+03, 5.715141094551687e+00, 3.451916949747292e+03, 1.778560360713849e+02, -4.685170430950663e+02, 1.577699733569095e+03
7628, 6.220967636487447e-01, 6.096280414398211e-01, 2.633025164861403e-03, -1.379615924011250e-09, 4.869501481996947e-10, -2.221007141362893e-09, 3.115388185402159e+03, 2.716214160758660e+03, -1.220032589203767e+02, 4.300954312653055e+03, 5.878974158931185e+02, 3.244129085220343e+01, 1.767154763734629e+03
7629, 6.673380335259698e-01, 2.724919828067646e-01, 2.616773194464036e-02, -7.145886502922033e-10, 1.561706816027348e-10, -6.051089417200262e-10, 1.456936837297947e+03, 1.322564368684727e+03, -4.877063962353092e+01, 2.370305928535307e+03, 5.690657680438879e+02, -1.133042759714610e+02, 1.411448746678321e+03
7630, 6.221093203295044e-01, 4.595638301983457e-01, 3.096973497988988e-02, -8.593022804483720e-10, 2.622152474116675e-10, -1.022719477159361e-09, 2.557025022931877e+03, 2.418636796148963e+03, -6.964207900799128e+01, 3.996491588263873e+03, 7.327489309547549e+02, -1.495343403473483e+02, 1.995699156008096e+03
7631, 6.128195582811381e-01, 3.993288459762303e-01, 3.239885849758126e-02, -8.215162882650592e-10, 2.757125508800842e-10, -1.076674080034939e-09, 2.549560510789902e+03, 2.291073409860427e+03, -1.120641351012408e+02, 4.222240829028463e+03, 6.836485549497420e+02, -2.306093628046786e+02, 2.212777553310538e+03
7632, 8.635852270254629e-01, 1.189350254261566e+00, 1.067660541152758e-02, -6.208633235740681e-10, 2.779454213446326e-10, -8.769142123821375e-10, 1.745518716765345e+03, 2.230492597944903e+03, -4.519079399545269e+00, 3.264602017226883e+03, 3.237682992602793e+02, -4.624196649162263e+02, 1.661966562739709e+03
7633, 6.692896449617564e-01, 4.032721340058725e-01, 2.714119274719139e-02, -7.787250236017629e-10, 2.129727987930143e-10, -8.534347902868289e-10, 1.859855823635304e+03, 1.756517265652906e+03, -2.636598044732402e+01, 3.292643841400306e+03, 6.774218929929104e+02, -1.193208368037901e+02, 1.906074960080780e+03
7634, 7.814781000367237e-01, 1.426676736415646e-01, 1.285549843284372e-02, -5.074939919719458e-10, 7.070084521753174e-11, 1.286067752952180e-10, -3.690713846042951e+01, -1.576001305424759e+02, 1.819462614389051e+00, -6.342246381162363e+02, 4.331932253992097e+02, -1.033081107669037e+02, 9.456530535323000e+02
7635, 4.964002657621991e-01, 8.546705004260320e-01, 6.010909819559325e-03, -1.449316877587684e-10, 7.456195196752079e-10, -3.816788968807974e-09, 4.697584716535713e+03, 5.382408391237006e+03, 6.480755962583321e+02, 1.127758202928570e+04, -1.304330708710678e+03, -1.038821612427721e+03, 6.990028820954967e+03
7636, 6.765008683740881e-01, 7.927228281669249e-01, 3.053319991419650e-03, -1.133687217830191e-09, 7.422022486440127e-10, -1.897086711720550e-09, 2.698502845103074e+03, 2.593291017763449e+03, -2.856108464843713e+02, 4.089545595056577e+03, 3.344788403056546e+02, -1.840433293699878e+02, 1.665649543698333e+03
7637, 2.019689492961168e-01, 4.009844170002864e-02, 3.889277909525772e-02, -2.862767027972634e-10, 1.176435973222615e-09, -1.858373619638782e-09, 3.476668777760426e+03, 4.130612047943216e+03, -7.998327836785579e+01, 6.787594531823532e+03, 2.108047303623507e+02, -1.368013051906583e+03, 3.871898829080686e+03
7638, 7.908247853700110e-01, 2.969058339321167e-01, 1.206482549250437e-02, -5.602528376360184e-10, 9.450590071689398e-11, 7.167511246291285e-11, -4.351077155937001e+01, -6.098463926301609e+01, -2.454070533230372e+01, -1.592705802528131e+02, 3.936303171116975e+02, -2.981800318985149e+01, 6.935354756783795e+02
7639, 8.600049055034760e-01, 1.042008796438789e+00, 1.174582472510472e-02, -5.469758169925579e-10, 2.746433544100041e-10, -5.551640332500073e-10, 1.432247427751624e+03, 1.430373293623850e+03, -1.114030158029310e+02, 2.289299089840562e+03, 2.871810421718721e+02, -6.001965810367593e+01, 1.015679634753353e+03
7640, 3.533994065231540e-01, 1.818922032280569e-01, -8.881723756780691e-03, -1.451270502387007e-09, 9.656281996983867e-10, -5.750888378468085e-09, 4.545283928177405e+03, 4.049213951478136e+03, -2.395157064718220e+02, 6.495788282953528e+03, 6.093918591111684e+01, 1.218435998244925e+02, 2.290397557661516e+03
7641, 2.189460368748435e-01, 3.296094597278038e-01, 4.925749298259022e-03, 2.557392698331203e-11, 5.553072664956220e-10, -2.679898172908880e-09, 3.900137420883886e+03, 4.165969441874187e+03, 6.493713257256313e+02, 7.966255824247801e+03, -1.040991459638681e+03, -4.059509364192901e+02, 4.531391459837862e+03
7642, 4.310417891782463e-01, 7.362726452829510e-01, 5.615167979323227e-03, 5.833094339152518e-10, 1.906627238550686e-10, -4.269741653836719e-09, 5.213242301752638e+03, 6.097323075405958e+03, 4.534825351322448e+02, 1.354867704437766e+04, -1.904379367881395e+03, -3.369266432273923e+02, 8.644614150735904e+03
7643, 6.303920750705845e-01, 4.902766505311995e-01, 2.163396701922268e-03, -1.149671638294628e-09, 4.118013021848527e-10, -1.768694538460824e-09, 2.035412300696286e+03, 2.135454014732385e+03, -1.170435586052480e+02, 2.998531951540832e+03, 2.643415173943464e+02, -2.452356938937678e+02, 1.128008953716464e+03
7644, 8.671087200269088e-01, 1.129441236621096e+00, 1.099070611225120e-02, -5.981615868606559e-10, 1.297198167103046e-10, -7.831704306875642e-10, 1.660035013161837e+03, 1.727505077277052e+03, -1.580099260590936e+02, 2.809389841467669e+03, 4.025933799689710e+02, 1.190982402160643e+01, 1.345211105237208e+03
7645, 8.103570942631321e-01, 1.347878546137059e+00, 9.071098555373504e-03, -1.087339490546351e-09, 9.978776020263652e-10, -2.289235419450935e-09, 4.788648150947819e+03, 5.476010324091480e+03, -3.524920606278977e+02, 1.031616746493144e+04, 1.302502647134600e+03, -1.743218413607892e+03, 6.465698070912164e+03
7646, 1.443145489516210e-01, 2.017750874650004e-01, 3.861394464411770e-03, 2.652618689122472e-10, 1.431176955920849e-10, -1.548959024791712e-09, 3.066254088177804e+03, 2.718891860700941e+03, 3.386843152730651e+02, 5.640870625019363e+03, -7.741457891540611e+01, 3.716000834194477e+02, 2.901722846397582e+03
7647, 2.628025749967350e-01, 4.209591165213268e-01, 4.900395913682129e-03, -1.124152558918540e-10, -3.490159762987860e-10, -2.318990234128765e-09, 3.699436363990213e+03, 3.279172862642654e+03, 4.021521682540751e+02, 7.112484899002753e+03, -8.894889141103074e+02, 1.133455660015375e+03, 4.469095806138208e+03
7648, 5.829245037904623e-01, 5.332024210726827e-01, 3.217988259928616e-02, -1.011192302112506e-09, 4.371138059613081e-10, -1.681256038307864e-09, 3.439127279066047e+03, 3.302483170322700e+03, -4.215930143029706e+01, 6.238411980932186e+03, 9.116360235433533e+02, -3.917035793433607e+02, 3.346048451282458e+03
7649, 8.592961762388930e-01, 1.300083683045539e+00, 1.043689508814000e-02, -5.278972370730084e-10, 4.108719024757991e-10, -1.496638221265392e-09, 3.418273033691473e+03, 3.561123375668903e+03, -6.417172667462567e+01, 5.857198596938508e+03, -6.465509505267185e+01, -1.218806008216497e+00, 2.375976031954421e+03
7650, 2.345486220597679e-01, 3.719861443326278e-01, 4.200963436390599e-03, -1.661875566611400e-10, -7.232663018324942e-11, -2.894164949243747e-09, 4.906505324787631e+03, 4.158530395897891e+03, 2.297043209178702e+02, 9.269927981840156e+03, 9.337757686068301e+01, 6.136183587579935e+02, 4.916979493682312e+03
7651, 7.461993840871941e-01, 1.283827867258856e+00, 7.747925435907004e-03, -1.993625492128297e-10, 2.260597377677645e-11, -2.626942707343980e-09, 4.962988458911541e+03, 5.512728987792975e+03, 3.673591481219152e+02, 1.154781167879073e+04, 2.365521485136071e+01, 7.666401460314196e+02, 6.497069767663319e+03
7652, 5.326086627993942e-01, 6.991428840948541e-01, 2.318932640391971e-04, -1.412554444163197e-09, 7.661974503758784e-10, -3.920605290239157e-09, 4.711702720350393e+03, 4.467983288027748e+03, -1.118441868147845e+02, 7.151505055319008e+03, 8.105042279524351e+02, -3.468083053346134e+02, 2.995958697040780e+03
7653, 3.108967619317023e-01, 7.276574326739253e-02, -1.009630790364496e-02, -1.125880824301426e-09, 1.135115224990420e-09, -5.396888606827336e-09, 4.190446836943664e+03, 4.170255545770033e+03, -2.460321115471468e+02, 6.202288457527643e+03, 1.695500257760396e+02, -5.893611961781046e+02, 2.323448507423855e+03
7654, 6.872643071077497e-01, 8.489181233091370e-01, 2.310647705580325e-02, -8.496242511920540e-10, 5.197289178525542e-10, -1.502976117865607e-09, 3.364458809661744e+03, 3.063353656314526e+03, -1.483047233603331e+02, 5.728629326898137e+03, 5.067543082939444e+02, -4.937922763017828e+02, 2.821295016533320e+03
7655, 2.985832697930109e-01, 1.754244893027343e-01, -9.507051717478274e-03, -1.723867165144453e-09, 1.173531223006470e-09, -6.521501912655768e-09, 4.997061688438790e+03, 4.738356553817228e+03, 6.599985991079669e+01, 7.822997892570093e+03, 7.325336245258698e+02, 3.178648628608576e+02, 3.272602431315749e+03
7656, 8.634988742637786e-01, 1.222108846573425e+00, 1.053248017281629e-02, -6.277766847077749e-10, 2.774572171785765e-10, -1.276933658888171e-09, 2.381403468057546e+03, 2.190801943249633e+03, -1.353717564954965e+01, 4.564789133450862e+03, 5.257939583602894e+02, -1.039907409446188e+02, 2.466176877293415e+03
7657, 8.557445489248569e-01, 9.206988469039928e-01, 1.170011025817570e-02, -5.751494926323790e-10, 2.006214038419022e-10, -4.138304785491843e-10, 1.230574266566263e+03, 1.109866039820468e+03, -1.479727714333694e+02, 1.625402042454665e+03, 4.703216370924566e+02, -1.044399616414606e+02, 9.900185232037744e+02
7658, 5.806748299412404e-01, 1.008131053185207e+00, 6.362265840712329e-03, -1.489109283547761e-10, 3.245649995359354e-10, -3.517517838587942e-09, 5.743401399529156e+03, 6.290750414503897e+03, 2.796050345492099e+02, 1.125072080451820e+04, -3.450405899599165e+02, -7.385826405189379e+02, 5.462960829450812e+03
7659, 4.745646411234095e-01, 6.124578833538303e-01, -1.967472278257970e-03, -2.082175295099477e-09, 1.018348177077855e-09, -5.462460635795930e-09, 4.879037593312097e+03, 4.422569347968456e+03, 2.098826912852493e+02, 9.435430661336508e+03, 1.328732622970374e+03, -3.517311103063292e+02, 5.371109522474628e+03
7660, 3.264033196495402e-01, 2.466262671826305e-01, -8.673297436989989e-03, -1.773770124759743e-09, 9.733672391189937e-10, -7.125010859942912e-09, 5.638414773212752e+03, 5.895123674820089e+03, 2.609171008840240e+02, 1.049886004366384e+04, 3.567088851210955e+02, 1.028502135350215e+03, 5.118741538166265e+03
7661, 5.907281495130220e-01, 7.700425291208385e-01, 7.406322848221500e-04, -1.626663719552449e-09, 9.529704735950213e-10, -3.477186128771722e-09, 4.101107937324743e+03, 4.332843299035757e+03, -1.672409794706776e+02, 6.309868893022043e+03, 9.864006090936327e+02, -9.235156026511090e+02, 3.159428515380976e+03
7662, 8.404793658935290e-01, 7.343789845387827e-01, 1.176977083230626e-02, -5.962811091352339e-10, 1.516276940983321e-10, -2.475048458607656e-10, 7.814072936589577e+02, 6.893249992366057e+02, -5.659671473685277e+01, 1.259728063278867e+03, 4.796495106412617e+02, -4.496957437142725e+01, 9.935703764313806e+02
7663, 3.656761492036477e-01, 2.928745709036389e-02, 8.710023002924736e-03, -5.565102167431541e-10, 9.262500018996325e-10, -1.718460739877154e-09, 2.610133994088619e+03, 3.671490030170828e+03, -4.725648488950648e+02, 3.504158717918728e+03, 1.722841175836472e+02, -1.643070611775997e+03, 3.136067517082189e+03
7664, 7.965911828180022e-01, 2.460760517841257e-01, 1.246832213087534e-02, -5.742733394796236e-10, 8.727532952129037e-11, 1.853707402162068e-10, -1.331368180984397e+02, -2.089768800487093e+02, -3.628267428089772e+00, -5.758980321779032e+02, 4.283268748528898e+02, -5.885214959486873e+01, 8.538337803448087e+02
7665, 5.856374738495290e-01, 1.855682281645670e-01, 1.302675691984570e-03, -9.757597471639807e-10, 4.173218737762144e-10, -1.719879318174331e-09, 1.708793676973627e+03, 1.738370623848669e+03, -1.255798140191798e+02, 2.620978523059598e+03, 2.090675296164401e+02, -9.837545855571457e+01, 1.006701596257606e+03
7666, 7.509139386264388e-02, 6.686779953122339e-02, 3.521535578581876e-03, 7.373114978756551e-10, 4.420870231140200e-10, -1.140889089126976e-09, 1.985637208435722e+03, 1.254774948312758e+03, -2.521560188282685e+02, 3.365380092707589e+03, -1.317193303207476e+03, -1.234138029521791e+02, 2.981222490954609e+03
7667, 2.886272682326071e-01, 2.968791702457255e-01, 2.804953274931762e-02, -9.211675098251202e-10, 7.021099661571514e-10, -3.560814968086034e-09, 5.394265380181041e+03, 5.650319936649404e+03, 2.491379401414560e+02, 1.202498568847528e+04, 3.448068432585220e+02, -4.429885164649843e+02, 6.592859052747511e+03
7668, 3.293138361122122e-01, 1.177420893848916e-01, -1.006090083831074e-02, -1.419699298942009e-09, 8.618824038211128e-10, -6.766670125813454e-09, 4.736610620100717e+03, 4.833680712704292e+03, -1.900848772753855e+02, 1.010619930418949e+04, 3.937105288707375e+02, 3.389751708841005e+02, 5.407292482484169e+03
7669, 2.292603402911771e-01, 2.384944013848065e-01, 2.407357852587848e-02, -6.663233357823022e-10, 5.596495966981549e-10, -3.526163956043714e-09, 5.209390677323639e+03, 5.794593986990326e+03, 2.703418749880641e+02, 1.204738021563500e+04, 3.046000232051068e+02, -2.321973946599694e+02, 6.615005240451507e+03
7670, 8.500700080480666e-01, 1.351963133638299e+00, 9.528419229271327e-03, -8.041251659732402e-10, 2.816987876618784e-10, -2.020824985547227e-09, 4.010796720217485e+03, 3.949083091097549e+03, -2.261251887712097e+02, 7.047283422582603e+03, 5.107878575705668e+02, 2.657540160423745e+02, 3.249529008991873e+03
7671, 7.896062825403360e-01, 1.830972524727661e-01, 1.273510752404487e-02, -5.203218358849675e-10, 5.788246694170326e-11, 1.152757770202227e-10, -3.958793557372875e+01, -1.201296670398766e+02, -2.427334613817182e+01, -3.396130675744053e+02, 2.879176716074743e+02, -6.796321351837480e+01, 5.802170669413007e+02
7672, 6.449028161067257e-01, 3.212886453872457e-02, 2.586793110751761e-02, -3.121844865043167e-10, 2.432179473248204e-10, -4.003601280855502e-10, 9.385764632865673e+02, 1.046963349402944e+03, -1.826757422270559e+02, 1.592265531273084e+03, 2.387587250061190e+02, -2.790575565678657e+02, 9.343198694488161e+02
7673, 6.086775963576597e-01, 7.707560973134937e-02, 3.944623458874547e-03, -5.385370217619501e-10, 4.998229698098813e-10, -1.612533152392184e-09, 1.728796370575335e+03, 1.834901184979721e+03, -2.447271742873769e+02, 3.808743404895339e+03, 5.598584985660121e+01, -5.423981373644225e+02, 2.277808187068135e+03
7674, 5.383550075738561e-01, 5.776746448880118e-01, -2.450821217854754e-03, -1.318709509240362e-09, 7.896115648903507e-10, -4.090487803401494e-09, 5.038549483902017e+03, 4.084194839027139e+03, -1.153485500068302e+02, 6.539737262752242e+03, 3.941522458644307e+02, -7.296951484386511e+01, 2.262516421631951e+03
7675, 8.177191771958082e-01, 4.369797973948771e-01, 1.229237848508474e-02, -5.692675663466048e-10, 9.193792041403865e-11, 1.381639066179029e-10, -6.379610025810278e+00, -1.503861672494732e+02, -3.948616681136546e+01, -5.308714661903958e+02, 4.627139000621466e+02, -9.769845061051248e+01, 9.465327374179351e+02
7676, 8.493941095401123e-01, 8.350595507065903e-01, 1.237301543353563e-02, -5.286144498229249e-10, 1.783813663269702e-10, -2.621102451129062e-10, 8.847293934563579e+02, 7.597400237750212e+02, -5.191046919235558e+01, 1.123718572177543e+03, 4.118401875574087e+02, -1.015746326219142e+02, 8.065250185594321e+02
7677, 3.626020849615113e-01, 2.961072013863607e-02, 4.791816975838420e-02, -3.550287759766523e-10, 6.969265696922825e-10, -8.747536470221746e-10, 2.352163848078144e+03, 3.121709512132158e+03, -2.902111297703341e+02, 3.540348955973484e+03, 2.816242591005908e+02, -9.854481660872577e+02, 2.119799546046275e+03
7678, 4.945737156414505e-01, 2.012014955308931e-01, 4.171009324839485e-02, -8.312774275388884e-10, 3.714516150679464e-10, -1.442843781479371e-09, 3.137485937413987e+03, 3.055248200778528e+03, 9.473925498158337e+00, 5.601978238588570e+03, 7.070454420053344e+02, -2.836713712572925e+02, 2.832768432870466e+03
7679, 5.076926688005956e-01, 3.296962488968709e-01, 3.757019609841939e-02, -9.291982036095408e-10, 4.382381274738629e-10, -1.635581681654886e-09, 3.485487964411870e+03, 3.301255704379483e+03, -1.117551901528107e+02, 6.098322173683940e+03, 6.715642034176932e+02, -3.901106391261800e+02, 3.031375021345244e+03
7680, 4.782565891758033e-01, 5.677394959871976e-01, 2.912693137810058e-02, -1.386735782490555e-09, 6.556378226663469e-10, -2.688147505404837e-09, 5.140833882747652e+03, 5.062174913710324e+03, -6.355383204452475e+01, 9.620614155342048e+03, 1.098199447349764e+03, -3.537176824860182e+02, 4.942932870855360e+03
7681, 7.241795944677971e-01, 9.559382219310809e-01, 4.646566706328983e-03, -1.049901070871567e-09, 4.623109203361670e-10, -2.006184415563791e-09, 3.195193570984333e+03, 2.809739981822278e+03, -2.226012943289423e+02, 4.807067965877855e+03, 3.379046348790441e+02, -1.316004053835446e+02, 1.977666539313874e+03
7682, 6.152175182138018e-01, 5.059758213541978e-01, 3.055024789706342e-02, -9.838829078681362e-10, 4.084169335233637e-10, -1.282668191052258e-09, 2.825460032594714e+03, 2.671410301924245e+03, -7.452823119807948e+01, 4.783204808278835e+03, 8.876675937261073e+02, -3.475819134837815e+02, 2.626984998812888e+03
7683, 8.678264437553177e-01, 1.096291438732341e+00, 1.100486256727325e-02, -4.864682349101330e-10, 2.318669694340763e-10, -1.105620735642273e-09, 1.496305167817940e+03, 1.601002716250440e+03, 8.772610231037396e+01, 3.389553268359604e+03, 4.666101524970755e+02, -1.237849070739586e+02, 2.029621228734284e+03
7684, 5.792944934258735e-01, 2.228532852445614e-01, -8.273210494748780e-04, -8.376407672691419e-10, 4.594312373602627e-10, -2.231899906189724e-09, 2.731047086626721e+03, 2.345736390043848e+03, -2.406092395417186e+02, 4.394987130553265e+03, -3.755878894544451e+02, -1.720904866348219e+02, 2.060101287176099e+03
7685, 7.071554347355113e-01, 9.983353363171592e-01, 2.001625329426852e-02, -1.152041243825476e-09, 3.037940702012810e-10, -1.731252755466215e-09, 4.333693150611580e+03, 4.004982446741855e+03, -3.056306139318291e+02, 6.899146656859704e+03, 1.057608966216699e+03, -9.711062256318530e+01, 3.346195789126800e+03
7686, 1.227562212822483e-01, 3.149110666227962e-02, 2.474826768646027e-02, 4.795201026482890e-10, 9.516624917785017e-10, -1.536602863879339e-09, 2.763276075036689e+03, 3.688309048997905e+03, 3.850062470562950e+02, 6.101435033816599e+03, -3.764816439904697e+02, -1.666170897306976e+03, 4.255509983598119e+03
7687, 8.606449048351068e-01, 1.265896911770571e+00, 1.138163486150356e-02, -6.878661333213415e-10, 4.071743047443050e-10, -1.210440695397053e-09, 2.907223200459443e+03, 3.035833515692196e+03, -7.115107904574397e+01, 3.934682589918669e+03, 5.071246183578100e+02, -2.529875111488465e+02, 1.385205089645081e+03
7688, 6.165553215835162e-01, 1.569148297752712e-01, 3.208033432199583e-02, -6.461894453063107e-10, 1.732755454134282e-10, -7.602891587582822e-10, 1.847486854054548e+03, 1.710888862859008e+03, -5.979969652125293e+01, 2.921631638100172e+03, 5.897267073777705e+02, -1.020621162578840e+02, 1.550639498421852e+03
7689, 6.493915635642356e-01, 6.425266146167932e-01, 2.045775188353069e-03, -1.059070149613081e-09, 5.326526603986794e-10, -2.054243854037719e-09, 2.879970945522007e+03, 2.421236233665135e+03, 4.104708093991779e+01, 3.888803685546774e+03, 3.920359179868857e+02, -7.730275934264471e+01, 1.474796884610831e+03
7690, 3.858339674910851e-01, 6.518753859375882e-01, 4.019522923414454e-03, 3.414533921785095e-10, -2.717273287234691e-10, -3.654763231529824e-09, 4.550758771563404e+03, 4.443238132216576e+03, -2.934675666482984e+02, 1.132269509894434e+04, -1.482578483407663e+03, 9.696668705954385e+02, 7.501470073907363e+03
7691, 6.501109086561228e-01, 1.132418753682463e+00, 6.689383266583634e-03, -4.453591166677955e-10, -5.559401792901384e-10, -2.338949211708071e-09, 4.460608592239912e+03, 5.311566467470219e+03, 3.647341538807772e+02, 6.914657046953805e+03, 3.733911467111885e+02, 1.215687052630698e+03, 3.147893287408989e+03
7692, 3.178704398153902e-01, 3.688079926568917e-01, 2.673378982492615e-02, -9.328644330717940e-10, 4.460232076400688e-10, -3.470628618098748e-09, 5.471920320962289e+03, 5.870376286565945e+03, 4.399410181209615e+02, 1.226446466473523e+04, 4.565240993975397e+02, -1.795813519846121e+01, 6.693112171880192e+03
7693, 3.549085474922755e-01, 3.405480617171892e-01, -6.524618239203549e-03, -2.226610448920113e-09, 9.366661079925357e-10, -6.216527694532375e-09, 5.386723308327277e+03, 5.418051843547072e+03, 2.433777335506119e+02, 9.129319650567650e+03, 4.377788412763036e+02, -1.498385432147337e+02, 3.835461206819747e+03
7694, 8.287108386725998e-01, 1.374262439235072e+00, 8.900302490179174e-03, -1.027954435427155e-09, 9.475810047084796e-10, -2.126677359370939e-09, 4.894708594572585e+03, 4.986559289193060e+03, 2.473960213945742e+02, 8.388035231887050e+03, 7.058160116384041e+02, -1.093926910101449e+03, 4.142351315604803e+03
7695, 4.514361303671400e-01, 5.109850538261885e-01, -4.925850651212517e-03, -2.380526514695410e-09, 1.340936259872119e-09, -5.199236132300200e-09, 5.270689785713699e+03, 5.078337086088679e+03, -1.862561943640135e+02, 9.804265723554578e+03, 1.605539303552074e+03, -6.565508622983540e+02, 5.531082759798846e+03
7696, 3.292721732916110e-01, 5.460669933511821e-01, 5.442780699128808e-03, 3.176448211984331e-10, 3.284817688270190e-10, -2.359901662842061e-09, 4.224718127906634e+03, 3.648524670625157e+03, 1.155417064082880e+03, 7.732998795147108e+03, -1.351437767409860e+03, -2.464819537605801e+02, 4.932327894734305e+03
7697, 3.104985112861000e-01, 6.888383099378927e-02, 4.674909963430842e-02, -6.299594454203342e-10, 1.084540062057943e-09, -1.879727616791937e-09, 3.697282785988003e+03, 3.573899423993262e+03, -1.176122534301776e+02, 7.032852796744232e+03, 5.069947024095009e+02, -9.949295604075031e+02, 3.916004072338542e+03
7698, 5.162060796324099e-01, 6.454554087268926e-01, -2.812800471716160e-03, -1.785551490841690e-09, 9.207202982544239e-10, -5.475078705528929e-09, 5.671437339320135e+03, 5.770905879233995e+03, 2.324122121763345e+02, 1.222155313102484e+04, 5.130547311961445e+02, 2.122582326678147e+02, 6.584015710326375e+03
7699, 5.435870569326641e-01, 2.561269656927834e-01, 3.860810609736257e-02, -8.022393116422100e-10, 3.258294196457402e-10, -1.335669428276161e-09, 2.769765088745301e+03, 2.669006667929121e+03, -5.110518125789564e+01, 5.189167938697348e+03, 7.394204413322909e+02, -2.480502773046782e+02, 2.817816073885572e+03
7700, 2.059377720055843e-01, 1.950133595997995e-01, 2.603181038848459e-02, -1.691845882814517e-10, 4.521580307520909e-10, -3.179674302726916e-09, 4.727047351195578e+03, 5.617905336719536e+03, 2.738464755427690e+02, 1.157483772821920e+04, -2.487136206746270e+02, -1.637279797543821e+02, 6.486634249235554e+03
7701, 3.601188992370681e-01, 6.038351382234957e-01, 4.539795464844686e-03, 6.430890161431839e-10, 2.287151576906247e-10, -3.087333825084954e-09, 4.503652542745564e+03, 5.019655841254791e+03, 9.361296311208781e+01, 9.453680062455198e+03, -1.794734609573127e+03, 2.726141539911846e+02, 5.668091730902841e+03
7702, 2.534365529257674e-01, 2.579485128888517e-01, 2.668142330685096e-02, -8.564102959274052e-10, 6.434499197274170e-10, -3.361168417521401e-09, 5.249284505546810e+03, 5.646090809288767e+03, 2.849480186759886e+02, 1.159131978104678e+04, 3.844190498457909e+02, -3.601703408985017e+02, 6.240063722718469e+03
7703, 6.595090471083641e-01, 6.981634364095021e-01, 2.613125523809536e-02, -9.983510942230816e-10, 4.312244340234914e-10, -1.496534917247460e-09, 3.147327924258743e+03, 2.845783298334689e+03, -8.143357246264810e+01, 5.525678141116694e+03, 7.544866048282851e+02, -3.531262409203393e+02, 2.926840695828589e+03
7704, 6.782629087538566e-01, 9.918814748576543e-01, 2.612693587234451e-03, -1.700952494200081e-09, 1.163624076090675e-09, -3.954551307583303e-09, 4.826440394356343e+03, 4.931712922060435e+03, -5.953027137831770e+02, 8.264624575694292e+03, 1.357903942506284e+03, -1.233983677836998e+03, 4.757442474297466e+03
7705, 3.828855560923238e-01, 4.681266611805749e-01, 2.820301103250861e-02, -1.065191315160098e-09, 4.398341227665458e-10, -2.968809016488423e-09, 5.356473224662739e+03, 5.642952481672946e+03, 3.842865555204204e+02, 1.088667566485741e+04, 7.642582046714321e+02, -1.172909497814088e+02, 5.596203435297464e+03
7706, 2.554324697194826e-01, 2.572834071888633e-01, -6.280051213551692e-03, -1.683129117849693e-09, 1.120933064086169e-09, -7.032464293431734e-09, 5.517953698817377e+03, 5.007165491017331e+03, -8.220439445504097e+01, 1.151917007895666e+04, -6.394032998794408e+01, -6.989711537312251e+02, 6.390545594857795e+03
7707, 3.960930788947343e-01, 5.231845907100613e-01, 2.568986054147659e-02, -7.818247136820441e-10, 9.223612180146079e-10, -3.104081578013098e-09, 5.226983440658498e+03, 6.203100742854100e+03, 2.191623331133790e+02, 1.143961380198694e+04, 1.430701707420951e+02, -7.447945637340968e+02, 5.946005839119769e+03
7708, 5.519920545364181e-01, 3.136753523332476e-01, 3.669932496280036e-02, -8.937105525562720e-10, 3.010171111114606e-10, -1.387780651935288e-09, 2.849607799426618e+03, 2.843013741233341e+03, -1.004653022144236e+02, 5.267099436114483e+03, 8.539980537138426e+02, -2.377354312503051e+02, 2.871937088359844e+03
7709, 4.646719116566742e-01, 8.060908438165079e-01, 5.037725070166067e-03, 3.558271973591114e-11, 3.408083288331182e-10, -2.582591919262153e-09, 4.548081240404087e+03, 5.250808037321993e+03, 8.406740780630336e+02, 8.627090669833529e+03, -6.434279097539905e+02, -3.648424257893151e+01, 4.199036090240492e+03
7710, 5.972238399720337e-01, 1.162428212952651e-01, 3.565076127545702e-02, -5.573958517778362e-10, 2.406058878072485e-10, -8.532121364418525e-10, 1.844319032310528e+03, 1.612541518324148e+03, -1.493769252641692e+02, 3.381094043593931e+03, 4.979575636835651e+02, -1.613457068749883e+02, 1.913246209310392e+03
7711, 7.594897171287588e-01, 1.312773552597987e+00, 7.346250906444515e-03, 3.144280346272860e-11, 2.505800978848657e-10, -1.844767913788426e-09, 4.295699613279337e+03, 4.518971367280244e+03, 2.358395633413768e+02, 8.261854925469979e+03, -1.599097352004528e+02, 2.350737133583554e+01, 3.891007561291551e+03
7712, 3.066453577920393e-01, 2.992648737181125e-02, 4.779417544666309e-02, -3.694533784420357e-10, 8.435359178689361e-10, -1.019308086212630e-09, 2.661872496345306e+03, 3.512628963693394e+03, -2.256998299751160e+02, 4.068490520028167e+03, 2.659276889037311e+02, -1.119401557683914e+03, 2.372725192581822e+03
7713, 3.996114145779498e-01, 1.073611573520620e-01, 4.711378698425180e-02, -7.764995650553368e-10, 6.948506130614629e-10, -1.711454635059051e-09, 3.615429221183377e+03, 3.368672746372790e+03, -1.207293796186953e+02, 6.624086853086174e+03, 7.459900663978974e+02, -5.410045685532150e+02, 3.527974400618138e+03
7714, 1.231451850382178e-01, 6.716828052469603e-02, 2.111039341866234e-02, 5.542077013498654e-10, 6.238058441989678e-10, -2.713028821768199e-09, 3.845376888972589e+03, 3.442805575456980e+03, 5.603284211171043e+02, 9.040051217966165e+03, -1.168782631799754e+03, -2.127287523289744e+01, 5.854857116964202e+03
7715, 6.120069462629817e-01, 6.636130479811241e-01, 3.024969109959730e-02, -1.037075513576525e-09, 5.109376341505914e-10, -1.477588019328499e-09, 3.567734611755395e+03, 3.379904439472449e+03, -7.840681143539816e+00, 5.881382049113859e+03, 8.338585098808115e+02, -4.920984136929632e+02, 2.938612674953605e+03
7716, 3.731219147440184e-01, 6.127921115073035e-02, -1.003764482699318e-02, -6.800913340833826e-10, 1.050102976987750e-09, -4.450723557711704e-09, 3.381828293989549e+03, 3.329702399472771e+03, -1.814713304461444e+02, 5.620904716772505e+03, 4.594117088659056e+01, -1.165867584163343e+03, 3.052173516307398e+03
7717, 6.779916837068227e-01, 7.273435768431502e-01, 2.580254267824537e-02, -8.464905266772127e-10, 2.774038972358477e-10, -1.231132332837905e-09, 3.009937702213565e+03, 2.705070882328805e+03, -5.650024516567812e+01, 4.793992563631043e+03, 7.013667264689028e+02, -5.087326178059592e+01, 2.304947203931432e+03
7718, 8.567719923152808e-01, 1.390705817966063e+00, 9.465219184767306e-03, -1.530714467021438e-09, 9.111413564434447e-10, -2.472241609541992e-09, 4.595815334712543e+03, 4.834421682419305e+03, -8.487628504370650e+01, 8.980303325308972e+03, 1.930951252810093e+03, -1.575116285303219e+03, 6.073286208718243e+03
7719, 8.720575615496194e-01, 9.912928669189642e-01, 1.141680725989437e-02, -5.934500690215715e-10, 1.508480962711453e-10, -3.665084203204219e-10, 1.392268543499144e+03, 1.192945777916500e+03, -2.850304771170197e+01, 1.875407211321011e+03, 3.994364048098764e+02, -8.597445709194812e+01, 9.341913562648829e+02
7720, 3.197428437986722e-01, 3.679300550644501e-01, -5.113487978493259e-03, -1.731022520948904e-09, 2.240594113461228e-10, -8.286545680342068e-09, 6.746077743404207e+03, 6.466845498459061e+03, 3.259318219410426e+02, 1.480364685686879e+04, 9.929211128658917e+02, 1.643007593188861e+03, 8.867193315691482e+03
7721, 2.867991773404938e-01, 2.970765558722465e-01, -6.718597779640720e-03, -1.693701614613053e-09, 1.187486119781467e-09, -7.546077994769188e-09, 5.969660605447669e+03, 5.565965105186678e+03, 7.807832195800057e+02, 9.778608149773294e+03, -6.368999789234872e+02, -7.749866868558333e+02, 4.588715679635458e+03
7722, 6.314043964792846e-01, 3.105474801219468e-01, 3.209737524700871e-02, -7.438062381571426e-10, 2.168951826958308e-10, -7.696777189405781e-10, 1.945899521079332e+03, 1.874919319704027e+03, -2.107107322145241e+01, 3.088302866482661e+03, 6.211007986752481e+02, -1.859159812905922e+02, 1.628967907942782e+03
7723, 4.097265650943385e-01, 2.488755606286645e-01, 4.218373265547289e-02, -1.156466761037245e-09, 5.687103343631446e-10, -2.090654071691149e-09, 4.284566551893448e+03, 4.230956251596217e+03, -6.561156313428683e+01, 7.919824908461031e+03, 1.021230227288901e+03, -4.337486331968308e+02, 4.137502443368796e+03
7724, 5.015554346231951e-01, 6.848074688194549e-01, 2.484013084266846e-02, -1.221654077800274e-09, 4.397860363528242e-10, -2.775565015248347e-09, 5.174893749253548e+03, 5.314116287884291e+03, 1.269902411597649e+02, 1.006378790366161e+04, 8.967582102993358e+02, -1.789500921165550e+02, 5.079074674255856e+03
7725, 6.286797036809788e-01, 9.556514691746373e-01, 1.961231967694408e-03, -1.611039488992144e-09, 1.037650132540403e-09, -4.674341826029497e-09, 6.164573170093050e+03, 5.674203156066673e+03, 8.664760845608244e+00, 1.213635362828200e+04, 2.138174950986438e+03, -1.231087363384207e+03, 7.556013270546852e+03
7726, 4.128572071271107e-01, 4.454150887032848e-01, -4.889882774035056e-03, -1.938068584232461e-09, 9.017238357202988e-10, -5.863001178302615e-09, 3.843894230228907e+03, 4.030235938306802e+03, 1.539167053193430e+02, 8.466649759974540e+03, 2.362603566178688e+02, -2.995008806554757e+02, 4.588116172888475e+03
7727, 5.415852851334819e-01, 1.109151893040397e-01, 3.936998979326754e-02, -6.033211738541493e-10, 3.493173701226685e-10, -1.078749588396646e-09, 2.390477998567979e+03, 2.152811235278713e+03, -1.071721862142029e+02, 4.207560202957518e+03, 5.850725471096657e+02, -2.647489409765701e+02, 2.249843676327746e+03
7728, 4.487000927149449e-01, 3.351358115942136e-01, -5.805727417690672e-03, -1.466446801440901e-09, 9.082716797240726e-10, -4.582882728077977e-09, 4.735740604385177e+03, 4.068871020565828e+03, 9.725046026184225e+01, 7.540301911456337e+03, -1.036170208491431e+02, -2.239455921374816e+02, 3.223599401351271e+03
7729, 6.315318535595726e-01, 3.100209430642571e-01, 1.279861973711757e-03, -1.039003024506561e-09, 3.150116877855406e-10, -1.371708834692565e-09, 1.855172788848160e+03, 1.717897057899789e+03, 9.474370951913055e+00, 2.383669499172024e+03, 2.705749512713231e+02, -1.503248305788584e+02, 8.114169947018620e+02
7730, 8.781643533765963e-01, 1.335842711936927e+00, 1.007022748499940e-02, -9.050553680139977e-10, 4.631198675448390e-10, -9.644212835418631e-10, 2.887262759610182e+03, 2.792906485357782e+03, -3.238777679450471e+02, 4.709279004885493e+03, 8.721790928954462e+02, -1.704186770447646e+02, 2.486859883766171e+03
7731, 3.987036624918565e-01, 5.214710173409045e-01, -4.618005152248229e-03, -1.066859762225948e-09, 7.500565737442526e-10, -6.538665415126629e-09, 5.974879529650429e+03, 6.683598097751182e+03, -7.067207313859342e+01, 1.179707551846753e+04, -1.064527079362102e+03, 5.678678539626592e+02, 5.886935431029931e+03
7732, 3.533987201173873e-01, 6.258275157178526e-02, 4.703217974830003e-02, -6.161169338477919e-10, 1.049522811081034e-09, -1.682284249798551e-09, 3.237271348586427e+03, 3.268828189019855e+03, -2.173630837682553e+02, 6.028454029637140e+03, 4.513716958636795e+02, -9.830023311232397e+02, 3.369784234889021e+03
7733, 3.521897349661979e-01, 3.899450756979441e-01, 2.979124361576308e-02, -1.038073878459626e-09, 5.628467298815804e-10, -3.284494866328894e-09, 5.310494093913080e+03, 5.689289036272036e+03, 2.825822937334814e+02, 1.154726355864628e+04, 4.582517652422313e+02, -4.402204835637678e+02, 6.174888400317099e+03
7734, 5.475517121041863e-01, 6.834016374382613e-01, 2.921354368438255e-02, -1.061426339469447e-09, 3.839042879745380e-10, -2.095186073818263e-09, 4.442688988992791e+03, 4.346200992001943e+03, 1.249305945153494e+02, 8.167587681866241e+03, 7.042242253887194e+02, -1.050527317575594e+02, 3.976344387520139e+03
7735, 5.813859912414249e-01, 2.532078585903372e-01, 2.702203714195009e-04, -1.153381340885641e-09, 3.724785862318871e-10, -2.465912548791786e-09, 2.431166756042127e+03, 2.029085809363496e+03, -2.573057301900008e+02, 3.835863164926615e+03, 5.990799393981376e+02, -2.682503414550632e+01, 1.994269424074814e+03
7736, 8.389058247660889e-01, 6.276121224662796e-01, 1.248707673697396e-02, -5.515437457692879e-10, 1.327098772907520e-10, 7.899600230091566e-12, 2.789500862816789e+02, 1.562910412589379e+02, -2.111423436364742e+01, 1.380267749017804e+02, 4.453699634963728e+02, -6.780877014697927e+01, 7.923470426397602e+02
7737, 2.768441964353106e-01, 1.046702258227767e-01, 9.856180359927684e-03, -1.380242995858733e-09, 1.302242001738169e-09, -5.414632170470412e-09, 4.995478419432264e+03, 4.862577449063703e+03, -2.074087706134781e+02, 9.405140621785462e+03, 5.367660063937551e+02, -6.090491483973425e+02, 4.706916487384298e+03
7738, 5.656443206240546e-01, 5.949629376413719e-01, 3.147970792095175e-02, -1.162769543027297e-09, 4.832072942097296e-10, -1.865390370541541e-09, 3.796894590271146e+03, 3.755691424761655e+03, -8.646183137536187e+01, 6.900371307988863e+03, 8.423560672110114e+02, -3.286270578029290e+02, 3.498034292175462e+03
7739, 7.699787483354756e-01, 3.016508391649954e-02, 1.167898741593048e-02, -2.983010452909492e-10, -1.911219877234323e-11, 8.244672618618921e-11, -7.338651099293632e+00, -1.878628283526302e+01, -1.937900269284521e+02, -1.810808116943320e+02, 2.206695743451495e+02, 4.250838609492978e+01, 5.408310695310289e+02
7740, 7.237788744938622e-01, 7.254022197477265e-01, 2.311630590110823e-02, -7.013312567174968e-10, 2.943329761322289e-10, -1.136540264387208e-09, 2.348560294813300e+03, 2.285490853508372e+03, 1.267921245099838e+01, 4.118143546499377e+03, 5.246150595927905e+02, -1.875016290844994e+02, 2.044168539619124e+03
7741, 5.206201972279788e-01, 6.092981475008248e-01, 3.039864803883614e-02, -1.236002982204618e-09, 5.819859944560571e-10, -2.364794061982312e-09, 4.651196084957398e+03, 4.616653199681325e+03, -5.347382566806340e+01, 8.658271174073065e+03, 9.563245768787208e+02, -4.117345777677104e+02, 4.411018526660328e+03
7742, 7.848714582645323e-01, 6.703418429785089e-02, 1.197140131924515e-02, -4.221409436251224e-10, 4.545782001186992e-12, 1.343756320641608e-10, -1.746684770533265e+02, -1.839326013340564e+02, -1.013530293237628e+02, -5.043684162978093e+02, 3.672478406093353e+02, 3.825787093202440e+01, 7.386167651392153e+02
7743, 5.018130766295684e-01, 4.444079530503388e-01, -3.363182584093381e-03, -1.071458745417220e-09, 8.508569124283221e-10, -3.968311274959529e-09, 4.021010363792074e+03, 3.570024930673937e+03, -5.239826096195365e+01, 6.315639139278442e+03, -4.296830741109322e+02, -3.713645686093955e+02, 2.734850548855637e+03
7744, 5.457473469532232e-01, 7.756964964652422e-01, -9.993712207405706e-05, -1.096594667912209e-09, 1.246632362467217e-09, -4.883439545862635e-09, 4.252257041276213e+03, 5.535665622868222e+03, 3.789922107140748e+02, 8.772569196761560e+03, 6.947494278214529e+01, -1.399940036400087e+03, 4.754348963362411e+03
7745, 6.176089591355803e-01, 4.586564569332428e-01, 9.685590897606129e-04, -1.211001105828454e-09, 3.551548939584630e-10, -1.823947800776677e-09, 2.352132528127205e+03, 2.303522680163977e+03, -1.820516530006291e+01, 3.048992010541212e+03, 2.957257221759691e+02, -3.282924860432281e-01, 8.861185049243563e+02
7746, 7.852437316621883e-01, 1.330692066859173e+00, 9.218221445761322e-03, -4.659623861714787e-10, 5.218809201234563e-10, -2.115204153052964e-09, 3.680534599352315e+03, 5.191384225025763e+03, 5.482917151146707e+01, 8.265237173318448e+03, 1.515447130512184e+02, -3.365127073230301e+02, 4.097927114567231e+03
7747, 2.281662698717821e-01, 2.390387043327992e-01, -6.211857232346504e-03, -1.627240155747743e-09, 1.014899170288643e-09, -7.108935633514688e-09, 6.254820501649682e+03, 6.093635471516555e+03, -2.535521017348740e+01, 1.177955785635552e+04, 1.807683489917307e+03, -7.696684153762633e+02, 6.559074955929994e+03
7748, 5.516721764120149e-01, 4.296610200800944e-01, -1.710462269085368e-03, -1.318388202403450e-09, 5.942321212099044e-10, -3.230660043030924e-09, 3.342882791979544e+03, 3.301979941083458e+03, -3.232306522032458e+02, 5.325546546034197e+03, 4.196484391049490e+02, -5.045698421754823e+02, 2.370494881361808e+03
7749, 8.370462363318369e-01, 5.612957112147497e-01, 1.151317104472484e-02, -5.724881301860007e-10, 1.715863054897491e-10, 1.291736451339599e-10, -7.389314656067238e+00, -3.007712271003860e+01, -5.406829348517229e+00, -3.858414778769641e+02, 4.327980121759767e+02, -1.756792017396387e+02, 8.886923717783206e+02
7750, 4.720673440650118e-01, 3.056051880914787e-02, 4.085444866677999e-02, -3.012464160225995e-10, 5.810321431409860e-10, -8.615403962063039e-10, 1.961418740018256e+03, 2.537014535798324e+03, -2.250821814926324e+02, 3.114516517795453e+03, 1.995641466978577e+02, -8.279156787835331e+02, 1.823464668417647e+03
7751, 6.175095133599150e-01, 5.706092110935572e-01, 3.086802874390895e-02, -1.024611346733555e-09, 3.335877207625690e-10, -1.228483255838929e-09, 3.088153529508457e+03, 2.744946234191253e+03, -2.011390022093166e+00, 5.023115840858852e+03, 9.565957067277700e+02, -2.286949277178792e+02, 2.725455165779807e+03
7752, 6.938704785285420e-01, 7.715377764643663e-01, 2.418213690462682e-02, -9.000811850301278e-10, 3.115351166486391e-10, -1.192437595935426e-09, 3.047097690081434e+03, 2.870957146308763e+03, 6.023745000730397e+00, 4.539385204400820e+03, 7.231977590759113e+02, -1.873486965371789e+02, 2.048231506881668e+03
7753, 8.890299775001308e-01, 1.284612851313364e+00, 1.043272335345462e-02, -6.072089445347644e-10, 3.406991090528605e-10, -8.347689698026335e-10, 2.372704019149648e+03, 1.903936625388495e+03, -2.956998813129147e+02, 3.237481331849582e+03, 7.210891627949163e+02, -3.067343158969072e+02, 1.864790578119894e+03
7754, 4.440248482650809e-01, 2.612227145109285e-01, 4.270889812883803e-02, -1.046174630633975e-09, 4.625557402618601e-10, -1.716734858337195e-09, 3.901983286005053e+03, 3.705796922427738e+03, -5.512075371123168e+01, 6.734580899407127e+03, 9.451378226414494e+02, -3.498027939460934e+02, 3.416704953861947e+03
7755, 6.276318223404298e-01, 3.621445753436691e-01, 3.230806741219595e-02, -7.584563325535799e-10, 2.707845436433855e-10, -8.610350886332713e-10, 2.131549770718531e+03, 2.027117917437359e+03, -2.074194394143408e+01, 3.511330240678992e+03, 6.219010306783359e+02, -2.706795523121853e+02, 1.854769206552314e+03
7756, 1.544344473399380e-01, 1.107222581993263e-01, 2.536609051695370e-02, 2.602476223598071e-10, 4.303545519127446e-10, -3.168715158327137e-09, 4.388093346465532e+03, 4.887805538002532e+03, 4.418498666041534e+02, 1.144575814050438e+04, -1.237933561692147e+03, 3.093563648144353e+02, 7.211364640809865e+03
7757, 5.843938084615596e-01, 7.194382288938167e-01, 2.907318297916487e-02, -9.520917402089537e-10, 5.108392306999798e-10, -2.007835341340051e-09, 4.184871741017721e+03, 4.152380686896822e+03, -2.871436503360984e+00, 7.626193407040124e+03, 5.939573392888052e+02, -3.052617442026410e+02, 3.646024895921592e+03
7758, 8.675936345223844e-01, 8.691698209013411e-01, 1.136594204095028e-02, -4.880371816491002e-10, 1.657007278206001e-10, -2.147529329749121e-10, 7.092245786247473e+02, 5.952892351229229e+02, -4.735826158782150e+01, 9.091523705614094e+02, 3.654277366107582e+02, -1.400469991862149e+02, 7.361463298528699e+02
7759, 8.625460978116239e-01, 1.159232325946522e+00, 1.108378121749847e-02, -5.051956752652099e-10, 2.083480498331639e-10, -1.073569715915859e-09, 2.366767847352068e+03, 2.363241932035448e+03, -3.320018227195066e+00, 5.301680211160293e+03, 2.086207884339105e+02, -9.456287048448858e+01, 2.963359351286296e+03
7760, 7.186632762190458e-01, 1.262117215630508e+00, 7.382886788391729e-03, -4.912257536395537e-10, -4.838303653940374e-11, -2.534047743137739e-09, 5.091189837421147e+03, 5.188328679451890e+03, 6.671005724357103e+02, 7.972190283981143e+03, 3.213186234151240e+02, 7.703748240075529e+02, 3.384520805568701e+03
7761, 1.248783394894072e-01, 3.180922682033279e-02, -6.831951353724355e-03, -1.961984182282891e-10, 1.402635274762470e-09, -3.969587274503408e-09, 3.690267295664642e+03, 4.870526852096613e+03, -2.170349246171594e+02, 5.425664581018682e+03, 7.870239077275307e+02, -3.090726392657539e+03, 5.745754815569706e+03
7762, 3.506939812529996e-01, 1.204074322440945e-01, 4.679902585015105e-02, -8.665866080920129e-10, 7.373740031602470e-10, -2.064788579067165e-09, 4.107758982602949e+03, 3.911905045313396e+03, -6.966381250847860e+01, 7.872502509233695e+03, 7.387728634253893e+02, -4.580282989941567e+02, 4.150936926549866e+03
7763, 6.420370115860792e-01, 2.350975745090929e-01, 1.472722996774461e-03, -9.418461510173437e-10, 2.642795826220703e-10, -1.159164462479561e-09, 1.337019126653775e+03, 1.246310556454563e+03, -9.704456205002045e+01, 2.071615082089060e+03, 2.709316858421761e+02, -4.969387233460970e+01, 9.329344726904673e+02
7764, 4.840656880957828e-01, 3.038736606133998e-02, -3.726511658936314e-03, -3.103188812189621e-10, 7.369169813779990e-10, -1.741741774958574e-09, 2.037736900780689e+03, 2.463535468364245e+03, -8.278167380914797e+01, 3.812121299124129e+03, 7.443419754918799e+01, -1.780670369626800e+03, 3.481918255751335e+03
7765, 2.984333332615358e-01, 3.434587728731297e-01, -5.996939809180715e-03, -1.766554598294021e-09, 9.975640325572237e-10, -6.672131853768645e-09, 4.875330710362665e+03, 5.106103046228180e+03, -6.835713382204378e+01, 9.753101554374909e+03, 1.226016610480444e+02, 1.565259611167825e+02, 4.780466758678095e+03
7766, 2.967874028158610e-01, 3.446879901450011e-01, 2.632338770357988e-02, -9.592271909585819e-10, 4.617988210865043e-10, -3.438972905074910e-09, 5.701050786058093e+03, 5.902849432346125e+03, 2.768534434696315e+02, 1.230710485399797e+04, 4.646768424537982e+02, -1.870796551770876e+01, 6.574674701391372e+03
7767, 4.359100214316591e-01, 5.831604582560150e-01, -3.066128197678420e-03, -2.023362082862922e-09, 7.827218175600369e-10, -5.999778814594213e-09, 5.687338076370190e+03, 4.881594322947989e+03, -2.742148259392609e+01, 9.497774118328258e+03, 1.022594966528835e+03, -6.441970747991646e+02, 4.756385990226946e+03
7768, 8.787316901591985e-01, 1.066217082600840e+00, 1.164962712211755e-02, -6.408541173431770e-10, 3.506270982840917e-10, -8.260336526996879e-10, 1.759920829228235e+03, 1.671106923390106e+03, -6.893920794296909e+01, 3.253102017255013e+03, 5.406565903498265e+02, -6.281857488658268e+02, 2.108348101726997e+03
7769, 5.145323811150325e-01, 1.294765054005810e-01, -3.186795939285322e-03, -9.118128442773733e-10, 5.630545705234317e-10, -2.857266003857148e-09, 2.474659208239625e+03, 2.676616988787845e+03, -1.601934407742670e+02, 4.000273263151720e+03, 2.670766232649872e+02, -2.865389656851917e+02, 1.611665250980819e+03
7770, 4.020725761755408e-01, 1.027223086675637e-01, -8.008718331295604e-03, -1.357639640949921e-09, 5.557030681228829e-10, -4.659407718383650e-09, 3.482900740621614e+03, 3.671874446396950e+03, -1.517505453176998e+02, 6.799494431762597e+03, 5.484123114505475e+02, 7.169906918489752e+02, 3.594765027631582e+03
7771, 6.656951089450497e-01, 8.490707655524177e-01, 2.146068083193155e-03, -1.199231281110661e-09, 6.642377269464242e-10, -2.765114417092449e-09, 3.421466298579895e+03, 3.406845975507233e+03, -2.584449377147131e+02, 5.634633188003841e+03, 5.034689422424707e+02, -8.333145206110866e+02, 2.823958605381727e+03
7772, 5.852343348253168e-01, 2.919684476157193e-01, 2.670691556418484e-05, -1.094848694952607e-09, 2.962710296056302e-10, -2.122219409350669e-09, 2.074459196117100e+03, 1.836298194101879e+03, -9.023951658396840e+00, 3.557278131092906e+03, 3.900372114389710e+02, -1.190542158975796e+02, 1.762888366620384e+03
7773, 5.453222220202223e-01, 5.197741875839715e-01, -1.971515843963819e-03, -1.751326815106901e-09, 7.977289734148864e-10, -4.205257290734687e-09, 4.168800599824303e+03, 4.062934967503085e+03, 1.335150538686071e+02, 8.020219828199256e+03, 1.166030854163066e+03, 6.875655610892008e+01, 4.404420006786630e+03
7774, 4.760390300773890e-01, 6.408775766911430e-01, 2.575238679333223e-02, -1.307354087619036e-09, 5.681628663248220e-10, -3.032024966397518e-09, 5.323486857093429e+03, 5.280834726447782e+03, 2.653123869502058e+02, 1.113117778976021e+04, 1.049286187563951e+03, -4.697000179537247e+02, 6.176959963030402e+03
7775, 8.605651010881594e-01, 8.071723204410590e-01, 1.194261967980883e-02, -5.122644597226808e-10, 1.459215980897654e-10, -2.131920594375005e-10, 6.975261666929151e+02, 5.601673910276781e+02, 4.867846425017633e+00, 8.469119342537434e+02, 4.876971197868794e+02, -6.257819602328372e+01, 8.871683090148393e+02
7776, 8.891091246664390e-01, 1.237668940457398e+00, 1.047906045753140e-02, -7.211215415316503e-10, 1.380043023045109e-10, -8.903465127106101e-10, 2.333480575466355e+03, 2.125745999736638e+03, 1.842142328261664e+01, 4.272230470459470e+03, 1.028613936846057e+03, 1.423380345470325e+02, 2.727744211640287e+03
7777, 8.534538168013189e-01, 6.984564905145176e-01, 1.147973684943723e-02, -5.292822990377288e-10, 1.519319974750483e-10, -5.335134934623178e-11, 2.638789910400471e+02, 2.702034634986800e+02, -1.581131960996128e+01, 2.933341225179908e+02, 3.818417032801582e+02, -8.448335644571655e+01, 6.784488784562691e+02
7778, 5.272083836760529e-01, 5.552214739245567e-01, 3.265349571716711e-02, -1.085601616644972e-09, 4.889508969938483e-10, -2.036459127400952e-09, 4.368406496947099e+03, 4.233812329385917e+03, -3.372684994798625e+01, 7.590373074218742e+03, 8.660566653968278e+02, -3.076831871251534e+02, 3.656559024486053e+03
7779, 6.089208735640125e-01, 1.599308423366010e-01, -3.405774540703801e-04, -9.079000445254710e-10, 4.424159648578992e-10, -1.682343448739665e-09, 1.758089167663075e+03, 1.845571435352076e+03, -1.076402961332798e+02, 3.203429699480879e+03, 4.485480332966657e+02, -2.727408869910078e+02, 1.682774144577031e+03
7780, 3.150975384265135e-01, 2.864301194658843e-02, 1.873451553333058e-02, -5.661631593808564e-10, 1.007825641754304e-09, -1.708692327798859e-09, 3.129616466890363e+03, 4.237543651776429e+03, -4.111120860705664e+02, 4.219157172445672e+03, 2.778628232040452e+02, -1.547149855449529e+03, 3.021117432754972e+03
7781, 8.302744403907850e-01, 5.028535186948438e-01, 1.096648333433594e-02, -6.063904102684487e-10, 1.385872097742321e-10, 1.407090090411779e-10, -9.659056628233121e+01, -1.468477655299864e+02, -1.363081292981451e+01, -5.432750168348820e+02, 5.094713725966268e+02, -1.562793409880072e+02, 1.015930119613646e+03
7782, 5.636454787463715e-01, 5.971801053671590e-02, 3.646208365343911e-02, -4.541030080649801e-10, 4.387841624740940e-10, -7.087330531650406e-10, 1.816339200801279e+03, 1.663425612633865e+03, -1.527686645234731e+02, 2.751728154415685e+03, 4.273795375337743e+02, -4.215227998905444e+02, 1.480671386767072e+03
7783, 5.760953813866515e-01, 3.066687685057184e-02, 3.404724821429853e-02, -2.614835872378254e-10, 3.257976775158179e-10, -4.166232989122497e-10, 1.264015659025830e+03, 1.448259782785395e+03, -2.104327260292401e+02, 1.640629017931610e+03, 1.459570218996074e+02, -4.137460945685334e+02, 9.037191856590862e+02
7784, 3.887553838350183e-01, 4.144947038113174e-01, 3.453057782071732e-02, -1.225136350556230e-09, 5.558294815453477e-10, -2.612906947593903e-09, 5.027696330684708e+03, 5.158980672639718e+03, 1.375762023060529e+02, 1.023711135135434e+04, 1.040230649340540e+03, -3.356349565700007e+02, 5.487467478817725e+03
7785, 8.835163427493385e-01, 1.374277093729535e+00, 9.728966565201475e-03, -4.266152641758635e-10, 3.700870533616824e-10, -1.514536583052073e-09, 3.687953179795499e+03, 3.309143503344573e+03, -1.821887511827726e+02, 6.458006527688686e+03, -3.041266191047777e+02, -1.785248108334686e+02, 3.055926354214158e+03
7786, 7.818658044744698e-01, 1.363025278633988e+00, 7.627432182416932e-03, -4.291785983826789e-10, 6.766646330287565e-10, -4.075488626948481e-09, 6.072327704291110e+03, 6.691397953639394e+03, 2.817816795227703e+02, 1.401532756561418e+04, 7.535381005488634e+01, -9.588968866463019e+02, 7.846713128333227e+03
7787, 5.886727060319796e-01, 4.250813024787420e-01, 3.460064040277301e-02, -8.485378868296158e-10, 3.014602315989239e-10, -1.232854803887681e-09, 2.764980589695581e+03, 2.669461114564228e+03, -1.387788503830949e+02, 4.846799665591341e+03, 7.293643946887635e+02, -1.671047521066141e+02, 2.505876466135305e+03
7788, 1.567311589860515e-01, 1.086699501703937e-01, -7.831565985666613e-03, -1.387244800644017e-11, 1.745813525508510e-10, -7.365180712220702e-09, 3.691653288385328e+03, 5.278786757188647e+03, 8.536661823712213e+02, 1.031772361678402e+04, -1.171653110275044e+03, 8.596163554398563e+02, 6.665486807479144e+03
7789, 6.372535958789789e-01, 1.782067428437491e-01, 2.186539669122117e-03, -7.431941456685552e-10, 1.745572119325808e-10, -1.165331511193115e-09, 1.566569478071566e+03, 1.423826168481968e+03, -1.306365172471262e+02, 2.120162861848819e+03, 9.039530160460400e+01, -3.274488408427963e+01, 6.962695969485002e+02
7790, 8.013287794135238e-01, 1.386012274551075e+00, 8.002456069027698e-03, -1.307604155019347e-09, 6.736261230343246e-10, -4.494233941611127e-09, 6.594519731308360e+03, 7.576485972839441e+03, 4.023619314894644e+02, 1.563732337040245e+04, 1.934159147661689e+03, 1.430547342940085e+02, 9.253476191169073e+03
7791, 6.264828500089328e-01, 7.390517912877396e-01, 9.777689147882785e-04, -1.190469453572067e-09, 3.541875560646400e-10, -3.490052194181926e-09, 4.065919166004102e+03, 4.002604565523818e+03, -1.330786857122031e+02, 7.265652212756637e+03, 2.803067429452468e+02, 7.803224623628263e+02, 3.544071808613825e+03
7792, 7.389935112318499e-01, 1.175487050575333e+00, 1.476187381334929e-02, -1.099400068426826e-09, 6.375696571616331e-10, -2.727961239587476e-09, 4.965986596203892e+03, 5.025136933168582e+03, -1.121632957211787e+02, 1.028844185863046e+04, 9.462525771504451e+02, -1.002970022931221e+03, 5.810247326521648e+03
7793, 5.929337057712946e-01, 3.511182567886841e-01, -6.381306816636775e-05, -1.277812344207958e-09, 3.515468936755473e-10, -2.370617499376080e-09, 2.572396480718415e+03, 2.569171089299883e+03, -1.140867125150267e+01, 4.913169575606794e+03, 5.089931439152502e+02, 1.237330779691636e+02, 2.512035261118888e+03
7794, 2.402692523311948e-01, 1.439405154529834e-01, -9.794176341452621e-03, -1.465964087824349e-09, 9.125743551418687e-10, -8.178864072727450e-09, 6.530946407587036e+03, 6.635301531149686e+03, -7.147536804718973e+01, 1.128330668952117e+04, -4.209443938367432e+02, 2.582358852122136e+02, 4.779837983314662e+03
7795, 8.566752277526508e-01, 1.424138591635693e+00, 8.996390815036295e-03, -9.704182609471184e-10, 3.117746099031951e-10, -2.767100289290069e-09, 5.581614220991069e+03, 5.291332476551166e+03, 1.389672889669556e+02, 1.031222368288193e+04, 9.847772929289334e+02, 4.717266518096391e+02, 5.241279587395084e+03
7796, 7.927396976596444e-01, 1.145467733664692e-01, 1.282149810639720e-02, -4.705632062172405e-10, 3.173161256030961e-11, 2.169101690743297e-10, -1.166483270668865e+02, -3.078822808255150e+02, -1.332902536741701e+01, -6.195791818953036e+02, 3.358374721608703e+02, 3.627005611532196e+01, 7.322379236001958e+02
7797, 6.611067138071945e-01, 6.376001831059158e-02, 2.730987172398960e-02, -3.905316124064883e-10, 2.081784183226939e-10, -4.956661345529930e-10, 1.148502641246689e+03, 1.025278657860109e+03, -1.726596084444802e+02, 1.863727963076569e+03, 3.194896476406841e+02, -1.667902645549200e+02, 1.045933184915436e+03
7798, 5.762476646808571e-01, 7.588572406425188e-02, -2.109974634436212e-04, -4.408705368803578e-10, 5.307849460450677e-10, -1.524027981647371e-09, 2.038090535448958e+03, 1.582706782758883e+03, -5.444710736950269e+01, 2.397016467620610e+03, -2.163108002227223e+02, -4.579920587752887e+02, 1.130568862128653e+03
7799, 3.751214853434500e-01, 1.546020260664118e-01, 4.561861999408083e-02, -9.301556474065843e-10, 6.045159842296603e-10, -1.997783268078105e-09, 4.102981278698553e+03, 4.031787893490494e+03, -2.109219216112518e+01, 7.694656403932467e+03, 7.846272775074292e+02, -4.199073877857526e+02, 3.941842639241478e+03
7800, 7.551397826442888e-01, 8.735096904399586e-01, 5.720352272775254e-03, -9.342096183208155e-10, 1.733427352680523e-10, -1.544839025932833e-09, 2.663695393963295e+03, 1.934056363403849e+03, 3.167304020268474e+01, 3.536967827882784e+03, 4.049468431482753e+02, 1.033242233105707e+02, 1.568162803404418e+03
7801, 8.938718281364983e-01, 1.170312533437693e+00, 1.080897155427086e-02, -5.257831445979495e-10, 1.825351514247635e-10, -5.689387189100157e-10, 1.696688741885145e+03, 1.444330015843688e+03, 4.368870348519651e+01, 2.453680790933114e+03, 4.324302420052057e+02, -2.082780068682134e+02, 1.234750368911080e+03
7802, 8.364014717065460e-01, 4.619602004123208e-01, 1.138301070133400e-02, -5.440806813420261e-10, 7.358610925377268e-11, 2.163404239186524e-10, -1.752671338980427e+02, -3.276215757148588e+02, -8.130985106772437e+01, -7.150940667629736e+02, 4.113053433754689e+02, -2.307178075306437e+01, 8.725405524468808e+02
7803, 4.186526299680801e-01, 6.292536100296268e-02, 4.744451759974801e-02, -5.241286798064785e-10, 7.662406366807369e-10, -1.260448999116312e-09, 2.913438425022546e+03, 2.739581660781896e+03, -2.020667470899621e+02, 5.027774800945085e+03, 5.047169129809116e+02, -7.260223856719737e+02, 2.708555348692667e+03
7804, 6.768214623301329e-01, 1.200696279785038e+00, 5.639683216519850e-03, 2.005119973835463e-10, 2.114790436932726e-10, -2.794057656837263e-09, 4.647741055132733e+03, 3.734504392552459e+03, 2.986827268649267e+01, 8.603615178383699e+03, -7.524921210710665e+02, 2.506363028481909e+02, 4.688865081197250e+03
7805, 6.402816957379387e-01, 8.646262154161993e-02, 3.131917912027173e-02, -5.042241877998356e-10, 2.523175145346471e-10, -6.491581141369669e-10, 1.421947820952510e+03, 1.261081568273385e+03, -1.510911865126851e+02, 2.578487114551015e+03, 5.468498068007398e+02, -2.174937876095808e+02, 1.630042836121629e+03
7806, 6.966391162743022e-01, 6.324768788116462e-01, 3.308989953007095e-03, -1.032804331168868e-09, 4.762217885899624e-10, -1.472832427426562e-09, 2.294265958311327e+03, 2.135897611266656e+03, -2.613166226644650e+01, 4.004928566310112e+03, 5.760902638511086e+02, -1.859533604083379e+02, 2.079371642035825e+03
7807, 6.351236076713247e-01, 4.244726270723289e-01, 3.125248129197893e-02, -8.190353764141584e-10, 2.370489652088298e-10, -9.286679811180305e-10, 2.304890376276348e+03, 2.137128961537479e+03, -5.842129223923305e+01, 3.692882212214197e+03, 6.849373599005701e+02, -1.483716084997249e+02, 1.916041703277365e+03
7808, 6.299448738874776e-01, 9.326641410233949e-01, 2.061036244413378e-02, -1.179890874770749e-09, 6.585921197294767e-10, -2.281747238838041e-09, 4.575708444168969e+03, 4.932004539841342e+03, -9.458839783505603e+01, 8.883104910752369e+03, 9.987924114620869e+02, -5.460440278770026e+02, 4.589116980891648e+03
7809, 8.078383160183237e-01, 2.183381377237261e-01, 1.228761239988830e-02, -5.472221089384092e-10, 4.656547408240074e-11, 2.374942215279887e-10, -2.618070484393406e+02, -3.286126194068592e+02, -1.118000929093239e+01, -8.421353570752893e+02, 4.690001747896878e+02, 2.206439100130161e+01, 9.819336779242285e+02
7810, 4.385396435083605e-01, 5.898510220352020e-02, -6.954481196625093e-03, -6.426745617795476e-10, 4.165547176206136e-10, -3.039961872218238e-09, 3.213128022450596e+03, 3.076351436801858e+03, -4.046633647353989e+02, 3.786506200906664e+03, -7.400340242205229e+01, -7.555469775248970e+01, 9.750422777964521e+02
7811, 8.899837211766718e-01, 1.026799001431244e+00, 1.077294821681360e-02, -5.063380613252997e-10, 1.589939469824784e-10, -4.418675425099033e-10, 1.143622033976648e+03, 1.093908099902084e+03, -1.106850358280304e+02, 1.965787177780936e+03, 4.178460479147210e+02, -1.170067960725974e+02, 1.149309063920371e+03
7812, 4.003155280352234e-01, 4.931993039341396e-01, 2.875619709688040e-02, -9.378784732148729e-10, 6.736931888009686e-10, -2.711416274101201e-09, 5.146422046764619e+03, 5.680561632342630e+03, 2.795698807268513e+02, 1.027186862719833e+04, 5.189677716793987e+02, -3.875042828019440e+02, 5.030978348165498e+03
7813, 6.846177433923349e-01, 5.370591240532170e-01, 2.824380156315225e-02, -7.201674411474819e-10, 3.088018644003261e-10, -8.138678075981217e-10, 1.947231865296040e+03, 1.883824697262742e+03, -4.679025847083862e+01, 3.407522062088266e+03, 6.114855748439859e+02, -3.422619868311234e+02, 1.925825123465205e+03
7814, 7.040046680650424e-01, 9.424247628480122e-01, 2.170516502859636e-02, -9.983450301948694e-10, 4.002936829012966e-10, -1.658905574900591e-09, 3.859184063433293e+03, 3.758508120723997e+03, -1.296745695616526e+02, 6.394817072525258e+03, 8.032589804741075e+02, -2.484800468806673e+02, 2.977615841238705e+03
7815, 6.696080038322282e-01, 4.841198639295756e-01, 2.047713710067931e-03, -8.883657979095202e-10, 4.551889590411602e-10, -1.461466129373435e-09, 2.117675143580550e+03, 2.010450314107895e+03, 2.493114034574757e+01, 3.397830776378476e+03, 8.887184187909145e+01, -2.352818500872900e+02, 1.406837596426885e+03
7816, 5.325906849644093e-01, 9.336828084878158e-01, 6.010682585213097e-03, -7.640612711705220e-10, -4.443562671873296e-10, -3.376325980584102e-09, 5.601842726435508e+03, 5.255942933377809e+03, 6.581340274358383e+02, 9.921475534898727e+03, 6.176095620320650e+02, 1.036389069721408e+03, 5.093043017723585e+03
7817, 8.156771284251935e-01, 2.809693474164753e-01, 1.164139247747095e-02, -5.395859573606188e-10, 8.248617777063347e-11, 2.590636116057479e-10, -2.505136145330894e+02, -3.342368694864136e+02, -4.493863367051610e+01, -6.550871143286267e+02, 3.956041321566311e+02, -1.504220816705792e+01, 7.829829017880239e+02
7818, 2.233243649504174e-01, 1.146115934721567e-01, -1.088961576723605e-02, -1.728476989011844e-09, 1.369943131629216e-09, -9.203644000098949e-09, 6.221552455851566e+03, 6.396766271872440e+03, -2.513336331671943e+02, 1.484808821596463e+04, 8.884722566085088e+02, -4.017229333287810e+02, 8.716543433926265e+03
7819, 4.906392599477068e-01, 6.907881481084814e-01, -3.122806964681837e-03, -1.998675237069046e-09, 5.595703497851796e-10, -5.346704479969642e-09, 6.580715018814163e+03, 6.594036046922529e+03, 2.300460117056859e+02, 1.207218659501632e+04, 1.293290609759010e+03, 5.737777374160809e+02, 6.020590789701926e+03
7820, 2.807410112533829e-01, 1.233409431822143e-01, 4.286244064652301e-02, -8.779278008546579e-10, 8.487671379204205e-10, -2.600232198889442e-09, 4.767208660268523e+03, 4.589250044578817e+03, -8.240240815206924e+00, 9.674774269607553e+03, 6.737205554570243e+02, -5.908728602128606e+02, 5.234358330985772e+03
7821, 6.933062079853027e-01, 1.047815045990187e+00, 1.937765537732835e-02, -1.318752237656665e-09, 5.699082097175108e-10, -2.183853469311790e-09, 5.210008288874841e+03, 5.037046196180159e+03, 1.885654486114774e+02, 8.440761520315516e+03, 1.334243743540022e+03, -3.598690083670373e+02, 4.106371532651450e+03
7822, 6.087039981374573e-01, 6.185158863425246e-01, 3.237209034336691e-02, -9.949249788881005e-10, 3.659193473151494e-10, -1.314745121065156e-09, 3.350249901724776e+03, 3.194504324384078e+03, 9.386544141329747e+00, 5.432860601705039e+03, 9.711123697638867e+02, -2.379122358589128e+02, 2.772206727509696e+03
7823, 8.917395028092855e-01, 1.405836593907404e+00, 9.322373011647692e-03, -6.735860535590391e-10, 3.528117135207731e-10, -1.084052379913165e-09, 3.206870104165144e+03, 2.946094292910912e+03, -1.548132007087422e+02, 5.100542448648773e+03, 1.528177592195833e+02, 7.265506277893213e+01, 2.074998884882066e+03
7824, 6.827685201347203e-01, 3.008187782754308e-01, 4.196022641380172e-03, -8.870051643505175e-10, 1.903891904171430e-10, -8.265766811904913e-10, 1.332026486080572e+03, 1.300203784454020e+03, -7.144929300115548e+01, 1.741624363995643e+03, 3.449343187814735e+02, -3.528478602286097e+01, 7.468645945497429e+02
7825, 7.011658413221291e-01, 8.246937115854469e-01, 3.449341692424239e-03, -9.996351568603552e-10, 5.776729901414285e-10, -2.266849791861989e-09, 3.064064287483828e+03, 3.148449814870252e+03, -4.462324612614626e+01, 4.722814442756136e+03, 2.202698602975686e+02, -4.310833766045841e+02, 1.824178515743097e+03
7826, 8.133986589686812e-01, 3.161320880577069e-01, 1.298047215529698e-02, -5.167119768997339e-10, 9.134546737449250e-11, 2.058293265861941e-10, -1.042061380543935e+02, -2.446797076546143e+02, 2.145483312879009e+01, -6.677108701754296e+02, 3.902810908549610e+02, -5.009492464089052e+01, 8.508703246243036e+02
7827, 6.106734814956829e-01, 1.083119171044141e+00, 5.899764113791530e-03, 4.914946621127232e-10, 3.411447976594578e-10, -2.899025081021547e-09, 4.027000115575833e+03, 4.130529906226649e+03, -1.851414189997777e+02, 9.150470184245391e+03, -1.723254962805354e+03, -2.294635524931074e+02, 5.907609311713651e+03
7828, 6.391274248191262e-01, 8.665520549549478e-02, 1.749059760607578e-03, -8.113430282225693e-10, 2.367063417908462e-10, -1.516694593425768e-09, 1.486143286302616e+03, 1.334313610534481e+03, -1.573094788303312e+02, 3.050408649183696e+03, 6.943141383955497e+02, -1.013436336432596e+02, 2.063673195971790e+03
7829, 1.306095513553144e-01, 6.706868698266513e-02, -8.061027753736506e-03, -8.522240086678772e-11, 8.826889562821948e-10, -5.994188524877094e-09, 4.223987638569190e+03, 3.679831392540334e+03, 6.534112199692415e+02, 9.601837804824352e+03, -1.049952893146247e+03, -8.209760928983659e+02, 6.225256326041006e+03
7830, 5.039304707656443e-01, 6.555600399807031e-01, 2.747310325666286e-02, -1.287149388917576e-09, 4.452327877925421e-10, -2.652234059899894e-09, 5.031037900115244e+03, 4.769996086281080e+03, 1.397871577339064e+02, 9.654665254628862e+03, 9.300132124867805e+02, -1.838500637023095e+02, 5.040618059867646e+03
7831, 6.429368784804183e-01, 7.761597642851248e-01, -3.585364085078833e-04, -1.587763383908380e-09, 8.508714992332452e-10, -3.177484125745384e-09, 4.028012333798388e+03, 4.005259548840389e+03, -3.084506800730520e+01, 6.422993544705307e+03, 7.966352449955770e+02, -3.768816755663269e+02, 2.850228406600494e+03
7832, 5.264713387234655e-01, 7.278056746964465e-01, -2.473139183222180e-03, -1.583025958740104e-09, 7.123294439657511e-10, -4.391657198950427e-09, 4.832214701577262e+03, 5.211798842240315e+03, 9.883553147864879e+01, 9.532389174119458e+03, 8.618796960214912e+02, -3.014448411581611e+00, 4.765443839018759e+03
7833, 7.138618679056237e-01, 7.678562742007657e-01, 2.780633554499649e-03, -8.862593744342381e-10, 4.734134543117960e-10, -1.540694261894772e-09, 2.035077367664977e+03, 2.247944821250342e+03, -1.322118572094340e+02, 3.134455087722014e+03, 6.991857071058116e+01, -4.390428417275622e+01, 1.045375861598977e+03
7834, 2.795945946794923e-01, 4.715654993599595e-01, 4.230267697050694e-03, 4.365290740336169e-10, 2.868082176600547e-10, -1.874081113639840e-09, 3.119089836410284e+03, 3.121757581185825e+03, 2.881242966175500e+02, 6.547143334655060e+03, -1.607417135365373e+03, 5.917861721664723e+01, 4.444472458030310e+03
7835, 8.293140777129959e-01, 3.862031396210009e-01, 1.168508870436332e-02, -5.619489897107057e-10, 1.157907240728306e-10, 3.249473236224076e-10, -3.250071913196353e+02, -4.505852196673231e+02, -4.048789689940168e+01, -1.078497621332296e+03, 4.985896094638823e+02, -1.316243118008183e+02, 1.136469669853834e+03
7836, 4.919519658095907e-01, 5.888750546382151e-01, -4.884871988478624e-03, -1.828581106454709e-09, 9.992748291459621e-10, -4.729572304062925e-09, 4.427341333674199e+03, 4.258113387684196e+03, -4.440844481123024e+02, 6.639532395471031e+03, 2.956933558897020e+02, -3.799468983108343e+02, 2.565893129311653e+03
7837, 4.918029024956561e-01, 8.633971851279297e-02, 9.367278680520849e-03, -7.612411863716477e-10, 5.469766743196114e-10, -3.032640096440561e-09, 2.548075904288028e+03, 2.493666914285236e+03, -2.037102528797494e+02, 5.609702730617745e+03, 3.948334837563486e+02, 1.185559644371338e+02, 3.190209989399182e+03
7838, 4.498369985985818e-01, 3.857649771191081e-01, -7.326282155850475e-03, -2.135128238096057e-09, 6.368151878806967e-10, -5.185786234745809e-09, 4.630323592576377e+03, 4.494130731314661e+03, -3.028743942103662e+02, 8.227977639889014e+03, 1.264339996645057e+03, 1.217680586650080e+02, 4.308942549608226e+03
7839, 8.832481502658340e-01, 9.630805002222328e-01, 1.134898188278960e-02, -4.966463056037555e-10, 2.030406987109512e-10, -2.575397180538368e-10, 9.279053609656311e+02, 8.617837476903426e+02, -8.592181618719970e+01, 1.548752464174717e+03, 3.144816319735740e+02, -2.015727020680365e+02, 9.336021819065929e+02
7840, 4.355840787809256e-01, 5.869987771104613e-01, 2.606147441903293e-02, -1.315721817505340e-09, 7.113651452214688e-10, -3.219356618124829e-09, 5.723652659445602e+03, 5.784172427277351e+03, 1.651912828845531e+02, 1.178684791665160e+04, 9.895089496850878e+02, -4.323151819151022e+02, 6.322894417425116e+03
7841, 6.269889893329800e-01, 2.035841047317757e-01, 3.323913869940284e-02, -6.143611948960345e-10, 1.794010409872560e-10, -7.065258563713434e-10, 1.787600159195139e+03, 1.612605426619067e+03, -9.787961552054549e+01, 2.872874888813357e+03, 5.833667808225332e+02, -1.540710773460132e+02, 1.587219930314368e+03
7842, 8.807821118442229e-01, 1.456205753000629e+00, 8.737315101304856e-03, -8.244906888449567e-10, 7.749140905035429e-10, -1.370686474151258e-09, 3.951416165922055e+03, 3.630597478929511e+03, -3.035123879200762e+00, 5.492648744787100e+03, 3.301627353239157e+02, -8.189731720830537e+02, 2.304773265524435e+03
7843, 8.419223600272171e-01, 1.323781916341198e+00, 1.157354944620433e-02, -8.267458128746392e-10, 5.707355636850569e-10, -1.312226775400995e-09, 3.525161070275273e+03, 3.447336570087584e+03, 1.081954874471178e+02, 5.586813714527920e+03, 6.340235802234894e+02, -5.100856373529636e+02, 2.537430576121111e+03
7844, 6.501911693507842e-01, 8.406833381924872e-01, 2.555478037845606e-02, -1.083592075792949e-09, 5.569350702465826e-10, -1.674845873490793e-09, 4.091246779641487e+03, 3.701377640613390e+03, -2.002913988646761e+01, 6.750589125980136e+03, 9.112229992899072e+02, -4.476157198631526e+02, 3.369593481740601e+03
7845, 6.301683311658900e-01, 5.401374078704296e-01, 5.021495383332915e-04, -1.223817476018048e-09, 5.300581866476052e-10, -1.891457882014554e-09, 2.683301548172008e+03, 2.247871672126008e+03, -9.154523260176349e+01, 3.367588027276991e+03, 5.255060702821122e+02, -4.337489303295460e+01, 1.347242206063633e+03
7846, 8.273807910048400e-01, 1.414286489175708e+00, 8.135394852425724e-03, -4.470786948320077e-10, 9.439862696609863e-10, -3.368584665700843e-09, 6.385657187622240e+03, 6.503201834694099e+03, -1.132707541357241e+02, 1.398919300746745e+04, -2.430116895822535e+02, -1.098441984581773e+03, 7.795460088333891e+03
7847, 3.448396061608209e-01, 4.538380303041791e-01, 2.432607974899391e-02, -6.786367769130650e-10, 3.778145180498037e-10, -3.461804178063592e-09, 5.069144503889108e+03, 5.973097128774162e+03, 1.453708520798182e+02, 1.240849396105548e+04, 3.537630068443539e+02, -1.769957348073656e+01, 6.963371257468096e+03
7848, 4.607438549070894e-01, 1.054592947742827e-01, 4.651000324245538e-02, -6.062758274916869e-10, 5.216822338422638e-10, -1.336698595578601e-09, 3.050964670040636e+03, 2.817394110886687e+03, -1.471372860838361e+02, 5.466295075954027e+03, 5.400428825992534e+02, -4.063800892083491e+02, 2.808531229665356e+03
7849, 1.959192726733442e-01, 2.760963642690771e-02, 1.293911247028470e-02, -2.337511956343070e-10, 1.265752929423235e-09, -2.442274779262467e-09, 3.361628995445963e+03, 5.293379089428548e+03, -3.153321733387892e+02, 5.741069246808814e+03, 5.738324958940693e+01, -2.230679803039280e+03, 4.475811569749268e+03
7850, 7.756903008111066e-01, 1.123510230870689e+00, 1.694780477704336e-02, -9.097843892493533e-10, 5.438988411786729e-10, -1.610405688692560e-09, 3.687098935546391e+03, 3.702910911542676e+03, -2.440695720345831e+02, 6.301799684208572e+03, 9.353155486834794e+02, -5.810697574169913e+02, 3.257552458813941e+03
7851, 8.978093814484446e-01, 1.201842831531656e+00, 1.037234422635457e-02, -3.522173634000212e-10, 1.716247071992099e-10, -1.041568219477979e-09, 2.191788836231580e+03, 2.136965501442770e+03, -9.006297696214153e+01, 3.729130775909500e+03, -4.776735708772967e+01, -7.587522864996862e+01, 1.580872664388003e+03
7852, 4.597621697667957e-01, 1.083212193152721e-01, -6.440373716325137e-03, -8.035299301894616e-10, 5.903461303886148e-10, -3.817214622625361e-09, 3.199195329457817e+03, 2.920510968151767e+03, -5.675096736955974e+02, 4.802999523351153e+03, -6.986162090346565e+01, 2.976773114665399e-01, 2.019319664217856e+03
7853, 6.512999878376485e-01, 6.077234007646141e-01, 5.822765437161290e-04, -1.156638852805105e-09, 4.205624393520523e-10, -1.896783002376598e-09, 2.845486261514598e+03, 2.544622257031418e+03, -8.063846799418887e+01, 4.577453713773719e+03, 3.493349242294951e+02, 2.178276346549100e+02, 2.034521088334673e+03
7854, 6.685762492380574e-01, 9.012444348041165e-01, 1.443116518346277e-03, -1.174554016070485e-09, 5.571450515732850e-10, -3.284685413810339e-09, 4.641346474871618e+03, 4.790095763240755e+03, -1.948520643135853e+02, 8.236595037267873e+03, -1.890054102430493e+02, 6.133652174690143e+02, 3.709834187297825e+03
7855, 3.841473990344722e-01, 1.580967231364097e-01, -1.101739355317043e-02, -1.683194895443838e-09, 1.008267970927602e-09, -6.304537266324419e-09, 4.412030210809990e+03, 4.829836662504120e+03, -1.206790001116765e+02, 9.467323383021168e+03, 6.193262736059160e+02, -2.442666775790165e+02, 4.999180050527605e+03
7856, 4.805583092031224e-01, 6.409847351253841e-01, -4.262115312850406e-03, -1.774648137838681e-09, 9.626173411900466e-10, -5.848615011087910e-09, 5.547539587611293e+03, 5.246070873461846e+03, 2.360005267937046e+02, 8.376092724241424e+03, 8.642335788607126e+02, -4.751845050993949e+02, 3.468357714170485e+03
7857, 3.677848526432360e-01, 2.307909464660735e-01, -1.021832852845527e-02, -1.685231841978815e-09, 1.042867667352376e-09, -6.652074548466793e-09, 5.179815010811899e+03, 5.676696994540299e+03, -3.399597252603507e+02, 9.840577096779518e+03, -1.144365146154483e+02, 5.304407209824686e+02, 4.569885478241646e+03
7858, 8.571697008417609e-01, 6.599412679629152e-01, 1.131231945489493e-02, -4.928426623299915e-10, 1.340071018550784e-10, 5.468379097634391e-11, 8.705861185654889e+01, -9.644773739174752e+00, -6.832568592725420e+01, -2.015666162757719e+02, 3.313526304887541e+02, -1.299535333701845e+02, 6.773460623236122e+02
7859, 7.171824971708414e-01, 6.710483441134470e-01, 4.360000344659495e-03, -8.264765516860809e-10, 2.044441722065848e-10, -1.837597674220085e-09, 2.480412180361765e+03, 2.290548159295086e+03, -1.300606940538665e+02, 4.493689245127809e+03, 1.632376113454650e+02, 3.442195255643729e+02, 2.226596037918040e+03
7860, 6.121836365560602e-01, 8.058115876732100e-01, -1.957310423240065e-05, -1.689534669150514e-09, 1.022909331528729e-09, -3.366622968359348e-09, 3.731171985982486e+03, 4.236129441699875e+03, 8.292459196435013e+00, 5.795754708739047e+03, 7.366990187418421e+02, -8.787023100947861e+02, 2.723911395212799e+03
7861, 6.173767375872256e-01, 8.710592226270940e-01, 3.853026607258045e-04, -1.644731216107173e-09, 6.984419525274133e-10, -3.386768790162764e-09, 5.068216811000000e+03, 4.961907840132967e+03, 2.047900178963628e+02, 8.955200820917908e+03, 9.205036248740433e+02, 4.926222346449221e+02, 4.350746508729702e+03
7862, 9.047901816022461e-01, 1.354526991916094e+00, 9.921431218919616e-03, -5.691557188367069e-10, 4.013655879501868e-10, -8.527403276836111e-10, 2.562310360301019e+03, 2.447640111073958e+03, -1.724801750709995e+02, 3.668447097285934e+03, 4.878247162604565e+02, -4.819935035847926e+02, 1.692231966525240e+03
7863, 6.740938964548850e-01, 1.990277549410868e-01, 4.493647460843700e-03, -7.767257160487875e-10, 1.641687843369965e-10, -1.009512826827155e-09, 1.316931346939975e+03, 1.257879279814769e+03, -9.623542108419029e+01, 2.285750839162887e+03, 1.977581028724809e+02, -1.078778430513189e+02, 1.085969892060969e+03
7864, 7.038817389693702e-01, 8.949322761512483e-01, 2.093033306659685e-03, -1.025278805509872e-09, 4.195434984554129e-10, -2.624848113617142e-09, 3.707782929673590e+03, 3.028069561787493e+03, -1.878625635382457e+02, 4.693502774379802e+03, 6.136209689828954e+02, 1.521471650026438e+02, 1.846232980608664e+03
7865, 8.598451095949348e-01, 7.561537097523321e-01, 1.073508975491011e-02, -5.113283546399253e-10, 1.744472061296286e-10, -6.621846838284648e-11, 5.020785005417435e+02, 4.152184591310387e+02, -2.429892230258611e+01, 5.979238705890174e+02, 4.123485305994994e+02, -1.551056325279362e+02, 7.804451622172262e+02
7866, 4.920497594205792e-01, 3.657372144762844e-01, -5.064530920670676e-03, -1.576612327445318e-09, 6.210629481332460e-10, -4.744578334737911e-09, 4.349065869154412e+03, 4.340719063797455e+03, 9.362040332772870e+01, 7.756982083527749e+03, 7.216611802312842e+02, -1.095664908360714e+02, 3.642403213720457e+03
7867, 7.005295719289301e-01, 5.671991565564207e-01, 2.643210613941093e-02, -7.470319367625280e-10, 2.503355396372579e-10, -8.207989178152146e-10, 1.870144472422983e+03, 1.724739187285187e+03, 7.655824886321690e+00, 3.406008133253779e+03, 7.505515720233681e+02, -1.626191764999288e+02, 2.091132799848762e+03
7868, 5.842867203462810e-01, 6.839055066495044e-01, -1.129183154909785e-03, -1.346975518612963e-09, 8.210914969456253e-10, -4.032788786381223e-09, 3.855057510253931e+03, 3.505266910953170e+03, 8.036627734807854e+01, 7.112403696325837e+03, 7.350202949931606e+02, -1.554528341545836e+02, 3.685740655897056e+03
7869, 3.992956929607656e-01, 2.081802100674934e-01, -9.276789993392039e-03, -1.627636032698112e-09, 1.379451157049364e-09, -6.067074579301383e-09, 5.009493017975277e+03, 5.093968907471848e+03, -3.136315117667987e+02, 9.148419060703169e+03, 2.761882856357926e+02, -1.027112655081210e+03, 4.525154230037697e+03
7870, 6.681989949827342e-01, 6.501873801436280e-01, 2.814690609413633e-02, -7.915735839321217e-10, 4.183511890151077e-10, -1.080392753075873e-09, 2.706529288376485e+03, 2.621082580153332e+03, -9.639647774903254e+01, 4.338310948716826e+03, 6.575727630342446e+02, -3.322070413870202e+02, 2.113199023340284e+03
7871, 3.214840462182722e-01, 1.471930836652667e-01, 4.352880514366457e-02, -1.004400009426728e-09, 7.054986423303155e-10, -2.387877524799806e-09, 4.618006611000883e+03, 4.471322689011383e+03, -2.683217715014558e+01, 8.828224629694150e+03, 8.285685417984528e+02, -4.218122018776685e+02, 4.578267927157281e+03
7872, 3.469791790750000e-01, 4.528047515370920e-01, -4.739200165670768e-03, -1.893760285707846e-09, 6.346404536066096e-10, -6.793078477335859e-09, 6.216464654267911e+03, 5.860310694112088e+03, 1.852293529281369e+02, 1.162776508305921e+04, 1.608258049090191e+03, 8.437989393855986e+00, 6.260902430738098e+03
7873, 4.236955124656481e-01, 5.419805682501220e-01, 2.983369416147848e-02, -1.014213001523558e-09, 8.313166338932007e-10, -2.963713696082917e-09, 5.557499704172975e+03, 5.727957264579273e+03, -7.830882541273844e+01, 1.163204946634384e+04, 7.512609069098825e+02, -6.563574330608150e+02, 6.236805958736551e+03
7874, 6.635135271530112e-01, 3.899962470440784e-01, 1.904556000379960e-03, -9.222540898220135e-10, 2.474242900790918e-10, -1.828544796958564e-09, 1.897704500755914e+03, 1.713639040840980e+03, -1.005859084293599e+02, 4.056400724922913e+03, 3.902147022778304e+02, 2.846349537748551e+01, 2.362366720756285e+03
7875, 2.494377215741749e-01, 2.769382872914406e-02, 4.733683841935718e-02, -2.633700060831320e-10, 8.201605286100613e-10, -1.179116220862111e-09, 2.886929606046127e+03, 3.730530968103991e+03, -1.473133470297904e+02, 4.813603820524548e+03, 1.381357140633448e+02, -1.197598067332224e+03, 2.687650141108126e+03
7876, 2.701965687357133e-01, 3.555364636351456e-01, 2.181485285018399e-02, -4.457563266717479e-10, 2.356909842155559e-10, -3.271274224160307e-09, 5.026720700609621e+03, 5.379854934015239e+03, 3.776460009592984e+02, 1.246567512667451e+04, 7.762316471255900e+00, 2.122912885170450e+02, 7.307464013706738e+03
7877, 8.962620474879309e-01, 1.107640001668654e+00, 1.049077142333375e-02, -6.133472024901199e-10, 1.213909369802466e-10, -4.478326906231752e-10, 1.551160700717701e+03, 1.385709130437236e+03, 5.623437814794417e+01, 2.939708544994830e+03, 8.310236306489542e+02, -8.831821205666243e+01, 2.071198884436442e+03
7878, 9.073192641665707e-01, 1.314707636959750e+00, 9.688610298287145e-03, -5.793892984083433e-10, 4.305963897825201e-10, -1.046580013313269e-09, 2.551523261175664e+03, 2.528526809414123e+03, -4.619026713803967e+01, 4.612055688714260e+03, 4.821349035599566e+02, -6.693934384838082e+02, 2.518279809867717e+03
7879, 8.303414515254969e-01, 3.520807073631017e-01, 1.138095991440923e-02, -4.787952919236949e-10, 6.322233139359160e-11, 2.352425905363652e-10, -2.774697691884537e+02, -4.004970623469723e+02, -7.364274698816393e+00, -7.159891060575283e+02, 2.948856418060266e+02, -5.246246512784805e+01, 6.502132959689318e+02
7880, 8.523327090893488e-01, 6.003952340578588e-01, 1.096616775023782e-02, -6.124429348394906e-10, 1.316821418024185e-10, 9.485560240648047e-11, 4.465428898049554e+01, -7.803961251613944e+01, -2.108480199197520e+01, -1.778244914636353e+02, 5.094928552345054e+02, -7.044166056585080e+01, 9.122623030134711e+02
7881, 5.845706796131991e-01, 5.666610192989635e-01, -2.182199513550767e-03, -1.673569552789033e-09, 4.797319507112837e-10, -3.955736020841027e-09, 3.493194167916385e+03, 3.359830897976367e+03, -1.826973932866063e+01, 7.802115707768998e+03, 7.687075949486690e+02, 5.893101457493199e+02, 4.687732635103520e+03
7882, 6.910033314177577e-01, 1.242042156807632e+00, 6.321597107344090e-03, 3.518001868066828e-10, -1.793170212582121e-10, -2.711475894294887e-09, 5.439421899357290e+03, 5.696430202265039e+03, -1.244920589245647e+02, 1.248249952278789e+04, -2.035263004927942e+03, 2.883870386342477e+02, 7.783556309183766e+03
7883, 4.350965587199437e-01, 3.167909649439711e-01, 4.229493332355783e-02, -1.088950557374024e-09, 4.580146623115507e-10, -1.865465012776686e-09, 4.223543828205233e+03, 4.097656715394794e+03, 1.401796236879034e+01, 7.549845472264788e+03, 9.921325317846906e+02, -3.448850148525173e+02, 3.848282229104982e+03
7884, 5.937247931258308e-01, 7.889409747409586e-01, 2.793729477936821e-02, -1.176822648461114e-09, 6.918662756607186e-10, -1.967109471877954e-09, 4.400081160870098e+03, 4.549555469016681e+03, -1.520477483866433e+02, 8.147238951814129e+03, 1.129857445936281e+03, -7.069081713069401e+02, 4.347605875246040e+03
7885, 4.659420522607814e-01, 6.113614270925324e-01, 2.844729984071091e-02, -1.237853852680954e-09, 6.052249085119505e-10, -2.702065437156694e-09, 5.253965474676945e+03, 5.366938222030970e+03, 2.038624891124934e+02, 1.075301737361019e+04, 1.096924929791976e+03, -4.494386918699655e+02, 5.828506643162501e+03
7886, 4.515003759486181e-01, 2.215747719846114e-01, -7.090271588450839e-03, -1.420909855106245e-09, 5.540765446084273e-10, -3.842442008720264e-09, 3.661224833194596e+03, 3.595629678096647e+03, -5.467734176342024e+01, 5.720939786871172e+03, 3.788441333244789e+02, 1.543346189379393e+02, 2.211974395781612e+03
7887, 5.541764436011564e-01, 8.096214162409531e-01, -2.304038676921298e-03, -1.503291800252555e-09, 8.117682255910786e-10, -6.007665703952568e-09, 5.597305067931502e+03, 5.443081919514018e+03, 1.672952451567414e+02, 1.380630252307432e+04, 3.351072990855619e+02, 2.089952496125916e+02, 8.320416592747719e+03
7888, 8.450891015447748e-01, 1.452469059255502e+00, 8.636393616638857e-03, -1.063965423569512e-09, 6.622920636055199e-10, -2.408881297679092e-09, 4.743990716628703e+03, 5.352627959116500e+03, 3.616397172035482e+02, 9.548128048464576e+03, 9.962487435579728e+02, -6.971191420760033e+02, 5.035276330545032e+03
7889, 6.830908028878574e-01, 9.436070670064014e-01, 1.702162076129110e-03, -1.487181381600642e-09, 7.263909178034145e-10, -3.300426506223532e-09, 4.656907620264717e+03, 4.245862844181678e+03, -7.200051055561109e+01, 7.515475965995916e+03, 9.934674778174233e+02, -1.506450804208071e+02, 3.544000184892662e+03
7890, 6.289123564816635e-01, 2.814373227955836e-01, 3.428766553629975e-02, -6.591610310863306e-10, 1.593265028098123e-10, -6.827784210486508e-10, 1.865517392030573e+03, 1.747645938564787e+03, -3.810520181661409e+01, 3.017814712111779e+03, 6.298450470320000e+02, -1.150891812563656e+02, 1.646727871054180e+03
7891, 6.754323940491560e-01, 6.781926306111279e-01, 9.868992424960712e-04, -1.063554387307072e-09, 7.915450769440864e-10, -2.563625718655436e-09, 3.271585595543116e+03, 3.253402558900459e+03, -1.660082327343219e+02, 5.909464405602371e+03, 6.755114632830138e+02, -9.033588158271746e+02, 3.302498258580676e+03
7892, 4.171122474661006e-01, 2.561901417380382e-01, -9.766531908260247e-03, -1.843932559400631e-09, 7.533804252394353e-10, -4.963631234880513e-09, 4.301380255148514e+03, 3.541011762859172e+03, -3.634553660043519e+02, 5.707940642585403e+03, 6.885935652688005e+02, -2.331561270288909e+02, 2.368109923761243e+03
7893, 5.097859121381775e-01, 8.970116141540356e-01, 5.919933633987958e-03, -3.285454403140274e-10, -1.615693588462321e-10, -3.783820623088559e-09, 3.736306053310599e+03, 4.245566517952481e+03, 3.489258055751187e+02, 1.206682621609592e+04, -7.158797908204234e+02, 1.106376908524815e+03, 8.425521746685257e+03
7894, 3.172673824464995e-01, 4.132102815577067e-01, -6.309270285680735e-03, -1.810741814222390e-09, 1.025084549684119e-09, -6.766617513811152e-09, 6.833477525638534e+03, 6.474732423071311e+03, 6.312383221201474e+02, 1.017857214160945e+04, 1.104695717253992e+03, -7.875050657145606e+02, 4.385809888286603e+03
7895, 7.338207993669125e-01, 4.124127589079916e-01, 2.328821404206440e-02, -6.241613778665474e-10, 1.772136809382350e-10, -3.027987004637659e-10, 1.120328014513320e+03, 9.053033459464301e+02, -6.553336316234881e+01, 1.438116371095169e+03, 5.718764462185089e+02, -1.963958645394599e+02, 1.151209479124006e+03
7896, 4.855722995327768e-01, 7.291815238291527e-01, 2.150622472291027e-02, -9.508688567117928e-10, 5.093638303662687e-10, -2.768795832245886e-09, 5.038936782675397e+03, 5.426650360213555e+03, 1.316620977243695e+02, 1.072731595955803e+04, 8.390041018743445e+02, -3.826919014610405e+02, 5.736345987149465e+03
7897, 6.513664635296288e-01, 3.786176875142903e-01, 3.235258113394004e-02, -6.940577811587319e-10, 2.584085004108348e-10, -7.741986177188807e-10, 1.870588064489666e+03, 1.762367953547667e+03, -3.001986023261425e+01, 3.365690796951087e+03, 6.304679000648855e+02, -2.320889278222841e+02, 1.940518658224521e+03
7898, 5.695926384457550e-01, 1.288764476260231e-01, -2.328043603178759e-03, -1.033965112409073e-09, 3.144625105950284e-10, -2.603238439661931e-09, 2.337957894981943e+03, 2.014254231665361e+03, -1.687601206165805e+02, 4.923907687909956e+03, 6.118121550490930e+02, 6.662651147122627e+01, 2.975012834347787e+03
7899, 4.305109169794481e-01, 1.654983194500806e-01, -8.352892643269293e-03, -1.092023716980330e-09, 1.266609094441079e-09, -5.188852201118369e-09, 4.160859586878370e+03, 3.969147777230318e+03, -1.420424833497386e+02, 7.494087591330281e+03, 1.731407343140708e+00, -7.494051869808718e+02, 3.678524584352834e+03
7900, 8.102228944872965e-01, 1.229407437667221e+00, 1.467180750416302e-02, -7.803049438298152e-10, 5.122104620926341e-10, -1.868959088609803e-09, 3.648676395630432e+03, 3.587657651585643e+03, -7.330960510493247e+01, 7.568112332235270e+03, 7.476500613770838e+02, -5.794909854427992e+02, 4.278475727470202e+03
7901, 6.556515424364940e-01, 4.447934236059565e-01, 3.087948029252117e-02, -7.117075861368357e-10, 2.185928580792387e-10, -7.758043349797148e-10, 2.099116751045241e+03, 1.957353571259325e+03, -4.406690349142690e+01, 3.317932716550945e+03, 6.601522360062804e+02, -1.435921133531238e+02, 1.747420118023264e+03
7902, 4.336002838127461e-01, 1.618320582614026e-01, 4.697820113065183e-02, -8.112694008220267e-10, 4.666274347721609e-10, -1.576739264982602e-09, 3.674496266325370e+03, 3.465203421750655e+03, -7.606005235794480e+01, 6.607034270947684e+03, 7.714371877477475e+02, -3.945613642896004e+02, 3.395155264982739e+03
7903, 5.495472536399371e-01, 2.129220973348583e-01, -4.590023321200062e-03, -1.059533454884871e-09, 5.739031507761595e-10, -2.518345518125980e-09, 2.057012688249683e+03, 2.488698380318337e+03, -1.246715877481773e+02, 3.206715372429229e+03, 2.782858331890785e+02, -2.889794948660867e+02, 1.241508789517238e+03
7904, 2.585853150324784e-01, 3.216275740946167e-01, 2.318968379895300e-02, -4.207423952983766e-10, 4.183138880625464e-10, -3.366065514172549e-09, 5.181856653568999e+03, 6.070791764142854e+03, 2.264866137583734e+02, 1.240349894339520e+04, -4.043549868973685e+02, -3.732061289230913e+02, 6.898187984862728e+03
7905, 8.823819726869284e-01, 9.342712550174013e-01, 1.054717218604442e-02, -4.592871302920769e-10, 1.688112472766647e-10, -2.323076266462274e-10, 9.354234352088380e+02, 8.711877294505738e+02, -4.809623402688615e+01, 1.144996254483555e+03, 2.439043274138502e+02, -1.297884179271107e+02, 5.453914710437431e+02
7906, 3.391615244149551e-01, 1.962174755527066e-01, 4.446806893130317e-02, -9.407761981097516e-10, 5.985601544430346e-10, -2.116615152890078e-09, 4.631253254008438e+03, 4.687358211112271e+03, 4.954879651913415e+01, 8.641722572549999e+03, 7.219359435955527e+02, -4.341991053017758e+02, 4.242467568632847e+03
7907, 4.016078693016080e-01, 7.050987527012619e-01, 4.587022560042658e-03, 1.939022668746868e-10, 4.377346878971382e-10, -2.291986658174410e-09, 3.861968060069277e+03, 4.763082416166854e+03, 6.107515965659081e+00, 8.161134028981136e+03, -6.692349939210147e+02, -7.395421407210566e+02, 4.290139975269853e+03
7908, 5.482993016789690e-01, 4.740161606510880e-01, -4.832388873107607e-03, -1.402156155152253e-09, 7.509273736864757e-10, -3.575695714353185e-09, 2.516706124512280e+03, 3.050466185260881e+03, -5.597334386286353e+02, 4.912359821356055e+03, 6.164897767498288e+02, -7.551203703320525e+00, 2.612586216451436e+03
7909, 2.282164295605689e-01, 2.071774641473507e-01, -9.595880691455141e-03, -1.748900024600453e-09, 1.462174934485382e-09, -7.517554517476644e-09, 6.285706499392887e+03, 5.290236074509072e+03, 7.095925947256916e-01, 9.760330326416577e+03, 3.119900928689488e+02, -5.577826360132177e+02, 4.212865620377827e+03
7910, 5.681514368831304e-01, 6.175219620096710e-01, -3.703371843261565e-03, -1.830879350483904e-09, 6.707722353140015e-10, -4.268419661519262e-09, 4.508379891155147e+03, 3.932864276628861e+03, 1.069979297831324e+01, 9.396754454415168e+03, 9.800797980478269e+02, -4.691859504622118e+01, 5.470774783896473e+03
7911, 7.131830869157365e-01, 3.332302395861961e-01, 2.638061504075878e-02, -6.244744711238823e-10, 1.317400792509886e-10, -2.729970292324666e-10, 1.065354459815051e+03, 9.344319766480251e+02, -6.455569484084764e+01, 1.367707302789065e+03, 5.617964740723481e+02, -9.694751532698773e+01, 1.065686320397146e+03
7912, 8.511249689412868e-01, 5.303027713268701e-01, 1.081327948968022e-02, -5.153016818681269e-10, 1.065433119849620e-10, 2.654716270692280e-10, -2.129558189279098e+02, -4.287326070414805e+02, -5.200756410700640e+01, -7.947924636687604e+02, 4.025873307901514e+02, -9.866261720384076e+00, 8.684369449276079e+02
7913, 6.177583182649813e-01, 9.166670689744570e-01, 1.343096462119477e-04, -9.756079605612753e-10, 8.299817618939008e-10, -4.798026888861725e-09, 5.612060243649117e+03, 5.405711983411575e+03, -9.867347629531440e+01, 1.019994910392499e+04, 2.874943462294394e+02, 2.101142425464982e+02, 4.737891833938863e+03
7914, 5.815320578074795e-01, 1.037351722990764e+00, 4.698717012717041e-03, 4.173871055570210e-10, -5.272405769327279e-10, -2.564658769222687e-09, 4.773757044476583e+03, 4.701228878585837e+03, 4.630145816503087e+02, 1.137749594389722e+04, -5.689614304109250e+02, 1.094138105969492e+03, 7.021345902184054e+03
7915, 3.157425793638694e-01, 4.143437865624035e-01, 2.388399960521878e-02, -4.684872332621333e-10, 3.102601924237226e-10, -3.177826326137984e-09, 5.133612904065518e+03, 5.628606468926393e+03, 6.048949000737297e+02, 1.182814573417224e+04, -3.806800814903033e+01, -1.320185576645066e+01, 6.546037097290516e+03
7916, 6.702403773708371e-01, 9.694165463672897e-01, 2.174269620776148e-02, -1.132785609535912e-09, 6.806202962841077e-10, -1.857348324043789e-09, 4.094061981439905e+03, 4.371422600912536e+03, -5.917487086501314e+01, 7.430920558902920e+03, 1.018922927669348e+03, -5.699589440008233e+02, 3.792850814920240e+03
7917, 4.161935575662271e-01, 2.106249283689650e-01, 4.610310986934614e-02, -9.682728575804857e-10, 4.761665649624100e-10, -1.731372324638811e-09, 3.955125888751733e+03, 3.914027857427036e+03, -1.070068205615765e+02, 7.222140274574225e+03, 9.491057949935471e+02, -3.719462805160285e+02, 3.736459396393445e+03
7918, 8.797394448088079e-01, 8.977536566620256e-01, 9.923358740322314e-03, -5.246337136327323e-10, 1.916098835392081e-10, -3.628113218776061e-10, 9.147975061880040e+02, 7.754927211776316e+02, 2.773213532913654e+00, 1.653118119304830e+03, 4.511068151658706e+02, -2.119038005501302e+02, 1.188528314946223e+03
7919, 8.951091856337907e-01, 1.141593276830849e+00, 1.106849750512723e-02, -4.898873032378976e-10, 1.153010909581720e-10, -5.354433997144975e-10, 1.874759008371814e+03, 1.668818818469671e+03, -5.966713617017627e+01, 2.499330783299916e+03, 2.374917224460669e+02, -4.442706739184661e+01, 8.642536912553812e+02
7920, 9.110793870316878e-01, 1.462122349400447e+00, 9.104086470041860e-03, -8.895098801504784e-10, 4.370188645852995e-10, -1.605034196829204e-09, 3.959943879435025e+03, 4.035829407123559e+03, -3.160786383093903e+02, 7.037373406425871e+03, 1.306297298466128e+03, -1.029034296881688e+02, 3.833212895676253e+03
7921, 3.578891612549758e-01, 1.152692699013859e-01, -1.099923801138835e-02, -1.486155787175932e-09, 1.012938827080562e-09, -5.816494426584043e-09, 4.342401890160850e+03, 4.024956588595453e+03, -5.676310142574362e+02, 7.286940809651947e+03, 3.363953702376929e+02, 1.000026495352465e+02, 3.322937411882398e+03
7922, 8.621671580995468e-01, 1.477751662566818e+00, 7.805932015035422e-03, -1.084021094906487e-09, 7.424162078466135e-10, -2.265678290325880e-09, 5.784750384663286e+03, 5.821176838989012e+03, 1.391419124046305e+02, 1.079029865554861e+04, 1.054942430923742e+03, -3.352081994849405e+02, 5.348681297977266e+03
7923, 2.464765457125430e-01, 2.904712165910538e-02, -1.299291273779016e-02, -5.755692907776265e-10, 1.028927679638792e-09, -3.016951085383685e-09, 3.082327170283470e+03, 3.936704696472702e+03, -5.293859208881656e+02, 4.584440150189695e+03, 3.003201653694017e+00, -2.684335451777722e+03, 4.915351326223532e+03
7924, 4.691429444698575e-01, 2.624620249459450e-01, -7.908945591248964e-03, -1.361892679452449e-09, 7.358767960077245e-10, -3.865221987683458e-09, 3.041719126254335e+03, 3.461068002307045e+03, 6.496773975601931e+01, 4.898192827963379e+03, 2.488030366044167e+02, -1.461057973170467e+02, 1.762455648088075e+03
7925, 6.213919964449416e-01, 8.522031481461656e-01, 2.483759920009114e-02, -1.227030355675995e-09, 4.603162749225641e-10, -2.006253073914008e-09, 4.428150395585248e+03, 4.211751518036103e+03, 3.525884418006908e+01, 8.299078933727920e+03, 1.020688490289418e+03, -2.422336661535177e+02, 4.378784854306051e+03
7926, 6.690800003660525e-01, 4.554621968255879e-01, 1.071456955741292e-03, -7.749243404761372e-10, 3.326909429599498e-10, -1.331806424133891e-09, 1.836296715346752e+03, 1.662538394896490e+03, -1.724073876497359e+02, 2.842761572619233e+03, -2.606674044634180e+01, -8.318501513603474e+01, 1.153263063265596e+03
7927, 7.740682121116103e-01, 6.673300427637642e-01, 2.013839460298439e-02, -7.220361673109029e-10, 2.187280493999047e-10, -4.757883868946707e-10, 1.451733536744135e+03, 1.306894579733036e+03, -6.154568444404632e+01, 2.098050388518014e+03, 6.407716986995456e+02, -1.262334393709743e+02, 1.350277387093047e+03
7928, 6.618624536251684e-01, 3.246761425189707e-01, 2.362404528283683e-03, -8.850136429252312e-10, 4.005140873901864e-10, -1.185674469405628e-09, 1.479927133629180e+03, 1.417465128251241e+03, -5.067193601209885e+01, 2.418977481338064e+03, 1.886093658658129e+02, -3.845751300199115e+02, 1.225760796966850e+03
7929, 5.505300530117115e-01, 6.549930103531320e-01, 3.153325466623690e-02, -1.070018472407604e-09, 4.310586472907084e-10, -2.091912742051008e-09, 4.477723163459838e+03, 4.285993746714327e+03, 1.033382409105094e+02, 8.275035976662597e+03, 9.173305161468026e+02, -3.301820455658601e+02, 4.250645138651676e+03
7930, 4.756736552047627e-01, 3.493813103290301e-01, 4.074128062781527e-02, -9.994227380346814e-10, 4.273127776678546e-10, -1.697504132865532e-09, 3.929369984476667e+03, 3.717865108002614e+03, -7.189487633832658e+01, 6.860787796823327e+03, 7.947611594160867e+02, -3.619141542679968e+02, 3.400197340165520e+03
7931, 5.466460759470166e-01, 2.966205499664521e-02, 4.021883106448087e-02, -3.309617318101648e-10, 3.967856457108942e-10, -4.975679653078577e-10, 1.453005470358120e+03, 1.675707468909850e+03, -2.433131514605719e+02, 2.093681033170844e+03, 3.147302775058143e+02, -5.096342043996100e+02, 1.253527824710104e+03
7932, 6.705753069687803e-01, 7.400464334424979e-01, 1.184272492067505e-03, -1.103826021160614e-09, 4.207674920507485e-10, -1.992549783204618e-09, 2.785026352870396e+03, 2.267692175264443e+03, 2.868889356101026e+01, 3.766621990300660e+03, 3.707514748748537e+02, -2.238449032673673e+02, 1.517938196019906e+03
7933, 7.586043232156034e-01, 1.341750054603869e+00, 6.016063884842167e-03, 1.234614645150603e-10, 6.386372134776121e-10, -2.273313446509766e-09, 4.672229531732570e+03, 5.027839109358054e+03, 4.156613149187093e+02, 9.102478550921680e+03, -4.742037344377588e+02, -1.115731510057311e+03, 4.806831232762785e+03
7934, 1.907568154975569e-01, 8.443410551492335e-02, 3.678101060766373e-02, -3.677899559015486e-10, 9.929067158620756e-10, -2.801947565596803e-09, 4.734223056642215e+03, 4.646016694874277e+03, 2.246724937229156e+02, 1.081367826217704e+04, 4.449691045159162e+01, -7.125293638893328e+02, 6.259734018327940e+03
7935, 3.926295036247317e-01, 3.430133709254747e-01, -9.607275553412703e-03, -1.615645752830907e-09, 8.938155462465283e-10, -5.959597097053211e-09, 5.012589849858009e+03, 4.185624319891052e+03, -4.215956540272965e+02, 6.610178995504915e+03, -5.618899851922247e+01, -7.452733687861142e+01, 2.262007402621892e+03
7936, 3.609885123119390e-01, 2.176252499746874e-01, 4.290248099059439e-02, -9.829871582285426e-10, 6.544443728849520e-10, -2.210061319338397e-09, 4.473351959007536e+03, 4.589612023151998e+03, -4.195964820723096e+01, 8.584488564843445e+03, 7.047670472341870e+02, -5.189320209634818e+02, 4.329000176118740e+03
7937, 6.755487167026044e-01, 2.165922123723498e-01, 2.841638398822456e-02, -6.362085659857813e-10, 8.936936437449557e-11, -4.728813737676418e-10, 1.292798387525835e+03, 1.220449328750844e+03, -6.795648891076564e+01, 2.016042318362969e+03, 5.622223054652001e+02, -6.823750976085432e+01, 1.247696788533699e+03
7938, 7.257186966319547e-01, 5.989267848787737e-01, 2.445197778686400e-02, -6.890100176548283e-10, 2.713958896481224e-10, -6.974344689595218e-10, 1.703806941397849e+03, 1.651282954434497e+03, -3.317149099530491e+01, 2.884250337040987e+03, 5.343409294466533e+02, -1.858987277103332e+02, 1.556195268605781e+03
7939, 9.123925484297959e-01, 1.433773785549821e+00, 8.938980876449426e-03, -5.948131051859566e-10, 3.982836476297634e-10, -9.313948502662481e-10, 2.304757196970535e+03, 2.711428877334587e+03, -2.392730811133522e+02, 3.793256058188814e+03, 5.202689621052253e+02, -5.254005963256748e+02, 1.894099243184295e+03
7940, 5.177108985159599e-01, 5.022854268209801e-01, 3.592322905424913e-02, -9.830375579254507e-10, 5.494904821343048e-10, -1.881648702830189e-09, 3.960834126643939e+03, 3.923973686434947e+03, -5.257379854027669e+01, 7.466314075430351e+03, 8.070829756344472e+02, -4.467463045243622e+02, 3.870419806794387e+03
7941, 6.496385161582853e-01, 5.640449356640198e-01, 7.047219907903371e-04, -9.403245521240132e-10, 4.564783476205919e-10, -1.881696333455974e-09, 2.471441712693885e+03, 2.116377727651744e+03, -1.418100998366426e+02, 3.645058728973162e+03, -1.691498646418199e+02, -1.558145786351890e+02, 1.462585505604894e+03
7942, 8.106490828403032e-01, 1.540916153511691e-01, 1.134796191846147e-02, -4.408146105415278e-10, 2.091978462008600e-11, 2.611850647885188e-10, -3.920122243153513e+02, -4.681309245580927e+02, -3.318858320188058e+01, -8.752829334049530e+02, 2.813697953514157e+02, -3.216094871547912e+01, 6.681863570810905e+02
7943, 4.291461215265086e-01, 3.068427496494767e-01, -8.235747524848305e-03, -1.474666314608203e-09, 6.608406650782078e-10, -5.757678688401378e-09, 4.291761899350815e+03, 4.382519401064717e+03, -2.630524294070870e+02, 8.789360941099614e+03, 3.288395973142174e+02, 1.948211459080010e+02, 4.524854166990585e+03
7944, 8.912869302689098e-01, 1.495433122622893e+00, 8.759290352329162e-03, -1.021288536189890e-09, 6.646376640765370e-10, -1.687502336551362e-09, 4.444850669091019e+03, 4.930958142732391e+03, -2.113997705979984e+02, 8.576655976901304e+03, 8.041147909158456e+02, 2.841980638921455e+02, 4.197117002933950e+03
7945, 7.175317517721574e-01, 6.508589159623031e-01, 2.593009317471038e-02, -6.890275518161638e-10, 3.178328663025924e-10, -8.216299650349417e-10, 2.058749203488404e+03, 1.869849915536970e+03, -6.188257302607165e+01, 3.454448359869969e+03, 5.342756444473861e+02, -3.424630227925730e+02, 1.861985008041240e+03
7946, 7.610064883703093e-01, 9.797910262946896e-01, 2.029483103842579e-02, -7.463153219253773e-10, 3.050780168670933e-10, -1.275526774366493e-09, 2.731690081984043e+03, 3.055392566004588e+03, -1.510527766089327e+02, 5.185234740632517e+03, 5.130991935553353e+02, -5.043277984165648e+01, 2.489244816520978e+03
7947, 8.772485755727691e-01, 8.412123315893542e-01, 1.161798299726445e-02, -4.384462725142440e-10, 1.829836896122231e-10, -2.105310573627105e-10, 7.056164638122793e+02, 5.900945971726176e+02, -4.038322045255123e+01, 1.051604354983622e+03, 2.890498241049083e+02, -2.185952171162243e+02, 7.562509585433922e+02
7948, 3.366990130675244e-01, 6.058190165322793e-02, 1.896389994808039e-02, -7.574740222490246e-10, 1.491525443851071e-09, -3.262785269698534e-09, 3.562835436827205e+03, 3.678619703647466e+03, -2.539786763581359e+02, 6.541129438950578e+03, 1.950911780223523e+02, -1.136650847995713e+03, 3.566850744035218e+03
7949, 2.306578640673629e-01, 1.055106744228943e-01, 1.550416735879417e-02, -1.146824386296959e-09, 1.276943960916204e-09, -5.685372817229375e-09, 5.255618896788536e+03, 5.118676722987975e+03, 1.354227454283803e+02, 1.156472122015133e+04, 5.942023012202183e+02, -3.507518116588656e+02, 6.493907533752597e+03
7950, 6.498466058571443e-01, 8.157681526750031e-01, -8.347650999947394e-04, -1.099540109333446e-09, 6.561000971342262e-10, -2.889302294475221e-09, 4.209574714427578e+03, 3.650960100960183e+03, -2.230018222165605e+02, 6.226025972252701e+03, -1.142084758415578e-01, -2.376673307037469e+02, 2.413129059757818e+03
7951, 2.715667528183487e-01, 1.356960185047668e-01, -1.196891187839723e-02, -1.706166580678933e-09, 8.759322156735962e-10, -8.873520315347370e-09, 5.638961491425918e+03, 5.457521084723500e+03, -1.212921612433202e+01, 1.250852647992146e+04, 6.547390863422014e+02, -7.582475266924837e+01, 7.055069082885405e+03
7952, 6.130294289521174e-01, 4.749016348783916e-02, 3.285927571478871e-02, -3.182236994854314e-10, 3.225503088328414e-10, -5.669133349337653e-10, 1.209004906290543e+03, 1.309128108317234e+03, -1.611545156011966e+02, 2.156173840872377e+03, 2.780250987638469e+02, -3.322282366693511e+02, 1.205509462292026e+03
7953, 7.147690952697432e-01, 4.818494897697773e-01, 4.261758028878859e-03, -9.696056185068962e-10, 3.559873212365257e-10, -8.708796572625891e-10, 1.431538974558468e+03, 1.334861138243301e+03, -1.128261590897703e+02, 2.091825601411303e+03, 4.139397745997521e+02, -4.198395004513511e+02, 1.261024730921999e+03
7954, 7.824766705598021e-01, 1.018219046624536e+00, 4.638496453164434e-03, -9.237009028056485e-10, 3.359955191254300e-11, -1.888361116718159e-09, 3.039996288385438e+03, 2.947286745093385e+03, 2.300860406447224e+01, 5.575006934276697e+03, 7.694643371179898e+02, 6.727171018246463e+02, 3.131350011824746e+03
7955, 2.791895881737019e-01, 2.491678937587822e-01, 7.330767086667425e-03, -1.698883539664071e-09, 1.088733614289209e-09, -5.497216852394666e-09, 5.240309140047598e+03, 5.592847405734379e+03, 1.848531998013482e+02, 1.106926379300565e+04, 8.081520656162533e+02, -4.860194574352356e+02, 5.900555240807495e+03
7956, 2.547856714483818e-01, 9.009155767581174e-02, -1.260840197526852e-02, -1.099056786938342e-09, 1.333979624874131e-09, -7.418848952620406e-09, 5.672159946059335e+03, 5.659641486216766e+03, -2.961043331202152e+02, 7.783570950280450e+03, 5.966891446998050e+02, -4.824936988954541e+02, 2.552291597243006e+03
7957, 3.564287102062628e-01, 2.538502497838360e-01, 4.113603761024745e-02, -1.061537823674147e-09, 6.816050199741649e-10, -2.472538511494243e-09, 4.818680890081556e+03, 4.885268286431359e+03, 4.235738371879723e+00, 9.509203702768029e+03, 7.675425863444462e+02, -5.034978293740729e+02, 4.921489339480231e+03
7958, 5.013157223471278e-01, 4.896809014066442e-01, -6.046402697112135e-03, -1.144174834385072e-09, 1.429647560371690e-09, -4.855040153034725e-09, 4.951739083602380e+03, 4.385774774571734e+03, 1.065655383764211e+02, 8.088562823432004e+03, -7.864667870790365e+02, -1.296827302370106e+03, 4.343990201908846e+03
7959, 5.177314322258219e-01, 6.575061472145288e-02, 4.326478049384899e-02, -5.026056565784883e-10, 4.999396332477375e-10, -9.770899618497475e-10, 2.189402921688172e+03, 2.064134720352943e+03, -1.658838025362415e+02, 4.006316105580567e+03, 5.988991119535168e+02, -5.185121899968331e+02, 2.347258934768370e+03
7960, 5.427591884791204e-01, 9.706618695503013e-01, 4.626325331463736e-03, 2.102894543270712e-10, 1.935780800284286e-10, -2.121118572534128e-09, 4.279640166405528e+03, 4.560869172513776e+03, -3.359768650346272e+02, 8.087961116318646e+03, -7.736652704885004e+02, -3.749673309049577e+02, 4.008429194494034e+03
7961, 4.850668893041936e-01, 1.444327616741106e-01, -8.460945860849587e-03, -8.789254000792853e-10, 8.208981818322790e-10, -4.441317087715168e-09, 4.086278144095334e+03, 3.949884473038518e+03, -8.450317402467741e+01, 7.342060978230883e+03, 2.239695790863208e+02, -8.414506042195119e+02, 3.654971970319440e+03
7962, 7.308459483775783e-01, 7.887828824522315e-01, 2.438806944907889e-02, -6.333790917221312e-10, 3.569876233415815e-10, -1.071579889166568e-09, 2.529001323660618e+03, 2.484487000352482e+03, -6.718757224246862e+01, 4.443506339523862e+03, 5.568625206303865e+02, -3.161108721031439e+02, 2.235205188930473e+03
7963, 8.244420844589850e-01, 2.526477881168159e-01, 1.125301311670259e-02, -4.968157078425591e-10, 5.365683910957378e-11, 2.392026086670620e-10, -3.881999137602526e+02, -3.730102133399837e+02, -6.600915526667710e+01, -8.545860673966146e+02, 3.633127483686588e+02, -7.578270661488816e+01, 8.069201808362066e+02
7964, 6.517134959248768e-01, 1.161582766597206e+00, 5.170691045230671e-03, 5.603685628116256e-11, 3.282559548953798e-10, -1.467749261569435e-09, 3.884893323238297e+03, 3.582465148669253e+03, 1.680616413108281e+02, 5.225833185465435e+03, 4.747265761490768e+01, -5.873833189902391e+02, 1.849776501475360e+03
7965, 5.722946134166901e-01, 3.533935317127532e-01, 3.732254196077996e-02, -8.316355154791840e-10, 2.855377809796603e-10, -1.111174144295113e-09, 2.833769917285136e+03, 2.724322771310518e+03, 7.048617922572349e+00, 4.703663546125421e+03, 8.245568091271195e+02, -2.530179301953565e+02, 2.438241260493051e+03
7966, 8.737822523316150e-01, 7.314244880658042e-01, 1.110278202150596e-02, -4.677338961604769e-10, 1.516579337176874e-10, 2.324127690716198e-11, 2.201317565630654e+02, 6.790552010805494e+01, -1.675464549708768e+01, 5.223568738409811e+01, 3.646340623451958e+02, -1.115470870992862e+02, 6.803294356483394e+02
7967, 6.412971489378873e-01, 2.833965022877265e-01, -2.567180764827155e-04, -7.155050788701021e-10, 2.603496405051775e-10, -1.525914951974065e-09, 1.883434476226860e+03, 1.708342577999851e+03, -1.210467285516886e+02, 2.875693235772080e+03, -3.003248574860451e+02, -5.121655430330473e+01, 1.229382969751678e+03
7968, 5.593116289936494e-01, 7.327343211877047e-01, 2.834573147906645e-02, -1.029278575599428e-09, 5.427910114139131e-10, -1.971413095381168e-09, 4.379616754800623e+03, 4.538375652382990e+03, -9.603042434539836e+00, 8.045107710810105e+03, 8.430536239309899e+02, -4.869264627063344e+02, 3.965209460654924e+03
7969, 7.781373014020497e-01, 1.155538865699145e+00, 1.662543007118897e-02, -1.168954586891541e-09, 4.428661470682731e-10, -1.685470520282725e-09, 3.768678734565502e+03, 3.522175717906572e+03, -2.798110560491687e+01, 6.844580437253791e+03, 1.112223147012023e+03, -1.352512451240120e+02, 3.748133212876120e+03
7970, 2.637918926821694e-01, 3.138236967847648e-01, -7.296745930072544e-03, -1.385018403018853e-09, 1.087172450744439e-09, -7.096035523585512e-09, 5.337553693447822e+03, 6.529074268158434e+03, -1.763878845451407e+02, 1.075391096245327e+04, -2.017639804908689e+02, -8.519957864115544e+02, 5.166826961353178e+03
7971, 7.391916176380180e-01, 1.118505539564769e+00, 4.083523802736900e-03, -1.149041828200098e-09, 8.630852840816880e-10, -2.525490571378566e-09, 3.318497615811847e+03, 3.619659742509295e+03, -2.648943762382507e+01, 6.274612379269878e+03, 5.295410929364755e+02, -9.395278202146411e+02, 3.380906278718843e+03
7972, 6.633002166056310e-01, 9.217471508130383e-01, 2.344727354174971e-02, -9.761831861804999e-10, 5.323445766164732e-10, -1.766147007093688e-09, 4.011920647171028e+03, 4.098023236128024e+03, -9.624078398804870e+01, 7.089503953863789e+03, 6.945647048658990e+02, -4.413638009161653e+02, 3.357588128782880e+03
7973, 6.995495596155580e-01, 6.187418876844533e-01, 2.794012008564532e-02, -6.958970412415331e-10, 2.652096569999201e-10, -7.595018634227953e-10, 2.099305736598517e+03, 2.055191068010943e+03, -3.697920003614347e+01, 3.395972342361432e+03, 6.773048328319350e+02, -1.782093074300762e+02, 1.793347700048616e+03
7974, 6.339844349259744e-01, 6.866900454689988e-01, 3.073655111135037e-02, -9.097998904214217e-10, 4.514599568731179e-10, -1.516792398013000e-09, 3.442797462357265e+03, 3.284244070747114e+03, -5.520693216854927e+01, 6.152275785823276e+03, 8.407273045675067e+02, -5.208020180169822e+02, 3.277090750182103e+03
7975, 6.580381012705830e-01, 8.872113979235386e-01, 2.467966030875287e-02, -9.153957499967248e-10, 4.172747635276380e-10, -1.781847028508379e-09, 3.940662805348760e+03, 3.825176378293524e+03, 4.940713525758196e+01, 7.265731606721090e+03, 7.253471253847639e+02, -1.769359031162170e+02, 3.623954671028115e+03
7976, 8.812982648907290e-01, 7.849074565137071e-01, 1.102363681644460e-02, -4.354904297622910e-10, 1.554567954885923e-10, -1.517421088495101e-11, 3.080855621971747e+02, 1.502413493152553e+02, -1.267781245751586e+00, 1.569275001750147e+02, 3.969518303553735e+02, -1.651063374587268e+02, 7.605271373306632e+02
7977, 2.070969890531730e-01, 6.174721552174632e-02, -1.234904597381026e-02, -1.288395945748499e-09, 1.144798762803509e-09, -6.862534612913301e-09, 5.599986186148586e+03, 5.613853453690114e+03, -5.095804961753701e+02, 8.222639503434750e+03, 8.196773528772725e+02, -3.617796027712531e+02, 3.166925459528905e+03
7978, 9.167847889215837e-01, 1.392815431270613e+00, 9.451068015613358e-03, -7.625551290536082e-10, 5.265024030952883e-10, -1.198040717285342e-09, 3.087929589155337e+03, 2.725438540279057e+03, -6.168576477964063e+01, 5.025347813071464e+03, 7.101098686789035e+02, -5.412761469124355e+02, 2.643938157019013e+03
7979, 2.492333640298308e-01, 2.860431276020957e-01, 2.652832186455941e-02, -4.834108653513502e-10, 4.454443165950757e-10, -3.126146676657679e-09, 5.286789166435765e+03, 5.782128332560722e+03, 3.578680956506526e+02, 1.203028510081103e+04, -5.564973381407165e+01, -1.340096627666916e+02, 6.544246008743235e+03
7980, 4.325663491891443e-01, 3.847587094922372e-01, 4.029615246337244e-02, -1.143241067746712e-09, 4.915628850814696e-10, -2.038952706997457e-09, 4.523238810117195e+03, 4.536561608368287e+03, 7.088036635336307e+00, 8.501653124354521e+03, 1.037164118404248e+03, -3.773403007750474e+02, 4.407878219221429e+03
7981, 2.306153903211068e-01, 1.329386385279738e-01, 3.906623465763044e-02, -5.578650340637892e-10, 6.136122641668492e-10, -2.702326217415026e-09, 4.917915689879331e+03, 4.979541076422354e+03, 2.746952898464662e+02, 1.079381996744616e+04, 2.205034249369658e+02, -2.540583719548063e+02, 5.893540417448513e+03
7982, 9.051585781165818e-01, 1.260858537685472e+00, 9.405960537313126e-03, -3.602785024606919e-10, 2.906266493342148e-10, -7.706770134837356e-10, 2.058763859671219e+03, 1.871638711796648e+03, 2.712742698112104e+01, 3.561689261774240e+03, -2.410931899618958e+02, -2.221042569415176e+02, 1.702824740495354e+03
7983, 2.719962803711165e-01, 3.534412007899289e-01, -6.310507035319313e-03, -2.391722305866552e-09, 1.727652060645647e-09, -7.792253748194928e-09, 7.791892594110464e+03, 7.250015429394095e+03, 1.161045682945154e+02, 1.514925688096437e+04, 2.453707040898450e+03, -1.472451926074549e+03, 9.111424003659504e+03
7984, 7.370703115457724e-01, 3.574748949589162e-01, 2.250523978769580e-02, -6.157679974281884e-10, 1.598193425923100e-10, -1.845818243174261e-10, 8.346330406673935e+02, 7.061755965429676e+02, -6.936495240780329e+01, 9.463858925906338e+02, 5.128647102432031e+02, -1.598356336447139e+02, 9.609957923162821e+02
7985, 6.572542513115861e-01, 1.140558213323426e-01, 2.019477355550418e-03, -6.282981036074817e-10, 2.556937877003896e-10, -1.008151004406513e-09, 1.163409095627962e+03, 1.091866310796556e+03, -3.512790152168207e+01, 2.050876113771546e+03, 7.596039861193591e+01, -1.612641258057600e+02, 9.773628548096169e+02
7986, 6.363880292521867e-01, 1.009258105686289e+00, 1.880770450976648e-02, -6.805220429733186e-10, 7.725711469043301e-10, -3.274074036187015e-09, 5.668649561125463e+03, 5.806725814030804e+03, 3.153404351975519e+02, 1.293603403944550e+04, 1.381620876867404e+02, -9.585115519459521e+02, 7.412307821011595e+03
7987, 4.685957952012454e-01, 2.833715651156397e-01, 4.386783562994580e-02, -9.080026622899798e-10, 3.898152965313732e-10, -1.488650857668555e-09, 3.761006706875125e+03, 3.545260449355139e+03, -5.664407756792438e+01, 6.419679011950660e+03, 8.420958409493819e+02, -3.350819593039469e+02, 3.187871562995886e+03
7988, 2.413217716967501e-01, 9.081089231749026e-02, 4.185336628147879e-02, -6.861713023463268e-10, 1.083491127709733e-09, -2.585601986656243e-09, 4.614021666528118e+03, 4.407896261258462e+03, 1.437491034357934e+01, 9.659228217256516e+03, 4.981033101229172e+02, -9.189493709266929e+02, 5.460300957175932e+03
7989, 6.619973744574270e-01, 2.629000996531379e-01, 1.790937687564526e-04, -8.625939338850913e-10, 2.097901787989711e-10, -1.251763715247598e-09, 1.706994598477636e+03, 1.528425407696085e+03, -4.824785093976643e+01, 3.170001560610588e+03, 1.684572605660919e+02, -4.397415023139772e+01, 1.591050780277192e+03
7990, 4.001146255793651e-01, 4.920991504592685e-01, -6.473195285628709e-03, -1.546644655083648e-09, 1.467424372791284e-09, -5.627289395278007e-09, 4.820800498562496e+03, 5.385826743452498e+03, 1.923419933450693e+02, 9.369088512591250e+03, -9.203900844592816e+01, -9.879175590106223e+02, 4.636876059737932e+03
7991, 4.415019872089617e-01, 6.106087204099748e-01, -6.336580297722324e-03, -1.725681669606774e-09, 8.744899222390487e-10, -6.554022756178303e-09, 6.611548731239977e+03, 6.569758233105021e+03, 3.432838626665082e+02, 1.166315338689845e+04, -8.184893777121318e+02, -8.114498520165990e+02, 5.483632347280704e+03
7992, 8.355437610444764e-01, 4.136670297393658e-01, 1.037976943922887e-02, -5.178987891479069e-10, 7.373719069118341e-11, 2.175914772709489e-10, -2.172200919166166e+02, -3.478568313972107e+02, -3.824433546544346e-01, -6.687616062077257e+02, 3.326182046245666e+02, -5.138454588289962e+01, 7.083741590867443e+02
7993, 9.198463960392923e-01, 1.491912047499141e+00, 8.703164755526589e-03, -8.446061144397323e-10, 7.363314568878348e-10, -1.011256187182548e-09, 3.825580266699266e+03, 3.699199226064361e+03, -1.133931680800147e+02, 5.451409968231555e+03, 4.390510850899889e+02, -4.511491827145908e+02, 2.022930247992058e+03
7994, 3.737437249456832e-01, 2.988798327050002e-01, 4.242051544523442e-02, -1.018726105700435e-09, 4.764451059922730e-10, -2.253225649931075e-09, 4.863166588458791e+03, 4.898291725827723e+03, -1.232546050923275e+01, 9.527356487379428e+03, 8.771625416301785e+02, -2.571060275621559e+02, 4.909081332594534e+03
7995, 9.204946069919901e-01, 1.234817411882681e+00, 1.012408029007750e-02, -4.030551231123464e-10, 2.832995235944089e-10, -7.781243898912537e-10, 1.699516476480891e+03, 1.580532942622882e+03, -2.533268995302854e+01, 3.005173017393669e+03, 3.692412320399010e+02, -5.417332703659789e+02, 1.779217530241973e+03
7996, 7.075659331302560e-01, 8.717459141322742e-01, 2.443102601784491e-02, -9.251746664862449e-10, 3.466641403067298e-10, -1.545433142342142e-09, 3.384081699352348e+03, 3.108909941993494e+03, -1.136389333428019e+02, 6.034263670167084e+03, 7.276492466009425e+02, -1.181303764546277e+02, 3.081795785249867e+03
7997, 6.666718210333207e-01, 1.526153255963724e-01, 1.557712768473482e-03, -7.999404973473884e-10, 5.186698955279946e-11, -1.205664854165567e-09, 1.361638579312024e+03, 1.298216617276467e+03, -5.502358707280616e+01, 2.693904944095400e+03, 4.860220970994893e+02, 1.436595735847467e+02, 1.625761483141909e+03
7998, 6.286471877117632e-01, 6.718633434557664e-01, -1.015096367943204e-03, -1.272078029412323e-09, 8.237902772492800e-10, -2.778504785452658e-09, 2.848529359695910e+03, 2.872827201130209e+03, -3.117775092415270e+02, 3.858929424470646e+03, 3.931288523591276e+02, -5.273650465190331e+02, 1.608277445524958e+03
7999, 4.761855300336500e-01, 2.897314003537727e-01, -7.251685964538908e-03, -1.112523368296493e-09, 7.344586890553126e-10, -4.624982073240491e-09, 4.181058151352548e+03, 4.046576078396797e+03, -1.246599904802041e+02, 7.324790229801885e+03, -5.102607392689428e+02, 2.060564383299051e+02, 3.358423527322646e+03
8000, 6.272416061399332e-01, 8.861474843935305e-01, 2.423998621933796e-02, -1.080699804198686e-09, 4.786828428964832e-10, -1.979565895158236e-09, 4.614642196678226e+03, 4.543330461847308e+03, -3.741668065730727e+00, 7.938838333660631e+03, 7.942588701113607e+02, -3.690506852435134e+02, 3.686949714523833e+03
8001, 4.353786830127448e-01, 7.655194974005510e-01, 4.217570807421526e-03, -1.015951142377189e-10, -1.145081264417530e-10, -3.157205289974142e-09, 4.678654118241684e+03, 4.416106787640128e+03, 1.575129361988611e+02, 1.080310959212939e+04, -6.452273682071531e+02, 1.245025726980983e+03, 6.720081741786368e+03
8002, 4.982434720624083e-01, 1.454813009828764e-01, 4.596675112184266e-02, -6.742560344271956e-10, 3.498135689601788e-10, -1.180170478514523e-09, 2.960838121151505e+03, 2.846563372080222e+03, -1.260334504448221e+02, 5.262824637755285e+03, 7.170599538617954e+02, -2.985377308206720e+02, 2.726318419923079e+03
8003, 6.178177539930348e-01, 8.048135663488762e-01, 2.751744818233690e-02, -1.170397661459957e-09, 6.310590813973812e-10, -1.740493152453873e-09, 4.282869972460432e+03, 4.100717898011863e+03, -1.053767210902988e+02, 7.310590438601069e+03, 1.137366581051819e+03, -7.289809386589094e+02, 3.906422502620334e+03
8004, 7.994389344948006e-01, 1.417587769097274e+00, 6.467272610834993e-03, -8.214163310950944e-10, 1.045750494224786e-09, -4.045162845185107e-09, 6.285334846746043e+03, 6.749873993957850e+03, 6.263801311607116e+02, 1.423897625341847e+04, 1.211320574310971e+03, -1.045861461694903e+03, 8.285038192277929e+03
8005, 6.224365276881239e-01, 5.328844237867250e-01, 3.430487633644069e-02, -8.768922626887884e-10, 3.259716818706753e-10, -1.101433365985606e-09, 2.944973013973521e+03, 2.694674793517734e+03, -7.970982657551043e+01, 4.768342629797834e+03, 9.403787056430389e+02, -2.902314972744614e+02, 2.601617264437232e+03
8006, 1.812258369008479e-01, 2.801767285616049e-01, 3.674866204256489e-03, 2.490210997641956e-10, -4.434699098600644e-10, -2.637406846636342e-09, 3.421745910319427e+03, 3.077726698251988e+03, 4.690661148464671e+02, 8.039512184915926e+03, -6.372848171893771e+02, 1.363941664691474e+03, 5.521792314943258e+03
8007, 4.092024093939358e-01, 2.641579289580723e-02, 2.131281520665354e-02, -4.003351511953769e-10, 7.500819061590743e-10, -1.194660059357647e-09, 2.499480444828996e+03, 3.473117748432612e+03, -4.359625776916890e+02, 3.354746954262586e+03, 1.492684327380652e+02, -1.202312991076899e+03, 2.412557545642313e+03
8008, 4.461631693322383e-01, 4.685732292805859e-01, 3.585031460840588e-02, -1.115945091931199e-09, 5.673304748891678e-10, -2.196823516356464e-09, 4.699613245805181e+03, 4.837161587396702e+03, 5.281059577603150e+01, 8.815120566820784e+03, 1.016547620478591e+03, -4.002198880122393e+02, 4.469814402887043e+03
8009, 4.649748109895989e-01, 2.054838937501136e-01, 4.405580511007466e-02, -8.665633413783425e-10, 3.639861707179142e-10, -1.498648772818695e-09, 3.505330237372337e+03, 3.271121446162775e+03, -6.278246596773921e+01, 6.067944417077499e+03, 7.068578394646186e+02, -2.021718473145088e+02, 2.975805984695147e+03
8010, 4.673276570918240e-01, 1.984514257848167e-01, -8.523027984682106e-03, -1.484296704085747e-09, 7.688629392893811e-10, -4.478045705200124e-09, 4.137494053141586e+03, 3.907257769377751e+03, 7.512944057343912e+00, 6.315819315068368e+03, 7.591529225288373e+02, 2.912858708339033e+02, 2.698757194381243e+03
8011, 6.404506235703641e-01, 6.506876771614624e-01, 3.207480106878077e-02, -8.541989816004337e-10, 4.337943171829819e-10, -1.104129917381464e-09, 3.009345735868116e+03, 2.798737893673149e+03, -6.498517624420766e+01, 4.887955046594768e+03, 7.899161982917226e+02, -4.363639829972319e+02, 2.534756606883478e+03
8012, 7.954525913584288e-01, 6.554998692015879e-01, 6.359974922599348e-03, -6.430589688624837e-10, 1.309261753064109e-10, -3.895789549309561e-10, 8.703483647827744e+02, 7.606900715344485e+02, -5.904934667109605e+01, 1.195276077982117e+03, 2.173122402559401e+02, 7.307659408945960e+01, 5.669116771374306e+02
8013, 5.223082716431503e-01, 3.026209017214461e-01, -5.620970927339215e-03, -1.389870464693760e-09, 7.273322973869063e-10, -3.475285932865009e-09, 3.315299302035945e+03, 3.199208655980892e+03, -3.279862739522474e+02, 5.407994663264327e+03, 8.018087160865302e+01, -6.993508490453431e+02, 2.538716211767281e+03
8014, 5.502974217870804e-01, 3.706831487379176e-01, 3.894438967917435e-02, -8.615992293721536e-10, 3.115334084343998e-10, -1.270082293835212e-09, 3.084795087490912e+03, 3.007930778479184e+03, -9.927095621681538e+00, 5.349944369034622e+03, 8.317674415377696e+02, -2.363154696266906e+02, 2.748501482563919e+03
8015, 6.349911390043178e-01, 4.863003730172925e-01, 3.327830277042297e-02, -8.273751662566790e-10, 2.677606859416577e-10, -8.394793362355557e-10, 2.474329507751543e+03, 2.299002279017434e+03, -1.115425130294284e+02, 3.769699432989163e+03, 7.590730405165762e+02, -2.404859477747564e+02, 1.968562371861885e+03
8016, 5.578781577514388e-01, 8.116528002053734e-01, 2.533549693566648e-02, -1.155541392149009e-09, 7.555885284744741e-10, -2.668232347901036e-09, 5.033634114705653e+03, 5.461456516816735e+03, 9.773668534643363e+00, 1.104906095856204e+04, 8.210555060189728e+02, -4.914899850651813e+02, 6.045016789175545e+03
8017, 6.044311380670740e-01, 3.172819782052035e-01, 3.609140307005036e-02, -7.788647132985957e-10, 2.345344708514873e-10, -8.452409574688535e-10, 2.289294003071881e+03, 2.157288805401934e+03, -1.671249910502711e+01, 3.659244175974091e+03, 7.347107863621092e+02, -1.973405678759703e+02, 1.952459226892315e+03
8018, 7.057661484395156e-01, 7.187282236304798e-01, 2.659243458802626e-03, -9.484715410243844e-10, 2.379502310586661e-10, -1.777144058285527e-09, 2.412053711806519e+03, 2.241490016256810e+03, 6.935671748288239e+01, 3.974689497299211e+03, 3.233553876344228e+02, 7.572755869330535e+01, 1.755779792305220e+03
8019, 3.264256872606635e-01, 1.753232179181221e-01, -1.277440315623380e-02, -1.623452025072634e-09, 1.650866334649153e-09, -6.840924137603502e-09, 4.851792054236685e+03, 5.420239950906143e+03, 1.977722739159167e+01, 1.040380005127661e+04, 3.805328413106893e+02, -1.074702745341843e+03, 5.647339697668944e+03
8020, 8.993731253772006e-01, 9.971351618782199e-01, 1.092217864516770e-02, -4.723909838755222e-10, 1.212902206926830e-10, -1.911457318385907e-10, 7.118995394323466e+02, 6.327748413286245e+02, -5.607012295796844e+01, 9.281211427766641e+02, 4.145230927133253e+02, -1.644511422911015e+02, 8.222975510950304e+02
8021, 6.655038457811291e-01, 7.081931840267053e-01, -2.607222721725463e-04, -1.118323502764298e-09, 5.436810554294463e-10, -2.590619860523150e-09, 2.998877875095723e+03, 2.495161978945650e+03, -2.863369244702770e+02, 4.202985919997579e+03, 3.332906704529852e+02, 7.001677354964752e+01, 1.704129048060648e+03
8022, 9.087742544549979e-01, 1.054119632451754e+00, 1.018185746676790e-02, -5.391343475987264e-10, 1.457690989582748e-10, -1.502344878752350e-10, 8.201581729575868e+02, 7.258817279595838e+02, -8.341297950815951e+01, 1.059494329012603e+03, 5.347816976058124e+02, -1.824145006380469e+02, 1.033153581754349e+03
8023, 3.559240282071906e-01, 5.402797804479399e-01, -3.903258470774395e-03, -4.943699724542812e-10, 2.770384628663908e-09, -7.870117763892469e-09, 6.999604227739379e+03, 8.008291874808960e+03, 5.260622403658231e+02, 1.580361402841040e+04, -7.909350524574904e+02, -4.176800877975555e+03, 1.116653479579282e+04
8024, 7.045809370417543e-01, 6.817408046583754e-01, 2.694744737892595e-02, -6.977925023179428e-10, 2.785408689854661e-10, -1.003107217901063e-09, 2.494194837089419e+03, 2.255648586835109e+03, -1.016239400251829e+02, 4.073498806624689e+03, 6.566087631922151e+02, -2.146099501164454e+02, 2.095328650348853e+03
8025, 2.778539670147580e-01, 6.309878747373349e-02, 1.963856385202885e-02, -9.703340222824349e-10, 1.515447187119639e-09, -3.568884024089971e-09, 3.941692535688188e+03, 3.960622137662480e+03, -2.467981345645970e+02, 7.495364674921317e+03, 4.439221383869023e+02, -8.850791588348172e+02, 3.960517429400455e+03
8026, 6.671212399541299e-01, 1.523286872641978e-01, 2.960193786758466e-02, -5.740230238420555e-10, 1.137051586107452e-10, -5.243049580480093e-10, 1.223312174890400e+03, 1.105103182031033e+03, -5.759347559379544e+01, 2.162852807465197e+03, 5.113288318711057e+02, -5.539267618555683e+01, 1.345845352224733e+03
8027, 8.846696923477245e-01, 1.525906612901117e+00, 7.439138697323391e-03, -1.104196759703263e-09, 1.622280983919055e-09, -1.615441564074650e-09, 4.658460577589172e+03, 5.554107646409598e+03, -6.307794160296650e+01, 8.626222583337518e+03, 1.519340654411466e+03, -1.949334652359981e+03, 5.597181961414905e+03
8028, 7.542228344450566e-01, 9.264212643230259e-01, 2.181229846534886e-02, -6.392130967802303e-10, 3.885241063333315e-10, -1.126703686957455e-09, 2.830349841636585e+03, 2.731514161108163e+03, 6.496190979218427e+01, 4.785067950741210e+03, 4.533413713653168e+02, -4.460073648498818e+02, 2.291259550336533e+03
8029, 7.180698670140376e-01, 8.198639823134781e-01, 2.516676937020210e-02, -7.397095435363597e-10, 4.757296501543841e-10, -1.178286786063316e-09, 2.689400591344552e+03, 2.753232728530264e+03, -8.831019896709842e+01, 4.920597256971195e+03, 6.535032342478348e+02, -4.457865180597684e+02, 2.596278762977136e+03
8030, 3.892731286024621e-01, 1.889617363733194e-01, 1.793012341871060e-02, -1.478326674124396e-09, 8.985272512532890e-10, -3.751286556748068e-09, 4.115418024328871e+03, 4.254070337484898e+03, -8.288437661717039e+01, 7.523183847968997e+03, 5.731347687568517e+02, -2.473483808417218e+02, 3.514143035253695e+03
8031, 6.052301221733325e-01, 8.326641388999766e-01, -2.516951684051510e-03, -1.335383144538511e-09, 1.299550554993516e-09, -5.047353983604175e-09, 6.276724064147786e+03, 5.444066111744675e+03, 4.575015867871667e+01, 1.089471358631733e+04, -2.058789239092474e+02, -8.124366437874842e+02, 5.289418655940367e+03
8032, 1.651903386208272e-01, 1.523840220322640e-01, -7.832195425083878e-03, -3.318742141932387e-10, 2.488852237300571e-10, -5.224315973339031e-09, 2.875386810518983e+03, 4.338127447513923e+03, 2.367202967269579e+02, 7.564527624305884e+03, -9.707184895990392e+02, 2.031855682751142e+03, 5.713926856646047e+03
8033, 3.129649030782308e-01, 2.401562223824012e-01, 4.050724221751124e-02, -9.415467579135111e-10, 6.909510322956166e-10, -2.458387055835969e-09, 5.131958896023090e+03, 5.320313363160924e+03, 9.092866696796672e+01, 9.947843402900413e+03, 6.980723823789057e+02, -5.432517159222256e+02, 4.969226713472541e+03
8034, 7.426255020106537e-01, 2.777067841932482e-02, 1.853057385766892e-02, -2.442887741158824e-10, 6.662870419156903e-11, -5.101101946094302e-11, 2.067536870433777e+02, 2.645314985034117e+02, -1.870450695233041e+02, 3.115718704007277e+02, 1.888198052090464e+02, -8.268681631989774e+01, 4.906084194341585e+02
8035, 6.578989154986506e-01, 5.304708113372861e-01, 3.246555283773230e-02, -7.186113323359266e-10, 3.036422119575849e-10, -8.170698368582592e-10, 2.351715521638389e+03, 2.170364197926783e+03, -3.651111849804650e+01, 3.690926344582176e+03, 6.681697780828370e+02, -3.117715954303360e+02, 1.924629292065036e+03
8036, 2.739402501375461e-01, 1.859959076681706e-01, 4.049203758562627e-02, -8.858738052752251e-10, 5.554456900607894e-10, -2.606776236402776e-09, 5.088081650627961e+03, 5.440842427826240e+03, 1.337660133816982e+02, 1.067571229836570e+04, 6.032110257427145e+02, -2.892207137922902e+02, 5.547177301932501e+03
8037, 4.186220153970469e-01, 2.751596987668510e-01, 4.357351757271181e-02, -1.112539217329817e-09, 5.004068160540062e-10, -1.922759968452461e-09, 4.280780066310122e+03, 4.137847407392582e+03, -3.066192411560024e+01, 7.795488714822675e+03, 1.047326785685243e+03, -4.016676500113102e+02, 4.080868122517087e+03
8038, 2.458620184090294e-01, 2.833025198727984e-01, -9.292977509536508e-03, -1.600415449735207e-09, 9.518191180479517e-10, -7.874978159789841e-09, 7.028161872568588e+03, 6.702036517227796e+03, -6.656908080703695e+01, 1.467790007488816e+04, 3.291329718549875e+02, -3.715169448265343e+02, 7.865874413492990e+03
8039, 5.701278102614836e-01, 2.186226602045145e-01, 4.006648249598989e-02, -7.007646727981298e-10, 2.600881815421310e-10, -9.382435138794963e-10, 2.423281047476849e+03, 2.308462437840246e+03, -6.252423683623902e+01, 4.126379673934293e+03, 7.458163544552572e+02, -2.924029186535279e+02, 2.246381090939364e+03
8040, 6.961717425145425e-01, 3.018349036234474e-01, 2.865663633720888e-02, -6.305612281836885e-10, 1.266190001253364e-10, -3.597307188061074e-10, 1.205830437141593e+03, 1.032713531953235e+03, -3.928315737335986e+01, 1.735789607791580e+03, 5.527971516753200e+02, -7.026836669347645e+01, 1.157051243053279e+03
8041, 6.771820467636027e-01, 5.848441327653128e-01, 2.816796640936481e-04, -7.470776036236673e-10, 1.437027170635071e-10, -1.976819614693941e-09, 2.628202857632660e+03, 2.374116325236940e+03, -2.209167718608109e+02, 4.489061933574154e+03, -3.670457174421917e+02, 5.106711883347122e+02, 2.309352987413037e+03
8042, 7.488838407868929e-01, 6.297060792229691e-01, 2.454962543055266e-02, -6.208743135301610e-10, 2.030935321218891e-10, -4.997512278570772e-10, 1.547495392601890e+03, 1.426785323067748e+03, -4.020663635772301e+01, 2.390730540365000e+03, 6.351664450690574e+02, -1.591610043614616e+02, 1.455527067493001e+03
8043, 7.033628608339103e-01, 4.923517378392935e-01, 2.738716345001173e-02, -7.038155854609037e-10, 2.270252271810598e-10, -6.042428976128589e-10, 1.555139237860784e+03, 1.524613036175023e+03, -4.292581488732547e+01, 2.621646590626397e+03, 6.397679280504590e+02, -2.000317913585403e+02, 1.588836440840221e+03
8044, 7.199049637853751e-01, 1.294210969630925e+00, 6.386913255731812e-03, -1.528200282017908e-10, 1.584121038661749e-10, -1.740637758143812e-09, 4.069886772067954e+03, 3.885236974930563e+03, 1.819640753016077e+02, 6.398882769748738e+03, -1.257985731895071e+02, 1.756727515111858e+02, 2.475430852866371e+03
8045, 9.293428081758125e-01, 1.341733234778742e+00, 9.311640545489937e-03, -4.277638330866415e-10, 4.053560625399175e-10, -5.765400154752784e-10, 1.950885830394843e+03, 1.841047113096945e+03, 4.665645306983451e+01, 3.274535640104992e+03, 2.234195450550873e+02, -3.576685873022467e+02, 1.565107398237873e+03
8046, 3.940824776219592e-01, 5.632757767482203e-01, 2.413351841787549e-02, -7.405060829279354e-10, 7.652992519564605e-10, -3.654350039025538e-09, 5.593468059442826e+03, 5.926083323272990e+03, 4.061093666680658e+02, 1.492975349750292e+04, 7.518354908993081e+02, -9.301010512031396e+02, 9.431716483019049e+03
8047, 2.279259208371135e-01, 2.114439874796388e-01, 3.014367837581161e-02, -5.836010192787167e-10, 5.553598205427742e-10, -3.049950968265111e-09, 5.135004225523562e+03, 5.659045639819817e+03, 1.692332598278870e+02, 1.163241075380299e+04, 1.848186797798377e+02, -2.731076072408380e+02, 6.284755978442562e+03
8048, 6.266257509621561e-01, 4.156780537948833e-01, -2.232289756109812e-03, -9.691770252866876e-10, 3.947448084462587e-10, -1.941512452002230e-09, 2.236222782018242e+03, 1.726460643325648e+03, -3.215306404788705e+02, 3.230026569218315e+03, 3.499204102350824e+02, 9.170926396539440e+01, 1.567423827683600e+03
8049, 6.082452895978306e-01, 7.607912946726345e-01, 3.085797154410460e-02, -9.466001325559903e-10, 4.061703926303320e-10, -1.491032485989897e-09, 3.851860914040493e+03, 3.993950229106052e+03, -2.015464629635748e+02, 6.746419174838516e+03, 8.846751602897098e+02, -2.280251142596543e+02, 3.257786181445211e+03
8050, 9.255994482991279e-01, 1.287983518351846e+00, 9.816636805590754e-03, -5.759183905818729e-10, 7.407550730274635e-11, -5.655833266253868e-10, 1.777557684172513e+03, 1.955139950701360e+03, 7.564125838648474e+01, 3.220318518335339e+03, 5.885243093623075e+02, 1.814118495511734e+02, 1.735472187188490e+03
8051, 6.765737780675321e-01, 6.765959148472039e-01, 2.991353632764476e-02, -7.916931143569554e-10, 3.870737819543455e-10, -1.108091156070743e-09, 2.819284156047474e+03, 2.600628338870530e+03, -1.362355535096971e+02, 4.759259182048064e+03, 7.553034729675580e+02, -4.573261860194174e+02, 2.574892696931733e+03
8052, 5.446705808147743e-01, 8.550351507750282e-01, 2.066627445419616e-02, -1.186059320455001e-09, 7.128183816338557e-10, -3.149394817392988e-09, 5.609985252305250e+03, 5.702192907522602e+03, -1.261207921277692e+02, 1.225377842195608e+04, 1.239076888472511e+03, -5.948699160371747e+02, 7.017916069827021e+03
8053, 1.927218958909276e-01, 1.011241821628959e-01, -1.378384981110864e-02, -1.394314601361635e-09, 1.373910404712578e-09, -8.694245838179663e-09, 5.053658738260202e+03, 4.821928515762593e+03, 9.151867511283317e+02, 9.705377901932168e+03, 9.415464575065168e+02, 2.640473783405589e+02, 5.305801222036421e+03
8054, 5.188878271256192e-01, 7.416408889166112e-01, 2.565360566510562e-02, -9.564178558694044e-10, 5.558082222081170e-10, -2.254154525647174e-09, 4.734983538093870e+03, 5.052303982698832e+03, 1.600340023828351e+02, 9.164334835534604e+03, 7.721023239372781e+02, -4.088614479908492e+02, 4.547645891039925e+03
8055, 8.250340928436889e-01, 1.824059106413662e-01, 1.053655553084609e-02, -4.659679898601847e-10, 1.148327762308938e-10, 4.889758796221387e-10, -6.545503127679284e+02, -7.969090030476475e+02, -5.102418326895395e+01, -1.621302840908365e+03, 4.147154812788665e+02, -2.951984699513275e+02, 1.265880889614064e+03
8056, 2.923771001516884e-01, 1.597101632333074e-01, 1.260941340526491e-02, -1.623403704803943e-09, 8.733765701518859e-10, -5.583014916360010e-09, 5.387544174771264e+03, 5.435044188056602e+03, 1.209218351228307e+02, 1.080354061938974e+04, 8.394613962728898e+02, 3.616280446160996e+02, 5.623903532458007e+03
8057, 8.111217531537512e-01, 9.388019693159169e-02, 1.137148487704877e-02, -3.890817516192532e-10, 6.267005084464117e-11, 2.718426708147806e-10, -4.702211609635182e+02, -5.127271884389349e+02, -5.680375893649447e+01, -1.050077203247798e+03, 1.381723441616628e+02, -6.552697271630024e+01, 6.270793880376142e+02
8058, 6.639516032459243e-01, 1.007486803159188e+00, 2.042147336363897e-02, -1.047899355171475e-09, 7.279173890357552e-10, -2.751070408626164e-09, 4.557575297480575e+03, 4.701571269730430e+03, -6.171029603649797e+01, 1.137198756452541e+04, 1.264341115106118e+03, -8.443847479282059e+02, 7.240287157366504e+03
8059, 8.659873196621279e-01, 6.332346015789925e-01, 1.149942097594139e-02, -4.789812801556528e-10, 1.025733254040160e-10, 1.201653581280040e-10, 5.124262712320605e+01, -1.106923664907135e+02, -2.853167594429815e+01, -3.366282986062620e+02, 3.407908989485080e+02, -8.312290587162278e+01, 6.967371482550245e+02
8060, 6.212112183826035e-01, 1.298378776754935e-01, 3.461912307784495e-02, -5.515344956821354e-10, 1.473701562616629e-10, -7.087928800626931e-10, 1.763377900393497e+03, 1.633982951942518e+03, -7.583626563879585e+01, 3.028967258944727e+03, 5.701802293520608e+02, -6.026966257834935e+01, 1.669037909409050e+03
8061, 3.565837440373369e-01, 4.979113161363512e-01, 2.476673446276792e-02, -7.100001332478035e-10, 3.593318382462760e-10, -2.584730951013164e-09, 4.948542743193659e+03, 5.796910977279398e+03, 4.679694581425092e+02, 1.056686162107547e+04, 2.712269688166651e+02, 1.446258189105429e+02, 5.334722180095171e+03
8062, 5.337420663920597e-01, 2.527940836742483e-01, -5.765043005475548e-03, -8.270870184827528e-10, 7.660075525442461e-10, -4.016485946923124e-09, 3.538371357222315e+03, 3.007945789502626e+03, -8.961513854125752e+01, 6.591353385722445e+03, -5.368800942418713e+02, -4.106075857320512e+02, 3.551906441514136e+03
8063, 6.555641147425912e-01, 5.349285269791893e-02, 2.284411348421528e-03, -4.711291383979501e-10, 1.997226637480932e-10, -7.674366330062699e-10, 1.014750106305187e+03, 9.508806843533349e+02, -1.668866391242373e+02, 1.379865667800649e+03, 1.731829555812192e+02, -1.769471613894470e+01, 5.789457352539652e+02
8064, 2.583053341510955e-01, 1.761347883812152e-01, 1.931709903791280e-02, -1.224054738312028e-09, 8.187520331881780e-10, -4.802523948610792e-09, 5.049642948889852e+03, 5.762376682410779e+03, 1.867377046285163e+01, 1.087479110641525e+04, 3.996794849325868e+02, -6.071300298144433e+01, 5.547963251926380e+03
8065, 5.783540025817574e-01, 3.920198454394848e-01, -4.464276277841055e-03, -1.067194935009857e-09, 8.568184275362692e-10, -3.139078842476075e-09, 3.095681907003619e+03, 2.955914153180927e+03, 1.209690586340121e+02, 5.658907310561847e+03, 1.453970292417456e+02, -1.243243976432736e+03, 3.419386485063907e+03
8066, 4.625419572050611e-01, 6.800866133941021e-01, 2.407139588625348e-02, -8.068794330969753e-10, 2.138477729555952e-10, -2.886584796314148e-09, 5.005104568124937e+03, 5.847450056587173e+03, 3.744213224526355e+02, 1.192382545798090e+04, 4.588095526373145e+02, 2.420360429133168e+02, 6.631600732950163e+03
8067, 3.668714013100364e-01, 5.242448387831099e-01, 2.189635084528734e-02, -5.396489494827404e-10, 8.085940201043070e-10, -3.070306225201979e-09, 5.497999395403457e+03, 6.329090998255981e+03, 4.609806590862277e+02, 1.156344494364992e+04, -5.787647617892336e+00, -9.906347643205157e+02, 6.001756725489512e+03
8068, 9.084971178292151e-01, 1.541404342090639e+00, 8.291183082419516e-03, -1.127360018009018e-09, 1.752586979549000e-09, -1.380324574632686e-09, 4.486522155016309e+03, 5.469271442309268e+03, -4.746967453931593e+02, 7.510894546530001e+03, 1.548877528951264e+03, -2.359897230907332e+03, 5.632126182235254e+03
8069, 3.804349334274991e-01, 6.057157805788666e-02, 5.083158848878962e-02, -5.347978110868015e-10, 8.475247567022433e-10, -1.314084313058759e-09, 3.105087412763909e+03, 3.082691576085943e+03, -1.933392942127860e+02, 5.582408340098968e+03, 5.775547842990817e+02, -9.094771978824795e+02, 3.128481641382145e+03
8070, 4.265348640415985e-01, 1.121879814204068e-01, 4.904112616980481e-02, -6.834005278881151e-10, 5.823871608338434e-10, -1.419090485039977e-09, 3.426356039591582e+03, 3.158009327835120e+03, -1.545120375287734e+02, 6.072884696629349e+03, 6.847185647707058e+02, -4.711791636301015e+02, 3.151266572932906e+03
8071, 8.415551222202079e-01, 3.224907991567192e-01, 1.079391517897779e-02, -4.516115850602301e-10, 1.179891643254589e-10, 2.385277101902092e-10, -5.277494529529156e+02, -5.896451062765370e+02, -4.890587742358081e+00, -1.165752218627975e+03, 3.074074102747784e+02, -1.672198271201764e+02, 8.595615835255127e+02
8072, 5.482924366045548e-01, 7.708846014093422e-01, 2.686752999524262e-02, -9.439948965722331e-10, 6.828420175545343e-10, -2.409727256683460e-09, 4.702017966456717e+03, 5.189770970370098e+03, 7.726059382806581e+01, 9.763589959331694e+03, 6.469438223437999e+02, -6.543887039893016e+02, 5.093800873752633e+03
8073, 4.198012148677596e-01, 4.581269220323617e-01, 3.557870453040442e-02, -1.069237890503542e-09, 5.193533869918514e-10, -2.298107807113508e-09, 4.808401607849269e+03, 4.943029578609557e+03, 1.315885673040591e+02, 9.382872184591772e+03, 9.026823729380055e+02, -4.256696737143930e+02, 4.834055349567189e+03
8074, 4.166331295363570e-01, 5.420832942690581e-01, -7.881506545780688e-03, -1.783239173464028e-09, 1.331990435904926e-09, -6.236521613304502e-09, 4.945487438080172e+03, 5.324367192623105e+03, -2.227186112498563e+02, 7.950007799768990e+03, 5.745786483994619e+01, -4.259511838497621e+02, 2.955564028439486e+03
8075, 4.286242509886252e-01, 6.255452368229552e-01, 2.450100956304267e-02, -9.141974408377663e-10, 2.975029272322296e-10, -3.163800434201869e-09, 5.764195084063057e+03, 5.897817873866014e+03, 4.517274531961389e+02, 1.293512095076824e+04, 6.544237555242818e+02, -5.169655680545399e+01, 7.237875085217363e+03
8076, 7.022511352387435e-01, 1.831065741356039e-01, 3.327113350818083e-03, -6.697167265233743e-10, 9.545143405307311e-11, -4.563369577872952e-10, 7.342066461564901e+02, 5.843718218899847e+02, -1.511295566011394e+02, 1.002232780023806e+03, 2.356321419137051e+02, -1.650694152060417e+01, 6.085667724783052e+02
8077, 8.530236286332884e-01, 1.503751156191298e+00, 7.574646669553473e-03, -1.180723670731449e-09, 1.470943097151514e-09, -2.536335487699667e-09, 4.945255605415627e+03, 6.537241443566962e+03, 2.318576876583619e+02, 1.121072761952965e+04, 1.384824222123636e+03, -2.569086717522685e+03, 7.584927407674492e+03
8078, 8.569527463212601e-01, 4.390180905175994e-01, 1.058054130033624e-02, -4.272704974194286e-10, 4.670717360498190e-11, 2.805736803845556e-10, -2.726865935097545e+02, -6.025741072257291e+02, -4.358931713097570e+00, -1.038592614993072e+03, 3.705297182365168e+02, -5.695521118142702e+00, 9.245572488016326e+02
8079, 4.709183129489259e-01, 8.424074431576456e-01, 4.294934598144909e-03, 9.377568990513781e-11, 9.577278658174692e-10, -2.413633812422541e-09, 4.045943383492063e+03, 5.345868401186583e+03, -2.031290697150478e+02, 9.663351539613568e+03, -6.027431623742846e+02, -1.555253045615882e+03, 5.866258464412738e+03
8080, 6.544126890852471e-01, 2.442810151999491e-01, 3.279508243570560e-02, -6.156377179610239e-10, 1.449269796257694e-10, -5.458146442562623e-10, 1.563847230388764e+03, 1.432430634804596e+03, -4.342729021376813e+01, 2.457429775191841e+03, 6.475262348532369e+02, -1.675982929671058e+02, 1.510293907944794e+03
8081, 5.211330049393316e-01, 3.060153473946721e-01, 4.184583532355120e-02, -7.890540977489907e-10, 3.487430589033921e-10, -1.347188251886827e-09, 3.192928678657235e+03, 3.165345538931148e+03, -7.269576861749125e+01, 5.684138840219445e+03, 6.819701249210467e+02, -3.210461592183543e+02, 2.827705780994037e+03
8082, 7.380044738414243e-01, 8.620238315174893e-01, 2.394482875050745e-02, -8.473754005938838e-10, 3.120860125779435e-10, -1.178802500160926e-09, 2.711550237563092e+03, 2.479484334997434e+03, -1.077498040209405e+02, 5.018927708527016e+03, 8.555696205499877e+02, -1.072468206946828e+02, 2.859832659663070e+03
8083, 5.301818675669998e-01, 9.968466305430190e-02, -4.924972956316002e-03, -7.283061434498836e-10, 5.575831044033756e-10, -3.064571382013322e-09, 2.978806072839931e+03, 2.730774521826165e+03, 8.626990316727985e+01, 4.936001825701078e+03, -5.612691318139986e+01, -2.611487762203377e+02, 2.148011963008387e+03
8084, 7.818903068280834e-01, 1.068692347820640e+00, 2.044792006768299e-02, -8.427073015875493e-10, 3.799965894655194e-10, -1.266493098675991e-09, 3.326666738809974e+03, 3.115662874450485e+03, -5.119536411670941e+01, 5.413891964194442e+03, 8.935421970703937e+02, -3.120405537477619e+02, 2.745299282757260e+03
8085, 2.841915931073672e-01, 2.612707030953435e-02, 1.519469399841970e-02, -5.132513184789482e-10, 1.074767598273664e-09, -2.013320468191444e-09, 3.169891174201565e+03, 4.879851058094016e+03, -4.867213454975265e+02, 4.575903425140680e+03, 2.437350626239736e+02, -2.015691835543297e+03, 3.946462059024332e+03
8086, 5.960913848543725e-01, 6.418903266477648e-01, 2.490815077499297e-02, -1.206331926161939e-09, 5.258757044502372e-10, -1.925250092893687e-09, 3.703162527524515e+03, 3.861432812396200e+03, 1.091647975918533e+01, 6.142582610696633e+03, 9.122485477740832e+02, -3.714561414048754e+02, 2.915582421416420e+03
8087, 5.220400776254781e-01, 7.583467841381368e-01, -3.859648054309314e-03, -1.823362811663162e-09, 8.444062398380807e-10, -4.527975566186258e-09, 5.349644951749745e+03, 5.068329319452991e+03, 1.296371004004868e+02, 1.012482207466382e+04, 1.542697060152834e+03, -3.171951141198124e+02, 5.631765728855894e+03
8088, 7.141525319206952e-01, 4.585348692901178e-01, 2.669364176615335e-02, -6.906389046606729e-10, 1.718257012335420e-10, -4.904324134711085e-10, 1.391816627583879e+03, 1.256476911813257e+03, -4.399676921830566e+01, 2.161356012446316e+03, 6.724462724736162e+02, -7.825600141567038e+01, 1.447545531446092e+03
8089, 7.321720758808467e-01, 1.059372137295260e+00, 2.064194989286840e-02, -1.045008592028631e-09, 4.269004845400192e-10, -1.406072966450826e-09, 3.697588232858531e+03, 3.432667640474476e+03, -1.225708496698434e+01, 6.105543036625227e+03, 8.736463962340077e+02, -5.093090309392781e+02, 3.094310573074836e+03
8090, 7.259398541386383e-01, 5.877532960102878e-02, 2.303246274436612e-02, -3.678484798295110e-10, 7.559143392385363e-11, -1.275703994797279e-10, 4.729820205659265e+02, 3.725806666553864e+02, -9.776062906539019e+01, 7.174157374503311e+02, 3.336350405665540e+02, -3.409146384576166e+01, 6.785756231418399e+02
8091, 6.828273089885523e-01, 8.012171852595289e-01, 2.836018161393016e-02, -7.357633991054090e-10, 4.468637187791657e-10, -1.075731531874814e-09, 3.193740491699562e+03, 2.981755821364004e+03, -2.510670009468958e+01, 5.111123426821435e+03, 6.916668047508174e+02, -4.327067076339350e+02, 2.475188041302807e+03
8092, 8.065774137021992e-01, 4.515798972768163e-02, 1.045199845366569e-02, -3.390050693116252e-10, -6.279063031408390e-11, 1.833986119725436e-10, -4.154815039504297e+02, -3.686209024186833e+02, -1.268373422320123e+02, -1.003081998752358e+03, 2.705858388960957e+02, 4.118477406969686e+01, 8.049890370349319e+02
8093, 4.086306768541034e-01, 5.828814611271562e-01, -6.636370160885158e-03, -2.319847542727795e-09, 1.253085714926419e-09, -8.306131953731911e-09, 8.085893129535984e+03, 6.873642426341037e+03, 6.468885728371870e+02, 1.697245788425038e+04, 2.401152761888386e+03, -1.092298866132356e+03, 1.064634575587584e+04
8094, 6.933141331661219e-01, 3.749902912066722e-01, 2.988815649808460e-02, -6.743622475285520e-10, 1.859305832720335e-10, -4.452460219418218e-10, 1.364142422312389e+03, 1.232200285747319e+03, -4.418435982421803e+01, 2.070179992478172e+03, 6.938657162876038e+02, -1.730237637245159e+02, 1.465971084812791e+03
8095, 8.847969634169051e-01, 7.063225058240397e-01, 1.030220157147030e-02, -4.732380814192096e-10, 1.868665836220547e-10, 1.735622292495595e-10, -1.774634715599167e+02, -2.119902970500876e+02, 9.745785062906712e+00, -6.885662810986828e+02, 4.603830781552497e+02, -2.240390210398751e+02, 1.015625202456334e+03
8096, 6.954029302616315e-01, 4.464624915861078e-01, 2.152137757891144e-03, -1.018648671132622e-09, 3.721298631909575e-10, -1.604891966663452e-09, 1.614197354704439e+03, 1.755842453205055e+03, -3.953300038290001e+01, 3.451875590982905e+03, 5.082456191694853e+02, -1.385224970285332e+02, 1.993494762559582e+03
8097, 3.590788985608141e-01, 2.928716385467656e-01, -1.042438562716333e-02, -1.627921171439128e-09, 6.152219168606302e-10, -7.092364986594051e-09, 5.958241269303701e+03, 5.760746037358856e+03, -2.388443706563665e+02, 1.219575817627276e+04, -4.879896995823572e+02, 8.671377738430515e+02, 6.581703949360086e+03
8098, 7.258268057601486e-01, 1.008850155003171e+00, 2.780255943122797e-03, -1.137117928209735e-09, 4.456001694088391e-10, -2.147426899246052e-09, 3.779592712991577e+03, 3.191249828477426e+03, -9.026050740434025e+01, 4.527466079899303e+03, -9.251704537857455e+01, -1.932472659426537e+02, 1.227851987275532e+03
8099, 9.179167461463058e-01, 1.079995762835792e+00, 1.031093328056798e-02, -5.612539967422360e-10, 1.706989306067275e-10, -1.877997317293033e-10, 8.783549229292346e+02, 6.978556126152989e+02, -1.283022660066718e+01, 1.001444734059092e+03, 5.907735481119895e+02, -1.790498864194878e+02, 1.101662068746246e+03
8100, 5.401736513044295e-01, 3.557868064036555e-02, -5.058379836920587e-03, -5.071409737942261e-10, 6.707302231347135e-10, -1.822746981116185e-09, 2.156424517842419e+03, 2.236477813353189e+03, -2.134346308000606e+02, 4.220667358891376e+03, 4.011359582209203e+02, -1.480143801396662e+03, 3.360673713562524e+03
8101, 4.788373877714647e-01, 3.399873884438308e-01, -9.088701922748525e-03, -1.699481455332845e-09, 6.788404902964304e-10, -5.028478599227717e-09, 4.529999327062349e+03, 4.001594865017391e+03, -2.946329322211436e+02, 8.945964151092243e+03, 5.000167691643742e+02, -1.218689157239933e+02, 4.813356855695723e+03
8102, 9.241200564771145e-01, 1.154690540357443e+00, 1.020587543596427e-02, -4.794412152838229e-10, 5.713050247980520e-11, -4.183415104971739e-10, 1.115782521386882e+03, 1.142624173752033e+03, -1.207028400732284e+02, 1.876836823142104e+03, 4.739059960260336e+02, 1.655132100743942e+02, 1.165825134256423e+03
8103, 5.801692210172362e-01, 8.905108424574257e-01, -2.301023739210165e-03, -1.630087709535424e-09, 6.841712236348032e-10, -4.237445629614992e-09, 5.653177127555787e+03, 4.974110589884457e+03, -5.032610656286130e+01, 8.226048705941521e+03, 1.378565728147304e+03, -3.518196140273524e+02, 3.861115148499552e+03
8104, 3.018263572568869e-01, 3.885409571215888e-01, -7.889373846794057e-03, -1.984290197187140e-09, 8.729419703700935e-10, -6.516262735813745e-09, 5.111337750127652e+03, 5.714714745947987e+03, -6.578782655165448e+02, 1.012753268855657e+04, 1.279002903968971e+03, -8.705718430771898e+02, 5.565901683526532e+03
8105, 3.018050422537527e-01, 3.909439514965013e-01, 2.641256380473981e-02, -4.810352929098379e-10, 2.172662358908911e-10, -2.897262934443757e-09, 5.251071479233433e+03, 5.987549494785089e+03, 3.512905677896144e+02, 1.187136019046713e+04, -1.412062100682981e+01, 1.434915068379280e+02, 6.318821741236369e+03
8106, 7.928871738205371e-01, 8.473350269364225e-01, 2.004099766050788e-02, -6.722608874178141e-10, 2.067757090712320e-10, -4.940355490880455e-10, 1.623509715278758e+03, 1.553391984624878e+03, -8.464560200856288e+01, 2.549421144955177e+03, 6.209577149749712e+02, -1.203739996118060e+02, 1.465906226373126e+03
8107, 4.643171655546653e-01, 6.798778208409199e-01, -4.868692217228640e-03, -1.435203157555263e-09, 5.808784386532615e-10, -6.622364308288681e-09, 7.304575712296866e+03, 6.545702869891522e+03, 2.153095661802762e+02, 1.599887816357840e+04, 4.009943801547212e+02, 6.619293854174833e+02, 9.203291191725219e+03
8108, 7.268168379724771e-01, 7.436984555569173e-01, 2.930360239351733e-03, -6.691913617839023e-10, 3.208552762399705e-10, -1.964024217404982e-09, 2.651983016961622e+03, 2.647875349977392e+03, -9.449162123664584e+01, 5.165072731655263e+03, -7.007998016138410e+01, 7.280096270146231e+01, 2.526535033103104e+03
8109, 4.872465336639538e-01, 3.805800684967500e-01, 4.245146824882119e-02, -9.095073326504969e-10, 3.440732354366510e-10, -1.502314130961191e-09, 3.838464571431959e+03, 3.675379441021605e+03, -5.828150754778103e+01, 6.698401602897557e+03, 8.875764203691448e+02, -2.406197089137798e+02, 3.349553586488277e+03
8110, 5.857781252290322e-01, 8.773612457228924e-01, 2.309548406181713e-02, -1.156087322839674e-09, 3.891758601556954e-10, -2.294981542995262e-09, 5.231758273702143e+03, 5.178694939204710e+03, 9.565466921734314e+01, 9.429339384533607e+03, 1.028967978531491e+03, -1.986763162630872e+02, 4.600807769917326e+03
8111, 3.926167800723468e-01, 3.968363728868942e-01, -8.822520241734327e-03, -2.050992264093880e-09, 9.522438709547756e-10, -6.419823024127665e-09, 5.804748694020953e+03, 5.662610035907593e+03, -5.811578769490308e+02, 1.095840336691416e+04, 3.921267341741200e+02, 5.653793972705665e+02, 5.454024073517179e+03
8112, 4.885063423707685e-01, 7.247953670994292e-01, -5.297858853035808e-03, -1.652395571904980e-09, 9.177684556598490e-10, -5.262179012774847e-09, 5.516034764286028e+03, 4.272467875763743e+03, 3.412167691091327e+02, 8.781497680504088e+03, 8.610206320924724e+02, -3.474303720239904e+02, 4.382465978096729e+03
8113, 3.577177099912273e-01, 4.979660276430057e-01, -6.455949617954097e-03, -8.231523390456421e-10, 1.891620481501492e-11, -5.185354547424743e-09, 4.739079434352385e+03, 4.983878826895887e+03, 3.721006234712851e+02, 1.003149623835624e+04, -3.368897259473314e+02, 2.068672814892837e+03, 6.353589873506521e+03
8114, 2.409678761439166e-01, 1.743760642418739e-01, -1.339679548915620e-02, -1.456351146575557e-09, 1.344109460058591e-09, -7.539876332882686e-09, 5.467706722254376e+03, 5.775994630752961e+03, 6.271195642622233e+01, 8.119160843349428e+03, -2.673950301420542e+02, 4.933464702725030e+01, 2.557623807831862e+03
8115, 3.082429570302928e-01, 5.284055006552056e-01, 2.234061117831178e-03, -5.198162007810004e-10, 1.520377397760187e-10, -2.358806880509722e-09, 3.808301405779622e+03, 4.256840358747160e+03, 2.301237421167319e+01, 7.858224411546742e+03, 8.475658969597101e+02, 2.068395014701919e+02, 4.131773906645705e+03
8116, 6.209319309577984e-01, 3.857855709724682e-01, -3.284046579984694e-03, -6.964157494707456e-10, 5.464318800047514e-10, -2.273456572242561e-09, 2.510108475569176e+03, 2.188219794238709e+03, -3.805779012574912e+01, 4.189913085209814e+03, -2.441471257967629e+02, -4.156841702690513e+02, 2.041473627539113e+03
8117, 6.260444497783806e-01, 1.116527267316311e+00, 7.118367527435554e-03, -1.013074667899547e-10, -4.802042077820273e-10, -2.542572015214712e-09, 4.774979747418160e+03, 5.126931884679245e+03, -6.318733359074497e+01, 9.851818935778503e+03, -2.668814865813072e+02, 1.154806966264285e+03, 5.323321757844037e+03
8118, 4.377558434459859e-01, 1.058751426181675e-01, 1.938134592425889e-02, -9.992625016408361e-10, 7.993449081675240e-10, -2.795657692814921e-09, 3.449216518352296e+03, 3.039671512589129e+03, -1.794936465857470e+02, 5.667905291367544e+03, 4.444135183782229e+02, -2.233706007855540e+02, 2.614920113294562e+03
8119, 3.977071523509508e-01, 5.670815694889515e-02, 2.074691825944640e-02, -8.030102872635663e-10, 1.128903893613951e-09, -2.411781273627372e-09, 3.013982942615482e+03, 3.067234707559377e+03, -3.834134846160906e+02, 5.234526328220938e+03, 4.249553981765949e+02, -9.469447059246149e+02, 2.913467457089303e+03
8120, 5.144030596320126e-01, 1.892568717515415e-01, -6.575593275898760e-03, -1.156157333343185e-09, 6.087579085426513e-10, -3.176227796027288e-09, 2.657121472975794e+03, 2.985071868332765e+03, -2.261428831886331e+02, 5.415880663312189e+03, 6.387158541245096e+02, -3.809217294699592e+02, 2.937033757831629e+03
8121, 2.730399704271735e-01, 2.528492582961667e-02, -1.650930602777342e-02, -4.103008498807053e-10, 8.954921719139539e-10, -2.538325131195007e-09, 2.932287170402352e+03, 3.556152274934367e+03, -4.218829950428192e+02, 3.868577132766606e+03, 1.775145044407071e+02, -2.517765669450811e+03, 4.508619501378311e+03
8122, 2.529009963134889e-01, 2.677384572042844e-02, 1.975552583240937e-02, -4.454298666149356e-10, 1.135004596616952e-09, -1.954495649544758e-09, 3.308620841567722e+03, 4.998713246198518e+03, -4.269463384188423e+02, 4.602656124533250e+03, 9.442083803153932e+01, -1.969147359037082e+03, 3.814461931010157e+03
8123, 2.372765693526748e-01, 3.999346465487352e-01, 3.138483027251136e-03, 3.705993099781307e-11, -1.574686374545429e-10, -2.355012078692719e-09, 3.040491335227845e+03, 3.348059704291571e+03, 3.400959203529693e+02, 8.669872661943411e+03, -8.022181262314842e+02, 5.605746751765361e+02, 5.768318833105520e+03
8124, 8.094596665038279e-01, 1.443232054132197e+00, 6.300279677447389e-03, -7.311424562586291e-10, 1.705998111332762e-10, -3.355211430069544e-09, 6.114204271195084e+03, 6.926166358726950e+03, 6.280632432657545e+02, 1.339510241825562e+04, 4.505269743823205e+02, 1.158667531732218e+03, 7.319753569943354e+03
8125, 9.369010507716895e-01, 1.374426911591921e+00, 9.363183048912812e-03, -4.453408057341867e-10, 8.220524602193966e-11, -7.425948887981793e-10, 2.208602362230314e+03, 2.250561470768798e+03, -2.494475597882706e+02, 4.054704071777857e+03, 1.687061964584749e+02, 3.147778654216665e+02, 1.975273200820942e+03
8126, 8.604753593132475e-01, 4.931955487032732e-01, 1.064066381416590e-02, -4.156023169528430e-10, 1.273556937749866e-10, 3.343524014272853e-10, -5.113955083142081e+02, -6.695404586633630e+02, -9.361031572920103e+00, -1.669890461702857e+03, 3.098759999811279e+02, -2.128897187428592e+02, 1.268151664956913e+03
8127, 8.165755152990839e-01, 1.275290325263603e-01, 1.072468449371824e-02, -4.486653194506938e-10, 2.072759224736205e-11, 2.610675879942054e-10, -4.430610899534140e+02, -4.209499260637511e+02, 1.265913738466244e+01, -8.973895400159120e+02, 2.864108555722580e+02, -5.310914225522301e+01, 6.870116547366150e+02
8128, 7.649855178135324e-01, 1.207929720503836e+00, 1.628382972473194e-02, -1.175478011272044e-09, 3.811619598340150e-10, -2.420845085827348e-09, 5.135384385871077e+03, 4.878884350762175e+03, 3.232951947171069e+02, 1.005782334069537e+04, 1.412613165059569e+03, -9.466856014359865e+01, 5.646740379779801e+03
8129, 7.043737394075693e-01, 1.678870271464691e-01, 2.690249196439103e-02, -5.322566237171676e-10, 7.146206368361814e-11, -2.569688641989019e-10, 8.240703039645707e+02, 7.087842801521710e+02, -2.725658036612193e+01, 1.304961608327220e+03, 4.795555062349501e+02, -3.397565920002795e+01, 9.977973795910590e+02
8130, 2.829497134818184e-01, 1.977189081668512e-01, -1.202562120939509e-02, -2.259569779782344e-09, 1.372383901300118e-09, -8.049874692988371e-09, 5.963059511142259e+03, 6.107508210410343e+03, -5.307880939666409e+01, 1.210114372626337e+04, 1.977687437086263e+03, -9.185243188845026e+02, 7.147276448225656e+03
8131, 7.142838334734125e-01, 9.056897646895538e-01, 2.488835615136720e-02, -9.162728192004669e-10, 3.658528644839238e-10, -1.255163393707798e-09, 3.203202017934588e+03, 3.105204431804158e+03, 2.780652594164153e+01, 5.389189333545228e+03, 8.418130641351212e+02, -3.405068145677974e+02, 2.734678689890537e+03
8132, 9.421836846671314e-01, 1.412831789607153e+00, 9.369812935238139e-03, -3.205184548366378e-10, 2.963160476675187e-10, -6.233660312274794e-10, 2.080292485411173e+03, 1.933297924663823e+03, -6.616086786791562e-01, 3.253767193790298e+03, 6.254867022856340e+01, -4.001500860114118e+02, 1.436399417650302e+03
8133, 3.513010835610051e-01, 9.541353890229433e-02, 1.657892692104793e-02, -1.122228866073186e-09, 1.025435527301882e-09, -4.289440762206384e-09, 4.292100063662822e+03, 3.899577213330062e+03, -3.577055172328593e+02, 8.096989211436314e+03, 2.425432081202378e+02, -1.190476807533344e+02, 4.089941311783406e+03
8134, 9.225106160569280e-01, 1.190372899542801e+00, 1.052219338562536e-02, -5.958522439267972e-10, 2.529565315941027e-10, -6.124058275450236e-10, 1.554921136000019e+03, 1.357691146084897e+03, -5.673486092303470e+01, 2.750580520261540e+03, 7.138708558180299e+02, -3.337497888055965e+02, 1.891290304175614e+03
8135, 8.691384080036083e-01, 5.645232994895754e-01, 1.064064081350384e-02, -4.880440825900147e-10, 2.203890091709353e-10, 3.435399216148655e-10, -3.708871608553532e+02, -5.523124181459342e+02, 2.233912467511054e+01, -1.185933668113612e+03, 4.032715486110681e+02, -3.151113341628271e+02, 1.156119502767171e+03
8136, 6.881470483592838e-01, 3.505391039357179e-01, 8.945743096592206e-04, -9.644135273401949e-10, 2.319051559377279e-10, -8.505855273090416e-10, 1.376481312407788e+03, 1.269311577902880e+03, -6.619483716884152e+01, 1.910574302467918e+03, 4.758517573632639e+02, -5.921834809526992e+01, 1.028080575920412e+03
8137, 5.888712877950658e-01, 5.071410581894181e-01, 3.721829147896811e-02, -8.893104774624101e-10, 3.854397017817190e-10, -1.240298157982656e-09, 3.277382057554763e+03, 3.141224322699205e+03, -5.693518436738060e+01, 5.647756966980026e+03, 9.378297767949136e+02, -4.167399422875991e+02, 3.021469257381194e+03
8138, 5.399578331985428e-01, 1.467758836223246e-01, -6.384134564501605e-03, -1.025388498792646e-09, 4.577209021231528e-10, -2.629417698731624e-09, 2.726785520751013e+03, 2.634526989415595e+03, -2.435718869738305e+02, 4.555764814286214e+03, 3.727152391965520e+02, -1.405494056495041e+02, 2.043626674198208e+03
8139, 9.378687665003210e-01, 1.460110508934173e+00, 8.971041178161956e-03, -5.084095274660939e-10, 3.946568017208323e-10, -6.102909834753706e-10, 2.288141815471501e+03, 2.267515394607709e+03, -2.766026518266665e+02, 2.977797773990038e+03, 5.236695858883648e+02, -2.426360423858410e+02, 1.311148068735753e+03
8140, 6.702819515450814e-01, 4.693851905775771e-01, 3.288480755907578e-02, -6.455879215366279e-10, 2.076871996121640e-10, -6.241204929901219e-10, 1.925387146306683e+03, 1.820304534056014e+03, -5.082401112986380e+01, 3.060567407388942e+03, 6.426452075984787e+02, -1.918709535559484e+02, 1.666173912016209e+03
8141, 4.262754101452274e-01, 4.112761095152453e-01, 3.948802637166943e-02, -1.106732556534057e-09, 4.869461607569231e-10, -2.067599131716747e-09, 4.623556767150413e+03, 4.645460642318814e+03, 7.359318552524154e+01, 8.748825986720349e+03, 1.001056930339441e+03, -3.692385676754261e+02, 4.512158097345789e+03
8142, 4.493618749195657e-01, 7.247132599442539e-02, 1.582472328333551e-02, -7.199092268237645e-10, 8.465677186593103e-10, -2.631882494315616e-09, 3.178324191280798e+03, 2.883012749317407e+03, -2.620972913166011e+02, 4.938031381737585e+03, 1.245768507567866e+02, -3.656404876729719e+02, 2.087381602870946e+03
8143, 1.629808804394255e-01, 1.545196748827744e-01, 2.286239217333352e-02, 3.014350482347269e-10, 3.546180826792524e-11, -2.571339565893494e-09, 4.398137986247370e+03, 5.233148019550085e+03, 2.226002724833899e+02, 9.830395074618222e+03, -1.156581944641653e+03, 6.890404613030039e+02, 5.590768995181461e+03
8144, 3.137961869132146e-01, 9.627108538925308e-02, 4.759323603800129e-02, -7.596195279287751e-10, 9.299439701342820e-10, -2.062012686348553e-09, 4.144683189826118e+03, 3.876571546663339e+03, -9.321216931670308e+01, 8.104685918323448e+03, 6.342429406795258e+02, -7.712574803408345e+02, 4.453380789158832e+03
8145, 5.908868117052839e-01, 4.613683632955746e-01, -3.162067345426938e-03, -1.309712463612426e-09, 8.020591746178717e-10, -2.488098646072071e-09, 2.606216681277607e+03, 2.772994953107712e+03, -1.713137268579571e+02, 4.410966084992124e+03, 2.334618830696607e+02, -4.811076649414496e+02, 1.982396202299139e+03
8146, 2.345813610910298e-01, 1.734821710360088e-01, 3.718238307944914e-02, -5.646968146890599e-10, 5.119574664960885e-10, -2.681866124527085e-09, 5.116213957743660e+03, 5.623499232867825e+03, 1.564893151500754e+02, 1.113814785636851e+04, 1.422514396430049e+02, -2.373287242522235e+02, 5.811138936456172e+03
8147, 6.977748328034238e-01, 5.616824338159279e-01, -4.159790943989924e-05, -1.066044613771989e-09, 3.720608362994693e-10, -1.915189112260052e-09, 2.160801267830148e+03, 2.067440399880138e+03, 1.707737463731545e+01, 4.668885669481202e+03, 6.659701078422524e+02, 1.140026439671745e+00, 2.804422920472651e+03
8148, 3.597354240191369e-01, 1.740071922832485e-01, 1.646294153640564e-02, -1.453820319415219e-09, 9.010155013703781e-10, -4.093178970285131e-09, 4.415541938880094e+03, 4.275906094584359e+03, -1.300937297954355e+02, 7.927391645582556e+03, 4.255899390418993e+02, -1.568398732066793e+02, 3.675719846782840e+03
8149, 6.311892717462947e-01, 8.480627624002287e-01, -3.442287061920405e-03, -1.696228443068178e-09, 7.620121102361524e-10, -3.840778932708072e-09, 4.814290835024152e+03, 4.271977013280593e+03, -1.807768870302079e+01, 8.092810973768404e+03, 1.408917567822965e+03, 3.204690324283213e+02, 4.368639733028469e+03
8150, 5.139561482800153e-01, 1.091625714137308e-01, 4.428893142779487e-02, -5.987108725096061e-10, 3.620156408183918e-10, -1.134491824054201e-09, 2.654363868335523e+03, 2.460990394846992e+03, -1.190185790460950e+02, 4.773063641859431e+03, 6.433248460882571e+02, -2.707496196034834e+02, 2.537714576911507e+03
8151, 5.855473308694644e-01, 8.038373881833011e-01, -4.558116340787826e-03, -2.137136567741383e-09, 7.042796265963468e-10, -5.120467184321055e-09, 5.644013498310213e+03, 5.213436165985246e+03, -2.628608280380108e+02, 1.067706385937620e+04, 1.723950301778651e+03, 1.478250620939799e+02, 6.072311610480100e+03
8152, 7.801225414243614e-01, 9.661311772778624e-01, 3.449778415738500e-03, -1.082670560411788e-09, 2.300378151432997e-11, -2.033760515126460e-09, 3.306716163251703e+03, 2.950617165587676e+03, -4.022537149007774e+01, 6.205862363820458e+03, 5.510650612080098e+02, 7.704126256299583e+02, 3.501530727023658e+03
8153, 6.613422861225522e-01, 4.168314669145630e-01, -1.194138755710616e-03, -1.096308168985596e-09, 2.601368911571638e-10, -1.856392287958194e-09, 1.889862228010359e+03, 2.061367896442112e+03, 1.158902339627402e+02, 3.878096696744930e+03, 6.166622447253540e+02, 2.310203359079715e+02, 2.232199994044247e+03
8154, 6.184734048955562e-01, 7.134473668356605e-01, -2.545890508346773e-03, -1.412861484358555e-09, 5.414557329899344e-10, -4.119083503003282e-09, 3.663146222441414e+03, 3.732121627950811e+03, -3.360814591482330e+01, 8.175098943246468e+03, 5.128731676631904e+02, -1.561646218580275e+02, 4.573502874262884e+03
8155, 3.249423096499007e-01, 2.844158032650287e-01, -1.261884355673133e-02, -2.029173881513135e-09, 1.615389220127804e-09, -7.694361177885518e-09, 6.349509023393492e+03, 6.366864182416589e+03, -5.058233100864413e+02, 1.178809440636911e+04, 1.398326709034043e+03, -1.298317939471468e+03, 6.416738851614052e+03
8156, 6.897068826863039e-01, 8.822715523971456e-02, 2.802633335117326e-02, -4.732546049561185e-10, 1.073102172547250e-10, -2.703077733839498e-10, 8.622652721623130e+02, 7.509386647564548e+02, -1.071351689800492e+02, 1.310456111530349e+03, 4.355765183267860e+02, -2.178576170063415e+01, 9.317739045047281e+02
8157, 5.406187709882805e-01, 1.495679099478408e-01, 4.376965405503620e-02, -6.299366290453183e-10, 2.549271075384713e-10, -9.119764142426161e-10, 2.539278720799063e+03, 2.386924339615070e+03, -1.175461178679142e+02, 4.316019987081523e+03, 6.685948033374750e+02, -2.007530995888924e+02, 2.225787371816143e+03
8158, 4.607443875216591e-01, 4.394282811316967e-01, -9.459729453174175e-03, -1.674276866283906e-09, 1.098565291860289e-09, -5.247113660306378e-09, 4.820349107818323e+03, 4.523545710391049e+03, -3.368781634184043e+01, 6.145325086300237e+03, 5.076909113265521e+02, -1.965445322950859e+02, 1.769026574974813e+03
8159, 8.939960891143247e-01, 8.748426258787887e-01, 1.102698061263954e-02, -4.344803514560306e-10, 1.411464466801561e-10, -1.248503780702872e-10, 5.954164403311814e+02, 4.874499689475599e+02, -4.422837288983424e+01, 6.711061797623593e+02, 3.522858169080329e+02, -1.531377899449037e+02, 6.885459571454002e+02
8160, 8.272830425164914e-01, 1.472866128888229e+00, 7.439432944572156e-03, -1.115599858206897e-09, 4.776695602184790e-10, -5.384554894783475e-09, 9.198288716267547e+03, 9.500830904565826e+03, 4.917108367463663e+01, 1.887267390335476e+04, 1.337168250485681e+03, 1.228714719751805e+02, 9.806882951860749e+03
8161, 4.745436928701004e-01, 3.965772169054209e-01, -7.687886896373640e-03, -1.562606174815884e-09, 6.918887965441813e-10, -3.997653310411898e-09, 3.493118003875433e+03, 3.453406791734227e+03, 2.719875858469533e+02, 5.067532389350928e+03, 2.457344974865795e+02, -2.512078411624845e+02, 1.770673247647839e+03
8162, 6.566187865230888e-01, 2.600497364090774e-02, 1.738533949133252e-03, -3.313089768315985e-10, 2.193226394683643e-10, -5.410161390867058e-10, 8.249836360908442e+02, 9.729354436026721e+02, -2.051605752814931e+02, 1.397671157403255e+03, 2.263184372809890e+02, -4.508085721605601e+02, 1.074592190928766e+03
8163, 5.812241361534205e-01, 1.064683223108563e+00, 3.973123635297632e-03, 5.253148301394524e-10, -1.273821350476955e-10, -1.064478344593985e-09, 2.874618533882142e+03, 3.297348348323849e+03, 7.919540950290920e+01, 5.026451598257808e+03, -9.150896602320712e+02, 3.049551929632280e+02, 2.590254436834516e+03
8164, 5.953478652490085e-01, 9.177238534025016e-01, 2.201230080995059e-02, -1.012760289389747e-09, 4.917567131476335e-10, -2.621315004552258e-09, 5.629956431745264e+03, 5.291773360219254e+03, 2.335903894926458e+02, 1.068741951334810e+04, 7.695746830311276e+02, -3.993330469201483e+02, 5.460904563007237e+03
8165, 9.211385576794391e-01, 1.117418973772287e+00, 1.000911017799000e-02, -4.544236991631353e-10, 2.317385929291416e-10, -2.855134830204339e-10, 1.118561311853899e+03, 1.028875041973386e+03, 2.570246497547677e+01, 1.856439318554239e+03, 2.493274253503072e+02, -3.559126622132408e+02, 1.089578322292163e+03
8166, 7.476181294752845e-01, 7.883217255758922e-01, 2.849552091999809e-03, -7.661294132404257e-10, 4.370221502712755e-10, -1.876628167103921e-09, 2.632756746135944e+03, 2.396410606799159e+03, -2.001633010521622e+02, 4.524173707012086e+03, 1.210957669081110e+02, -2.447394743280617e+02, 2.103384781842150e+03
8167, 9.058455526732618e-01, 9.045170610378320e-01, 1.022308374690146e-02, -4.197042454678338e-10, 6.602345279731316e-11, -1.438199059480390e-10, 4.853734348215440e+02, 3.453808453663225e+02, -2.734447307778029e+01, 6.375034533387750e+02, 3.536968893166601e+02, 4.802865067914458e+01, 6.697062235646736e+02
8168, 9.073525208916011e-01, 9.443627860940884e-01, 1.007674555824628e-02, -4.620858260856957e-10, 1.067735227404257e-10, -1.417588834075784e-10, 6.268543640690209e+02, 5.382781419866917e+02, -7.361879546114614e+01, 8.153906482757155e+02, 4.459319820099612e+02, -9.675052428623425e+01, 8.372566393190000e+02
8169, 5.741487092130824e-01, 8.535977118237567e-01, -3.883802605117941e-03, -2.046999231534412e-09, 1.095981520433714e-09, -4.974551560911682e-09, 5.544311154027931e+03, 5.603074423700832e+03, -1.489995811572366e+02, 8.880640926131828e+03, 8.042381290041270e+02, 1.717473152331914e+02, 3.610261316695832e+03
8170, 4.127486329991083e-01, 1.645725752336405e-01, 1.840635248764836e-02, -1.352621532409679e-09, 7.579614465957045e-10, -3.526844773606292e-09, 4.103699897911030e+03, 3.790064320810464e+03, -6.385558094161809e+01, 7.193779935164830e+03, 5.244912937975156e+02, -2.262900407541634e+02, 3.406941216505298e+03
8171, 6.878580668684361e-01, 7.616037461024007e-01, -1.118512141194856e-03, -1.270082721580739e-09, 3.643241451202425e-10, -2.337758221672896e-09, 3.369116975895373e+03, 2.893568766207344e+03, -1.591288789057387e+02, 5.888591682099589e+03, 1.063528024046588e+03, 1.596033953277858e+02, 3.364177742975716e+03
8172, 4.139311403926826e-01, 2.390845885744576e-01, 1.740768122901587e-02, -1.651445700603542e-09, 8.111494484513149e-10, -3.633999510807864e-09, 4.165458211947025e+03, 3.989211188662124e+03, -1.832806902210442e+02, 7.336047326530430e+03, 8.621686295751882e+02, -1.911083662379685e+02, 3.617022551058981e+03
8173, 7.001583519925345e-01, 8.633572112249512e-01, -6.489637374474215e-04, -9.716887230290722e-10, 3.562423954428370e-10, -2.949682395262871e-09, 4.336657595003330e+03, 3.637230017734712e+03, -2.571580397255296e+02, 6.723399962214749e+03, 3.798754934372776e+01, 3.539041722773567e+02, 2.904058525256798e+03
8174, 3.897124592365961e-01, 2.041628072532495e-01, 4.578863065513637e-02, -9.549391077454231e-10, 5.443789224756557e-10, -1.926001237993582e-09, 4.163518682885251e+03, 4.212604963298290e+03, -7.595466794733959e+01, 7.860678610837961e+03, 8.415329344595084e+02, -4.596236392979830e+02, 4.033053831815585e+03
8175, 7.382484631804446e-01, 8.360438095794307e-01, 1.375529507532837e-03, -8.693379870046184e-10, 7.942262563340277e-10, -2.448023361978964e-09, 3.045103832250810e+03, 3.106848791514393e+03, -3.570660796250249e+02, 5.746670906158105e+03, 2.746174257435258e+02, -1.044178429768769e+03, 3.318904559142024e+03
8176, 9.358750464091339e-01, 1.513368783089007e+00, 8.709798220325877e-03, -9.446140163820930e-10, 7.166792611983574e-10, -1.317891046838780e-09, 3.797697526520701e+03, 3.899617449495095e+03, -2.635395678109753e+02, 6.479195256065072e+03, 7.610452015817499e+02, -6.359981635913790e+02, 3.175992664102387e+03
8177, 8.100218871217518e-01, 8.753879515117418e-01, 1.884917609340872e-02, -5.327420687863572e-10, 2.307044456402448e-10, -6.063197974227944e-10, 1.763652664900751e+03, 1.601611471732976e+03, -2.177166562575582e+01, 2.727035062669002e+03, 5.011462516120745e+02, -2.378116856400715e+02, 1.426533747267100e+03
8178, 6.904394710391174e-01, 3.773692399162510e-01, 7.564462606735427e-04, -9.296196753155932e-10, 2.656722514082798e-10, -9.193650218195555e-10, 1.334270296300345e+03, 9.906937208766167e+02, -1.250710955248819e+02, 1.770900165063081e+03, 4.619725837237992e+02, -1.920774938618475e+02, 1.120969193422517e+03
8179, 7.658570525706866e-01, 8.210679213583398e-01, 3.594477876023194e-03, -9.001276346756337e-10, 3.344353839223266e-10, -1.179764960288179e-09, 2.029454310150308e+03, 1.956423580348649e+03, -9.396112975505293e+00, 2.752805131315530e+03, 3.780741868757630e+02, -2.189367539502601e+02, 1.074375063095459e+03
8180, 4.056810819135265e-01, 3.195768294576051e-01, -1.141883534966828e-02, -1.640373221868057e-09, 9.042155429297279e-10, -6.057557192823799e-09, 4.454345020508754e+03, 3.825310157455165e+03, 3.255792721086950e+02, 6.772856242871975e+03, -3.203844900204394e+02, -5.239197569490225e+02, 2.946018248957485e+03
8181, 7.746996890876815e-01, 1.390683569174694e+00, 5.357936295558498e-03, 6.891726496210057e-10, 6.656068782665549e-10, -3.211391651016029e-09, 6.079633118191419e+03, 5.942735656558124e+03, 9.020629103028953e+01, 1.215899592432313e+04, -2.358089193612941e+03, -9.618531620121027e+01, 7.385361378102729e+03
8182, 3.533064939157445e-01, 6.297429428410047e-01, 2.978211867015211e-03, 3.425983368600881e-10, -3.695252144635899e-10, -1.801296920932919e-09, 3.410649806729164e+03, 2.716401539442164e+03, 1.663541253697798e+02, 6.238871732493119e+03, -9.368112598100508e+02, 8.633224441434418e+02, 3.923793077081975e+03
8183, 7.067790159400981e-01, 5.196945022900346e-01, 4.546697696470627e-04, -9.140779063784213e-10, 3.374770913989184e-10, -1.074205644870045e-09, 1.334746562301511e+03, 1.499261289168686e+03, -9.480792062125614e+01, 2.123559223437667e+03, 4.631941844839080e+02, -1.001353540207633e+02, 1.104632364481509e+03
8184, 5.224372177448842e-01, 3.653434510908686e-01, -6.699158992521912e-03, -1.101450853538614e-09, 7.393219729936753e-10, -3.393242623731604e-09, 3.375423927494591e+03, 2.917172501749452e+03, 7.656761925165935e+01, 5.106574339782875e+03, -3.858725771107572e+02, -2.780997497991264e+02, 2.167135762830894e+03
8185, 8.969251313211499e-01, 8.067716895401021e-01, 1.029112868664989e-02, -3.907412701993172e-10, 1.361205583080686e-10, -3.162242459150221e-11, 2.632709096720478e+02, 1.317082132933527e+02, -5.603098028271670e+01, 1.557449442950452e+02, 3.368706854815467e+02, -1.177079627309475e+02, 6.373018533697567e+02
8186, 7.177608051301958e-01, 7.598377517156076e-01, 2.815651948655413e-02, -6.501576709554398e-10, 2.374295362192597e-10, -8.357972532203472e-10, 2.484684444536135e+03, 2.386314312054619e+03, -1.907951817974953e+01, 4.065159034922653e+03, 5.746023614394406e+02, -2.179834313272398e+02, 1.948639048930999e+03
8187, 4.775853496768833e-01, 5.247158030374428e-01, 3.737918872819004e-02, -1.049726705806070e-09, 6.141553901880293e-10, -1.966241373296537e-09, 4.815540217200698e+03, 4.669831179415731e+03, -8.605054345405401e+01, 8.721160004932408e+03, 9.869022550323100e+02, -5.839395564361650e+02, 4.450986366975349e+03
8188, 5.726059759917480e-01, 8.539173240845296e-01, 2.477286139234511e-02, -1.149470578286769e-09, 5.073292293456556e-10, -2.529911424568956e-09, 5.418639271856915e+03, 5.401427822668292e+03, -1.215191913580132e+02, 1.063046853844341e+04, 1.076662233716790e+03, -2.053477869530691e+02, 5.558918262719190e+03
8189, 6.857935897499723e-01, 3.492869366857087e-01, 3.156364040921168e-02, -6.617339641793436e-10, 1.761931825983919e-10, -4.340624905194416e-10, 1.378050284765917e+03, 1.272843265811614e+03, -5.886311018239441e+01, 2.094581949015875e+03, 6.911096293427141e+02, -1.747431385862209e+02, 1.461084512638733e+03
8190, 4.387948102609480e-01, 6.467577768672795e-01, -5.037683322077952e-03, -2.076197179001371e-09, 6.867747059268660e-10, -6.396364876460532e-09, 5.896967191617879e+03, 4.924701677704173e+03, 4.731254723131628e+02, 9.343140639530031e+03, 4.031330005522264e+02, 1.205891044180891e+02, 4.168299922436142e+03
8191, 4.064710080807118e-01, 5.870512143509264e-01, 2.548920628079506e-02, -9.091909112589192e-10, 4.704596986054023e-10, -3.251517749650268e-09, 5.756805840689392e+03, 6.085034820943615e+03, 4.199051433189153e+02, 1.386844726828282e+04, 8.242901179651567e+02, -1.733726868290197e+02, 8.117972836173990e+03
8192, 5.076410040594640e-01, 2.588805692058708e-01, -7.244169872966975e-03, -1.209209461375137e-09, 6.515384608794372e-10, -3.373016935191817e-09, 3.137294866902102e+03, 2.657329588806813e+03, 3.164187484297022e+01, 3.948504738623415e+03, -3.619007829837240e+01, 1.189696335654140e+02, 1.152030731792381e+03
8193, 4.965087864090305e-01, 4.794449374010816e-01, 3.852342903406613e-02, -9.028794019400908e-10, 5.466336196886705e-10, -1.738507070007315e-09, 4.201920246424425e+03, 4.151004022098115e+03, -2.489756419028254e+01, 7.514070403942001e+03, 7.283671325808336e+02, -4.705622467556606e+02, 3.660502082783323e+03
8194, 7.328959398441854e-01, 1.318061192058055e+00, 5.610273907846252e-03, -2.512123406105304e-10, 1.098245432394598e-09, -3.388536000169696e-09, 5.671447395479877e+03, 5.829145195184949e+03, 2.611731323944960e+02, 1.176866970659971e+04, 4.497122906293399e+02, -1.527409421103663e+03, 6.636999791455868e+03
8195, 3.713346146274616e-01, 3.455304155419394e-01, 4.055499570907482e-02, -1.023975948796777e-09, 4.990474656407093e-10, -2.200411320737121e-09, 4.977405769305132e+03, 5.180415502671120e+03, 9.221622070571655e+01, 9.764433449104947e+03, 8.867557141778731e+02, -3.888441583175203e+02, 4.982283780402037e+03
8196, 5.260139071014160e-01, 3.595733339404358e-01, 4.123662629492295e-02, -8.660405158185046e-10, 3.216662996953848e-10, -1.370476872154557e-09, 3.338428541561924e+03, 3.268012837428944e+03, -3.643002161246635e+01, 5.930026957426428e+03, 8.449927627642712e+02, -2.399205635290708e+02, 3.036862743851182e+03
8197, 8.860872687622116e-01, 6.779258340666744e-01, 1.017465881606907e-02, -4.928419842053285e-10, 1.906840115940071e-12, 2.981144875695984e-10, -3.039189639282491e+02, -3.617223320842172e+02, -5.217372083138971e+01, -1.019108296558986e+03, 4.750910061435886e+02, 1.494894499259902e+02, 1.107175970337588e+03
8198, 6.969646067399138e-01, 4.213309237524191e-01, 2.930343875549321e-02, -6.685981835444524e-10, 2.190057525719538e-10, -5.250932236305211e-10, 1.552677301545199e+03, 1.430875675964451e+03, 2.626668831165416e+01, 2.565851027874712e+03, 6.548528518159317e+02, -2.475105883158382e+02, 1.623919304000510e+03
8199, 4.675165377725344e-01, 1.216228949151430e-01, 2.200755339029832e-02, -8.915926026475779e-10, 7.273875825074996e-10, -2.532666516727474e-09, 3.010973804280557e+03, 2.931979231032150e+03, -2.372784913377206e+02, 5.463197941854522e+03, 2.823038098246888e+02, -1.331481809472986e+02, 2.583511301989603e+03
8200, 5.164022233778449e-01, 2.510808231117769e-01, 4.397011278337197e-02, -7.234946131650046e-10, 3.323986312514432e-10, -1.260557185583129e-09, 3.099979902225863e+03, 2.957773643528913e+03, -2.115006016055386e+01, 5.599581472287521e+03, 6.755033077944212e+02, -2.803670157537941e+02, 2.868756305231388e+03
8201, 6.950171279854792e-01, 4.196970521740438e-01, 5.104296124901625e-04, -7.253098024637381e-10, 3.185217566875026e-10, -1.196526850573254e-09, 1.561794003639331e+03, 1.517788304691488e+03, -1.519428167236202e+01, 2.808964158390394e+03, -3.693402364382536e+01, -2.762339132811715e+02, 1.358658522308848e+03
8202, 8.052114920907109e-01, 1.101267811804441e+00, 1.836419657902547e-02, -6.500372029707259e-10, 3.064356272937851e-10, -1.409578343064017e-09, 3.205670696939276e+03, 2.883573234301519e+03, -1.661583896647986e+02, 5.671830980506279e+03, 4.600895440177653e+02, -2.987236860713830e+02, 2.822342610004595e+03
8203, 5.214400722458636e-01, 2.007201063963714e-01, 4.436074349072266e-02, -7.254596578252705e-10, 3.515718839429290e-10, -1.106033762762083e-09, 2.870901465982646e+03, 2.793344916194872e+03, -5.527534692157563e+01, 4.957164918284148e+03, 7.553897198030558e+02, -3.400651335911140e+02, 2.566759332245652e+03
8204, 9.400263462279850e-01, 1.258184481411766e+00, 9.682584950246553e-03, -5.419764951206387e-10, 7.567459725890026e-11, -7.033482421621805e-10, 1.726238979816102e+03, 1.604633155881361e+03, 1.823364820041978e+01, 2.846373407126053e+03, 8.488426058202757e+02, 9.419379542466621e+01, 1.896027452609114e+03
8205, 7.068555657758282e-01, 5.202408836231203e-01, 2.916283264845345e-02, -6.824673617404722e-10, 2.643790470983921e-10, -5.537686162682224e-10, 1.610394249796681e+03, 1.611570350892085e+03, -7.138639733255096e+01, 2.681031254794647e+03, 6.752412106023141e+02, -2.793596375842704e+02, 1.662008229318822e+03
8206, 5.695414299606607e-01, 8.620218431543898e-02, 4.246049020954164e-02, -4.358300313802467e-10, 3.466838797215557e-10, -7.298535169772864e-10, 2.002315077791318e+03, 1.793932262011523e+03, -1.120280451893988e+02, 3.414036694900566e+03, 4.878289491207540e+02, -4.225141195031347e+02, 1.902024313951448e+03
8207, 2.225631584928703e-01, 2.478115030835598e-02, 4.695126179776147e-02, -2.299618985421408e-10, 8.056774378340810e-10, -1.047256585977517e-09, 2.775317940056861e+03, 3.762343471746944e+03, -1.069558586918639e+02, 4.534147424229746e+03, 1.236145504143070e+02, -1.221244763613085e+03, 2.624150834868508e+03
8208, 4.362633731033975e-01, 2.642904078644646e-02, 2.050702126307734e-02, -3.169731072669991e-10, 6.581522107654939e-10, -1.182946428308782e-09, 2.183303413341994e+03, 3.107746041654440e+03, -3.413223850766552e+02, 2.856774177759854e+03, 4.485469920876706e+01, -1.103212707435919e+03, 2.166182249338132e+03
8209, 4.124335818839494e-01, 8.503923730121955e-02, 1.714868800099499e-02, -9.546283458819948e-10, 9.093411434072415e-10, -3.083804079873578e-09, 3.503673146310242e+03, 3.045174050212352e+03, -2.283506332709115e+02, 6.197418580472155e+03, 6.087327222344392e+02, -2.003566753752498e+02, 3.176490632833125e+03
8210, 5.102718586766312e-01, 4.222408556645012e-01, 4.109323972304055e-02, -8.552140708501430e-10, 4.075577571458909e-10, -1.423129518166071e-09, 3.793736238599274e+03, 3.722147450806463e+03, -4.877048034405078e+01, 6.428556759709434e+03, 7.967601743707736e+02, -3.882700239344476e+02, 3.082191522320755e+03
8211, 1.722811742280721e-01, 1.794756325044322e-01, 2.397045381112667e-02, 1.968174716245900e-10, 2.158708950378536e-10, -2.206288607430114e-09, 4.337509692773067e+03, 4.826469305010322e+03, 3.014053951100756e+02, 9.493385224233585e+03, -1.044726325611371e+03, 1.140097602382881e+02, 5.280815154583189e+03
8212, 1.828093458947365e-01, 5.890011513920274e-02, 3.912642754606664e-02, -2.361976418548691e-10, 1.081756729183410e-09, -2.182788214865240e-09, 4.001241094441993e+03, 4.172295587508816e+03, 1.160898426614793e+02, 8.836083342803126e+03, 2.827714863195287e+01, -1.257507552062315e+03, 5.231132075648410e+03
8213, 4.661721979058306e-01, 1.571672360316910e-01, 1.678739374507969e-02, -1.130319478440673e-09, 6.724928282498904e-10, -2.874203097953751e-09, 3.325145926293273e+03, 3.051139042665596e+03, -1.843187363645557e+02, 5.787005080968434e+03, 2.744544337732473e+02, -1.799853891449667e+02, 2.689884150652500e+03
8214, 3.974434590021830e-01, 3.282503332025411e-01, 1.245443272210708e-02, -1.704653781759582e-09, 8.554479549739255e-10, -4.397912195183223e-09, 5.250886847181016e+03, 5.257628309179675e+03, 4.675584197179283e-01, 9.262573296425760e+03, 3.880173653493176e+02, -1.993947741585912e+02, 4.078918593668111e+03
8215, 9.148487347010439e-02, 1.104557841817358e-01, 3.765158435944008e-03, 3.189471432761075e-10, -6.332942275305727e-11, -9.270819292196510e-10, 2.177886398879129e+03, 2.244235721734748e+03, -6.694098357581194e+01, 3.663985068198874e+03, -3.277542064730651e+02, 2.061634205551270e+02, 1.605463067325108e+03
8216, 6.899527457084281e-01, 4.483694019299601e-01, 3.162055726008284e-02, -6.006237647561600e-10, 1.656316252048591e-10, -6.519152206220945e-10, 1.665097165527643e+03, 1.614592701060132e+03, -1.220159897014151e+01, 2.905356162702962e+03, 6.316888857275609e+02, -1.623262410928118e+02, 1.697062257316525e+03
8217, 8.925695798470625e-01, 7.566428187404214e-01, 1.107679051170734e-02, -4.233154076333668e-10, 1.067414638477245e-10, 1.195958827658832e-10, 2.865286240058137e+01, -1.212877232568929e+02, -3.486357393497688e+01, -4.459585668251289e+02, 3.822097348903078e+02, -4.335179010099426e+01, 7.900076304272908e+02
8218, 2.045855346807551e-01, 1.365092730222805e-01, 3.486133386110177e-02, -4.092943771246212e-10, 4.552703973951655e-10, -2.781798629804073e-09, 5.099273042593259e+03, 5.197816739459666e+03, 3.367415376496944e+02, 1.110507728696279e+04, 1.699909382885014e+00, -4.810247230147441e+01, 5.986208827890930e+03
8219, 7.186298862810575e-01, 1.094494626785859e+00, 2.041846127738023e-02, -1.051191900717158e-09, 4.762943827271818e-10, -1.807219510406300e-09, 4.047329283641642e+03, 4.193023214425371e+03, 8.439152288997073e+01, 7.608167965115284e+03, 1.072885446985289e+03, -4.973375510822527e+02, 4.049525343317477e+03
8220, 6.662172689154852e-01, 2.240569143103145e-01, -9.432135776938494e-06, -8.358165751995559e-10, 2.729014330490071e-10, -9.236109062089250e-10, 1.096568075094802e+03, 1.186766921379204e+03, -8.081614832244099e+01, 1.564296334812354e+03, 2.647451444522972e+02, 4.853223926096131e+00, 6.439343078125057e+02
8221, 4.616495548039175e-01, 4.263463559816808e-01, 4.001508675214371e-02, -1.023945588049636e-09, 4.634505343621673e-10, -1.783542818111334e-09, 4.287350917586699e+03, 4.261199047902129e+03, 4.067662339940163e+01, 7.747763136607728e+03, 9.805181310030732e+02, -4.075774370648313e+02, 3.931056114533166e+03
8222, 5.591241516306655e-01, 1.046718662096295e-01, -5.920050939205408e-03, -9.295491819595055e-10, 5.920857122854637e-10, -2.377819929081947e-09, 2.214054205128425e+03, 1.969245822252316e+03, -6.581771406467907e+01, 3.915409834351944e+03, 5.127971121404214e+02, -6.055345345889039e+02, 2.296288964515684e+03
8223, 3.958373698891502e-01, 1.332772428202912e-01, 1.760816877189966e-02, -1.253542373766254e-09, 9.132408978655223e-10, -3.604698316160385e-09, 3.685511235399343e+03, 3.631084943857873e+03, -1.352053017500296e+02, 6.906827223373711e+03, 5.986967437157208e+02, -2.974895550494507e+02, 3.456995530581557e+03
8224, 6.582211985063354e-01, 5.079645393345328e-01, -1.630205212709391e-03, -8.951120565224091e-10, 2.737669706079940e-10, -1.450203900210740e-09, 2.086059914682447e+03, 1.752075786283473e+03, -1.681295069925143e+02, 2.932041938732155e+03, -5.064072602228576e+01, -6.384569495588711e+01, 1.102043743703096e+03
8225, 9.433173667933652e-01, 1.308347818429999e+00, 9.296952865585441e-03, -2.604625356036746e-10, 1.852300384599262e-10, -6.662545102260013e-10, 1.783967336396514e+03, 1.791794013001098e+03, -5.406272968048794e+01, 3.088500913288133e+03, -2.091866179328629e+01, -9.581038182928998e+01, 1.315020510460642e+03
8226, 4.554257665159695e-01, 4.749541862618623e-01, -8.795939029633805e-03, -1.451869234309443e-09, 1.188357363186044e-09, -5.059114521717251e-09, 5.139595546000230e+03, 4.720195454237463e+03, -9.105645570012661e+01, 8.175482692573114e+03, -3.428905902538072e+02, 3.867107911429092e+02, 3.389983770541989e+03
8227, 3.173640792849311e-01, 1.283399421046911e-01, 1.151388069385095e-02, -1.558867813176876e-09, 1.074959807099451e-09, -5.049505186924998e-09, 4.815946170950069e+03, 4.541128219945414e+03, -3.694756435202734e+02, 8.594022432191308e+03, 4.783736216672859e+02, 1.267295437273593e+02, 4.065945175447899e+03
8228, 2.761199699585642e-01, 2.146424414149100e-01, 1.745773839272667e-02, -1.373039664469679e-09, 9.026211264461150e-10, -4.677390834579064e-09, 4.966422989492070e+03, 5.371224295074840e+03, 1.589115637196854e+02, 1.075856706516465e+04, 6.384922982301553e+02, -1.377848712699118e+02, 5.720477210740068e+03
8229, 6.950212004824607e-01, 2.545065151947400e-01, 1.699465152309829e-03, -7.904110897504913e-10, 1.856623844724703e-10, -5.961668663560004e-10, 1.033073275718906e+03, 8.207669057455661e+02, -1.015371207691381e+02, 1.292225666069098e+03, 3.735463346012205e+02, -6.290787563086201e+01, 7.928844902216731e+02
8230, 4.692128833022954e-01, 4.913620064192167e-01, 3.872306114492632e-02, -9.527276524438565e-10, 5.811572515188450e-10, -1.790829963066091e-09, 4.599695598784744e+03, 4.614191679856205e+03, -4.257254165023609e+01, 8.121479305933276e+03, 9.271849405826066e+02, -5.606292623311299e+02, 3.984907410411357e+03
8231, 8.785647198568771e-01, 5.958673329191954e-01, 1.056190371680290e-02, -3.901565379235280e-10, 1.055060671660921e-10, 2.554799614489752e-10, -2.617547126394352e+02, -5.127311266005655e+02, -3.004856392711485e+01, -9.868772051444934e+02, 1.968483951555185e+02, -1.231908336124235e+02, 7.558357703341297e+02
8232, 2.869692680600894e-01, 1.012040864981930e-01, -1.488225944464798e-02, -1.336038296611887e-09, 1.366733965660323e-09, -7.003181366191739e-09, 4.315451344907815e+03, 5.462177257429159e+03, -5.679634338261844e+02, 7.081190905992263e+03, 2.690177942548320e+02, -5.540243068945051e+02, 2.810416040637483e+03
8233, 3.159231418799431e-01, 2.949711145113776e-01, 3.902127433904155e-02, -9.211273894751872e-10, 5.754188309347930e-10, -2.544634127876474e-09, 5.353177805731218e+03, 5.448529760228129e+03, 7.884284772194124e+01, 1.120230073392780e+04, 7.607563107645391e+02, -4.489248909564164e+02, 6.001925147089113e+03
8234, 5.081338656934430e-01, 5.153368608066693e-01, -7.457686494771260e-03, -1.293961374521924e-09, 4.205017222373075e-10, -5.374125515086414e-09, 4.919251902410941e+03, 4.352267054236707e+03, -2.479133300052687e+02, 8.792107342220219e+03, -6.208387166576805e+02, 1.282408214129279e+03, 4.877576150727491e+03
8235, 4.692078101053275e-01, 8.020639192014486e-02, 4.890043733100782e-02, -4.703566816964631e-10, 5.338057112562713e-10, -1.112528893118313e-09, 2.684381400313014e+03, 2.529963387339053e+03, -1.529673749785946e+02, 5.001592435533134e+03, 4.866134153905140e+02, -5.408670641258396e+02, 2.722006148575469e+03
8236, 3.649080767167574e-01, 1.429659873392792e-01, 2.036075424635132e-02, -1.343607396266999e-09, 9.248235270175428e-10, -3.904131496502271e-09, 4.423420417458011e+03, 4.223647083322751e+03, -6.749372133901520e+01, 7.959466792974951e+03, 5.257221385471305e+02, -1.951854424178265e+02, 3.769224151979254e+03
8237, 4.293482701553877e-01, 4.219135932503548e-01, -1.079926112093940e-02, -2.215528893915171e-09, 1.508203954426566e-09, -6.111771778620533e-09, 5.489234314470724e+03, 5.527499570307047e+03, -4.229195576860231e+01, 1.000129441051604e+04, 6.450100964586951e+02, -1.704860731671516e+03, 5.491869049017871e+03
8238, 6.193603719549644e-01, 3.517279673189257e-01, -3.163213257319161e-03, -1.007500512270286e-09, 3.980806574641166e-10, -1.610922164250667e-09, 1.792483538320246e+03, 1.543059569565040e+03, -5.181748184759198e+01, 2.230387504471902e+03, 1.210972639592120e+02, -1.188298019945580e+02, 6.764660425687574e+02
8239, 5.556414285039921e-01, 9.955749639227366e-01, 4.835340348122923e-03, 2.992303546389822e-10, 3.523909528921201e-12, -1.919738118618253e-09, 3.651259438182402e+03, 3.949992053668592e+03, 1.716599029998538e+02, 7.706073250400867e+03, -8.075870257667573e+02, 3.222581579034001e+01, 4.167440267231616e+03
8240, 5.667569541004763e-01, 7.602837202767613e-01, -5.095447165448845e-03, -1.902840776920645e-09, 6.100491025214197e-10, -4.570220702584711e-09, 4.593097038553328e+03, 5.520062112982079e+03, -1.811339191883272e+02, 8.577038498701437e+03, 1.615091586029343e+03, 2.162140636806274e+02, 4.593725695206620e+03
8241, 3.547737966207079e-01, 2.727706392680251e-01, 2.262293500293613e-02, -1.365306679350388e-09, 9.571467957106795e-10, -4.168954685848930e-09, 4.998364408267748e+03, 4.948972131970738e+03, -9.763848235653043e+01, 9.816750595801368e+03, 4.306178086411522e+02, -5.322371319601465e+02, 4.989188322365853e+03
8242, 6.767584709165203e-01, 7.023204063078098e-02, 3.543762890395173e-03, -3.998661045113196e-10, 1.557038443586751e-10, -8.941381741695757e-10, 1.040982475498262e+03, 1.014107322390958e+03, -1.755500632338767e+02, 1.875115108174469e+03, -2.806586220191943e+01, -2.551719172736088e+01, 9.031538618383198e+02
8243, 3.333898258440902e-01, 3.379312083551213e-01, 3.722712945846859e-02, -9.711152829600674e-10, 4.762133062430208e-10, -2.474388353263205e-09, 5.300253138328212e+03, 5.516309478637971e+03, 1.755047658714512e+02, 1.082082937767219e+04, 8.175743308982987e+02, -2.854811790381094e+02, 5.627865891867083e+03
8244, 3.657394049363837e-01, 3.935857084240492e-01, -1.091648282268516e-02, -2.463135458642251e-09, 2.270574553001811e-09, -8.806050046146758e-09, 7.120385746733510e+03, 7.326604256059232e+03, -1.975879824575238e+02, 1.391563090798465e+04, 1.850370731885037e+03, -2.483349065340622e+03, 8.585242213071748e+03
8245, 8.372778368553830e-01, 2.963096634638949e-01, 1.013730917433603e-02, -4.750102265496615e-10, 6.672620230008585e-11, 3.496428169285526e-10, -5.758909387845890e+02, -6.343402813325447e+02, 1.590789915360471e+00, -1.391693238241509e+03, 3.353069284727708e+02, 1.379085055600871e+01, 9.793553863391418e+02
8246, 8.428109737769547e-01, 8.609219167137400e-01, 6.473477481885658e-03, -6.900944591039389e-10, 2.543517694699178e-10, -5.011702123498137e-10, 1.306901027189200e+03, 1.076626151575714e+03, -8.395695109848465e+01, 2.150597250711258e+03, 5.399304591665588e+02, -2.462415289370647e+02, 1.427150153870216e+03
8247, 1.676591911825630e-01, 2.581999379747589e-01, -3.970398445310441e-06, 2.980306342486951e-10, 1.768732719914083e-10, -2.083737846455996e-09, 2.233867260793835e+03, 2.817753836341989e+03, 3.997804764228631e+02, 6.183952804580812e+03, -1.303090703369037e+03, -3.264467179405429e+02, 4.419390141821124e+03
8248, 4.352541476540366e-01, 1.382367344537980e-01, 1.300804424531420e-02, -1.300135582077737e-09, 8.107695648705626e-10, -3.298768012141120e-09, 3.848364232785356e+03, 3.671642343724909e+03, -2.465585072230873e+02, 6.031638246348242e+03, 4.601668519060340e+02, -3.057073040462143e+02, 2.506342575718387e+03
8249, 5.195625480671463e-01, 4.121127730285125e-01, -7.328775635725811e-03, -9.435385609781430e-10, 6.847774961486474e-10, -3.708617340442223e-09, 3.493783096731337e+03, 3.357005049583192e+03, -2.125237586030403e+02, 6.071156231724957e+03, -6.814646180075215e+02, 5.080628924644078e+02, 3.052401252152742e+03
8250, 6.597486265094696e-01, 7.457552746201167e-01, 3.131565068614674e-02, -8.434798587588717e-10, 3.056234276482103e-10, -1.154754718015267e-09, 3.170745796316635e+03, 3.056928553757861e+03, -4.537934635323831e+01, 5.270010056750897e+03, 8.817291679974979e+02, -1.984478504517942e+02, 2.667481724348067e+03
8251, 6.752577916730470e-01, 6.475597333557943e-01, -1.178057607163472e-03, -7.952450139826922e-10, 3.093280204335391e-10, -1.747888428766870e-09, 2.288072823454402e+03, 2.511841608623668e+03, -2.031595822316802e+02, 4.120275388702672e+03, 7.196189662572282e+01, 3.040820930341575e+02, 1.847648158139563e+03
8252, 4.927251954170758e-01, 5.532832239752475e-02, -9.067609312114772e-03, -5.755801358120105e-10, 4.231127863611693e-10, -3.596158404033555e-09, 3.039102021437603e+03, 3.203345196089346e+03, -2.874670515717766e+02, 6.597938531427581e+03, 4.468055941989672e+02, -4.671057508163670e+02, 3.689059433021892e+03
8253, 6.406611427881167e-01, 9.642721847972150e-01, 2.392885892586807e-02, -1.098180547316695e-09, 5.938625850940679e-10, -2.209673157847708e-09, 4.901736733631828e+03, 4.910821015873831e+03, 1.749247954920513e+02, 9.201908179976072e+03, 9.854619510174647e+02, -4.358868301857741e+02, 4.693366257832650e+03
8254, 4.404250235148603e-01, 6.493303308096868e-01, 2.500399638394606e-02, -6.854910892479477e-10, 9.978603227690619e-11, -2.886902138167473e-09, 5.522750015757978e+03, 5.750099282477707e+03, 5.383321514279895e+02, 1.233005235163461e+04, 3.874191658307475e+02, 2.488187128887328e+02, 6.807997883981859e+03
8255, 3.528812757200465e-01, 2.118766454762860e-01, 1.823969282464434e-02, -1.440036039102428e-09, 9.928848575860834e-10, -4.050505715873230e-09, 4.779223691644223e+03, 4.782846773943946e+03, -6.544320955280760e+01, 8.600215352280962e+03, 4.363167694386197e+02, -4.092542972680608e+02, 3.958860856425080e+03
8256, 1.866995918269570e-01, 2.228004390534924e-01, 2.138581624031744e-02, 2.261820057933214e-10, 1.597693021420884e-10, -2.589604088445796e-09, 4.399510670807968e+03, 5.112763568749473e+03, 1.976968955634817e+02, 1.050357033128060e+04, -1.312351603961457e+03, 2.047164094639131e+02, 6.230916032391194e+03
8257, 5.511994087350107e-01, 6.286970636273786e-01, 3.493609420936278e-02, -1.041165213087861e-09, 4.721341496712063e-10, -1.739879867514783e-09, 4.157467037079161e+03, 4.035365401199329e+03, 1.309701380513203e+01, 7.622346602382157e+03, 1.024041991269788e+03, -4.610617556511812e+02, 4.028349674137607e+03
8258, 3.110707904013117e-01, 8.425137942754840e-02, 2.389559019493817e-02, -9.934105062941787e-10, 1.365786107978966e-09, -3.789656055599501e-09, 4.381305123340962e+03, 4.049198741338805e+03, -2.105273884289804e+02, 8.047803374042009e+03, 3.494433123490375e+02, -7.591189500653016e+02, 4.123015099479418e+03
8259, 5.068064645307584e-01, 6.700108460793928e-01, -5.794383235443935e-03, -1.449436318489169e-09, 6.981772705713130e-10, -5.021063456540407e-09, 4.884732835062036e+03, 4.735288425478682e+03, -3.765177826929087e+02, 8.594390464345199e+03, -2.722637214706793e+01, 2.791399041825640e+02, 3.872926407590658e+03
8260, 3.533256598642905e-01, 2.496633323773519e-02, -1.436258442982761e-02, -5.909945917400461e-10, 9.910936431176229e-10, -1.929628233311486e-09, 2.562896359885551e+03, 3.310623111597267e+03, -3.981790155259883e+02, 3.886313341990904e+03, 4.169627195302879e+02, -2.246275914719406e+03, 4.177972389970519e+03
8261, 3.369010105521975e-01, 5.887623810452955e-01, 3.711732199209481e-03, 5.709800584338953e-10, -2.625390254202718e-10, -1.569236534575173e-09, 3.545297528053303e+03, 2.963457041267382e+03, 1.190190296590077e+02, 5.945548999496248e+03, -8.369620115906843e+02, 7.430507649944402e+02, 3.361055651972672e+03
8262, 9.039982703224334e-01, 8.403326487472141e-01, 1.012016293676925e-02, -4.129860699332819e-10, 8.485889538279826e-11, 6.551195995670822e-11, 1.520621412753046e+02, -1.594045577942910e+01, -5.497661128113123e+01, -1.575197595888899e+02, 4.603430149288512e+02, -6.896191130936980e+01, 8.550654102424240e+02
8263, 6.423722754378381e-01, 9.289262071782688e-01, -2.414347183635054e-03, -1.611176697263032e-09, 6.445735538357733e-10, -3.233637382261191e-09, 4.051159490273109e+03, 4.248584976936291e+03, -4.929510245698834e+01, 6.924245300245133e+03, 1.055926042941583e+03, 1.293833638216315e+02, 3.335989829174383e+03
8264, 1.253212797010080e-01, 1.818948731347934e-01, 3.506432028464500e-03, -2.743251429197066e-12, 3.313061219613188e-10, -1.876351699444959e-09, 3.183546599875782e+03, 3.267460577530528e+03, 2.942872826925822e+02, 6.523459027383759e+03, -3.400106771084126e+00, -2.674417497861386e+02, 3.369898545547817e+03
8265, 1.531308146889487e-01, 5.337916949630512e-02, 3.540507944249568e-02, 1.017942969336227e-10, 1.099951160600998e-09, -2.128704330361570e-09, 3.835071296866424e+03, 4.052935669663705e+03, 2.454872572353567e+02, 8.932626274191955e+03, -5.017471327420504e+02, -1.296020451694942e+03, 5.558507496039747e+03
8266, 3.965806798305034e-01, 5.593154065217828e-01, -6.650600963832447e-03, -2.168347008696286e-09, 2.331100084218123e-09, -8.997934681874447e-09, 7.363987037867997e+03, 6.962902270265774e+03, -7.540708136796904e+01, 1.574689917345153e+04, 2.573796047828880e+03, -3.557508605158315e+03, 1.147407001146467e+04
8267, 5.349392707122310e-01, 6.192460828433795e-01, -7.700001221691354e-03, -1.452699562053175e-09, 9.204620858620800e-10, -4.539858297085200e-09, 4.211382536817643e+03, 3.369872404255795e+03, -8.617339671694933e+02, 5.512874381304107e+03, 2.192505772639686e+02, -1.568483531677182e+02, 2.437829332446809e+03
8268, 6.213639644598271e-01, 2.562126160039112e-01, 3.658843344771547e-02, -6.719444078787958e-10, 1.536078333105272e-10, -6.944449634436326e-10, 1.982811511014121e+03, 1.805997545479497e+03, -3.689992126784474e+01, 3.224457403617403e+03, 7.138557653984000e+02, -1.321776447057947e+02, 1.837867187343493e+03
8269, 8.904821172203903e-01, 1.560652914563514e+00, 7.316291577195877e-03, -8.045962302093480e-10, 2.108184268018320e-09, -3.203316699732407e-09, 7.092095574183839e+03, 8.626935811727761e+03, -7.081548609316887e+02, 1.429205919702637e+04, 9.387452820255317e+02, -1.797776816277941e+03, 7.549079369436178e+03
8270, 5.578528077740567e-01, 2.635605752581753e-01, -5.751068509667209e-03, -1.275813583531166e-09, 5.312014662367347e-10, -3.671369564694594e-09, 3.364003925535935e+03, 3.218713961406537e+03, -6.429019250266782e+01, 6.674533254305729e+03, 6.425454486236036e+02, -8.151825211972262e+01, 3.568281045718059e+03
8271, 6.824049075510060e-01, 1.061940949568298e-01, 2.760968078671412e-03, -6.699344104069625e-10, 1.851297217242370e-10, -5.580501167713023e-10, 9.177988498768956e+02, 8.752143275621197e+02, -1.357651110058212e+02, 1.540338019431029e+03, 3.677125106994080e+02, -1.006162597476098e+02, 9.524619967107762e+02
8272, 6.982640040325607e-01, 2.298687004523281e-01, 2.965358052445466e-02, -5.700839973524753e-10, 9.176309036401708e-11, -2.696879405635208e-10, 1.055015038679263e+03, 9.193070106177088e+02, -3.797588340060248e+01, 1.436712040370621e+03, 5.574283872353046e+02, -9.645312466804513e+01, 1.086427152191616e+03
8273, 1.884221087217863e-01, 2.188747049854525e-01, -7.973355435534086e-03, -3.725585095536344e-10, 7.304189942664906e-10, -6.851506179773305e-09, 5.397201773712184e+03, 6.546073375027730e+03, 9.028790023361653e+02, 1.439566118236666e+04, -1.623440057993161e+03, 3.920308443728753e+02, 9.097659705023383e+03
8274, 6.651611293815759e-01, 8.621514342992934e-01, 2.868218683911553e-02, -8.667619978082012e-10, 4.699193373630981e-10, -1.512182481908687e-09, 3.963507896433876e+03, 3.673389657679412e+03, -2.303004567911998e+01, 7.020430878321732e+03, 8.853670037457699e+02, -4.913522849323821e+02, 3.659687468605418e+03
8275, 7.407328093353303e-01, 9.063040008056257e-01, 1.141998282163010e-03, -9.769328287781689e-10, 3.822609273816215e-10, -1.540333262622407e-09, 2.571528233298106e+03, 2.432137549164222e+03, 2.987736780697285e+01, 3.495982521362976e+03, 4.550906732023998e+02, -1.606740119134743e+02, 1.305509386159470e+03
8276, 3.825076451807715e-01, 1.844322614538975e-01, -1.191896556518497e-02, -1.432000884837185e-09, 6.378467800578384e-10, -5.652390591078140e-09, 3.625029465838230e+03, 4.364349389315444e+03, -1.853565764150035e+02, 7.511003413621396e+03, 1.891886505222322e+02, 7.737073083460903e+02, 3.844571071663905e+03
8277, 8.591239187461399e-01, 3.989412305781441e-01, 1.031562096058303e-02, -3.942400521868839e-10, 7.603309225026580e-11, 2.637659938550699e-10, -3.224473432448668e+02, -5.099514241070259e+02, -6.640798617271820e+01, -1.111183913743367e+03, 2.962194500809517e+02, -9.318742406037639e+01, 9.010502039278183e+02
8278, 5.625160244458700e-01, 2.858963093845542e-01, 4.074044895950019e-02, -7.709645690721132e-10, 2.163118596226806e-10, -1.059669910586501e-09, 2.658295148021749e+03, 2.622529618717479e+03, -9.043611990641148e+01, 4.775770052394983e+03, 8.701664447614322e+02, -1.693961828513128e+02, 2.634938700404905e+03
8279, 5.463318965973700e-01, 3.764573672896687e-01, -7.441926959898672e-03, -1.427950520865087e-09, 3.235508821333019e-10, -3.916815042083643e-09, 3.601988040793896e+03, 3.574736773900298e+03, -1.620282224097904e+02, 6.701877076722413e+03, 6.813227313986069e+02, 5.773617831148730e+02, 3.487969593246725e+03
8280, 8.338764824170906e-01, 2.213467827548619e-01, 9.885737842299409e-03, -4.170889853745439e-10, 1.052128271665421e-10, 3.504375340710059e-10, -5.950673812890467e+02, -7.823590945450372e+02, 2.278396254361041e-01, -1.637686329293566e+03, 2.311518834347285e+02, -2.520162942645579e+02, 1.130349034878591e+03
8281, 2.207248710959753e-01, 5.986254763769151e-02, 1.201272835694317e-02, -8.330458286319278e-10, 1.751997579106593e-09, -4.375296689466749e-09, 4.294078478273462e+03, 4.424545180129655e+03, -2.097148917056296e+02, 8.844745250667800e+03, 5.663418867373020e+02, -1.364263723834153e+03, 5.177808038018075e+03
8282, 6.227409597956474e-01, 5.962636078427602e-01, 3.384207181079785e-02, -8.978666140680378e-10, 2.978184929390975e-10, -1.111584472486368e-09, 3.024034880609139e+03, 2.819922892740789e+03, -3.032878791478172e+01, 4.943373317995242e+03, 9.012292494716828e+02, -2.297289296131516e+02, 2.591333605387183e+03
8283, 6.571748363114822e-01, 5.710288487602371e-01, 3.305758352442879e-02, -6.965969372902994e-10, 2.746826954786966e-10, -9.187206321784645e-10, 2.615639845285491e+03, 2.317700591726141e+03, -4.198395516834091e+01, 4.248818377777867e+03, 6.510679156424709e+02, -2.275688067466577e+02, 2.162162539202247e+03
8284, 6.473749402181163e-01, 8.864566041174884e-01, -3.440060751523248e-03, -1.176857870256485e-09, 6.184341336391756e-10, -3.492089118755780e-09, 4.550176307352548e+03, 4.645676621420509e+03, -4.052545518955504e+02, 8.171429511143120e+03, -5.334472350590878e+02, 7.478391893215106e+02, 3.975040406108706e+03
8285, 1.825543886082363e-01, 1.787065761334595e-01, -1.065162472205721e-02, -9.478173029248165e-10, 1.405715625803316e-09, -6.443945882179403e-09, 4.950103538322435e+03, 6.641387568812314e+03, -5.694927855490026e+02, 1.177704488610804e+04, -4.421161172604080e+02, -1.302308209501461e+03, 6.675976262592616e+03
8286, 4.292535438432873e-01, 3.697734360163183e-01, -1.076333464290843e-02, -1.249167867565440e-09, 1.388368199524103e-09, -6.358901198987112e-09, 5.214222257393354e+03, 5.285146018900862e+03, -4.307163318436333e+02, 8.747374460733092e+03, -5.299862623759734e+02, -8.456876364382699e+02, 3.972704236841365e+03
8287, 5.540894159134405e-01, 5.087940737858548e-01, 3.867174514595462e-02, -9.143037787376155e-10, 4.350535766051283e-10, -1.432661374595895e-09, 3.482246777353736e+03, 3.478307965432139e+03, -4.682182379824488e+01, 6.391677660160049e+03, 9.617317747286481e+02, -4.332014308240482e+02, 3.438112066997855e+03
8288, 6.586853811014792e-01, 3.505444556957676e-01, -1.096202978441794e-03, -9.269528990009152e-10, 2.628841085481535e-10, -1.367098665352254e-09, 1.609330885121763e+03, 1.732392383151213e+03, -3.761400696360715e+01, 2.694171093454606e+03, 2.319066287535966e+02, 4.494619945065138e+01, 1.109129084113838e+03
8289, 9.216933664614093e-01, 9.768100201045129e-01, 1.010837190826958e-02, -4.147337188370719e-10, 1.083203340364647e-10, -1.167636845311419e-10, 5.470178144793567e+02, 3.870141167733844e+02, -2.346060527900623e+01, 6.303957103214059e+02, 2.910164103356115e+02, -1.179236484131010e+02, 5.859476446368908e+02
8290, 8.821105741565634e-01, 1.430102402951523e+00, 7.659090573525941e-03, -9.502040645279066e-10, 4.919427040602216e-10, -1.319318960195280e-09, 3.906463901447873e+03, 3.755041585745588e+03, -6.776834622968693e+01, 5.710146361293093e+03, 1.187164043079984e+03, -1.848690392491718e+02, 2.809572856383013e+03
8291, 7.684739061255378e-01, 1.035376165712235e+00, 2.176462843014891e-02, -7.055131096336062e-10, 3.025374502479532e-10, -1.096427966699939e-09, 3.121135027880485e+03, 3.211073502499808e+03, -5.272109327309484e+01, 5.285165101860614e+03, 7.190450164597272e+02, -2.253469152089695e+02, 2.491634999577629e+03
8292, 3.846651382926792e-01, 1.033327809807448e-01, 2.599415008031099e-02, -1.125549812878526e-09, 9.493742314706593e-10, -3.149105159036950e-09, 3.693810856147169e+03, 3.432830398490581e+03, -2.109648958810472e+02, 6.951481150249359e+03, 6.518532147207287e+02, -2.645129621504670e+02, 3.626137415011729e+03
8293, 7.238537417516736e-01, 3.400298306881339e-01, 3.167068318549458e-03, -7.634047940099343e-10, 1.733960341671112e-10, -3.048977977613907e-10, 6.389529410448946e+02, 6.621816115320034e+02, -8.112752282185116e+01, 7.491509222178418e+02, 2.941520916282444e+02, -9.097289828050485e+01, 5.606005727470222e+02
8294, 9.392868694824162e-01, 1.547197038633648e+00, 8.219499596410260e-03, -8.988227824038350e-10, 1.152334322279988e-09, -7.986918189754888e-10, 3.521884284211015e+03, 4.004621147688020e+03, -3.082262089671030e+02, 4.804150520755192e+03, 7.199286766093641e+02, -1.252916135530375e+03, 2.794198098468023e+03
8295, 9.159121137917678e-01, 1.023155414642688e+00, 9.201716452390325e-03, -5.095133857255323e-10, 1.274710717926274e-10, -1.952777712191157e-10, 6.656401815029241e+02, 6.242273081489157e+02, -6.243247609198855e+01, 9.806681656400548e+02, 5.148338129540465e+02, -1.212154282608247e+02, 9.823127903675494e+02
8296, 5.785757948381475e-01, 3.205465240769283e-01, -5.475663538776515e-03, -1.222932556911337e-09, 2.625564326365476e-10, -2.275372893942781e-09, 2.402794537320038e+03, 2.461593017950654e+03, -2.420384646427409e+01, 4.400593524382100e+03, 6.215948503353407e+02, 3.145041249265088e+01, 2.245229575514530e+03
8297, 7.423035698158542e-01, 4.905676907992045e-01, 3.228018818243264e-03, -8.090191985826632e-10, 1.982271552419730e-10, -5.787815054437851e-10, 1.070815147666693e+03, 8.668510719922638e+02, -6.839367798913975e+01, 1.243659468840986e+03, 2.897486222647032e+02, -4.232464743342597e+01, 6.148174858870184e+02
8298, 4.227354682621377e-01, 2.932652623480939e-01, 1.361610113189439e-02, -1.771437939378407e-09, 7.744631277158192e-10, -4.046128688419709e-09, 4.641945928933987e+03, 4.252611434933441e+03, -4.958976192343967e+00, 8.141059371073654e+03, 8.793539878406027e+02, -2.863319585357431e+02, 4.040238092512866e+03
8299, 5.501924706171478e-01, 7.174996985592043e-01, -6.561182211190422e-03, -1.457726430365083e-09, 9.680990988102356e-10, -4.011047462089787e-09, 3.655481591965900e+03, 3.773106456700747e+03, -3.066173286141532e+02, 5.679215425757337e+03, 2.230276689833781e+02, -4.068477052894921e+02, 2.190692714255224e+03
8300, 3.873194605392362e-01, 4.481420245885003e-01, -9.934522031380483e-03, -1.884838203525581e-09, 3.685070138232717e-10, -6.128892330921117e-09, 5.123081218069322e+03, 5.299450476920428e+03, 1.406334850457525e+02, 1.002948140637646e+04, 7.449390461619488e+02, 1.243134843948293e+03, 5.440479699254724e+03
8301, 8.593032086556638e-01, 3.575079167944544e-01, 1.010549838959438e-02, -4.417292542937140e-10, 9.966557951184922e-11, 2.753577956138899e-10, -5.775956848188849e+02, -7.356236242660566e+02, 1.662386006538425e+01, -1.386034618080518e+03, 4.110670698924942e+02, -1.579504517567650e+02, 1.064609271666296e+03
8302, 7.558682794439595e-01, 1.368136191715012e+00, 6.287597356482388e-03, 2.144714243507375e-10, 4.231544280211546e-10, -2.129900696408370e-09, 5.349648947770569e+03, 5.263071236220377e+03, 1.602065752617366e+02, 9.362850943325506e+03, -8.638020683786614e+02, 2.926616502907508e+01, 4.333447796795385e+03
8303, 6.709534261529910e-01, 3.155608205241643e-01, 3.236834020559826e-02, -6.611667333072171e-10, 1.708623404892341e-10, -4.806728239364343e-10, 1.471572540321542e+03, 1.401117942627248e+03, -7.022529452421929e+01, 2.324733552633695e+03, 6.335950684008052e+02, -1.756636232638324e+02, 1.450742124862206e+03
8304, 6.166284558390543e-01, 2.380094756884952e-01, -4.061583721580213e-03, -1.002568986194715e-09, 4.725804405572134e-10, -2.252999497681331e-09, 2.146793496314663e+03, 1.921061816351345e+03, -2.624430557447877e-01, 3.942718171742946e+03, 5.103537806196783e+02, -9.001132412468676e+02, 2.625584128767262e+03
8305, 7.366848308944823e-01, 9.470110803136629e-01, 2.585200057718885e-02, -7.104021698192734e-10, 3.846124216557750e-10, -1.072573682593109e-09, 3.347117187689795e+03, 3.027491919388985e+03, -2.389590765723174e+01, 5.411625727109305e+03, 5.759100907483147e+02, -3.013805069736769e+02, 2.508674129561337e+03
8306, 1.498730141269920e-01, 2.459686604489646e-02, -2.581609590592823e-03, -1.172715364788308e-10, 1.178828113340248e-09, -1.961798936832203e-09, 2.891836475549845e+03, 4.973050711296210e+03, 3.220054029530898e+01, 4.040003699790253e+03, 8.982487233877080e+01, -2.809873345727848e+03, 5.193615263218880e+03
8307, 7.208850075703365e-01, 4.019957646264697e-01, 2.967755017838216e-03, -9.157097341603512e-10, 3.019913564254380e-10, -5.587681379308688e-10, 1.136566651633672e+03, 1.007534343583541e+03, -7.032475929091814e+01, 1.787081565357770e+03, 4.183396399432957e+02, -2.335501243885080e+02, 1.107815097565638e+03
8308, 5.121770627196663e-01, 8.155402936385368e-01, 2.021496189539031e-02, -5.302216425092820e-10, 8.988289681280343e-10, -2.624720737135420e-09, 4.886189404068180e+03, 5.654054697891633e+03, 3.972405368916765e+02, 1.125796865432568e+04, 2.272275027749507e+02, -6.949663145406681e+02, 6.194655071820723e+03
8309, 3.084883795381538e-01, 4.445456213585706e-01, -6.779641007833717e-03, -5.725688664402302e-11, 9.649765617337320e-10, -5.593381249740547e-09, 4.813739271657980e+03, 6.200408945171053e+03, 6.935282294867364e+02, 1.231962936936889e+04, -1.278593886082792e+03, -3.327835757574925e+02, 7.384621499297678e+03
8310, 6.149289926470729e-01, 7.618002807927626e-01, -4.686275867992199e-03, -1.191674764574314e-09, 9.065867710422820e-10, -2.971991633931088e-09, 3.527555925173586e+03, 3.558383880910563e+03, -1.632041068548438e+02, 5.527722484090150e+03, 1.238156983855329e+01, -2.546641124447949e+02, 2.053018183533194e+03
8311, 6.181688857979076e-01, 7.311556082330323e-02, 3.726897135845575e-02, -3.906342462554104e-10, 2.935558490771393e-10, -5.638356736017460e-10, 1.398762832910570e+03, 1.381517025737520e+03, -1.564831027068637e+02, 2.582100364344319e+03, 4.361803011814011e+02, -3.349953177093195e+02, 1.549799658158566e+03
8312, 8.619617383485686e-01, 1.538374167054428e+00, 6.022873722195454e-03, -7.230659037596956e-10, 1.516184902807772e-09, -2.613889113279920e-09, 6.039491006645639e+03, 7.801195949565111e+03, 3.870518060885511e+02, 1.187298608028643e+04, 5.043345910686020e+02, -6.731677197180938e+02, 5.424787899265230e+03
8313, 4.501360993505960e-01, 7.197824793839279e-01, -2.347005586893273e-03, -7.585935937616713e-10, 9.764701012244917e-10, -5.756034308901307e-09, 5.823761105587524e+03, 7.145092958320534e+03, 1.631923354449216e+02, 1.321703913371945e+04, -2.812512956122333e+02, -1.879496569980364e+03, 7.586318492537849e+03
8314, 7.855606243461785e-01, 3.753720856924838e-01, 1.900644743322320e-02, -4.977588475669495e-10, 1.021549819135343e-10, 1.241927433849040e-11, 2.859855079593162e+02, 1.688349915593499e+02, -4.863806585213273e+01, 1.168615269967377e+02, 4.355848387801376e+02, -1.019627989515242e+02, 7.937272072374593e+02
8315, 5.245858880993440e-01, 6.957240804794583e-01, 3.042206638405221e-02, -1.066976271214767e-09, 3.729848174783726e-10, -2.122510835900925e-09, 4.864256196493485e+03, 4.868363401143868e+03, 9.687094255554362e+01, 8.986591202700803e+03, 9.316665349468718e+02, -2.007366955759849e+02, 4.441821326599172e+03
8316, 7.637321264211632e-01, 1.248700351185745e-01, 6.003201474978372e-03, -5.564188825311245e-10, 6.775542928815453e-11, 5.145350641034507e-11, 1.133261069070246e+02, 1.220916931517558e+02, -7.777400811278528e+01, 1.893391367690697e+02, 2.997698428670873e+02, -5.844394119155376e+01, 5.506068155403689e+02
8317, 9.083181793569581e-01, 1.515196920615791e+00, 8.520766373889953e-03, -8.730887397541643e-10, 1.059059751341541e-09, -8.787265095343508e-10, 3.387480036608766e+03, 3.816525449530125e+03, -2.160102660213548e+02, 5.191966572983843e+03, 2.727409283403101e+02, -6.389874536139678e+02, 2.062547938808100e+03
8318, 6.754995271106689e-01, 1.097359503760901e-01, 3.174685080485065e-02, -4.918970032834664e-10, 1.298057590255916e-10, -3.256334048866860e-10, 1.125059477271687e+03, 1.030420523419764e+03, -5.757424300405655e+01, 1.766925524846824e+03, 5.509929492827446e+02, -1.368074053578790e+02, 1.207711453619664e+03
8319, 2.850832990099231e-01, 6.203194744787964e-02, 5.029195999000456e-02, -5.344694815082611e-10, 1.028107942667424e-09, -1.589576852654010e-09, 3.736195835919610e+03, 3.772974395575871e+03, -1.178115093085617e+02, 7.083748808180587e+03, 4.653979189886481e+02, -1.048422258445868e+03, 3.882439620655894e+03
8320, 6.931597123831914e-01, 2.284887677406025e-01, 2.134735301095333e-03, -8.001541832144875e-10, 1.831838176363939e-10, -5.367192159351598e-10, 9.375168987670387e+02, 8.052944913620380e+02, -5.620711523122868e+01, 1.112397627778834e+03, 2.672478170413713e+02, -3.204307526409733e+01, 5.459041747078684e+02
8321, 8.243944677712147e-01, 6.454619460699036e-02, 1.067673153736230e-02, -3.385924370513707e-10, 3.766544491810501e-11, 2.335042993032555e-10, -6.543243285557986e+02, -6.245890512260960e+02, -7.205271890527055e+01, -1.359971841059969e+03, 3.350409994399853e+02, -1.579385248622690e+02, 9.731244282370528e+02
8322, 9.599727774349177e-01, 1.446679109598683e+00, 8.612015590017888e-03, -5.031135290125163e-10, -2.482507264107231e-11, -1.078201860406136e-09, 2.761181201953957e+03, 2.692330837577525e+03, -1.931396869233246e+01, 4.876776482041982e+03, 5.217746799156567e+02, 4.548325068022036e+02, 2.462646266398759e+03
8323, 4.817592720116867e-01, 5.687730078839985e-02, 4.699530975026781e-02, -4.250042971717858e-10, 5.921083625476754e-10, -9.715410705402684e-10, 2.205477092242815e+03, 2.261583700291371e+03, -1.677078660376624e+02, 4.212647716485826e+03, 4.018214364477160e+02, -6.372590656241218e+02, 2.388791088879402e+03
8324, 9.552163453432306e-01, 1.338796533703908e+00, 9.324768132856933e-03, -4.321885006683826e-10, 2.557515538872490e-10, -5.840823129052598e-10, 1.431632255970822e+03, 1.475802656999002e+03, -1.862469206729026e+02, 2.497689336693605e+03, 5.248485489706353e+02, -3.678420439978152e+02, 1.558116044253234e+03
8325, 7.732290314799758e-01, 7.156602557223036e-01, 2.411136919543170e-02, -5.998963082820785e-10, 2.085235466608491e-10, -4.962877172747309e-10, 1.647242291121268e+03, 1.484882531309174e+03, -2.337635097041939e+01, 2.411149048246236e+03, 6.378975389025916e+02, -2.306731565531753e+02, 1.454631028826113e+03
8326, 1.786224435143900e-01, 1.095694480189952e-01, 3.596737120617985e-02, -1.912352368485201e-10, 5.116866116139759e-10, -2.673421015898726e-09, 5.040608743840541e+03, 5.153013705110692e+03, 2.638076709900148e+02, 1.175876598538926e+04, -2.952370300132075e+02, -1.966101530002729e+02, 6.706516399982146e+03
8327, 6.787136889044684e-01, 9.453941325866256e-01, 2.735376506015545e-02, -9.030081076212081e-10, 4.623675300045261e-10, -1.609135396810756e-09, 4.320552181902137e+03, 4.315155988947307e+03, -1.067388106427809e+02, 7.613895113460747e+03, 9.441970963292160e+02, -3.606281930093307e+02, 3.736679056286743e+03
8328, 7.408075513745073e-01, 8.346665128033283e-01, 2.727784400205139e-02, -7.192976195472856e-10, 3.570861971084812e-10, -1.049291090342413e-09, 2.623665296959878e+03, 2.520803145787178e+03, -1.102318033648854e+02, 4.699083987516021e+03, 8.138467898158063e+02, -4.334263489259644e+02, 2.668050512542418e+03
8329, 6.978102892803653e-01, 1.271174719660219e-01, 1.356375966233909e-03, -6.154342951487404e-10, 1.180234803703283e-10, -4.730504696825816e-10, 7.146403069312630e+02, 6.169568694111282e+02, -4.506889754555705e+01, 9.751871654098844e+02, 2.571525257984023e+02, -7.207213309511484e+01, 5.682753649931890e+02
8330, 4.369392648705860e-01, 2.179651190732018e-01, 1.439935328638284e-02, -1.558809152963146e-09, 7.170967590821272e-10, -3.255834100104219e-09, 3.952301269549838e+03, 3.582000097803762e+03, -2.797201012014549e+02, 6.333163488868427e+03, 6.986670113894543e+02, -1.300551343464024e+02, 2.904676183694913e+03
8331, 5.979704580973568e-01, 1.824786450877147e-01, 3.913095299598884e-02, -6.011867658859323e-10, 1.832500352470016e-10, -6.769827767486962e-10, 2.010286326720405e+03, 1.927665313084429e+03, -6.067556433355628e+01, 3.239853350600076e+03, 6.596989412046611e+02, -1.771720795254574e+02, 1.740997375254834e+03
8332, 4.461180370370252e-01, 2.695215848515447e-01, 1.809796682938995e-02, -1.530891523623636e-09, 7.041416192666131e-10, -3.095532950723646e-09, 4.032202933327652e+03, 3.780659486107037e+03, -1.073774954172106e+02, 6.600848230124748e+03, 7.191856805128855e+02, -2.724135100784194e+02, 3.019311168030074e+03
8333, 3.081547887286133e-01, 2.287438438284340e-01, -1.384315802165399e-02, -1.316109702410993e-09, 1.602424668394360e-09, -7.180494828944570e-09, 5.572386637963382e+03, 5.520902169144137e+03, 1.175837804420549e+02, 9.784112688842437e+03, -1.024319722433568e+03, -9.300879912857082e+02, 4.872626292759840e+03
8334, 5.825806690540686e-01, 1.466534911031059e-01, 3.990976277644891e-02, -5.864393764736496e-10, 1.878757564499871e-10, -7.813477271243661e-10, 2.085693861267605e+03, 1.933823274351407e+03, -1.033751270628172e+02, 3.582816302576225e+03, 6.298466791937739e+02, -1.105705268198232e+02, 1.936663738507741e+03
8335, 6.847522899070776e-01, 6.097436469996086e-01, -1.375453584227273e-03, -9.134633193843182e-10, 3.724558588622883e-10, -1.621477392538288e-09, 1.774130021034703e+03, 2.097939596985660e+03, -1.044983796268928e+02, 2.744491267556849e+03, 1.952961659007995e+02, -1.275698927094673e+02, 9.634547578025059e+02
8336, 3.331044021029151e-01, 1.429929250657724e-01, -1.514423812811246e-02, -1.388117494691855e-09, 6.871304817240201e-10, -6.334403738978853e-09, 4.648168541607990e+03, 4.842387147654412e+03, -1.532258483476145e+02, 8.732826521169371e+03, -1.985617787784084e+02, 1.198956236077235e+03, 4.519959965290425e+03
8337, 7.065771315562112e-01, 9.308519140531699e-01, -1.511308697901600e-03, -8.367645119314587e-10, 4.998001677146471e-10, -2.916706254287221e-09, 4.036803463798059e+03, 3.872727975393711e+03, -9.052197407602634e+01, 6.924733232125612e+03, -5.670938195239059e+02, 2.620631789835086e+02, 3.168011649763725e+03
8338, 6.950550293403041e-01, 1.583180580921814e-01, 4.536012873212203e-04, -5.748224272589897e-10, 1.385168153796698e-10, -7.607315940174343e-10, 9.808858500958678e+02, 9.018779159337608e+02, -4.155007817553262e+01, 1.588840234496684e+03, 9.537217877640293e+01, 8.618127740859109e+00, 6.757023072101865e+02
8339, 6.896240895383536e-01, 2.585327868139855e-01, 3.179920172048464e-02, -5.582072781561756e-10, 1.209179010034731e-10, -3.188898046869169e-10, 1.168765094275891e+03, 1.021290055760549e+03, -4.556694777721437e+01, 1.667957532949660e+03, 6.015264189224946e+02, -1.246039368649103e+02, 1.217731482452190e+03
8340, 7.305796161529208e-01, 5.513696692096676e-01, 8.137932613827559e-04, -8.700436989864483e-10, 3.157180156832510e-10, -7.992057866785922e-10, 1.351992006198631e+03, 1.065147745351783e+03, -2.973394663775822e+01, 1.769742548193413e+03, 4.036718667408868e+02, -1.171107616688211e+02, 9.535588775700821e+02
8341, 7.168001333133143e-01, 2.856803685516345e-01, 1.092650004693642e-03, -8.179748690361407e-10, 1.814018210636806e-10, -6.063284514476798e-10, 9.523362144374657e+02, 8.444637637028737e+02, -3.903868745267173e+00, 1.651577381708962e+03, 4.236238911380471e+02, -1.682061314149979e+02, 1.095125913282095e+03
8342, 4.403490554226790e-01, 7.941303542456604e-01, 3.802904641434356e-03, 3.504889158197978e-10, 7.302117346209691e-11, -1.549388022476676e-09, 2.758433360854341e+03, 3.858449540601343e+03, 1.328086359353641e+02, 6.267817617245659e+03, -7.517778619262451e+02, 2.593063522739883e+02, 3.408163377408091e+03
8343, 5.449652360900569e-01, 8.524461522421523e-01, -5.302391447783644e-03, -1.764877694106772e-09, 1.533157907310745e-09, -5.785835608108455e-09, 5.009398343281687e+03, 5.460945763213284e+03, -1.163888353898751e+03, 9.286156319179032e+03, 1.496875870328661e+03, -9.534065055196263e+02, 5.484174243767382e+03
8344, 9.577489851878586e-01, 1.527552426105007e+00, 8.483296377316464e-03, -7.302978072970191e-10, 6.485505486135085e-10, -5.820202246180844e-10, 2.946719240802725e+03, 2.724702762812810e+03, -4.020430843453468e+02, 3.529526699111335e+03, 6.392218820823473e+02, -4.385601249659235e+02, 1.675136838421851e+03
8345, 6.514174913204281e-01, 1.007866623823116e+00, -2.251221079794082e-03, -9.798645626488439e-10, 1.157905404960197e-09, -6.271802014896828e-09, 5.957770729879789e+03, 6.617345702185469e+03, -2.515904453010289e+02, 1.611564023788084e+04, -1.576475562032298e+02, -1.738022493232253e+03, 1.030747756047132e+04
8346, 6.983939748812161e-01, 1.265499609102242e-01, 2.824742590760256e-02, -5.005700722195832e-10, 1.098522451137939e-10, -2.570813050102542e-10, 9.234870012046989e+02, 7.985360304479002e+02, -7.728984067258627e+01, 1.346659946035826e+03, 5.090102290046270e+02, -1.348391303291691e+02, 1.047522853161766e+03
8347, 5.542447209063023e-01, 4.684116938502978e-01, 3.985795918711927e-02, -9.080809265767534e-10, 3.960355375833162e-10, -1.300788894280712e-09, 3.331800050325699e+03, 3.379129041338248e+03, -7.485411904779680e+01, 5.974424499629313e+03, 9.696448069566255e+02, -3.732884702251524e+02, 3.180582758400586e+03
8348, 7.442850359009762e-01, 6.815829407977035e-01, 7.571790709182194e-04, -8.163000747061955e-10, 2.366904299111642e-10, -1.226426591209845e-09, 1.588473377527125e+03, 1.630830433616258e+03, -1.175584950599586e+02, 2.755649433741495e+03, 3.080942571530273e+02, 3.049713310624539e+02, 1.385606248609623e+03
8349, 5.683976124442577e-01, 1.920723794859081e-01, 4.146091933099361e-02, -6.481392469085561e-10, 2.380974292949443e-10, -8.064735607822062e-10, 2.291737887227315e+03, 2.205160772152068e+03, -7.801572810819067e+01, 3.827016851432366e+03, 7.230206192572291e+02, -2.502851531590076e+02, 2.066872250800091e+03
8350, 4.835230518561063e-01, 1.984779754556680e-01, 1.841124101098967e-02, -1.149629296985780e-09, 5.548638896388208e-10, -2.765495891184139e-09, 3.401158660729483e+03, 3.259854967258160e+03, -1.600155227734741e+01, 5.968857511460127e+03, 4.915546784160821e+02, -1.223028273322272e+02, 2.783233650365498e+03
8351, 7.206500791064754e-01, 6.042672262672905e-01, -3.977592369524378e-04, -7.519997567271620e-10, 3.910154210274823e-10, -1.365715332067454e-09, 1.911548561089633e+03, 1.904276466376919e+03, 4.247150596525310e+01, 3.494315857796279e+03, -1.184263668295764e+02, -2.485376945984019e+02, 1.658165881033170e+03
8352, 8.364237844049646e-01, 1.476879947080104e-01, 1.013638685218831e-02, -3.578581036762653e-10, 6.295375775586142e-12, 2.036037816438548e-10, -4.578250239065442e+02, -6.851798024366889e+02, -1.999028796812599e+01, -1.044488638340690e+03, 2.200755475894757e+02, 1.657551797978715e+02, 7.010039438969658e+02
8353, 2.133229834692513e-01, 3.555711214570505e-01, 2.977249260128123e-03, -1.670213224251428e-10, 6.168905085424973e-10, -3.500933395885440e-09, 4.950057337929599e+03, 5.132462242008846e+03, -2.858721207452098e+02, 1.070666600918018e+04, -6.218697322131488e+02, -7.338372141737516e+02, 5.928125079732535e+03
8354, 6.739023005277887e-01, 1.039249206557640e+00, -4.757287756037773e-04, -1.875848411378823e-09, -3.628868432235154e-11, -4.511116551558797e-09, 5.467816561667048e+03, 6.322616448008902e+03, 1.406399372959203e+02, 1.082870762149668e+04, 1.319872916535816e+03, 1.430720951709326e+03, 6.026090472329475e+03
8355, 4.107932964453348e-01, 3.256389380292039e-01, 4.285074238417386e-02, -1.077582528414177e-09, 4.612321541582277e-10, -2.000402358495001e-09, 4.536078724163230e+03, 4.537028710675866e+03, 3.464815434522757e+01, 8.487712936425711e+03, 1.001343861950384e+03, -3.373928508311556e+02, 4.354862998024716e+03
8356, 8.835625226023804e-01, 6.521765850901364e-01, 1.019101136663626e-02, -4.447492153122664e-10, 7.487385460766096e-11, 1.621276793974459e-10, -1.092489403946681e+02, -2.405599801089486e+02, -3.691994558952592e+01, -4.250434044747529e+02, 3.347089173008843e+02, -7.004657332629706e+01, 6.560491031116220e+02
8357, 2.588967961645213e-01, 2.248898342590878e-01, -1.408533630159773e-02, -1.736427845982156e-09, 1.102757277209948e-09, -7.574053617828185e-09, 5.979325845834289e+03, 6.978051877811934e+03, -6.856491598417577e+00, 1.117875966879217e+04, 6.391628574296602e+02, 6.626562632689145e+02, 5.038037746471116e+03
8358, 3.418557977034800e-01, 2.457126722489760e-02, 1.865563673813146e-02, -4.727134983079835e-10, 9.484844707951851e-10, -1.401100261607343e-09, 2.811379320054025e+03, 4.213812895192657e+03, -4.155492555538776e+02, 3.769376886189130e+03, 1.456375153774175e+02, -1.503915261415161e+03, 2.984628798917934e+03
8359, 9.688944817883173e-01, 1.476087243512247e+00, 8.471617080368959e-03, -4.204100261115238e-10, 3.531406276603054e-10, -4.550873111173995e-10, 2.138716328319289e+03, 1.878672413323382e+03, -1.592925784702847e+02, 2.487564870589570e+03, 3.670993661347606e+02, -3.524689035016770e+02, 1.064492967645567e+03
8360, 3.118508264235247e-01, 1.837926178024519e-01, 1.124293023143167e-02, -1.604340503145631e-09, 1.140686325262323e-09, -4.828273944691012e-09, 4.771970470173465e+03, 4.768246326476983e+03, 5.434954983930020e+01, 8.850176231696600e+03, 4.768763753610080e+02, -2.043284930524599e+02, 4.178912439726552e+03
8361, 4.839047157113109e-01, 7.688516872474574e-01, 2.143978646682784e-02, -2.223816330758963e-10, 3.019883036236475e-10, -2.565588901521124e-09, 5.407620902680344e+03, 5.707922515403090e+03, 9.039694359459406e+02, 1.108574316763615e+04, -2.475594634254618e+02, 1.021000422971714e+02, 5.769984123380812e+03
8362, 5.128893890575882e-01, 2.835786056903432e-01, 2.466634585664964e-02, -1.064395500730199e-09, 4.392514058364955e-10, -2.178950030925213e-09, 3.338530239812381e+03, 3.253655377878645e+03, -1.357678756788399e+02, 5.593749301796335e+03, 4.768745274832510e+02, -1.436013167487246e+02, 2.466580400846956e+03
8363, 5.160076736095868e-01, 7.834776932077057e-01, -4.699567164902833e-03, -8.014212623780911e-10, 1.078548966192538e-09, -5.106065332659671e-09, 4.187805562235757e+03, 5.650536054330516e+03, 1.429586952044291e+02, 7.271009657824712e+03, 1.571190800517105e+01, -1.753214804241810e+02, 2.700017845468507e+03
8364, 8.526546506305389e-01, 2.708119907902653e-01, 9.957042406486219e-03, -5.453378192531988e-10, 1.114172340358959e-10, 5.035733495677103e-10, -9.364387735549419e+02, -1.045460037641633e+03, -5.435682429454683e+01, -2.331740798351408e+03, 6.922209610010502e+02, -3.026023995352502e+02, 1.878220964663486e+03
8365, 5.840627866453524e-01, 9.524849346330763e-01, -2.536556946316743e-03, -1.194358513523565e-09, 8.793258986319260e-10, -4.811044483238657e-09, 4.977040966592121e+03, 4.645609784297679e+03, 6.678542610450272e+02, 9.207224830595653e+03, 1.378465597949799e+03, -9.431441552405265e+02, 5.395689931798981e+03
8366, 6.669494679033091e-01, 1.114724594571029e+00, 1.568003539608702e-02, -6.413403875006933e-10, 3.115455223281020e-11, -2.281863766465961e-09, 5.369628868119943e+03, 5.610747586552980e+03, 9.904423161253931e+02, 1.041320069365656e+04, 8.253013725536551e+02, 9.987960756887470e+02, 5.679677036116866e+03
8367, 6.932139726238268e-01, 8.247792364087245e-01, 3.006368001669145e-02, -6.884168960155852e-10, 4.065819028816822e-10, -1.110602543562591e-09, 3.134818444825121e+03, 2.957918353371620e+03, -5.850987271598403e+01, 5.282462980693699e+03, 6.470281078723442e+02, -4.485730551114756e+02, 2.625537830553890e+03
8368, 4.229162746286299e-01, 1.884019286641814e-01, 1.856607383101158e-02, -1.327858636956897e-09, 7.530586791565257e-10, -3.293523208824181e-09, 3.958797015662369e+03, 3.711641232607249e+03, -2.148336400554405e+02, 6.630276642290223e+03, 5.659299795715880e+02, -1.904521867879027e+02, 3.011024381503625e+03
8369, 7.317568760138891e-01, 8.647544487209038e-01, -9.957333313998333e-04, -9.336410770404658e-10, 4.350212720564826e-10, -2.633052152816581e-09, 3.281533499216703e+03, 3.120651929790472e+03, -8.938066212520741e+01, 7.433786127462336e+03, 5.013040977893477e+02, 1.033388008118563e+02, 4.329552692203533e+03
8370, 4.783913660489204e-01, 7.573239184812750e-01, -5.352726941326921e-03, -1.991791565899892e-09, 6.288456095963268e-10, -5.242193320612805e-09, 6.301733948286591e+03, 5.566003376426154e+03, 4.127779270543572e+02, 1.058594457856087e+04, 1.865300507533444e+03, -2.154190160796242e+01, 5.744420936690278e+03
8371, 4.302737106719643e-01, 3.591186522678798e-01, 4.210100107297358e-02, -1.091572947933171e-09, 4.731498860656432e-10, -1.930055466642937e-09, 4.422367608763069e+03, 4.416720610343170e+03, -1.584413860237553e+01, 8.186666421282559e+03, 1.052069935733854e+03, -4.048365122910856e+02, 4.243137847423110e+03
8372, 7.314677420713016e-01, 7.174964332272873e-01, -3.220661563077092e-04, -6.881862112281620e-10, 2.760842687022249e-10, -1.980983731997547e-09, 2.366355502765143e+03, 2.210903438534909e+03, 2.775560816279009e+01, 4.552952020436853e+03, -1.401871149298422e+02, -1.912098586486119e+02, 2.305695697775832e+03
8373, 2.513558681249675e-01, 5.755616606945926e-02, 1.870304409279352e-02, -8.058142533708176e-10, 1.541562954315635e-09, -3.635203637185621e-09, 4.016351090023368e+03, 4.209367741594412e+03, -3.871871539989580e+02, 7.863702450728351e+03, 2.834995804569024e+02, -1.133275491072716e+03, 4.317471803319981e+03
8374, 7.198811085623337e-01, 4.546880630712585e-01, 3.641265819063540e-04, -8.535834547701250e-10, 2.163771914910185e-10, -7.870117652146473e-10, 1.214220758066158e+03, 9.558683618672775e+02, -4.289485948601501e+01, 1.356282118136817e+03, 3.282805080621494e+02, 4.468966029426809e+01, 6.770856396879279e+02
8375, 6.806229059336225e-01, 8.990746761145131e-01, 2.862199818798472e-02, -8.370783070161527e-10, 3.332503087491378e-10, -1.456432647226654e-09, 3.675220110192044e+03, 3.730171087186731e+03, -5.745572051566754e+01, 6.699713928472574e+03, 8.298088956736107e+02, -1.463380577632842e+02, 3.335308073834828e+03
8376, 6.530109109038282e-01, 1.188373685057750e+00, 4.714453266729313e-03, -3.691984328908696e-10, 8.538972864651413e-10, -3.567630179312750e-09, 6.240369722583973e+03, 6.200005522890684e+03, -2.209811367912998e+02, 1.311503270195724e+04, 3.181177734813571e+02, -1.485494553588872e+03, 7.389877371512956e+03
8377, 3.778896544500310e-01, 3.639036363349633e-01, -1.261812839878170e-02, -1.943784778530399e-09, 8.230018996146587e-10, -6.555969013721943e-09, 5.019744831697238e+03, 5.691031274037753e+03, 4.468327272175635e+02, 1.031896505458233e+04, 1.072002503893096e+03, 5.417161026241513e+02, 5.468270415645997e+03
8378, 6.849213594859851e-01, 1.927873775382506e-01, 3.142444783484719e-02, -5.325523925071004e-10, 8.494738125926438e-11, -3.602872836608229e-10, 1.185073370486066e+03, 1.084826052428984e+03, -3.540085247639827e+01, 1.875349598927552e+03, 5.974566700612044e+02, -8.261523447429113e+01, 1.284845534187133e+03
8379, 4.520238232720372e-01, 5.639375311597664e-01, -8.843352252896597e-03, -2.134812929770522e-09, 2.064546167459104e-10, -6.639769562369559e-09, 5.518820887274544e+03, 5.592121742407108e+03, -1.189966098894363e+02, 1.032663312380786e+04, 1.011689508122967e+03, 1.349103417463814e+03, 5.598328538406742e+03
8380, 7.421120501621643e-01, 6.372104396220909e-01, 8.187269497102294e-04, -8.270549850403737e-10, 3.640849229709020e-10, -1.012921354945065e-09, 1.264943972097055e+03, 1.389684256261851e+03, -9.603375237948736e+00, 2.108571085370539e+03, 3.515195212387581e+02, -1.953400123238712e+02, 1.052368906815730e+03
8381, 7.159265167514509e-01, 2.660378439280625e-01, 2.825202889971285e-02, -5.368636728408018e-10, 1.157366767259224e-10, -2.080798017715388e-10, 8.746415025200729e+02, 7.508589700866595e+02, -4.687185677818019e+01, 1.181377522879582e+03, 5.152369048999700e+02, -1.137002265616952e+02, 9.945647313558894e+02
8382, 9.486099538670389e-01, 1.220244927224712e+00, 9.171633459463334e-03, -4.472388196458477e-10, 1.451897182158956e-10, -2.071636287919610e-10, 9.708509119148181e+02, 9.221072683104090e+02, -6.206224905601737e+00, 1.227339945632688e+03, 3.882848286495515e+02, -1.955405894150814e+02, 8.048503089051447e+02
8383, 4.849798462955356e-01, 7.042413618818408e-01, 2.768195038944204e-02, -8.894120704523784e-10, 3.509971613550382e-10, -2.344111325005197e-09, 5.024801382116986e+03, 5.576336944883829e+03, 1.990541053972479e+02, 1.054948387121762e+04, 6.609277422060541e+02, -1.719545362320328e+02, 5.412697881473624e+03
8384, 6.272454976021257e-01, 1.036207860484168e+00, 1.704257634639480e-02, -2.021866360216597e-10, 1.149086527275780e-10, -3.105060024460292e-09, 5.722902773235998e+03, 5.955128312032437e+03, 2.480101502799078e+02, 1.276544079565190e+04, -3.859101206050424e+02, 3.605553072583716e+02, 7.002650974277627e+03
8385, 9.496935863388059e-01, 1.587231641971909e+00, 7.578297027320317e-03, -9.476400288246400e-10, 2.099986927412973e-09, -7.841304803730583e-10, 4.660571579988965e+03, 7.367004369916430e+03, 1.653975875711855e+02, 5.407825938012631e+03, 1.319205094095300e+03, -1.629481016931771e+03, 4.373714017333043e+03
8386, 7.071660583357914e-01, 7.071387716338997e-01, 3.053942329820584e-02, -6.721767582624260e-10, 2.395820770567738e-10, -8.053624689623101e-10, 2.387580785995640e+03, 2.118625966290138e+03, 4.937501698158813e-01, 3.937218414044488e+03, 7.154492588180433e+02, -2.397702801217913e+02, 2.144427429654597e+03
8387, 7.569068180975881e-01, 4.547776330158341e-01, 2.520110864205159e-02, -5.942958034955044e-10, 1.494571719601989e-10, -2.189493343908003e-10, 8.774473702206633e+02, 7.101460278276792e+02, -3.280096007757113e+01, 1.299630844900632e+03, 5.989838889072171e+02, -1.390772549499159e+02, 1.189311036903266e+03
8388, 4.924634456236022e-01, 1.704244154439377e-01, 4.667994992016778e-02, -7.201842112751056e-10, 3.367621912559660e-10, -1.202145132496571e-09, 3.052636368982562e+03, 2.939738832006014e+03, -6.834017075993788e+01, 5.448492408770322e+03, 7.794272820195579e+02, -3.188205642241206e+02, 2.857416616506862e+03
8389, 7.399086764453432e-01, 9.053155386054352e-01, 2.680921615033510e-02, -7.012581635720804e-10, 3.153716882328642e-10, -8.627039759879217e-10, 2.892798072551711e+03, 2.689141579889562e+03, 2.808668951708970e+01, 4.501390099759540e+03, 7.359882305438487e+02, -2.629742005774192e+02, 2.188952578466415e+03
8390, 5.775702980070587e-01, 3.240447235494216e-01, 4.023316125618669e-02, -7.804537100044085e-10, 2.146483247479198e-10, -8.901611546192279e-10, 2.653523921078795e+03, 2.509124418369831e+03, -5.760705665980236e+00, 4.417730454399401e+03, 8.807118798313568e+02, -1.865930379964767e+02, 2.412371684294302e+03
8391, 7.306380233712819e-01, 5.515901931390126e-01, 2.733037412621069e-02, -6.413078720194820e-10, 2.255160626363720e-10, -4.575786139536489e-10, 1.569962290950437e+03, 1.361442880365574e+03, -5.213094369944420e+01, 2.322343807995312e+03, 7.122095314464390e+02, -2.286125219896654e+02, 1.566242527134424e+03
8392, 6.616827197444736e-01, 9.672526774953536e-01, -2.327143693614833e-03, -1.245979989401867e-09, 4.922219990395371e-10, -3.523861917249145e-09, 4.498450095682120e+03, 5.192867768304061e+03, -3.017336768859287e+02, 7.498953155805473e+03, 4.398084673061830e+02, 9.657332146217418e+01, 2.878026317539863e+03
8393, 8.716951732921147e-01, 4.600667605037352e-01, 1.012600619549262e-02, -3.376524509176103e-10, -6.274302783676604e-11, 5.135593359744001e-10, -7.531376859665935e+02, -8.502284749425218e+02, -4.652183281967285e+01, -1.959898970128631e+03, 9.986705872102223e+01, 1.961029451327600e+02, 1.224873968774003e+03
8394, 3.225935338581797e-01, 3.379360025412052e-01, -1.281368667400054e-02, -2.171592689459848e-09, 1.724607898580251e-09, -7.809297620515549e-09, 5.693915945252649e+03, 6.414515443126778e+03, 1.994007746869266e+02, 1.136435680821500e+04, 8.962232627910090e+02, -1.082983681139877e+03, 5.885111533021305e+03
8395, 9.685088981007177e-02, 2.471205675250104e-02, 1.928854535165802e-02, 5.741879779659834e-10, 6.393390648121657e-10, -1.164389406557328e-09, 2.536093551775603e+03, 2.993333658754711e+03, 5.098265501541879e+02, 4.026402723934121e+03, -6.618910740882725e+02, -1.116214791279283e+03, 2.753277304441357e+03
8396, 8.758037978439297e-01, 5.372728647790701e-01, 9.637455016024032e-03, -4.179074460742200e-10, 1.073855476437713e-11, 4.919067201399920e-10, -7.246937450997892e+02, -7.788838397923944e+02, -3.867070845666551e+01, -1.840824284618162e+03, 2.516341779746357e+02, 1.331229654778607e+02, 1.198253499660214e+03
8397, 5.127080079642734e-01, 4.669072406863648e-01, -9.085037323921470e-03, -1.264066097129091e-09, 7.143274727044584e-10, -4.374092554131596e-09, 4.094636345744656e+03, 3.976925919107461e+03, 1.390722888930112e+01, 5.760037122102135e+03, -5.747866190654869e+02, 6.917952654407882e+02, 2.326136668300762e+03
8398, 2.567505418741430e-01, 2.269480711258716e-01, 3.605211165770141e-02, -7.124861933319942e-10, 5.222197490732132e-10, -2.600579371719823e-09, 5.260113074138078e+03, 5.612041099793383e+03, 1.851016809594518e+02, 1.112248365977007e+04, 3.766119442066486e+02, -3.069726700634800e+02, 5.765336411658969e+03
8399, 5.966544855970937e-01, 9.629599398693640e-01, 2.000079634431303e-02, -5.942499431910691e-10, 3.260357004338623e-10, -2.823522257681167e-09, 5.755849547308178e+03, 5.716582295363954e+03, 4.166920687252002e+02, 1.178111029864692e+04, 1.655247705397570e+02, -9.272729639324035e+01, 6.096785359067694e+03
8400, 7.858178418306431e-01, 7.035063323491720e-01, 3.615243312126296e-03, -7.009005479403329e-10, 1.693444867447344e-10, -7.559320605443640e-10, 1.507349959958429e+03, 1.251595372048200e+03, -5.101741229317119e+01, 2.314406070531014e+03, 4.222272123097631e+01, 1.277506872182451e+02, 9.926104954711717e+02
8401, 3.342719609886915e-01, 2.396448499467239e-01, 1.473993676464038e-02, -1.590979724083293e-09, 1.093827530328051e-09, -4.702154224951014e-09, 5.213155760998871e+03, 5.252881273198060e+03, 3.157622182338617e+00, 9.572382607729520e+03, 5.038826925351801e+02, -5.068399895257435e+02, 4.512609869963091e+03
8402, 8.822072272416008e-01, 1.310810206552782e+00, 6.167312229132520e-03, -7.985544093008998e-10, 2.694135655703336e-10, -9.103374716466223e-10, 2.554257123823653e+03, 2.499784109183274e+03, -1.101509730634712e+02, 4.085159921506012e+03, 6.137986945732586e+02, 1.265385282794721e+02, 1.909111258199541e+03
8403, 5.984515819513574e-01, 4.908617995234056e-01, -6.804038899369220e-03, -1.356907764847680e-09, 1.836342345098974e-10, -3.350076176313473e-09, 3.584657910292635e+03, 3.311683761649926e+03, -1.510256901113363e+02, 5.808959421051675e+03, 2.417732774829141e+02, 5.543440807239284e+02, 2.606701021914976e+03
8404, 2.833218852827340e-01, 5.325705808703310e-02, -1.604122442476935e-02, -5.691232941750892e-10, 1.099525537681030e-09, -6.190281359237001e-09, 5.242082038134236e+03, 5.313938420078395e+03, -1.973021381492149e+02, 9.962826566063426e+03, -1.982585972709667e+02, -1.086663480797950e+03, 5.072336048860512e+03
8405, 5.648974695674851e-01, 5.504775053708963e-01, 3.788133002442235e-02, -8.749948646810185e-10, 3.657742755162542e-10, -1.480484352663612e-09, 3.620508644093408e+03, 3.551143131521919e+03, -6.665803811247351e+01, 6.680276462970277e+03, 8.850352721444206e+02, -3.204785810153367e+02, 3.500077825777311e+03
8406, 8.101146289327488e-01, 9.921055451664141e-01, 2.111376672962178e-02, -6.417906250407502e-10, 2.440811525819936e-10, -6.496193063141398e-10, 2.329819119109658e+03, 2.048824438874787e+03, 1.257039724598986e+01, 3.447214890626144e+03, 6.193264460847928e+02, -1.644160109356820e+02, 1.695223067066138e+03
8407, 7.472578290915131e-01, 7.070161297754382e-01, 2.736079492077055e-02, -6.766903274472105e-10, 2.499914268309721e-10, -5.925579288625421e-10, 1.726687951261898e+03, 1.636037456919488e+03, -1.243363810043852e+01, 3.096294211486629e+03, 7.288698754844080e+02, -2.829516450617144e+02, 1.960254288932874e+03
8408, 1.972066338060013e-01, 2.422586562858013e-02, -1.300608093242360e-02, 1.176822965837665e-11, 1.364777154823657e-09, -3.001568059426215e-09, 3.494842716062136e+03, 5.009032274930681e+03, -5.411684439631920e+02, 5.194194173444966e+03, -6.164315882161525e+02, -3.129785825802405e+03, 5.832037094492469e+03
8409, 5.660664361341523e-01, 4.118135556224988e-01, 4.168435386937333e-02, -7.273920629646976e-10, 2.907923455248190e-10, -1.074482528677037e-09, 3.014978035406679e+03, 2.939092908857475e+03, -7.118067000454987e+01, 5.262729525164312e+03, 7.935632083702822e+02, -2.838335068446072e+02, 2.715663520688321e+03
8410, 3.730017639333311e-01, 5.211677081082583e-01, -6.890388235472427e-03, -1.307234582954271e-09, 1.259673744071820e-09, -4.688718080120602e-09, 3.549933997463449e+03, 5.450451783460844e+03, -1.069985626043617e+02, 6.783336264546266e+03, -1.753236960103969e+02, -1.022550249750880e+03, 3.344414428556477e+03
8411, 1.955246688505421e-01, 3.168522937780071e-01, 4.780040238001439e-03, 2.280349494181044e-10, 2.317491003664132e-10, -1.635912665479450e-09, 2.754385329628503e+03, 3.521101693709382e+03, 7.045914510793618e+01, 6.028771187409936e+03, -8.487143691477119e+02, -1.497063694083111e+02, 3.322951882711830e+03
8412, 3.077854572300425e-01, 4.443629515893551e-01, 2.263708764177579e-02, -3.538872120392120e-11, 1.434224601519053e-10, -2.542373914517845e-09, 4.752578646122116e+03, 5.555951354952979e+03, 3.858677419185129e+02, 1.119232359581862e+04, -8.327922080132860e+02, 3.281035022603358e+01, 6.282734059882447e+03
8413, 5.133396832715073e-01, 8.117808636437572e-01, -5.060931862154616e-03, -1.891650766287256e-09, 1.404887253127626e-09, -5.007360964691932e-09, 6.885424327471026e+03, 6.018899615066121e+03, -2.602872596375307e+02, 1.269766155114425e+04, 1.950927857010698e+03, -9.483108460555098e+02, 7.340906011845068e+03
8414, 4.780229204046784e-01, 3.077487926060429e-01, 1.465588915816469e-02, -1.424065949830305e-09, 5.948712975896251e-10, -2.958582077222727e-09, 3.745035643618159e+03, 3.704024634270930e+03, -9.689580242289972e+01, 6.098285451731010e+03, 5.313166226038087e+02, -2.603765287464986e+02, 2.591220170549165e+03
8415, 3.248822560733064e-01, 9.330289975914122e-02, -1.651731854424907e-02, -1.210079042118969e-09, 1.469423523581542e-09, -7.076501886080402e-09, 5.703123382935013e+03, 5.807247520302114e+03, -2.613775948910569e+02, 1.040379374091280e+04, 3.630606184426097e+02, -1.227187578315799e+03, 5.170691659799933e+03
8416, 7.470928536060839e-01, 1.036859878686401e+00, 1.682012574850188e-03, -1.070757907420566e-09, 5.702339704866230e-10, -2.219186099345582e-09, 2.954915433507652e+03, 2.992198824230643e+03, -2.320236971519380e+02, 3.783351547743289e+03, 2.474356254833868e+02, 4.319435476918662e+02, 1.249685311920843e+03
8417, 5.118733711575841e-01, 5.848391494262928e-01, 3.581954074778002e-02, -1.035177582807884e-09, 5.452868795172748e-10, -1.921255148758954e-09, 4.638846701105470e+03, 4.564947002106449e+03, -3.173837239498316e+01, 8.511604177233366e+03, 9.303729261027856e+02, -5.372266701900548e+02, 4.330767605103191e+03
8418, 7.428005507991533e-01, 5.184886865887292e-01, 1.354781405661615e-03, -7.655244264801800e-10, 2.957827671513090e-10, -5.808956180525675e-10, 1.227610922634661e+03, 1.114966618486631e+03, -2.415768743176685e+00, 1.703663778772769e+03, 8.029364558977136e+01, -1.766497476800217e+02, 6.371136635326525e+02
8419, 4.738399612611408e-01, 7.183353727281858e-02, 2.404555231946080e-02, -6.599135752152928e-10, 8.047072096304615e-10, -2.245299387088807e-09, 2.562904331208867e+03, 2.381149152735169e+03, -2.418191759660758e+02, 5.128019512606033e+03, 2.040598686917694e+02, -4.148440102579239e+02, 2.809930834825570e+03
8420, 7.751897945594156e-01, 6.160099330915469e-01, 2.294245700171349e-02, -5.553713245307594e-10, 1.778318010354378e-10, -3.788110117301298e-10, 1.206150544346376e+03, 1.034450334661633e+03, -1.675154788762559e+01, 1.829844719571173e+03, 5.484397096239289e+02, -1.751608333113197e+02, 1.233210423166442e+03
8421, 7.077687972729680e-01, 1.048984490417393e+00, -1.766173405618431e-03, -1.198098669641882e-09, 1.004921096618088e-09, -3.516147562766442e-09, 5.105376172633883e+03, 4.438422697386040e+03, 2.716159593892961e+02, 8.433542970158971e+03, -2.643754564017803e+02, -1.157340829305647e+03, 4.265041125437001e+03
8422, 7.189744038976096e-01, 9.687616829510070e-01, 2.621529336765751e-02, -7.854815213616739e-10, 3.840755263995635e-10, -1.209716800919683e-09, 3.593148620348703e+03, 3.187879263182257e+03, -1.045591378272958e+02, 5.981957095031198e+03, 8.718786788017537e+02, -3.054198954664016e+02, 3.071142967153810e+03
8423, 5.240062273455806e-01, 5.275917017611061e-01, 3.996773544776839e-02, -9.284600892017168e-10, 4.240073040017690e-10, -1.581637854158653e-09, 4.099218566539260e+03, 3.971197816288340e+03, -3.440695576804394e+01, 7.555139368832390e+03, 9.774736793343916e+02, -3.635553201047533e+02, 3.958363397624597e+03
8424, 6.193066883833094e-01, 9.102919061428100e-01, 2.686477179889986e-02, -9.952523903863741e-10, 5.470780958805327e-10, -2.014464538832985e-09, 4.791593692433084e+03, 4.771984686563116e+03, 4.760588673036621e+01, 9.186770418455619e+03, 9.103298805399156e+02, -5.681095324901830e+02, 4.781766804287485e+03
8425, 4.668409989659283e-01, 5.305838288152643e-01, -1.037261038761243e-02, -1.603884896296859e-09, 1.486679195041280e-09, -6.019886865820719e-09, 5.530051029373876e+03, 5.188753626150677e+03, -2.074801244145387e+01, 1.028089175022331e+04, 4.607225740590383e+02, -1.880242019296629e+03, 5.962586564375443e+03
8426, 6.973158834150113e-01, 4.631244115108443e-02, 2.813347090408744e-02, -3.118068300715271e-10, 1.338673649182809e-10, -2.090000939029699e-10, 5.962122186233661e+02, 5.551798705028046e+02, -1.412645872632827e+02, 9.905608456040707e+02, 3.220008747376538e+02, -1.428849175431469e+02, 7.781674518767582e+02
8427, 9.337406418322916e-01, 1.048949276470343e+00, 9.701505132179506e-03, -4.182303121246433e-10, 1.388619939083862e-10, -7.245627210878459e-12, 3.884517094820994e+02, 2.801894736182958e+02, -2.963440510500697e+01, 2.698346517462731e+02, 3.259344503616341e+02, -9.823418977812678e+01, 6.026883357404284e+02
8428, 6.346860291163566e-01, 7.790997259469723e-01, 3.211363579193727e-02, -9.126271472551124e-10, 4.061105941914154e-10, -1.266975126263111e-09, 3.688012992320419e+03, 3.696021098923567e+03, -1.049203342972091e+02, 6.303441552411299e+03, 9.455500421871135e+02, -4.238094250965710e+02, 3.173901198033364e+03
8429, 6.285932434676010e-01, 9.964047948879857e-01, -1.844628202258735e-03, -1.051020568353521e-09, 1.068699229775440e-09, -4.473009822224922e-09, 4.660883566065278e+03, 4.881449840445508e+03, 3.595441798251709e+02, 9.447731913272630e+03, 2.021536299284388e+02, -1.847538615382467e+03, 5.714661879988643e+03
8430, 5.571027325605353e-01, 5.507922676373137e-01, -7.678248390225344e-03, -1.037102269324749e-09, 9.239012521585926e-10, -4.359641192274035e-09, 4.268879902812594e+03, 3.721529935669387e+03, 5.286917300730006e+01, 7.117193411668762e+03, -6.326599738802867e+02, -6.891073629745213e+02, 3.550390737071248e+03
8431, 6.482835254933951e-01, 7.514403883840739e-01, -3.764074629805849e-03, -1.413597556718117e-09, 3.773635912731750e-10, -2.633576610681093e-09, 3.310977930350992e+03, 3.206959480339476e+03, -9.749446949476540e+01, 5.054453480302401e+03, 7.691909706668436e+02, 5.500509342427541e+02, 2.437832707376876e+03
8432, 5.538974748915763e-01, 1.022864727033802e+00, 3.678222112205993e-03, 2.691550287734679e-10, -1.884640623782527e-10, -2.521018305173505e-09, 3.870263758541978e+03, 4.001099785486170e+03, 4.815554768882247e+02, 8.460644172249815e+03, -1.151509505240262e+03, 5.642443148224048e+02, 5.110464525595934e+03
8433, 7.124595595289042e-01, 9.852631295236058e-01, -1.356693917581834e-03, -1.386056381354658e-09, 1.209171206959465e-10, -3.256122092835183e-09, 4.094155617535624e+03, 3.631719005393969e+03, -1.389943129235270e+02, 7.354596305603935e+03, 8.822894958542881e+02, 5.585520569476711e+02, 3.959958581609238e+03
8434, 1.929570322203732e-01, 8.237497301250012e-02, 1.148347148215563e-02, -7.001238512225004e-10, 1.381744499139724e-09, -5.880749803294480e-09, 4.913692161839423e+03, 4.853828681796931e+03, -3.326373463665747e+01, 1.184841110304333e+04, 7.368128709778639e+02, -8.135126673136589e+02, 7.219865266537412e+03
8435, 3.786234730462443e-01, 2.351760663521591e-02, -1.238640071470908e-02, -3.102905258832363e-10, 7.202800932192151e-10, -1.295899601264637e-09, 1.894447361067556e+03, 2.583637309106035e+03, -3.218327158592912e+02, 2.024680315736074e+03, -1.807023418398985e+02, -1.579901171992921e+03, 2.880822834456030e+03
8436, 7.446119101539246e-01, 6.815915830140051e-01, 2.642905752907032e-02, -6.831849488683300e-10, 2.321557509424228e-10, -6.130275279263129e-10, 1.774886973051611e+03, 1.784386171117063e+03, -3.569255358776666e+01, 3.075352087021806e+03, 7.077984726724758e+02, -1.527626947123439e+02, 1.804359610307001e+03
8437, 9.449159626414483e-01, 1.130264374718720e+00, 9.241428391631399e-03, -4.517748665810946e-10, 6.048050506167921e-11, -2.303276380575161e-10, 7.796111507654791e+02, 5.546031768306387e+02, -2.669494705756348e+01, 1.160068578512930e+03, 5.057465487880104e+02, -1.309239402955415e+01, 1.025169842231436e+03
8438, 7.301960531607943e-01, 1.136888342270252e+00, 1.961526628576343e-02, -8.532897216976501e-10, 6.355413118590102e-10, -2.141290748945160e-09, 4.331057930691333e+03, 4.614622587385772e+03, 5.133862539200470e+01, 9.209852656489453e+03, 6.978115728511125e+02, -7.919496839409636e+02, 5.084277331358609e+03
8439, 9.416740323499137e-02, 2.715208364676433e-02, -8.895194993414322e-03, 3.590132865107098e-10, 8.539662659541279e-10, -2.218195048895940e-09, 1.472639546472201e+03, 3.360349991134911e+03, 3.620203814693612e+02, 3.145614257472640e+03, -7.319208259917335e+02, -2.506153322924895e+03, 4.903765620551720e+03
8440, 6.933310680825837e-01, 2.503174237331705e-02, 3.716933669545081e-03, -2.370157013839164e-10, 1.696981982019300e-10, -2.554552418998659e-10, 5.351225398325806e+02, 7.142554410051523e+02, -1.825595361386650e+02, 9.198691804996558e+02, 5.037729148878325e+01, -3.764219820830102e+02, 8.024187714732532e+02
8441, 9.617978542565275e-01, 1.378902979663147e+00, 9.313254033177600e-03, -4.361583216025140e-10, 2.476395208625598e-10, -4.922303135333056e-10, 1.523168237779261e+03, 1.586592028803138e+03, 1.485035516047498e+01, 2.350182915885198e+03, 4.860497731050644e+02, 1.440784362438666e+01, 1.159974547900937e+03
8442, 3.680996340098910e-01, 4.316220069434352e-01, -1.195904638717228e-02, -9.084631989912324e-10, 6.481531587798174e-10, -9.034589546740998e-09, 6.741204449565130e+03, 6.816912382233987e+03, -4.359003402405497e+01, 1.451042334482778e+04, -5.637933089045284e+02, 1.329467083902226e+03, 8.126502296363216e+03
8443, 1.576817769968649e-01, 5.373210297027568e-02, -1.303801395961758e-02, -2.296726695349990e-10, 1.793567396938157e-09, -8.437011257913026e-09, 6.693330587926871e+03, 8.157304073804459e+03, -1.723302371323352e+02, 1.510751880235342e+04, -1.676964033051549e+02, -2.960644254473088e+03, 9.332381036563573e+03
8444, 2.042401440875836e-01, 1.125417625495293e-01, 5.882336744605346e-03, -1.000068990542492e-09, 9.725463455270955e-10, -6.605533272007687e-09, 4.901320343172429e+03, 4.782040855336587e+03, 3.530015837428243e+02, 1.192766938595792e+04, 9.547955625752529e+01, -1.800660909901081e+01, 7.115058670715812e+03
8445, 2.730765940855310e-01, 2.726486000439302e-01, 3.574551833315524e-02, -6.674838143206331e-10, 5.344978312967724e-10, -2.568261155215269e-09, 5.453641009486625e+03, 5.711718937575370e+03, 3.218261291927154e+02, 1.151952830918646e+04, 3.240744937757806e+02, -4.100481980690131e+02, 6.035422843708678e+03
8446, 3.921357620566297e-01, 2.778978621906386e-01, 1.475758863120759e-02, -1.742006719698593e-09, 8.949829274109472e-10, -4.661626108336125e-09, 4.864195021150887e+03, 4.834738459837446e+03, -1.156258769251127e+02, 9.977410184563889e+03, 9.755620088456459e+02, -2.964915584557972e+02, 5.427287369818421e+03
8447, 2.651212275825308e-01, 9.803290671548598e-02, 4.865674755902302e-02, -6.236445921994152e-10, 8.431899704371534e-10, -2.044792254126227e-09, 4.549450863344826e+03, 4.375196349249186e+03, 1.033004311995951e+01, 9.312690592464649e+03, 5.794854621274509e+02, -8.030650504033689e+02, 5.146970384083134e+03
8448, 1.193842918763907e-01, 9.812868543310571e-02, -8.945529703963808e-03, 1.335299802129066e-10, 1.275855208133636e-10, -3.649929180749195e-09, 3.190251286647514e+03, 3.111103124236827e+03, -4.021889979914898e+02, 5.720280315927384e+03, -1.679878821040045e+03, 1.107637544392131e+03, 4.386272653269400e+03
8449, 9.481517408448062e-01, 1.170352945502726e+00, 9.035382891958134e-03, -4.754340527745989e-10, 1.235042790773332e-10, -1.433462663554239e-10, 7.531557184395709e+02, 6.609144585105805e+02, -7.308142689538222e+01, 9.158233090238322e+02, 4.086372104056111e+02, -2.140632189385287e+02, 8.392966327391583e+02
8450, 4.947562610935344e-01, 5.245315733470139e-01, 1.446718544128056e-02, -1.360618690244574e-09, 7.885452554381073e-10, -3.530186908750477e-09, 4.840867931684194e+03, 4.380384134954167e+03, -3.896384537579405e+02, 7.991593194545576e+03, 3.617970336547324e+02, -3.238052773147833e+02, 3.571087812985685e+03
8451, 9.439332936412713e-01, 1.484555281888891e+00, 8.883351752801322e-03, -7.518408957048996e-10, 6.024587248824438e-10, -1.427769768730338e-09, 3.570012958595423e+03, 3.742903877872720e+03, -2.781876519481116e+02, 5.953498142863454e+03, 9.162775162593181e+02, -6.656408718001493e+02, 3.062499278225331e+03
8452, 3.684604286209346e-01, 1.185826966845355e-01, 1.371122410596970e-02, -1.284327453053578e-09, 1.014152297598548e-09, -4.206564196328952e-09, 4.274989282936865e+03, 4.095082913311560e+03, -1.850163129920641e+02, 7.464690292017098e+03, 5.017010903363504e+02, -6.608004106072593e+01, 3.413401695336538e+03
8453, 7.541494147253344e-01, 9.927717394533337e-01, -5.209241590041283e-04, -8.320109292193485e-10, 6.881518264052736e-10, -1.901092263830404e-09, 3.004560125072732e+03, 3.195600883608474e+03, -1.503157079920849e+02, 5.612055439096137e+03, 3.398077350725086e+01, -7.680853396957125e+02, 2.859808434788050e+03
8454, 5.082488031538076e-01, 9.234011974515419e-01, 3.022711770382470e-03, 2.950738046177915e-10, 8.092369147029983e-11, -2.872084566790991e-09, 2.600493567375151e+03, 4.821856856495336e+03, 3.429330762482688e+00, 9.276610551083704e+03, -1.689295406838487e+03, -3.290443256792887e+01, 6.575663613781030e+03
8455, 8.804418230531698e-01, 5.122776861821918e-01, 9.849383416926047e-03, -3.948850441853156e-10, 5.932255395583110e-11, 2.781303250210740e-10, -6.587159177984738e+02, -5.871725964285149e+02, -5.899033141649895e+01, -1.227740901456826e+03, 3.980340445503920e+02, -3.452249458001619e+01, 9.267826624915008e+02
8456, 7.362646447284488e-01, 2.515861510949089e-01, 3.158432044003241e-03, -6.785449037544640e-10, 1.285931541031320e-10, -2.209367825637074e-10, 4.160635791562061e+02, 4.056455861462728e+02, 1.403854497737012e+01, 5.853602989940692e+02, 2.172926494039175e+02, 4.336989970162356e+00, 4.157277992945151e+02
8457, 9.128849730163717e-01, 1.579694634589683e+00, 7.368983420515968e-03, -1.457359725124843e-09, 1.467487461351468e-09, -1.818487471210600e-09, 5.645004773644077e+03, 5.779977830112516e+03, -5.447717062630846e+02, 8.054454248377200e+03, 1.730423978186270e+03, -1.210185651056430e+03, 4.445844322061012e+03
8458, 1.466875691836091e-01, 2.686331878086767e-02, 3.713694272372781e-02, 1.953214882798988e-10, 8.520155935471976e-10, -1.237549139001842e-09, 2.778446820532486e+03, 3.886319192407516e+03, 2.296035758119487e+02, 5.150568685505447e+03, -3.488462491681346e+02, -1.405815617749562e+03, 3.267800825295395e+03
8459, 5.612195933878295e-01, 4.523636690048920e-01, -7.948168000006934e-03, -1.532945615014695e-09, 5.351250848599449e-10, -3.550787314042586e-09, 3.890895632728827e+03, 3.512974194743231e+03, -7.664228278291800e+01, 7.022242869795437e+03, 1.029263811119187e+03, 3.436791909953075e+02, 3.831668518958433e+03
8460, 5.910114989244882e-01, 4.070739097145197e-02, -3.654146312441660e-03, 3.481752787555433e-11, 2.395351921019228e-10, -1.190186634622227e-09, 1.564251210297083e+03, 1.605771358252063e+03, -1.595968561974036e+02, 2.440923185034245e+03, -6.262283752500580e+02, 6.085743363083136e+01, 1.413466805054277e+03
8461, 4.140049698854112e-01, 6.225267490724264e-01, -7.804496895295030e-03, -1.917489284517864e-09, 8.265840234026525e-10, -7.356685492497646e-09, 4.703930322801014e+03, 6.810707237956185e+03, -1.866538443263526e+02, 1.144801500234115e+04, 1.593532366800409e+03, -8.031575683020247e+02, 6.735773648351116e+03
8462, 6.245880888600355e-01, 5.141851152070138e-01, -4.195502645716657e-03, -9.568090106480438e-10, 6.179831982011762e-10, -2.628558316796116e-09, 3.082891163689478e+03, 2.783009516790426e+03, -1.137761212501803e+02, 5.002461098283199e+03, 2.866067009847864e+01, -1.992144608184703e+02, 2.123836164301797e+03
8463, 2.072621299530751e-01, 2.712718193455520e-01, 1.925543506228709e-02, -2.390127696597273e-12, 1.471020191340566e-10, -2.552591696612378e-09, 4.407482865240285e+03, 4.654174055002907e+03, 4.092821884199585e+02, 1.074710645510584e+04, -8.229523402441162e+02, 5.951620673464851e+02, 6.502668342280185e+03
8464, 7.356754647979545e-01, 1.006404431413920e+00, 2.610787437397835e-02, -7.910348490592032e-10, 3.837532381484741e-10, -1.127905388494543e-09, 3.614870250199852e+03, 3.342571556195405e+03, -1.832996366569348e+01, 5.901696184515706e+03, 6.010811469174371e+02, -4.662620935860088e+02, 2.768307021617028e+03
8465, 3.214747234344427e-01, 2.406888825661687e-02, -1.556151281970656e-02, -5.127060835066172e-10, 7.028919093757890e-10, -1.817833429833413e-09, 2.214447816454921e+03, 2.864137653538412e+03, -5.146035878976211e+02, 3.123314442136947e+03, 1.875455615109750e+02, -1.874277844060987e+03, 3.477984603026679e+03
8466, 5.932594564210221e-01, 9.218477271184635e-01, -4.151890236099198e-03, -1.535577648001008e-09, 6.969783929509541e-10, -5.285310074499009e-09, 6.519198847899277e+03, 5.800633569963500e+03, 1.351369353970240e+02, 1.042157711370991e+04, 4.503561380566721e+02, 5.915319607015914e+02, 4.501331338624694e+03
8467, 3.622939219088414e-01, 8.363174973934560e-02, -1.520473692036093e-02, -4.960944946698565e-10, 1.056258854570922e-09, -7.032439661256194e-09, 5.155551818448733e+03, 5.352436894930542e+03, -3.126917706272839e+02, 9.920071477798463e+03, -8.596785514675388e+02, -5.343314083929976e+02, 5.016806626524582e+03
8468, 3.826173714429690e-01, 7.624171386253438e-02, 1.549005968000217e-02, -1.061688399427870e-09, 1.184374458455690e-09, -3.552601289279958e-09, 3.375971869140631e+03, 3.157772385233823e+03, -3.363370447722345e+02, 6.745870167022284e+03, 5.362039476648051e+02, -6.710852618998711e+02, 3.833029317916711e+03
8469, 5.677949562034678e-01, 4.469604302016670e-01, 4.031564404945863e-02, -8.279545866536573e-10, 3.240433271062476e-10, -1.151995933119577e-09, 3.098661592400276e+03, 2.995478833714817e+03, -7.929194453286289e+01, 5.360983175743645e+03, 9.416154171501972e+02, -2.751088138994797e+02, 2.875415310430474e+03
8470, 7.561604997260453e-01, 7.495254979451188e-01, 2.752052929332477e-02, -5.634302038373397e-10, 2.222181431516650e-10, -5.709287436567259e-10, 1.816774990100315e+03, 1.673486947356580e+03, -2.542793929211125e+01, 2.902597175324863e+03, 6.140051874037389e+02, -2.421599141795228e+02, 1.632175768622984e+03
8471, 3.229422507188870e-01, 4.833647585700976e-01, 2.123015442401097e-02, -8.461770023432945e-11, -1.099401661332010e-11, -2.623369493617318e-09, 4.208716375739545e+03, 4.652841222638899e+03, 2.177315732949872e+02, 1.171395416187354e+04, -3.795816296984668e+02, 2.496673601715460e+02, 7.345341901530805e+03
8472, 7.389110558986832e-01, 4.896819438288046e-01, 2.834274396798901e-02, -5.819542813842974e-10, 1.406705035981772e-10, -3.198743603052362e-10, 1.219404991684227e+03, 1.055597106036854e+03, -6.243961442354644e+01, 1.736256213302496e+03, 6.467416405053508e+02, -1.530942214383800e+02, 1.309758146166048e+03
8473, 7.203242170980819e-01, 1.986885271667128e-01, 2.772345929133024e-02, -4.977321507829029e-10, 6.329224883661315e-11, -1.822612692731418e-10, 7.806973410215771e+02, 6.581858317337046e+02, -4.534102964234455e+01, 1.023773225586923e+03, 5.341920578949459e+02, -4.987202354605159e+01, 9.867051719301630e+02
8474, 5.786032893642894e-01, 5.072748406938378e-01, -6.270050851516742e-03, -1.522282774252758e-09, 6.502736090421799e-10, -3.120542833102693e-09, 2.913503471166106e+03, 3.233828028906637e+03, -2.421362990792431e+02, 4.228027062629582e+03, 4.381754748393541e+02, -3.529149607357218e+02, 1.592179643605400e+03
8475, 4.529446409538965e-01, 1.780077796057945e-01, 4.915094763858406e-02, -7.363839208046951e-10, 3.674363020985509e-10, -1.341305862633881e-09, 3.492918221923907e+03, 3.327835984435286e+03, -7.698234446145500e+01, 6.277864145913569e+03, 7.942910900579060e+02, -3.257999233339212e+02, 3.236020962624246e+03
8476, 9.677315218011527e-01, 1.504267560360605e+00, 8.315496972986874e-03, -4.505102473803223e-10, 5.864124239084542e-10, -4.919496437467165e-10, 2.468287261126293e+03, 2.404021991862663e+03, -1.981509442573381e+02, 3.413264438065523e+03, 2.944595682363795e+02, -5.674561726918068e+02, 1.517158966087516e+03
8477, 5.803436924909239e-01, 8.285958794622601e-01, -4.560387700654743e-03, -2.250545660090283e-09, 7.937012975839478e-10, -5.588054313654326e-09, 5.577946050744227e+03, 5.570145273781298e+03, 2.892358371210159e+02, 1.064534153376561e+04, 1.470689681593047e+03, 9.840118133665331e+01, 5.699727393475598e+03
8478, 4.837798934144962e-01, 3.257691508260946e-01, 4.483238432567921e-02, -8.290726796295938e-10, 3.846868104244385e-10, -1.396696523941450e-09, 3.730197191682179e+03, 3.613021368170531e+03, -4.642836924797346e+01, 6.471538158527746e+03, 8.321186976251926e+02, -3.918113470061765e+02, 3.224000482566895e+03
8479, 5.051532211014818e-01, 9.777986179959354e-02, -9.007082358337618e-03, -9.585114218589105e-10, 4.310829129893038e-10, -3.609075168397030e-09, 2.643119799009301e+03, 3.087340587539868e+03, 1.766796074331407e+01, 5.395551468628105e+03, 7.297768844943641e+02, 1.929668829786008e+02, 2.874176902340132e+03
8480, 5.803580118177167e-01, 9.382498376512297e-01, 2.031161138553159e-02, -7.852742612916854e-10, 2.694498045234063e-10, -2.728939612099499e-09, 5.579974555266449e+03, 5.636419439601282e+03, 4.933049744957379e+02, 1.172070552815162e+04, 8.239987101369509e+02, -1.999492023499130e+02, 6.344451128655096e+03
8481, 5.619870723501488e-01, 1.780986472198631e-01, 1.160850575405896e-02, -9.826981276348157e-10, 4.247785693354763e-10, -1.808581333582976e-09, 2.117875808332926e+03, 2.009966367070235e+03, -1.508080341140952e+02, 3.803159212358585e+03, 4.828950856957662e+02, -1.975538473850904e+02, 1.979534626767874e+03
8482, 7.163261688409922e-01, 3.855109694038604e-01, 2.880052926338423e-02, -6.160719017069006e-10, 1.693294346468472e-10, -2.929859721882798e-10, 1.146429647381087e+03, 9.955545203442425e+02, -4.115125700936632e+01, 1.541890431533968e+03, 6.512207880810341e+02, -1.884538187297334e+02, 1.273855596029947e+03
8483, 5.656748989100049e-01, 8.949751665865253e-01, 2.301902968545175e-02, -1.027466682750197e-09, 3.537339675950038e-10, -2.379518248528563e-09, 5.315000951341911e+03, 5.537020111258476e+03, 3.180227570657032e+02, 1.100000553041913e+04, 1.128315068612902e+03, -1.659040861967302e+02, 5.942361671287993e+03
8484, 7.435219323793956e-01, 5.185128768381476e-01, 2.718876670762366e-02, -5.896163568594243e-10, 1.747418533200133e-10, -3.243332658640776e-10, 1.252645029266500e+03, 1.109904838802320e+03, -4.236402647926187e+01, 1.740557984697557e+03, 6.250139296383314e+02, -1.705112218971256e+02, 1.261987401507002e+03
8485, 2.094874631726350e-01, 2.707328178459607e-01, -6.151494577548525e-03, -1.033485307977942e-09, 3.201156667613335e-10, -6.023264792338057e-09, 5.301874135359596e+03, 5.409383150981655e+03, 6.162603478403767e+02, 1.258746962677368e+04, -5.074197533458545e+01, 1.051019212558419e+03, 7.534531936497126e+03
8486, 4.598890121862589e-01, 1.903878507915400e-01, 1.429396613946671e-02, -1.216035100170906e-09, 6.450887319844287e-10, -3.226379772693404e-09, 3.332811014557331e+03, 3.083131892878694e+03, -1.615841598237424e+02, 6.012339081385376e+03, 4.471375622356459e+02, -1.966849157470774e+01, 2.930958445363352e+03
8487, 5.229135025572628e-01, 3.430068017303048e-01, 2.238657295275474e-02, -1.156151279432078e-09, 4.467938843919946e-10, -2.377431051551665e-09, 3.418489079994208e+03, 3.278022821349254e+03, -1.381698353528990e+02, 6.049724963585252e+03, 5.323397531380980e+02, -4.224904676925581e+01, 2.868016282985803e+03
8488, 4.111147125412102e-01, 5.189456507796408e-02, -1.266660912806442e-02, -1.134879356414667e-09, 4.980835485572862e-10, -3.864715296700806e-09, 3.329978382765023e+03, 3.844536036102134e+03, -7.001986762130123e+02, 6.370795571487964e+03, 1.128603889710809e+03, -3.287668226382982e+02, 3.682797937181699e+03
8489, 3.375362991547325e-01, 3.845343973563684e-01, -1.185213397129589e-02, -1.530709422919068e-09, 1.672220448187814e-09, -6.639070623702875e-09, 5.752852937916797e+03, 5.450905812812067e+03, 6.954426900794232e+02, 9.520545043679109e+03, -5.488062265417584e+02, -1.132496125811223e+03, 4.650424553001305e+03
8490, 7.998154190784295e-01, 4.205904480187855e-01, 5.344153402366636e-03, -6.232374575257682e-10, 1.283745643875448e-10, 3.395796787472770e-11, 1.914065183531892e+02, 1.079816316709255e+02, -5.764817997171645e+01, 1.155136309535867e+02, 2.702639323041500e+02, -9.738242061364910e+01, 5.137468358577768e+02
8491, 8.920547198660300e-01, 6.171649041731714e-01, 9.327964128373421e-03, -4.359405301471390e-10, 5.231592461569777e-11, 1.806786033343955e-10, -2.844827874524517e+02, -4.210318213551044e+02, -3.313714831372269e+01, -8.812814301641371e+02, 3.829449329017870e+02, -1.663303532280412e+01, 8.587121932279006e+02
8492, 9.498460878498168e-01, 1.281332615765119e+00, 9.266906476072072e-03, -4.166424940989994e-10, 1.582325425279106e-10, -2.787515369547262e-10, 1.372514519556367e+03, 1.302782041936027e+03, 6.739949087964833e+01, 1.913772122667805e+03, 2.270138520214988e+02, -2.119445972706694e+02, 7.991001959297221e+02
8493, 5.214415232956838e-01, 4.781015317480938e-01, 4.196676521360100e-02, -8.013897037502530e-10, 4.537545708724088e-10, -1.453786767442920e-09, 3.764143620199447e+03, 3.849132487467545e+03, -4.275766994676331e+01, 7.109217990719819e+03, 8.028301159752961e+02, -4.739068016487868e+02, 3.677676954343490e+03
8494, 5.029981618598380e-01, 1.259292599702734e-01, 1.888331011849814e-02, -9.825952873309146e-10, 5.367307571456386e-10, -2.303815970043622e-09, 2.734201358963669e+03, 2.780818513169887e+03, -1.262775358858773e+02, 4.771335512032301e+03, 5.022834952084291e+02, -9.812812457521233e+00, 2.205020718828324e+03
8495, 7.177250723574293e-01, 6.460894276909536e-01, 6.579641811014589e-04, -8.357611936729425e-10, 5.356091189113594e-10, -1.507884974425259e-09, 2.162873857661161e+03, 2.127351059725122e+03, -2.198571733458598e+01, 3.367550847023139e+03, 3.646864837055923e+01, -5.945422373283827e+02, 1.600369780171800e+03
8496, 5.690226734614940e-01, 3.461184145818560e-01, -6.394096705328454e-03, -1.080590219928067e-09, 4.544579366005185e-10, -2.422114782540039e-09, 2.463800931518324e+03, 2.458176466555571e+03, -1.521956862407363e+02, 3.935695316098653e+03, -1.714909106200629e+01, -9.987406690273525e+01, 1.508337056092857e+03
8497, 3.228017979735689e-01, 2.657318584695282e-01, 7.433799118476393e-03, -1.605098422816407e-09, 1.211525897748080e-09, -5.504278221224030e-09, 5.442162047206351e+03, 5.655012283293064e+03, -2.129171097286699e+02, 9.343333413978455e+03, 3.314845065626227e+02, -5.843621714557885e+02, 3.990509049344072e+03
8498, 7.233925597818069e-01, 8.065735313161396e-01, -1.930867809001625e-03, -1.086161836701557e-09, 2.496990921228874e-10, -2.159247422758935e-09, 2.674130228065513e+03, 2.730472245096058e+03, -1.146163784054259e+02, 5.366189615157850e+03, 4.919708866882609e+02, 6.383657978937764e+02, 3.014420605868522e+03
8499, 7.070273991463094e-01, 6.936797050718264e-01, -5.222655262506030e-04, -1.006034992665360e-09, 4.841354135499406e-10, -1.620062159207971e-09, 2.092342443412341e+03, 2.041165509231967e+03, -1.687910335851237e+02, 3.505986117610927e+03, 6.929269321152710e+02, -3.771108534247384e+02, 2.006465970701520e+03
8500, 2.767374200762902e-01, 2.692514645104483e-01, -1.242476160801994e-02, -2.289757520249104e-09, 9.280776519460803e-10, -7.649620259758362e-09, 6.702983239693854e+03, 6.204888269902538e+03, 3.137788378756009e+02, 1.297545890277647e+04, 1.440825188542342e+03, 3.557377975892337e+02, 7.044096067617611e+03
8501, 7.457671622855822e-01, 4.062252480441192e-01, 1.907537318723651e-03, -6.980358673836901e-10, 1.864171949327222e-10, -4.071480221297328e-10, 8.926223032156302e+02, 7.263282820342279e+02, -5.258644232794997e+01, 1.076334040696705e+03, 1.001466010488976e+02, -4.910921442885351e+01, 3.709083973348094e+02
8502, 6.018214458725437e-01, 2.923373543628261e-01, 4.050419829695492e-02, -6.710138953730741e-10, 1.756348662584892e-10, -7.143856766764370e-10, 2.243474770380182e+03, 2.083699815409278e+03, -3.558953807808574e+01, 3.590853850286788e+03, 7.896688576344314e+02, -1.634382638021916e+02, 2.002723797997519e+03
8503, 9.274106465523536e-01, 8.617795217031817e-01, 9.350607863392179e-03, -3.604239646444801e-10, 9.366532508326264e-11, 9.875628861271183e-11, -6.330634543179826e+01, -1.578279571052809e+02, -5.152114171621378e+01, -3.896816064696602e+02, 2.834105661891807e+02, -9.281294492950444e+01, 5.994800162315146e+02
8504, 5.095110734191611e-01, 6.220931560332680e-01, -9.410867654683151e-03, -1.615526008405692e-09, 1.741711732349329e-09, -6.405084482458986e-09, 5.589918282256528e+03, 5.412848537523525e+03, -2.097712986042295e+02, 1.079275186251582e+04, 1.171530088430463e+02, -1.547905981123941e+03, 5.948388069646550e+03
8505, 6.280987199305207e-01, 1.787386970604179e-01, 3.654070030973583e-02, -5.545485743220965e-10, 1.575807592268236e-10, -5.824967059243360e-10, 1.766048475042922e+03, 1.646779139354388e+03, -4.715518088477582e+01, 2.822238166150296e+03, 5.965897884749073e+02, -1.696661420575247e+02, 1.554516529512959e+03
8506, 7.470921183146574e-01, 9.346038635112103e-01, -9.108849074171005e-04, -7.056318766072325e-10, 4.247183162222274e-10, -2.075354554989827e-09, 3.077739910366568e+03, 2.523097776664380e+03, 2.279670793121034e+02, 4.512390944187167e+03, -6.861508069272816e+02, -2.467887301540162e+02, 2.216438400930823e+03
8507, 3.311960473323084e-01, 1.720848659139283e-01, 4.775093600546678e-02, -8.764652583864223e-10, 5.423219405288372e-10, -1.941863749906350e-09, 4.630486489542638e+03, 4.548685104768230e+03, 3.119959196719227e+01, 8.706992189566234e+03, 8.269017080241706e+02, -4.283998049036346e+02, 4.422991377622120e+03
8508, 3.752276803759243e-01, 4.368646441459816e-01, 3.480821523614940e-02, -1.029890989148565e-09, 3.844900745044625e-10, -2.533809212475007e-09, 5.081139908119860e+03, 5.424533589744961e+03, 2.705896774855446e+02, 1.105815532961745e+04, 9.617490127605240e+02, -1.937239109980114e+02, 6.074313945712866e+03
8509, 9.395414596068158e-01, 1.009490215226588e+00, 1.035016907394442e-02, -4.171397802419483e-10, 7.295152263435577e-11, 5.075551333448511e-11, 1.902986574647809e+02, 1.057497579454421e+02, -2.043662127518621e+01, -3.616203511398212e+01, 4.338318299935233e+02, -2.633612494728631e+01, 7.792623886708532e+02
8510, 5.417456295055247e-01, 9.854025754844556e-02, 1.742720880667866e-02, -8.333716701390747e-10, 4.987806157137690e-10, -1.870547472612810e-09, 2.257867459514903e+03, 2.118441111470851e+03, -6.085619609213445e+01, 4.068268556919225e+03, 5.134882246542286e+02, -2.512327653172956e+02, 2.130935020362821e+03
8511, 2.904552343056981e-01, 1.521653456648859e-01, -1.499507704011351e-02, -1.631484491433982e-09, 9.772167466688494e-10, -9.389711407485300e-09, 6.938278224060685e+03, 6.335657271063637e+03, 8.686117293723085e+01, 1.286698107643650e+04, 1.138766890263987e+03, 2.844520924140504e+02, 6.575802137192695e+03
8512, 4.611254254266820e-01, 6.530384547212404e-01, 6.187845862480678e-03, -1.550535454044676e-09, 5.167831925880976e-10, -5.899550663407893e-09, 6.723313822560424e+03, 7.081757278966026e+03, 5.279256052062832e+02, 1.362754734878946e+04, 7.159846712068619e+02, -6.573749321064714e+02, 6.999470612365260e+03
8513, 9.332550626713186e-01, 9.501440237082720e-01, 9.324909406548915e-03, -3.919531548067588e-10, 1.066586153868047e-10, 2.510103248310178e-11, 1.571365519002543e+02, 8.247349217035310e+01, -3.698243125981617e+01, 2.975882962491112e+01, 3.284657813207652e+02, -1.313001332744675e+02, 6.259239812382208e+02
8514, 3.239050079049481e-01, 1.059434499829364e-01, 2.137452180671485e-02, -1.225250778484057e-09, 1.175643070739167e-09, -4.126828853971702e-09, 4.388419027705672e+03, 4.015511960904254e+03, -3.474529658570421e+02, 8.389176318076854e+03, 5.001652619836184e+02, -3.416292218787579e+02, 4.370334927339522e+03
8515, 4.721666686406591e-01, 4.105003990193781e-01, 1.396883001566766e-02, -1.594678229187076e-09, 7.807379081311995e-10, -3.259044632805198e-09, 4.097066026814455e+03, 4.105883490905208e+03, -1.931233765531612e+00, 6.977614404832155e+03, 6.307674010400501e+02, -3.552916769951680e+02, 3.137602242597154e+03
8516, 5.364879734714864e-01, 6.620288772138380e-01, -8.139209562741966e-03, -2.446118829959879e-09, 4.618967963920422e-10, -6.096250489385561e-09, 5.270050175851680e+03, 5.030545457009202e+03, 1.283481216067861e+02, 1.037217169146662e+04, 2.447507577605207e+03, 7.033010816803617e+02, 6.842162350623468e+03
8517, 8.353449487773799e-01, 1.108501508307964e-01, 9.255160482608635e-03, -5.001585665189161e-10, -1.672400873756679e-11, 4.594302173625742e-10, -8.350764527689597e+02, -9.063365777777503e+02, -1.247122696919479e+01, -1.973322244618903e+03, 4.621123679004093e+02, 1.282459283813428e+02, 1.382035137508275e+03
8518, 8.273333983894293e-01, 1.503843492168669e+00, 5.467393331166918e-03, 1.835217544627436e-10, 1.134684732930791e-09, -2.212658374651429e-09, 5.044760179963940e+03, 6.053617137507839e+03, 6.672253703316815e+02, 1.093563677094436e+04, -1.481198406445411e+03, -1.067813302811911e+03, 6.412118099918386e+03
8519, 4.791443710053285e-01, 3.627685019953337e-01, 1.979524187293344e-02, -1.423511718758259e-09, 6.243082842923817e-10, -2.911120397875928e-09, 3.924087385827894e+03, 3.548416369856437e+03, -1.058287473345111e+02, 6.848702111241964e+03, 5.337939017139155e+02, -1.178407747937603e+02, 3.274638803592128e+03
8520, 7.658098300766717e-01, 4.507602549007216e-01, 2.043820242295224e-03, -7.246799305773965e-10, 2.198555928693716e-10, -2.242108850785409e-10, 6.057110742110887e+02, 5.828837167283386e+02, -5.124519544444896e+01, 1.049813282398906e+03, 4.384801387784044e+02, -1.207192685704030e+02, 9.144821875369948e+02
8521, 2.994801757121323e-01, 1.438253261071304e-01, 3.118576785736064e-02, -1.284334173282739e-09, 9.105534917291127e-10, -3.656185830448469e-09, 4.925582112145804e+03, 4.748860474913513e+03, -5.979212089384396e+01, 9.900428094936680e+03, 8.634421991076892e+02, -3.577105744373795e+02, 5.318898304025895e+03
8522, 9.066808151113050e-01, 7.186164529288915e-01, 9.782411348573772e-03, -4.382259149230852e-10, 1.658455179940981e-10, 3.904850570391961e-10, -5.697950888003847e+02, -6.871265181752053e+02, -4.565060627629265e+01, -1.603033385721457e+03, 3.856148234010361e+02, -2.196284991538685e+02, 1.247868205718336e+03
8523, 8.211821747112570e-01, 1.192240709684891e+00, 1.871125667566366e-02, -7.304793015811259e-10, 3.433094257543787e-10, -1.255233655782240e-09, 3.556987661270242e+03, 3.473115551625122e+03, -2.676345379343018e+01, 5.673940819169619e+03, 6.895556742736923e+02, -3.506682229918407e+02, 2.542359744387908e+03
8524, 1.233028491733796e-01, 1.043679344035039e-01, 2.367017430302595e-02, 5.456702362492922e-10, 1.223448332013109e-10, -1.714846677196456e-09, 4.360015444573556e+03, 3.785499790627362e+03, 8.399524595273989e+01, 7.893499231005972e+03, -1.553381223780453e+03, 5.491795380527561e+02, 4.796932085420530e+03
8525, 7.559218802394351e-01, 7.492089499511102e-01, 2.760464614911980e-04, -7.258539474487693e-10, 3.061742697569511e-10, -1.166425573978124e-09, 1.752447133025204e+03, 1.552265680456773e+03, 6.218043570997397e+01, 2.568314596811013e+03, 1.715753124818321e+02, -1.836813614848807e+01, 9.848652268266605e+02
8526, 6.621328501655550e-01, 1.776716336344400e-01, -1.018846705268878e-03, -7.002795272271515e-10, 1.463886441246167e-10, -9.769083487157934e-10, 7.949685222686979e+02, 1.080246550330822e+03, -4.291092136910620e+01, 1.470096420403176e+03, 1.838317731273452e+02, -9.211267956245260e+01, 6.906103951036034e+02
8527, 3.251501644838116e-01, 4.826748775061985e-01, -7.200341378367340e-03, -2.011399326372597e-09, 1.496442858093870e-09, -7.413996723549349e-09, 7.639132983208641e+03, 8.005464446623390e+03, -5.164133032441700e+02, 1.583968567666742e+04, 2.366899614015494e+03, -1.958502744088386e+03, 9.669179447805540e+03
8528, 4.880516905129255e-01, 8.805933840205018e-01, 4.646022443742716e-03, -1.679395602872805e-11, 4.178376801162861e-10, -4.195399454459751e-09, 6.519451551398705e+03, 6.248887763347980e+03, 2.742092725774962e+02, 1.451998410496331e+04, -1.127732734839739e+03, -2.264698170887362e+02, 8.392923303087751e+03
8529, 5.555029507700338e-01, 4.977680941435984e-01, -8.318549178734487e-03, -1.884208055559669e-09, 7.881860287401827e-10, -4.312808689440878e-09, 3.861518336490026e+03, 4.084320192189039e+03, -3.453558972197978e+02, 7.492626895240551e+03, 1.576614277548626e+03, -3.579182135704211e+02, 4.541457748098113e+03
8530, 7.730818256613117e-01, 1.653689123320624e-01, 6.532131464456047e-03, -5.699423402911505e-10, 6.030044132593752e-11, 1.250528865976238e-10, 3.349324809660632e+01, -7.010159439612444e+01, 1.082286469046191e+00, -2.858166036554634e+02, 2.688962700108456e+02, -3.815546588958917e+01, 5.485421258749271e+02
8531, 6.895657966935165e-01, 5.379488735866028e-01, -9.553035342545445e-04, -9.432280056009405e-10, 5.034431062049338e-10, -1.678341885945570e-09, 1.678505516489090e+03, 1.783400524360662e+03, 2.821284271731705e+01, 3.296211392922525e+03, 1.351261040394431e+02, -7.534486033956739e+02, 2.053900064272641e+03
8532, 4.238241624597072e-01, 4.693574083803243e-01, -1.120559500240871e-02, -2.277582729199168e-09, 9.302216377852069e-10, -6.663853082702017e-09, 5.547576234642831e+03, 5.846906914097534e+03, 2.950362324434103e+02, 1.102791685022707e+04, 1.432328404842941e+03, 1.328222527931380e+02, 5.912026421136254e+03
8533, 6.065079002667693e-01, 5.357888730334760e-01, -6.464311138677473e-03, -1.453418415729726e-09, 6.851169835605039e-10, -3.014126261864069e-09, 2.768703485742507e+03, 2.293247417991042e+03, -3.590877195246621e+02, 3.599122919577735e+03, 7.488745599999244e+02, -4.685118518683416e+02, 2.009543287380846e+03
8534, 3.609596962840889e-01, 2.545803119283563e-01, -1.405020676476480e-02, -2.008546416663076e-09, 1.776779546132898e-09, -7.121707490360707e-09, 4.949947009366263e+03, 5.322383548954675e+03, -5.370808391474735e+01, 1.028544613591722e+04, 2.326964699354465e+02, -2.453578640647409e+03, 6.697041595174333e+03
8535, 5.256362873428005e-01, 3.271660249403578e-01, -9.526649904012051e-03, -1.306921497435544e-09, 2.829098153207301e-10, -4.765913479547220e-09, 4.137667693749343e+03, 3.872327145079656e+03, -7.461800908834297e+01, 6.783382429589466e+03, 7.510432000842026e+01, 6.728278366446076e+02, 3.027200832720799e+03
8536, 7.150560699523584e-01, 5.798271391056734e-01, -1.257566992335118e-03, -8.647320297226761e-10, 2.922517864288492e-10, -1.370006065447796e-09, 1.678510861499772e+03, 1.440363947057958e+03, 1.268334724175695e+02, 2.444522120670827e+03, 4.286200534093105e+02, -9.832326287140378e+01, 1.205951264201664e+03
8537, 7.641263056180195e-01, 8.101861531247148e-01, 2.609651612827804e-02, -6.601694164234363e-10, 2.186094179100540e-10, -6.303890365082166e-10, 2.026849397176989e+03, 1.934899206547678e+03, -1.103858135558364e+02, 3.399529113644829e+03, 8.058828840047629e+02, -1.836034551031230e+02, 2.026067629926817e+03
8538, 1.508752476871873e-01, 8.464052628813433e-02, -1.261394764302342e-02, -1.151127385531893e-09, 1.459396596242859e-09, -1.088905276359561e-08, 8.775664770071717e+03, 7.692752780493038e+03, -1.225951712286947e+02, 2.169480098878758e+04, 5.236993627182216e+02, -1.002580032727286e+03, 1.363636456255065e+04
8539, 7.853897868925755e-01, 9.072469562212492e-01, 1.607839901497137e-03, -7.829431285697147e-10, 4.706745447483474e-10, -1.126118791168187e-09, 1.735891584318410e+03, 2.117539221334755e+03, -1.455247661654088e+02, 2.478303286718985e+03, 3.035698808215395e+02, -2.931962461888868e+02, 1.005673351269329e+03
8540, 7.295000848607226e-01, 1.563198352906955e-01, 2.337767033242233e-03, -6.954333611267499e-10, 8.351697138064253e-11, -3.182552877722070e-10, 6.022950899598145e+02, 4.880531930085741e+02, -3.412598413283265e+01, 1.029626198748659e+03, 3.752521870917111e+02, -3.631156254335748e+01, 8.212028695185473e+02
8541, 9.107531844147555e-01, 7.737118426987991e-01, 8.798143018408458e-03, -3.477928296719201e-10, 1.365671357163340e-10, 1.706304496830115e-10, -1.108574454279568e+02, -2.113435190967238e+02, -3.770619665056367e+01, -5.997917969182446e+02, 2.204939350344306e+02, -1.656142000856574e+02, 6.575905607397674e+02
8542, 7.810746066301459e-01, 9.514712767513067e-01, 2.370093411461380e-02, -6.741524630969631e-10, 1.717598681869168e-10, -1.067171164836653e-09, 2.517579180843459e+03, 2.210581771412464e+03, -8.951686750417568e+01, 5.120990674173943e+03, 8.140309413764680e+02, -1.823968854541941e+02, 3.127782632771364e+03
8543, 6.023561486317441e-01, 7.028142590027059e-01, 3.436634144000424e-02, -8.183421619792495e-10, 4.550447891959761e-10, -1.518722296898228e-09, 3.862875076170259e+03, 3.739761393837954e+03, 1.553495168215694e+00, 7.214066026261236e+03, 7.931126076432957e+02, -4.807390483525848e+02, 3.773411637218538e+03
8544, 7.854324804826113e-01, 8.946994961597721e-01, 2.353193194847591e-02, -6.160346285179269e-10, 2.369154078898640e-10, -6.387392846545597e-10, 2.098955630078189e+03, 2.025962686363189e+03, -3.228713556184670e+01, 3.392910381976001e+03, 6.545644745905460e+02, -2.237378379151355e+02, 1.792418374171421e+03
8545, 7.633101777912623e-01, 1.079523638015663e+00, 9.602139890198119e-04, -1.154009121813376e-09, 6.389934719642224e-10, -2.786411948267640e-09, 4.060954732281347e+03, 3.867860992075724e+03, -1.932752450695291e+02, 7.463377509919525e+03, 6.392225686904142e+02, -2.273806843776531e+02, 3.709951597408837e+03
8546, 2.564651177158312e-01, 1.391312405400922e-01, 8.829829285013786e-03, -1.351940423816823e-09, 1.024425424839550e-09, -6.262103575434388e-09, 5.032407925111786e+03, 5.093039382998973e+03, -2.088392212281439e+01, 1.135003340349259e+04, 1.118752892602709e+02, -1.351078124780670e+02, 6.294969422821777e+03
8547, 7.623742331941824e-01, 1.109140339399461e+00, 1.135847377859316e-03, -1.227260474526536e-09, 2.048945716411855e-10, -2.645101140734801e-09, 4.079289771745894e+03, 4.362987261673391e+03, -2.457640600098174e+02, 6.652069096074208e+03, 6.099640053176361e+02, 7.062072510698252e+02, 2.960294057750148e+03
8548, 6.039946354529746e-01, 2.375408640229274e-02, 2.886179355696037e-02, -1.948924065114924e-10, 2.639152077834817e-10, -3.811386602033793e-10, 9.436730961737835e+02, 1.340220110472013e+03, -2.020539443501083e+02, 1.438537697165089e+03, 6.603623021640909e+01, -4.442729118555705e+02, 9.662289733132171e+02
8549, 8.490563482484571e-01, 1.893606587259932e-01, 9.792795024576823e-03, -3.914500594479943e-10, -8.994186655773128e-11, 5.965194595223324e-10, -9.443066764014383e+02, -1.015116171401682e+03, -1.131587412420912e+01, -2.297460488418396e+03, 3.021351258282755e+02, 1.291717639577806e+02, 1.436843822091643e+03
8550, 5.976023807288832e-01, 2.064593254503045e-01, -5.476817994117152e-03, -1.125571428045028e-09, 5.836698075846902e-10, -2.208286800730540e-09, 1.956269926765231e+03, 2.191231423534769e+03, -5.963707782598121e+01, 4.040913661879729e+03, 4.449999850223119e+02, -6.581579694896623e+02, 2.411513184010254e+03
8551, 6.014072382819756e-01, 8.379735975860383e-01, 2.942007191592133e-02, -1.099660728178185e-09, 4.352670668703706e-10, -2.073011391821819e-09, 4.999762518748409e+03, 4.574187013303826e+03, 9.380312941194649e+01, 9.659008333139682e+03, 1.065037747765854e+03, -3.560198904076486e+02, 5.261379167391917e+03
8552, 4.124292983585808e-01, 8.698419395660026e-02, 5.325864814976969e-02, -5.314391518397201e-10, 6.044963040124072e-10, -1.183998163869471e-09, 3.228897068165405e+03, 2.978275935035137e+03, -1.490972883461019e+02, 5.793857105643553e+03, 6.601762397552142e+02, -6.519489402632605e+02, 3.151819221684149e+03
8553, 4.394659104319431e-01, 1.425207061857451e-01, -1.216422383556969e-02, -1.082075374808383e-09, 7.742307724022753e-10, -4.092915241648450e-09, 2.489236037835448e+03, 3.273345772974943e+03, -2.033507866609765e+02, 3.949684593495139e+03, 2.625920503712429e+02, -4.773272959749853e+01, 1.392960786523348e+03
8554, 5.060273915768804e-01, 5.662849241045036e-01, -9.965716273477272e-03, -1.670959742401648e-09, 8.595979739892242e-10, -4.302637931174721e-09, 4.724526650388612e+03, 4.534706657136505e+03, 1.488068847470811e+02, 7.656428011350785e+03, -1.044861514203596e+00, -4.786970114982786e+02, 3.153172520701499e+03
8555, 8.484673545965414e-01, 2.462234340729568e-01, 9.198885082408324e-03, -5.431197157036053e-10, -5.746304253148107e-11, 4.137739351076747e-10, -7.240224669222631e+02, -9.098085622051588e+02, -1.061347405870055e+02, -1.856933530377522e+03, 5.211341779634641e+02, 2.286802125583652e+02, 1.453597258792215e+03
8556, 5.975045579788686e-01, 3.681183756536726e-01, 3.999504727878750e-02, -6.795468881517972e-10, 2.658583430393638e-10, -8.534971859653975e-10, 2.515380820854243e+03, 2.377786651142737e+03, -2.597016205624394e+01, 4.157705596997868e+03, 7.512762894464779e+02, -3.083589650474439e+02, 2.218707829125864e+03
8557, 7.363311946138735e-01, 2.354974712506201e-01, 2.572248214377923e-02, -4.975011870851458e-10, 8.204155701204107e-11, -1.093941805017392e-10, 6.033595193576397e+02, 5.097949890685192e+02, -2.603177297032611e+01, 7.143573750376072e+02, 4.959038378151150e+02, -8.577314884421993e+01, 8.906886186556692e+02
8558, 4.769061992822974e-01, 9.039006039888203e-02, -1.046517431916514e-02, -5.717913914047907e-10, 2.715096151559608e-11, -4.617649175621635e-09, 3.606172086037117e+03, 3.632995605293423e+03, -2.837205531153515e+02, 6.462898713388596e+03, -4.468323608225962e+02, 9.977972632338478e+02, 3.451412280686195e+03
8559, 7.032018513431427e-01, 3.186150075852224e-01, -1.102410651112141e-03, -8.306281298793887e-10, 1.448429480149678e-10, -6.124984960334322e-10, 1.075625760165309e+03, 1.011047162250880e+03, -1.269869561161269e+02, 1.211744582709931e+03, 2.987460772095226e+02, 1.842031133138851e+00, 5.895964620996810e+02
8560, 8.272127575015440e-01, 9.527277511617751e-01, 4.718650069677546e-03, -5.931308616617015e-10, 1.681426920079899e-10, -8.222177717473007e-10, 1.979363614820684e+03, 1.828848095025764e+03, -1.314689916510394e+02, 2.810633822628429e+03, 2.469209876819867e+02, 2.178209078332652e+02, 1.102671393001909e+03
8561, 9.193656033810821e-01, 8.206707183551241e-01, 1.002796877398252e-02, -3.345055656107337e-10, 5.854423015238437e-11, 7.571932405820461e-11, 3.932060048881856e+01, -1.323155469966298e+02, -2.291763203804115e+01, -2.910549422561683e+02, 3.122900459879839e+02, -4.191463118882361e+01, 6.175143414972946e+02
8562, 3.484369537831359e-01, 5.803986434935943e-02, -1.454902768926566e-02, -8.536556262428243e-10, 5.827409200442936e-10, -5.401091921911087e-09, 4.202945636794520e+03, 4.323435104796255e+03, -2.504825612397235e+02, 6.773130883715056e+03, 5.417760759329410e+02, -4.688567059340872e+02, 2.835305624484522e+03
8563, 7.281106361153066e-01, 1.041027967084641e-01, 2.571415950033525e-02, -4.149044491906933e-10, 6.930389272659712e-11, -1.219545416702358e-10, 5.610689717570983e+02, 4.603014683447549e+02, -4.770494233271894e+01, 7.268841172214742e+02, 4.318638332609401e+02, -5.616914148758245e+01, 7.938317478014394e+02
8564, 3.294088386327488e-01, 1.674677014932967e-01, 2.048349704795917e-02, -1.461471023230582e-09, 9.506976398738941e-10, -4.043463390386838e-09, 4.785256515004772e+03, 4.672731304493628e+03, -6.187600565938524e+01, 8.556014931971331e+03, 5.936351903880085e+02, -2.709456261734505e+02, 3.993058361937404e+03
8565, 7.769627504656033e-01, 1.430182022386081e+00, 4.596304846806940e-03, 4.536317824846611e-10, -6.041597502090687e-11, -2.875086012696522e-09, 6.037905247925280e+03, 5.868426896530918e+03, 1.689632451125424e+02, 1.099115305762418e+04, -1.561681292077226e+03, 4.659594497735633e+02, 5.784150826515720e+03
8566, 3.982689308562233e-01, 1.614798378263832e-01, 5.163920094966949e-02, -7.746227149384722e-10, 4.845264030671173e-10, -1.471784096246648e-09, 3.928917883260110e+03, 3.792586438579374e+03, -4.175243001848025e+01, 7.232621933740563e+03, 8.054690975465671e+02, -4.203120481281173e+02, 3.723573997239619e+03
8567, 4.969038418846878e-01, 2.559548309571022e-02, 2.360418982539539e-02, -3.565961293443536e-10, 5.721400976212011e-10, -9.755200306497629e-10, 1.735904204476057e+03, 2.611518388216908e+03, -3.626641973113580e+02, 2.460614497268383e+03, 1.840352252375033e+02, -9.437905657347920e+02, 1.955950751962962e+03
8568, 7.523708331398444e-01, 5.833362239535470e-01, 7.438653912141442e-04, -8.856369788913479e-10, 2.227036674255244e-10, -9.249569928235965e-10, 1.420670421325623e+03, 1.243462305820877e+03, -1.695274226723766e+02, 2.509266486094199e+03, 7.531584189209935e+02, 2.194386886466000e+01, 1.788507259936250e+03
8569, 5.059680760519616e-01, 6.322103685058309e-01, 3.588814726539168e-02, -1.006052130716839e-09, 4.662241977351994e-10, -1.954603169085624e-09, 4.911346824873885e+03, 4.840340477855248e+03, 1.853277663771433e+01, 9.489034031721583e+03, 1.011304953766094e+03, -4.351319113989060e+02, 4.992250972489709e+03
8570, 9.360025035753914e-01, 1.097278392274128e+00, 8.841354290505022e-03, -4.513154128936828e-10, 2.250385024007422e-10, -1.970804946667576e-10, 7.337710613695695e+02, 5.992307506496721e+02, -4.446452485774289e+01, 9.693981170870950e+02, 3.082665614120460e+02, -2.845288885486464e+02, 7.995052893558901e+02
8571, 6.567080051405273e-01, 8.173880007404790e-01, 3.128707269850184e-02, -8.585067283383252e-10, 4.546986503342286e-10, -1.181463444114831e-09, 3.710148311210973e+03, 3.467673782211347e+03, -4.459192829509264e+01, 6.094212882914465e+03, 9.414526311266262e+02, -4.973514200089981e+02, 3.118921690027134e+03
8572, 7.381981696692222e-01, 2.962296705901506e-01, 2.605728119853913e-02, -5.106434082232168e-10, 7.551912758364996e-11, -1.219513395998484e-10, 7.454432593676878e+02, 5.700167014259370e+02, -5.155879040902342e+01, 8.682455115946972e+02, 5.164439321143884e+02, -4.371128073438849e+01, 9.387478930191827e+02
8573, 3.231190437104795e-01, 2.170414376094114e-01, 1.244321534716376e-02, -1.593914696301051e-09, 1.088282704571304e-09, -4.599658050546116e-09, 4.903704464721640e+03, 5.101195890902425e+03, -4.877976994901051e+01, 9.179578082604859e+03, 5.208064180412791e+02, -4.168787768637015e+02, 4.338187386160957e+03
8574, 7.068833137791640e-01, 1.022522050996225e+00, 2.585720164767002e-02, -1.115763747691281e-09, 3.882825215055164e-10, -1.440686423720099e-09, 4.447101760823871e+03, 4.096254845975974e+03, -2.155010540358429e+01, 6.849108100707735e+03, 1.302512010796830e+03, -3.518841935346661e+02, 3.492554626804176e+03
8575, 7.966496253222223e-01, 7.656601743261290e-01, 2.354377624808165e-02, -5.212123324969631e-10, 1.489493561118840e-10, -4.588003925917327e-10, 1.339154568576200e+03, 1.193480801537811e+03, -1.777837942482623e+01, 2.285966678004000e+03, 6.567816867575739e+02, -1.915015988086770e+02, 1.568646886703415e+03
8576, 6.850570720491258e-01, 9.888494353889177e-01, 2.633915920677091e-02, -1.038932091786697e-09, 5.530779796947763e-10, -1.808007179670796e-09, 4.379553057811835e+03, 4.311715626757818e+03, -1.781768973905361e+02, 8.195962345821072e+03, 1.278761909281788e+03, -7.926337578198029e+02, 4.659851829928952e+03
8577, 5.877656546330383e-01, 6.027819468505987e-01, -7.555142419302701e-03, -1.328168093786454e-09, 1.081688151584720e-09, -4.358119634047413e-09, 4.347875951599770e+03, 4.208343129272874e+03, -3.103092652653191e+02, 7.999666165730459e+03, 3.028094528173035e+02, -1.191977117226509e+03, 4.323305486557766e+03
8578, 2.334740893487073e-01, 1.569700518301211e-01, 1.028214550041007e-02, -9.562636936486921e-10, 8.822979788832341e-10, -5.670277368121107e-09, 4.944954530630172e+03, 5.587172199753074e+03, 7.748926321707941e+01, 1.072698424142318e+04, 1.521134159258152e+02, 1.632090259420764e+00, 5.497128949749442e+03
8579, 6.457116492686711e-01, 1.357193427299416e-01, -1.775262608541335e-03, -5.970244126793461e-10, 2.504192702031366e-10, -1.282040967504546e-09, 1.464838959666797e+03, 1.451806468460252e+03, -2.577275317902098e+01, 2.662969629531230e+03, -2.210958925730551e+02, -1.717202163205208e+02, 1.299387532244692e+03
8580, 7.060829005938917e-01, 1.096301157544611e+00, -1.083180047743477e-03, -1.001090919670102e-09, 1.277971936084159e-09, -4.264103719909974e-09, 5.635949207358025e+03, 5.311265163501262e+03, 3.532649058854138e+02, 1.007066612801546e+04, 5.246611978556595e+02, -1.710191022331011e+03, 5.584484946281175e+03
8581, 6.715569693598455e-01, 1.035222204568486e+00, 2.396537033923370e-02, -1.036781081190029e-09, 4.179739682156806e-10, -2.196969282078470e-09, 4.790375216272948e+03, 5.322656351691857e+03, 7.264987696180722e+01, 1.041647952977373e+04, 1.354452872604372e+03, -1.038535179603969e+02, 5.873118608312298e+03
8582, 5.328177208932103e-01, 2.549488117210603e-02, 1.918518750840541e-02, -3.396862721429955e-10, 4.990124302696092e-10, -8.158407699690461e-10, 1.461977640087042e+03, 2.229885252937577e+03, -3.869889653827206e+02, 1.979858973724175e+03, 1.435130590470099e+02, -8.718866095893271e+02, 1.803282094190760e+03
8583, 7.315287394497546e-01, 1.072918840502529e+00, -3.978480233637546e-04, -1.245991899200851e-09, 6.059551693454081e-10, -2.583326248837979e-09, 4.423387688997552e+03, 4.293850857797243e+03, 1.692395698023304e+02, 7.487947792727934e+03, 9.482474378045862e+02, 2.788581976885728e+01, 3.548388421181590e+03
8584, 6.928546924859683e-01, 4.925197168749110e-01, -6.553204331934577e-04, -9.983161283090795e-10, 3.996195381345425e-10, -1.437319097373386e-09, 1.770023673893157e+03, 1.868162710308987e+03, -1.720163737603963e+01, 3.417269675763080e+03, 3.751553173839906e+02, -2.462453441483187e+02, 1.779442064186301e+03
8585, 3.360702516562845e-01, 4.299460056728777e-01, 3.148808772092170e-02, -4.959995512947607e-10, 3.117165898982518e-10, -2.658166346408960e-09, 5.433729984376211e+03, 5.966577381415138e+03, 2.392441749943086e+02, 1.219458572652116e+04, -1.618169729096821e+01, -8.113605651820296e+01, 6.525552879063783e+03
8586, 9.796788381536773e-01, 1.425239283956482e+00, 8.179498111696959e-03, -5.588930287243277e-10, 1.640630165602593e-10, -5.016444968488868e-10, 1.660287252256029e+03, 1.557922510369917e+03, -4.310417005644931e+01, 2.757307480250330e+03, 8.906851419517108e+02, 2.520418036513445e+01, 1.927087917124067e+03
8587, 4.210852554247851e-01, 5.132041449080692e-01, -1.141439730107047e-02, -1.898780718244504e-09, 1.325179935202398e-09, -7.616827033647913e-09, 6.418033737483246e+03, 7.032095334513677e+03, -1.241703389558123e+02, 1.329366741669563e+04, 1.221345323401900e+03, -7.241919217416294e+02, 7.037330273106245e+03
8588, 5.986896046744352e-01, 1.105800368641058e+00, 3.779761785395831e-03, 5.097886143185232e-10, 2.565579969018837e-10, -2.351488566993932e-09, 3.678661380114824e+03, 3.846775399692513e+03, -1.905130349465368e+02, 8.702264146238927e+03, -1.249160859006295e+03, -1.637774541176205e+02, 5.412104247842884e+03
8589, 3.791140234845833e-01, 2.256140880417375e-01, 1.345282246856466e-02, -1.596321210468926e-09, 9.856747652280272e-10, -4.507667084920493e-09, 4.363619376216961e+03, 4.468229561052214e+03, -1.551293539037061e+02, 8.670224713799276e+03, 5.486749285248915e+02, -4.135095505656441e+02, 4.426689097984736e+03
8590, 4.567983544856491e-01, 7.218415055830709e-01, 2.235121969784278e-02, -4.354597440805432e-10, 4.048786859683940e-10, -2.661120536657062e-09, 4.806086613687359e+03, 5.755049164398451e+03, 2.397474948804071e+02, 1.194523092662628e+04, 2.751514935970980e+02, -4.553726473875436e+02, 6.790786788559612e+03
8591, 7.329412240764225e-01, 1.343803061137434e+00, 6.014774285790152e-03, -7.190572215539827e-11, -3.260213470554394e-10, -1.807055000602904e-09, 4.159355877850088e+03, 3.999696355443355e+03, 2.083915222360665e+02, 8.455112244012562e+03, 3.819210189292718e+02, 1.873447323100498e+03, 5.501105254522451e+03
8592, 2.873740872167718e-01, 4.971473577291340e-01, 3.627686060845136e-03, 1.739299558743275e-10, 1.518634845104062e-10, -2.162944067872643e-09, 3.661423899956593e+03, 3.409040121238154e+03, -1.565078333961078e+02, 7.009218602451524e+03, -1.222754055591379e+03, 2.265822792533029e+02, 4.102345811137325e+03
8593, 7.541984426716634e-01, 7.808302002923452e-01, 2.695384608708063e-02, -6.184732051281737e-10, 2.602303185412860e-10, -7.328969660663576e-10, 2.090174204562687e+03, 2.026868707157526e+03, -1.074399862262185e+02, 3.584816192564619e+03, 7.583287034596975e+02, -3.295537221071470e+02, 2.101955184929182e+03
8594, 2.352601110076664e-01, 6.212937427866856e-02, 4.627045995636118e-02, -4.847224990879897e-10, 1.111170079673581e-09, -1.867160743129679e-09, 3.997186701268216e+03, 4.169256636912411e+03, -6.087547871301562e+01, 7.909340640891888e+03, 3.395963185864188e+02, -1.184397810631752e+03, 4.384846793840146e+03
8595, 2.246399230557344e-01, 2.885823141915577e-01, 2.355488084557470e-02, 1.515870554682240e-11, 3.257974069902970e-10, -2.514639539863789e-09, 4.980463140675635e+03, 5.595032216756335e+03, 6.178150932933365e+02, 1.172415500063341e+04, -6.789274826814853e+02, 3.380147974832273e+02, 6.676921943101099e+03
8596, 4.462044574325176e-01, 2.190501523017189e-02, -1.315982419679499e-02, -4.944281311054777e-10, 5.899496497799883e-10, -1.952809255013009e-09, 2.311436430510540e+03, 2.896776403205161e+03, -1.275234176977975e+02, 4.960288166872675e+03, 4.477401201207590e+02, -2.232684917891570e+03, 4.627462127478865e+03
8597, 5.512277858393976e-01, 9.228239994744326e-01, 1.850518037572273e-02, -7.485385897113266e-10, 2.369041558544828e-10, -2.871651222436278e-09, 5.672171984673316e+03, 6.114898626242306e+03, 5.679656880709593e+02, 1.278270335068391e+04, 3.237037436298953e+02, -1.507619630193847e+02, 6.996994814390591e+03
8598, 2.044485597845753e-01, 2.400604257849101e-01, 2.368660470110494e-02, -1.149333826685500e-10, 3.973475045970824e-10, -2.944852740423657e-09, 5.089965303294102e+03, 5.672397386008701e+03, 2.913520699950664e+02, 1.183699791506354e+04, -8.140743909879271e+02, 1.489586169084696e+01, 6.646462444592935e+03
8599, 8.848860490842270e-01, 4.859891424542818e-01, 9.579063513985674e-03, -3.104632510699961e-10, 7.646144022876635e-11, 2.683917983609386e-10, -5.733454811102517e+02, -6.549231607197556e+02, -8.708516296586528e+01, -1.306903778151997e+03, 1.074848609447389e+02, -1.515325022977947e+02, 7.818039842693872e+02
8600, 4.485901381550381e-01, 2.555813201485746e-02, 5.144959707667547e-02, -2.335099931323338e-10, 4.685870280369595e-10, -5.767263590183956e-10, 1.801830076716311e+03, 2.391157283143363e+03, -1.996649704963729e+02, 2.694833714554990e+03, 1.719108382816647e+02, -7.373627983979388e+02, 1.567756586298188e+03
8601, 8.938645744765398e-01, 5.655120613739810e-01, 9.700625939995947e-03, -3.319370933363046e-10, 1.458135622606030e-10, 2.471081513297840e-10, -3.944643216726451e+02, -6.268658408782258e+02, -4.627491217584645e+01, -1.183080374237866e+03, 1.557090587506702e+02, -1.733160991817690e+02, 8.135881156549717e+02
8602, 4.691976155406765e-01, 2.380894044599016e-01, -1.244800275063142e-02, -9.515265668762014e-10, 6.442185191548335e-10, -3.852208374816730e-09, 3.446595357355269e+03, 2.644499244435700e+03, -3.252380054674168e+02, 5.665347200159919e+03, -6.138137142055386e+02, -6.937425330886995e+01, 2.967818999175086e+03
8603, 5.715148390056660e-01, 6.418778838530689e-01, -6.664840191873155e-03, -1.430100498708055e-09, 5.519870702260982e-10, -3.857426641506829e-09, 2.958513707581722e+03, 3.659209635245645e+03, 1.984905219791269e+02, 4.964199626225361e+03, 1.913402636936451e+02, 9.365494352846021e+00, 1.826654516008660e+03
8604, 7.347417655286076e-01, 4.652945096308144e-02, 3.199401264510692e-03, -3.679419281267119e-10, 1.173604597994959e-10, -2.575099904236534e-10, 4.057212917537734e+02, 4.001193764623554e+02, -1.533090965823408e+02, 8.709789112234126e+02, 1.748566345572849e+02, -9.110911749868836e+01, 6.373700234615628e+02
8605, 7.862108469978110e-01, 9.130796525713433e-02, 7.489766699088541e-03, -5.447825204997436e-10, 8.551438212624706e-11, 2.250505129221547e-10, -2.128066144938179e+02, -2.442200598807413e+02, -5.163325149233339e+01, -5.539200416478105e+02, 4.274480728442526e+02, -9.406271345268188e+01, 8.302448746130405e+02
8606, 4.937268665740622e-01, 2.648491253652060e-01, 1.409673940298726e-02, -1.275594634857219e-09, 6.375734120387573e-10, -2.836550541044365e-09, 3.534740493382789e+03, 3.341730153937125e+03, -1.679625160651540e+02, 5.580812757220785e+03, 3.616333316673379e+02, -2.597400690697959e+02, 2.301726033376305e+03
8607, 4.800277134929141e-01, 2.253269851146357e-01, 4.694386403928613e-02, -7.573719562399477e-10, 3.298766013423895e-10, -1.259294324112391e-09, 3.431791590138778e+03, 3.284102973987289e+03, -1.959824695508090e+01, 5.861488313672288e+03, 7.175129194512039e+02, -2.757684958481883e+02, 2.838634896381201e+03
8608, 6.040679133812829e-01, 4.392913908142679e-01, -6.430460450118254e-03, -1.286484724782647e-09, 9.051532957736946e-11, -3.037291620571252e-09, 3.224708175657937e+03, 3.229299032325974e+03, -7.841503616124122e+01, 6.105935711005895e+03, 6.016283246768096e+02, 8.351290429679741e+02, 3.388938493960021e+03
8609, 4.266317547561532e-01, 6.829386599720348e-01, -5.718046576763376e-03, -1.657140265907995e-10, 2.802728857250936e-10, -4.428463168221573e-09, 4.017357058725769e+03, 5.799131066416771e+03, 8.122731950168632e+02, 9.958684932147073e+03, -1.810411298773978e+03, 3.667119327561645e+02, 6.332736794233238e+03
8610, 7.330346359868496e-01, 1.454691048250777e-01, 2.697487549436599e-02, -4.305428708596700e-10, 6.460702715428175e-11, -9.572516673393097e-11, 4.837852490106804e+02, 3.604275884137064e+02, -6.070042665461627e+01, 6.045492384130433e+02, 4.675386479930811e+02, -8.985324652944325e+01, 8.577586035748986e+02
8611, 7.033408246641589e-01, 1.139217445535356e+00, -2.235403807525970e-03, -5.980867892230548e-10, 9.930253409055137e-10, -4.117700304173370e-09, 2.190954810970477e+03, 5.229424039165956e+03, -3.396690015795459e+02, 8.036936906113678e+03, 6.815351785801820e+02, -1.906429465719241e+03, 6.187728243618018e+03
8612, 5.713590014992114e-01, 4.156225702442921e-01, -6.967352177561972e-03, -9.431908417964431e-10, 3.831830181911705e-10, -3.312434682038489e-09, 3.325086282067684e+03, 3.085326277129530e+03, -1.810330695435837e+02, 5.175790517617463e+03, -6.705414196774808e+02, 4.892523814196724e+02, 2.468119905027542e+03
8613, 7.291624381554414e-01, 3.661200847942882e-01, 6.556922175822051e-04, -8.763252658152987e-10, 2.748837537306019e-10, -4.684695467020380e-10, 8.614359141200217e+02, 7.603039948436243e+02, -6.046508799979360e+01, 1.376598740917195e+03, 4.177592195204637e+02, -1.728754664213343e+02, 9.756607844833806e+02
8614, 9.345431052715112e-01, 9.216740627484737e-01, 9.038487040700018e-03, -3.728939053138482e-10, 6.370849496035933e-11, 8.796617930990177e-11, 4.072310182661473e+01, -3.494773460993749e+01, -6.039671224085915e+00, -1.446054344594016e+02, 3.053707897751876e+02, -2.354474870029959e+01, 5.545946562093178e+02
8615, 4.086155473207662e-01, 3.710609165030176e-01, 4.374243928438715e-02, -9.617368373413398e-10, 4.297357527605922e-10, -1.867644063607592e-09, 4.738372798131813e+03, 4.827710670807862e+03, 2.920698366850579e+01, 9.154762038339084e+03, 1.041369235533691e+03, -4.131732695954598e+02, 4.783928261046673e+03
8616, 1.887630408413720e-01, 1.552910722145952e-01, 3.275330315326744e-02, -7.994394200260050e-11, 2.687572239836586e-10, -2.391486949625115e-09, 5.149162741808432e+03, 5.638607079388890e+03, 3.024224309443265e+02, 1.102524044094110e+04, -4.678074396143974e+02, 1.876713596808173e+02, 5.738327537570023e+03
8617, 5.902240531994772e-01, 6.351303130725547e-02, 4.208492348327478e-02, -3.085019788677502e-10, 3.222643285397226e-10, -4.952421005621857e-10, 1.516913434755572e+03, 1.447256149792524e+03, -1.274393822404349e+02, 2.574382699417381e+03, 3.435359176415627e+02, -4.103889875733420e+02, 1.450787494050180e+03
8618, 2.788381644853394e-01, 3.790443869445399e-01, -9.222808834289584e-03, -1.613505715949845e-09, 1.720579747888593e-10, -6.501842770839424e-09, 6.725715567768104e+03, 6.168983738512426e+03, 6.919046293459339e+02, 1.418979283174612e+04, 1.176712940078547e+03, 1.461869239516294e+03, 8.495836051850800e+03
8619, 1.419646521896157e-01, 8.081507730407073e-02, 3.003205545894936e-02, 2.857539759405599e-10, 6.450182697853670e-10, -2.650160933918187e-09, 4.484216614260446e+03, 4.206975325729938e+03, 3.391641395503550e+02, 1.045441499593615e+04, -1.200029683894257e+03, -2.541604147997347e+02, 6.498801440069860e+03
8620, 5.948554401017072e-01, 1.407885159576107e-01, -7.012052051530923e-03, -7.138306407749522e-10, 1.862493972870271e-10, -1.920638975055600e-09, 1.745693476418266e+03, 1.522408886852650e+03, -1.105691341946184e+02, 2.340587268708151e+03, 2.184492389339089e+02, 2.694319985760755e+02, 9.665417032602658e+02
8621, 8.778452108407686e-01, 4.282410971392532e-01, 1.089622949001379e-02, -2.957718502167751e-10, 1.721358571688341e-10, 4.440318360115106e-10, -7.130300771707449e+02, -9.477209999406882e+02, 1.250904890803390e+01, -1.943656929887072e+03, 2.345917060933992e+02, -3.394987518485640e+02, 1.338675752505071e+03
8622, 9.721213112951893e-01, 1.401118268269014e+00, 8.996029499317423e-03, -5.036989688148390e-10, 4.715118470898164e-10, -9.114694418322079e-10, 2.228463377609968e+03, 2.060195516504556e+03, -1.532996590101167e+01, 3.961459077659661e+03, 5.370266052973163e+02, -6.778071350342277e+02, 2.359525573942553e+03
8623, 7.407202716764753e-01, 3.112046447669954e-01, 2.249693882407439e-03, -7.339626352922008e-10, 1.286348506983440e-10, -2.096490646817517e-10, 5.352176480458864e+02, 4.649425898749785e+02, -1.235595721233394e+01, 7.534882728243568e+02, 3.315465483710158e+02, -2.931337790168249e+01, 6.330282797107396e+02
8624, 2.600271183983175e-01, 1.368226035898744e-01, 4.537308164811729e-02, -6.979486300587243e-10, 6.597708902570676e-10, -2.293659327167296e-09, 4.872294172605891e+03, 4.936059531495543e+03, 1.534046843581406e+02, 1.052232288550063e+04, 4.769786914018818e+02, -4.199987531137242e+02, 5.731399151557099e+03
8625, 6.909976517362447e-01, 6.415401533168451e-01, 3.205064429997351e-02, -6.739109992655334e-10, 2.883492406307763e-10, -6.865094489034095e-10, 2.107467899929626e+03, 2.101090003525057e+03, -1.501845016749502e+01, 3.557040742621216e+03, 6.954661306306801e+02, -2.449903224435424e+02, 1.934503600830351e+03
8626, 1.693559602230975e-01, 5.647518507766554e-02, 9.867959354171753e-03, -4.411517296485837e-10, 1.759517476546758e-09, -4.971434157537260e-09, 4.253129223139246e+03, 5.148988973449814e+03, -1.538494951446622e+02, 1.041592996600031e+04, 5.828831459009230e+02, -2.051228540387189e+03, 6.853798612099267e+03
8627, 5.401186951299830e-01, 5.388032260678320e-02, 4.386958057670522e-02, -4.177662052894267e-10, 4.314135069066657e-10, -6.817091858011965e-10, 1.876931701469534e+03, 1.834257812783357e+03, -1.524486670158641e+02, 3.225080830254461e+03, 5.121480172199108e+02, -5.026371715753025e+02, 1.868528523109175e+03
8628, 5.596955757139225e-01, 5.683612670458204e-02, -5.231746766705916e-03, -5.782435467488461e-10, 3.089422901751337e-10, -1.264341959547488e-09, 1.424793033402880e+03, 1.167082332632224e+03, -1.391009254388842e+02, 1.647679372084235e+03, 5.833199744219207e+02, -2.749675326818519e+01, 1.120105046042454e+03
8629, 5.742464642955925e-01, 1.103619439685574e-01, 4.223393312449911e-02, -4.939567192149924e-10, 2.641643597032082e-10, -7.939240336346744e-10, 2.150862049171620e+03, 1.918146485141836e+03, -1.064954590715441e+02, 3.778814855042997e+03, 5.529024237848283e+02, -2.639993032230394e+02, 2.059963796457394e+03
8630, 6.331459850546575e-01, 1.110523473189430e-01, -2.332052867377185e-03, -8.269557686235357e-10, 1.227165550746895e-10, -1.494716221663878e-09, 1.618518275822575e+03, 1.635790331229065e+03, -5.893830085226092e+01, 3.163883952517999e+03, 6.021720109419774e+02, 3.095012566196900e+02, 1.935817502444477e+03
8631, 8.185066725426764e-01, 7.273379833040868e-01, 2.054934660390758e-02, -4.989134785917163e-10, 1.872037327015870e-10, -2.502593393074601e-10, 9.459066261086411e+02, 8.334045495971557e+02, -5.567462083094357e+01, 1.320002738240381e+03, 4.824317871019197e+02, -2.153199393541142e+02, 1.020440843187206e+03
8632, 9.285349991894851e-01, 8.948277666253137e-01, 9.631069063634796e-03, -3.951467391493482e-10, 8.813600560773100e-11, 5.668156334445681e-11, 1.245140616294093e+02, 6.018514760533492e+01, -8.932382845902998e+00, -7.502025908356526e+00, 3.888182543164311e+02, -8.814684625310827e+01, 7.001156130064087e+02
8633, 6.080690485129421e-01, 2.271053158627783e-01, 3.913759972167349e-02, -6.348857075915008e-10, 1.940896269644788e-10, -6.963727905277883e-10, 2.013747351691126e+03, 1.853177703193609e+03, -7.923360964336784e+01, 3.343639466030789e+03, 7.222693797903323e+02, -2.118907315162918e+02, 1.930409818947155e+03
8634, 7.345131459633493e-01, 4.445503639851779e-01, 2.730326113763685e-02, -5.948317361069113e-10, 1.788119545619554e-10, -3.707673676380922e-10, 1.197338920129825e+03, 9.998754850749216e+02, -3.192646343002322e+01, 1.733862067506514e+03, 5.948786963421680e+02, -1.647308183799717e+02, 1.256543359530925e+03
8635, 4.465287895113428e-01, 3.200219309710984e-01, 2.071676303885598e-02, -1.509575933114272e-09, 7.167007213866155e-10, -3.074651236817254e-09, 4.239975805208848e+03, 3.973883145298707e+03, -6.101328934644187e+00, 6.971748761616609e+03, 8.089511889203557e+02, -3.234312141622049e+02, 3.246141483200412e+03
8636, 4.297665752178639e-01, 3.974718796951837e-01, 1.930027588011039e-02, -1.625606036826763e-09, 8.287770583666469e-10, -3.655680211204755e-09, 4.721803073319662e+03, 4.891601817419873e+03, 3.220640806109099e+01, 8.625711915404298e+03, 8.220090696662519e+02, -2.362404484997931e+02, 4.099279714884116e+03
8637, 6.667946719023939e-01, 9.255464727064699e-01, -2.314924854623257e-03, -1.393395962662460e-09, 1.185784414450327e-09, -3.134073779936329e-09, 4.063287224076549e+03, 3.773125243365835e+03, -7.483906772546851e+01, 6.160061079316775e+03, 1.226975144789293e+01, -1.181311635721453e+03, 3.048410154598030e+03
8638, 3.183967317966815e-01, 5.701777239911687e-01, 2.618896319548465e-03, 5.967199721865069e-10, 9.761763391334558e-12, -1.374119808498410e-09, 3.281811858086199e+03, 2.799759563501228e+03, 2.677505634804180e+02, 5.403853236780928e+03, -9.109812128047187e+02, 2.144722176614579e+01, 2.909377991316612e+03
8639, 5.875687354265436e-01, 6.040113383704540e-01, 3.813001275034629e-02, -9.020830610714955e-10, 2.992157555246956e-10, -1.228177607283947e-09, 3.495857580910269e+03, 3.376275079078896e+03, -3.412756212455574e+01, 6.243339840054889e+03, 1.040325342317326e+03, -2.581064788187354e+02, 3.367742705383208e+03
8640, 3.602460244131470e-01, 2.786069563842904e-01, 4.588622602834208e-02, -9.013762122652095e-10, 5.291332939010628e-10, -2.010998708673653e-09, 4.875528613303987e+03, 4.869177263823995e+03, 3.726997177613498e+00, 9.709246667887042e+03, 8.109895178692212e+02, -4.464830006281495e+02, 5.095759617451525e+03
8641, 5.355635875093078e-01, 8.222722400272803e-01, 2.457815656664065e-02, -8.164825637248920e-10, 8.886495850437299e-10, -2.521196965407282e-09, 5.330492136655866e+03, 6.061057312741626e+03, -8.501049235136753e+01, 1.154377006875965e+04, 3.708797882178984e+02, -7.192465612778134e+02, 6.048605318800763e+03
8642, 6.004445191619026e-01, 4.834851294277293e-01, 4.060862680269026e-02, -7.588034178022879e-10, 3.097970377725853e-10, -9.151105278981618e-10, 2.880086552157262e+03, 2.787608825747767e+03, -4.932719367952127e+01, 4.869225474961815e+03, 9.021577119936298e+02, -3.592827100721735e+02, 2.642989624364722e+03
8643, 6.093740307186131e-01, 2.857112810516108e-01, -6.226842021187444e-03, -1.013620951954339e-09, 5.899212631843718e-10, -2.028903561164529e-09, 2.180151024970467e+03, 2.206279161617019e+03, -9.110437722672279e+01, 3.997029811969952e+03, 1.923437618874999e+02, -7.441355398413453e+02, 2.247523313512459e+03
8644, 7.440133557996159e-01, 1.036592635875824e+00, 2.614515988105806e-02, -7.393900128681863e-10, 3.111984799249868e-10, -1.118022440204319e-09, 3.720874586904858e+03, 3.468825921142787e+03, -3.267383441100178e+01, 6.068129306807537e+03, 8.231404584832961e+02, -2.366205689065269e+02, 2.892854461047706e+03
8645, 5.640328309205775e-01, 1.932398887002565e-01, -7.719524139461887e-03, -1.129256677770809e-09, 1.952807153811349e-10, -2.966526148190432e-09, 2.873686586397911e+03, 2.694515182776729e+03, -4.738908644122003e+01, 5.456321625305404e+03, 6.525299768535093e+02, 7.540163001722865e+02, 3.186626038998871e+03
8646, 7.220841702934627e-01, 1.974721707732710e-01, 8.489881792743334e-04, -6.508152189573520e-10, 5.240578516297483e-11, -3.353718993430375e-10, 7.146657910879759e+02, 6.937555160229866e+02, -6.589303865790373e+01, 9.918985608232897e+02, 1.867124891002233e+02, 6.936377364270952e+01, 4.638282002651320e+02
8647, 9.762535106635181e-01, 1.306335064133512e+00, 8.679078951392045e-03, -3.310145764068768e-10, 1.569176127774490e-10, -4.545727927234639e-10, 1.237100026839601e+03, 9.615834555918519e+02, -9.754283905289711e+01, 2.048886481067135e+03, 3.268700250723706e+02, -3.463527524990366e+01, 1.145094717415293e+03
8648, 7.588212213341878e-01, 1.226459447434870e+00, 1.198946681112881e-03, -1.485845816583360e-09, -2.238436250426597e-11, -4.330766195233062e-09, 5.233698367134540e+03, 5.592010210719996e+03, 2.015377937808945e+02, 1.136397172314790e+04, 1.295429857986281e+03, 1.364348496122152e+03, 6.800933590566124e+03
8649, 6.886447713408874e-01, 1.074658592835810e+00, -1.980741612167759e-03, -1.514261520694086e-09, 5.874264432849545e-10, -3.477487276434431e-09, 5.186702587297318e+03, 4.176332257086050e+03, 1.279113177073590e+02, 7.338309505060075e+03, 1.863980102796084e+03, -4.152697854776492e+02, 4.337496593124257e+03
8650, 7.881632566264216e-01, 7.748171769010731e-01, 2.266685422122348e-03, -6.897732688192335e-10, 2.717421842090658e-10, -9.601160052351663e-10, 1.715671608393994e+03, 1.455437120289079e+03, -8.421000037434837e+01, 2.983062664558474e+03, 9.810429736984456e+01, 2.328350743694411e+01, 1.433734507468795e+03
8651, 5.996215918089571e-01, 5.510404213094160e-01, 3.934414505375084e-02, -8.116659753496683e-10, 2.858671127944152e-10, -1.149725393895137e-09, 3.214570570630439e+03, 3.101510549362294e+03, -4.460556620984045e+01, 5.829835858731987e+03, 1.032017646696951e+03, -3.217498321321231e+02, 3.264934325063250e+03
8652, 3.358544615779397e-01, 1.979471470727909e-01, -1.534392989780470e-02, -1.838854358397206e-09, 1.153406398460149e-09, -6.851638594580564e-09, 5.469722335571577e+03, 5.578594473855098e+03, -1.066081547727319e+02, 9.465281771750067e+03, 1.075617685678447e+03, 6.035764011027329e+02, 4.487673426197928e+03
8653, 7.729670704381887e-01, 7.312449093424412e-01, 1.161559521626768e-03, -7.965272127554865e-10, 4.158129510605567e-10, -8.939200463814586e-10, 1.616849440881925e+03, 1.445169303912247e+03, 8.397892542168887e+01, 2.298754821180803e+03, 2.244827250961093e+02, -3.832855084045852e+02, 1.106615032612566e+03
8654, 3.448127408201269e-01, 2.916251786888807e-01, 1.028608318684569e-02, -1.799769167102701e-09, 1.103275704805103e-09, -5.196338853366131e-09, 5.497405048158534e+03, 4.952604330060193e+03, -4.915421108865454e+02, 1.015725220451206e+04, 6.077220278086058e+02, -3.800918281575199e+02, 5.178407085494399e+03
8655, 6.690411517414557e-01, 1.228907026416211e+00, 4.065263556367733e-03, 2.717352491088713e-11, 7.666490847261471e-11, -1.497997822993524e-09, 3.144826272038873e+03, 3.231290343391659e+03, -1.257183017650385e+02, 5.542060941488803e+03, -4.935106219903442e+02, -8.218753277989646e+01, 2.518982587160977e+03
8656, 6.168370079590173e-01, 1.910719010293810e-01, -5.538225891086542e-03, -9.219734005340274e-10, 1.712967417059009e-10, -1.453703514782390e-09, 1.770471375746267e+03, 1.658688611855729e+03, -1.048667762348802e+02, 2.618654965577210e+03, 1.845463860029388e+02, 2.409521558990088e+02, 1.065861222979090e+03
8657, 3.588227091134315e-01, 4.736691608237543e-01, 2.896500609346373e-02, -8.024538721087442e-10, 2.773755997146477e-10, -2.629211274332677e-09, 5.125469352093121e+03, 5.555069500241387e+03, 2.786230089048647e+02, 1.137163106850443e+04, 5.720135553189622e+02, 1.754708103095333e+02, 6.150008240450941e+03
8658, 7.927823766306883e-01, 1.077408493927568e+00, 1.872204737999004e-04, -6.980876377369692e-10, 5.709883153870858e-10, -1.439292620673132e-09, 2.759867957472744e+03, 2.196619788645086e+03, 1.572756664653574e+02, 3.151309066966608e+03, 3.911601044212282e+02, -3.775849195279957e+02, 1.285258663475768e+03
8659, 4.573918003149992e-01, 5.387425499724635e-01, 3.677824315348237e-02, -1.049725494569843e-09, 6.536963404912962e-10, -2.145122026508288e-09, 5.035443303973596e+03, 4.933572287220548e+03, 3.660409524090245e+01, 1.000984061299826e+04, 1.138214863778404e+03, -5.779951400460038e+02, 5.491321075768928e+03
8660, 6.288915089250301e-01, 1.148181524760694e+00, 5.367547816321091e-03, -3.254514122292794e-10, 2.792324180327518e-10, -2.350653177174436e-09, 4.496011171185748e+03, 4.853398432710380e+03, 1.466979457127178e+02, 9.817375925698187e+03, 7.512146341151243e+02, 2.863226672677358e+01, 5.320042395463339e+03
8661, 3.602359438065207e-01, 5.483402193881532e-01, 2.141720822965352e-02, -9.966685400373544e-11, 3.354979563472389e-10, -3.003193548568512e-09, 5.183558784572615e+03, 4.883943659480378e+03, 7.003120330556085e+02, 1.251131516546952e+04, -9.405065407040954e+02, -4.778578227208283e+02, 7.796877723301977e+03
8662, 2.694734482170403e-01, 3.018423059484260e-01, 1.342717761634829e-02, -1.085669541391065e-09, 6.805273473533784e-10, -4.912242258939456e-09, 5.440180609169941e+03, 5.991817426565549e+03, 3.972335866863352e+02, 1.228479944758573e+04, 3.358448706805502e+02, -1.695618538790679e+02, 6.653974679447469e+03
8663, 8.343922154999934e-01, 6.849909245025644e-01, 1.905674823264345e-02, -4.509760963755388e-10, 1.400691264501405e-10, -1.134486628232750e-10, 6.383857624418151e+02, 4.622813910762452e+02, -5.131600620931098e+01, 7.285862240518093e+02, 4.454687567468520e+02, -1.447412023796545e+02, 8.491824613526444e+02
8664, 2.135932481226961e-01, 1.366960768516717e-01, -1.545833874002358e-02, -1.341524912137548e-09, 6.117681431605153e-10, -7.933410723143500e-09, 5.730515844762496e+03, 6.144866904293111e+03, -1.897472452057623e+02, 1.115734068801747e+04, 1.714876841854353e+02, 1.717037070202935e+03, 6.034433617684295e+03
8665, 3.969073624283641e-01, 1.312325315163878e-01, 5.165970758669698e-02, -7.264941902362864e-10, 5.266775604480582e-10, -1.459214710666323e-09, 3.818409746590470e+03, 3.644284967253117e+03, -6.534385571893651e+01, 7.003136695898384e+03, 8.126746608114393e+02, -4.911934757444560e+02, 3.666781684390647e+03
8666, 5.895849175348430e-01, 4.011859022467484e-01, 3.997747855781233e-02, -7.145961024184264e-10, 2.695012962882907e-10, -9.732422900539019e-10, 2.746719835314941e+03, 2.588971179887112e+03, -6.044659523656372e+01, 4.750792101223637e+03, 8.051364829186306e+02, -2.856537829098996e+02, 2.560824063203101e+03
8667, 6.664676725269466e-01, 7.831369256489059e-01, 3.093932954630577e-02, -8.276503889704450e-10, 3.312054048376116e-10, -1.136261521073720e-09, 3.279067146659772e+03, 3.143685663435630e+03, -7.742903000966865e+00, 5.345981656691450e+03, 9.219425136751547e+02, -2.916442003624896e+02, 2.715799801507083e+03
8668, 3.379978074505380e-01, 1.452785856649875e-01, 1.415370161769905e-02, -1.463855363468857e-09, 9.995025605901207e-10, -4.515404950088628e-09, 4.731626190736162e+03, 4.645612319887378e+03, -1.020200068573958e+02, 8.185035149126764e+03, 4.135396445623510e+02, 7.888704117503194e+00, 3.574203260201590e+03
8669, 6.981093441650347e-01, 8.752698502326950e-02, 2.987581997701029e-04, -5.454297545502931e-10, 9.148756414543534e-11, -4.460206299230262e-10, 7.508558625717772e+02, 7.533938193643694e+02, -1.245579826813863e+02, 1.204460921758258e+03, 2.309433393329331e+02, 2.194315238261415e+02, 7.453937838115038e+02
8670, 4.838868417186439e-01, 4.817602630373747e-01, 1.759810709115312e-02, -1.322837865234433e-09, 8.502364535191519e-10, -3.057495671336878e-09, 4.806811909172955e+03, 4.387470694621840e+03, 2.857492523035853e+00, 7.294694991773315e+03, 4.280811481568702e+02, -3.367954324030215e+02, 2.880756774582708e+03
8671, 2.621514882981324e-01, 4.516328799269212e-01, 3.337991966139181e-03, 3.757218213692439e-10, -9.086104223058684e-11, -1.019879486257523e-09, 2.644827916815712e+03, 2.832178571777406e+03, 2.194426067398415e+02, 4.370706114013537e+03, -9.026414608342698e+02, 3.428087443297215e+02, 2.373123449764980e+03
8672, 3.745234858973863e-01, 3.949259497364775e-01, 3.868899202974155e-02, -1.012686287227657e-09, 4.849724037690354e-10, -2.380618496576524e-09, 5.167981349612942e+03, 5.411073031228842e+03, 1.334432605731672e+02, 1.078846066968958e+04, 9.094573288672420e+02, -3.788530934752965e+02, 5.766102478576913e+03
8673, 6.990269640276456e-01, 1.278871470571612e+00, 4.424347605721187e-03, -6.125697444763633e-10, 2.724036718009129e-10, -2.320640417412592e-09, 4.948291468634966e+03, 5.281523928992497e+03, 3.804123130797424e+01, 9.742096434131034e+03, 1.003781448494439e+03, -5.776191441913385e+02, 5.051946468322517e+03
8674, 7.923471077635187e-01, 7.990179789519941e-01, 2.467967685548415e-02, -5.511408499478505e-10, 1.625732586192162e-10, -4.578168442505252e-10, 1.581535345941754e+03, 1.432055014180077e+03, -5.092157069162180e+01, 2.424234394555735e+03, 6.557284796352692e+02, -1.658414874026038e+02, 1.496222484262194e+03
8675, 4.045458145241574e-01, 2.209085667039146e-02, -1.396130940596847e-02, -2.925847300163512e-10, 7.698237069481759e-10, -1.253955852068733e-09, 2.187624458735607e+03, 2.910221366191650e+03, -4.474621555370796e+02, 3.319668764245482e+03, -2.483363042807396e+01, -2.009764446289374e+03, 3.702112308434011e+03
8676, 4.516882318594495e-01, 7.889137531738544e-02, -1.327490133628148e-02, -5.092269634181292e-10, 5.810243993094623e-10, -3.405268597231606e-09, 3.143896172653608e+03, 3.060263736182292e+03, -3.366557550743292e+02, 3.696550814763591e+03, -9.354429382709992e+02, -2.108412768750029e+02, 1.859348081662702e+03
8677, 4.610488777442374e-01, 4.631131854629931e-01, 1.270449023023919e-02, -1.730348762906379e-09, 7.720454011575161e-10, -3.695889754613200e-09, 4.921991110834814e+03, 4.851548058182891e+03, -7.217153980249222e+00, 8.332624598497840e+03, 8.031756406183026e+02, -2.895143541697417e+02, 3.750269819623221e+03
8678, 7.144635847982987e-01, 8.391620172080196e-02, 2.753926818246299e-02, -3.943093929969728e-10, 7.408584646217173e-11, -1.526530339357325e-10, 6.750707554775416e+02, 5.541316030716929e+02, -8.147742552539357e+01, 9.090506589035521e+02, 4.067148420534928e+02, -4.036789309776793e+01, 7.865910667063438e+02
8679, 8.597911159640269e-01, 3.060905543085900e-01, 9.708641459575160e-03, -5.269570870267471e-10, 1.128969068617187e-10, 4.614561310324644e-10, -9.110483491323724e+02, -7.859538833885879e+02, -1.924603972638550e+01, -1.818211142507475e+03, 4.179368959297248e+02, -1.831858539910262e+02, 1.256133015410619e+03
8680, 7.172163849846183e-01, 2.239958212863432e-01, 1.060598990080080e-03, -6.901522760277247e-10, 1.855933716867969e-10, -3.810532778039767e-10, 7.684198103545626e+02, 7.012657180169805e+02, -2.039143987438423e+01, 1.130244497172093e+03, 1.548224357649593e+02, -2.290675873879962e+02, 6.247383897449861e+02
8681, 4.575513116157467e-01, 5.795364165229371e-01, 3.491885242541846e-02, -1.129541169686179e-09, 5.586888244887563e-10, -2.304879275015534e-09, 5.451179243117869e+03, 5.562792541684548e+03, 7.612167024768418e+01, 1.082260536163387e+04, 1.056569270738201e+03, -4.671316436516681e+02, 5.682093698906132e+03
8682, 7.020293584211620e-01, 1.007433408750189e+00, -3.153954300971956e-03, -1.513467799921086e-09, 5.906342996505815e-10, -2.530322807922477e-09, 3.691527229828558e+03, 3.108695764655383e+03, -6.370514526899804e+02, 4.303722619949224e+03, 9.922289771769463e+02, 1.006858416796323e+02, 2.296247820770544e+03
8683, 7.288766390203507e-01, 1.041948122283989e-01, 1.250400158874940e-03, -5.702842686072559e-10, 6.911095758168380e-11, -2.759523368747148e-10, 4.377748339137575e+02, 4.662364915858418e+02, -7.601824211789659e+01, 7.856796446629344e+02, 3.115704370685209e+02, -2.794553928840647e+01, 6.502718403417924e+02
8684, 7.473185109992284e-01, 9.691863469273180e-01, -1.254672931278527e-03, -5.526468295866280e-10, 4.029126718628250e-10, -2.798856675365253e-09, 3.440717768960986e+03, 3.519124588523347e+03, -1.707210858615913e+02, 6.163653099607644e+03, -6.055972656721688e+02, 2.582214612516178e+02, 2.931679369624616e+03
8685, 7.533492252833387e-01, 8.848372048036289e-01, 2.737234870063246e-02, -6.750565335988267e-10, 2.692868759442930e-10, -8.779888510701878e-10, 2.766789774920396e+03, 2.616560121063470e+03, 2.770974362013926e+01, 4.367565040134891e+03, 6.992133624285908e+02, -1.016321397814750e+02, 2.079789185565851e+03
8686, 5.444580297774504e-01, 2.616914791454623e-01, 1.472434828645092e-02, -1.073524642691551e-09, 4.592108771297125e-10, -2.549285915097029e-09, 2.530181882813836e+03, 2.509724088521355e+03, -1.340103694218839e+02, 5.684042819971628e+03, 4.319826770032984e+02, -1.478320524801844e+02, 3.269716311059523e+03
8687, 4.179826603877588e-01, 4.343232369966100e-01, 4.137255076540775e-02, -9.566221982803137e-10, 4.306685180511057e-10, -1.866103157925760e-09, 4.856012727966363e+03, 4.859584621701499e+03, 1.150207100244455e+02, 9.268884886624830e+03, 9.539587154385654e+02, -3.799957668507893e+02, 4.760323777709995e+03
8688, 4.235866439297978e-01, 5.128564221669476e-01, 3.653625746527797e-02, -8.848528550383445e-10, 6.747129515844740e-10, -2.189773242903747e-09, 4.875564013730741e+03, 5.496565863812351e+03, 1.079074805056195e+02, 1.029109801718228e+04, 7.735599460878781e+02, -7.124868118376468e+02, 5.450103175149143e+03
8689, 5.568470164743173e-01, 1.677879836527332e-01, 4.438702955020853e-02, -5.993695808175613e-10, 2.105641149227916e-10, -7.857184344571163e-10, 2.361730024418675e+03, 2.271815474871328e+03, -8.158941493070608e+01, 4.000084062806964e+03, 6.704033597863418e+02, -1.994587751224626e+02, 2.080202958350215e+03
8690, 7.529997936236261e-01, 5.833031891281510e-01, 2.574707990111340e-02, -6.278809611998073e-10, 2.173895724049673e-10, -4.288226847854109e-10, 1.399088344201093e+03, 1.218860377630950e+03, -7.027157796534456e+01, 2.106005763806275e+03, 6.807250284320205e+02, -2.250514884751580e+02, 1.488804601534032e+03
8691, 2.205870128318810e-01, 2.417099461658770e-02, 1.669344393574882e-02, -4.146858960884032e-10, 1.077768831165498e-09, -1.976115700098243e-09, 3.440929275000975e+03, 5.368067982213452e+03, -4.324035299884663e+02, 5.287112171087199e+03, 2.600710019250987e+02, -2.147829637475332e+03, 4.262364371357191e+03
8692, 4.049214086619560e-01, 6.189378405966156e-01, 2.379758404776214e-02, -5.388383047500268e-10, 7.292451943418113e-11, -3.026990959243169e-09, 5.217901072746464e+03, 6.034688344693674e+03, 3.500898036161274e+02, 1.351581261796890e+04, 1.348408889306353e+02, 1.217063187498160e+02, 7.950567339373392e+03
8693, 9.689238410388986e-01, 1.247137379377829e+00, 8.418119327420679e-03, -3.883099794872714e-10, 1.315669124243724e-10, -5.213297679585830e-11, 7.167268465486111e+02, 5.940296294742127e+02, -5.442963428528854e+01, 8.496645367089344e+02, 3.329660412357326e+02, -9.803281035352930e+01, 6.475772741544016e+02
8694, 4.250852271173127e-01, 6.832361007368913e-01, 1.913957700869355e-02, -8.333040255627531e-11, -4.066049466942885e-15, -2.402228689134282e-09, 4.907592900807860e+03, 5.992832432620230e+03, 5.706315125185924e+02, 1.038818032134587e+04, -7.340214272351641e+02, 5.453952840265233e+02, 5.362128735205849e+03
8695, 2.412098157787507e-01, 3.245593432079603e-01, -8.598956055591085e-03, -9.610364007609027e-10, 1.996309623016840e-09, -6.323465602685075e-09, 5.511162053919412e+03, 7.176601959583939e+03, -7.985808591066899e+01, 1.255415389961150e+04, -7.517146988185008e+02, -2.367277673065454e+03, 7.692471137019461e+03
8696, 1.920256126868189e-01, 1.547657080412314e-01, -1.335433729086108e-02, -9.991329330764090e-10, 5.826310450259912e-10, -6.582203701568045e-09, 4.133552557368842e+03, 5.078620127615777e+03, 6.887323595418377e+02, 8.364326088133301e+03, 3.385233529765732e+02, 6.815775607858392e+02, 4.237301665545779e+03
8697, 9.465253948594500e-01, 1.195684108196720e+00, 8.861885201709866e-03, -5.119973595256283e-10, 7.264572071862500e-11, -3.012639166041808e-10, 9.553113859961808e+02, 7.936058521596452e+02, -3.457080870158967e+01, 1.386461957350992e+03, 5.698723544539966e+02, 1.440452608707275e+01, 1.122599805286303e+03
8698, 3.445136241001857e-01, 9.762415251036895e-02, 5.338020009517942e-02, -6.157388626530126e-10, 7.159667840221909e-10, -1.569367638789762e-09, 3.877129547635860e+03, 3.655691035692329e+03, -9.679119517422048e+01, 7.552390305917874e+03, 6.683343990677865e+02, -7.255662487062799e+02, 4.161475493904132e+03
8699, 3.794917555929309e-01, 6.776695552300946e-01, 2.906831620166705e-03, 1.971135810614406e-10, -5.605154518514420e-10, -1.573444079554168e-09, 3.290592573206507e+03, 3.356495685819179e+03, 1.932588740748166e+00, 5.945367172156144e+03, -3.750899246089451e+02, 1.026088257363610e+03, 3.233863537187372e+03
8700, 7.745444547609890e-01, 1.008201148889193e+00, 2.551084504715009e-02, -7.182983928690352e-10, 2.135150274826616e-10, -1.001381952888764e-09, 2.941777486015255e+03, 2.807704206397288e+03, -1.246027584304614e+02, 5.385120009941760e+03, 8.082787843953563e+02, -2.153072929075548e+02, 2.908793270794921e+03
8701, 7.571012299591465e-01, 2.788131172759857e-01, 2.580732364410841e-02, -4.432613074432765e-10, 6.386126381869407e-11, -8.301685660708699e-11, 4.501329638016366e+02, 3.009930223318785e+02, -2.622968868448285e+01, 4.958190319922436e+02, 4.807244821301690e+02, -6.381217544402761e+01, 8.594833393221537e+02
8702, 4.717230695258373e-01, 1.267463608600927e-01, 5.079341247062374e-02, -5.515520011908409e-10, 3.593810270083430e-10, -1.080579403233322e-09, 3.081250480655287e+03, 2.917813786644739e+03, -1.317292724738831e+02, 5.518523538337535e+03, 6.694735033244650e+02, -3.852772328591337e+02, 2.864840155876118e+03
8703, 8.634497885069340e-01, 3.333992436018973e-01, 1.041217461726427e-02, -5.082382645180640e-10, 8.264960197042068e-11, 5.374977397936829e-10, -9.754246894548767e+02, -1.110231739453523e+03, 4.647003722267299e+01, -2.153055034707136e+03, 5.856779927797310e+02, -2.376086603904866e+01, 1.511112689702074e+03
8704, 4.041621194206652e-01, 2.334269746358236e-02, 5.405499627324935e-02, -2.175676574524453e-10, 5.026370273369389e-10, -5.586143811517234e-10, 2.082934731405828e+03, 2.696581791975093e+03, -2.045281867975935e+02, 3.098055602244527e+03, 2.067919549619004e+02, -8.049923226780854e+02, 1.726826323939944e+03
8705, 3.174112068879398e-01, 4.914418020365572e-02, -1.616133586915328e-02, -9.401192890352233e-10, 5.381432378107613e-10, -4.026010403362386e-09, 3.938120629990933e+03, 4.072139347372028e+03, -3.174791019463709e+02, 6.026393598951633e+03, 4.786543513354219e+02, -6.470176741735627e+02, 2.518845342892772e+03
8706, 6.009622539247512e-01, 9.991785848762100e-01, 2.004195927843042e-02, -3.006135458143656e-10, 4.214562192128279e-10, -2.457919673990198e-09, 5.810355688122774e+03, 6.335484428165906e+03, 4.861079018414542e+02, 1.202486699366640e+04, -9.890247757655737e+01, -5.768921102669469e+02, 6.113031471051007e+03
8707, 2.886128890217035e-01, 2.466982896281416e-01, -1.511787008530686e-02, -2.355559535365141e-09, 1.625398478783472e-09, -6.990835927074187e-09, 5.982195869143948e+03, 5.074800702047760e+03, -2.339642192212947e+02, 8.843604883501788e+03, 2.355880544818975e+03, -5.933842360449943e+02, 5.429411385609755e+03
8708, 8.364937282806819e-01, 9.090473697043200e-01, 2.121657547829344e-02, -5.022249731961666e-10, 1.671067665396372e-10, -5.010083722772216e-10, 1.715297262451854e+03, 1.550463286694391e+03, -7.401510943558932e+01, 2.681894510954111e+03, 6.199290974578121e+02, -1.954775535723235e+02, 1.550746251504003e+03
8709, 2.855583372879466e-01, 3.220555871799766e-01, 3.476564391026551e-02, -6.843326711398214e-10, 4.107335578819257e-10, -2.593771302128994e-09, 5.519147621468868e+03, 5.892108831111341e+03, 1.824566914976972e+02, 1.231505924523681e+04, 3.697448761812046e+02, -2.131999614328681e+02, 6.665978642780584e+03
8710, 7.523051338221761e-01, 1.110987151867969e+00, 2.359112384628409e-02, -7.439420941931093e-10, 4.310083204916377e-10, -1.298070685098947e-09, 3.798026803979200e+03, 3.738309243226376e+03, -1.383461982005277e+02, 6.841348367144080e+03, 8.286139854186770e+02, -5.128021125697771e+02, 3.514716561311487e+03
8711, 7.545467162522385e-01, 1.164008240307001e+00, -2.842347318749369e-04, -1.189811059914543e-09, 1.698945139801178e-10, -3.268222255584913e-09, 4.534113730796496e+03, 5.105816532015645e+03, -1.961677110195011e+02, 8.952350239225840e+03, 6.272457674088881e+02, 4.900956177771647e+02, 4.397508153881252e+03
8712, 4.044984894907915e-01, 1.263385170392587e-01, -1.363821845628065e-02, -1.681600509589155e-09, 9.123520367835677e-10, -5.042337382104723e-09, 3.795555906256496e+03, 3.453489087646554e+03, -1.301980391815012e+02, 6.441583859030527e+03, 1.339750967924904e+03, -7.024056066605344e+02, 3.865147534597558e+03
8713, 3.587788298362373e-01, 1.724107250348364e-01, 5.093005355010161e-02, -7.660517235093298e-10, 4.868085214800944e-10, -1.648471428811865e-09, 4.359753076502842e+03, 4.327246239173144e+03, 2.102266420407396e+01, 8.170458607762583e+03, 8.021012048736953e+02, -4.344480255910573e+02, 4.140539514591415e+03
8714, 2.574726552758457e-01, 5.401197808499867e-02, -1.817105562988069e-02, -1.054929306309085e-09, 8.871259668425613e-10, -7.336181584499335e-09, 6.478851999106036e+03, 6.547894718347769e+03, -1.559744954721338e+02, 1.199719891948443e+04, -3.631516831054578e+01, -8.462694890803364e+02, 5.683429827325607e+03
8715, 4.050925189823591e-01, 5.424282496632501e-01, 1.364041018114100e-02, -1.381070796923469e-09, 1.404881776051178e-09, -4.808170879519929e-09, 5.658411150909480e+03, 6.798506238155502e+03, -3.343751242330953e+02, 1.193751403782012e+04, 6.656412283332313e+02, -1.068626451691269e+03, 6.217613521612965e+03
8716, 5.444330962944331e-01, 6.050951425090854e-01, 3.806692386626387e-02, -9.604789074050204e-10, 4.201007219964274e-10, -1.552667968581014e-09, 4.122539476448395e+03, 4.101267238124230e+03, -3.262595903901580e+01, 7.510417196294065e+03, 1.053069380214170e+03, -4.045541868495584e+02, 3.920623251927662e+03
8717, 7.622563058136117e-01, 6.593895885857332e-01, 1.733943288338043e-04, -9.509683157560903e-10, 3.539470365892894e-10, -1.197089616990082e-09, 1.675416437230019e+03, 1.601709605357509e+03, -3.654323177531958e+01, 3.042559186003722e+03, 7.065677401517120e+02, -1.218188701617476e+02, 1.876571182325969e+03
8718, 8.033239450623409e-01, 1.467126875931401e+00, 6.153442132856068e-03, 5.645274970118524e-10, 7.227195622071245e-10, -2.453155415130100e-09, 5.682469749127749e+03, 6.091262463300702e+03, 3.839479021310898e+02, 1.090104262803631e+04, -2.633340857552963e+03, -9.627437626038665e+02, 7.020942006062030e+03
8719, 7.887892354956514e-01, 6.203541966104690e-01, 3.130341062992271e-03, -7.149219819596783e-10, 2.111786631078075e-10, -7.768975762895094e-10, 1.206786112082392e+03, 1.108354545893040e+03, -1.498486766063164e+01, 1.891711133718034e+03, 2.591693709800862e+02, -3.868802063199163e+01, 8.676978260012349e+02
8720, 8.713604014738897e-01, 1.577671799414347e+00, 6.108677543487026e-03, -1.229922289639017e-09, 1.781420688028474e-09, -3.260127934246637e-09, 7.448939418054351e+03, 1.125619420376877e+04, -5.424700253774758e+02, 1.481516721884888e+04, 6.325430870140984e+02, 1.480665506792144e+02, 6.546779325415142e+03
8721, 6.836633584481255e-01, 7.504757895636672e-01, 3.100150351270555e-02, -7.552280818423808e-10, 3.002943236121820e-10, -9.757233978798607e-10, 2.885452003813700e+03, 2.726137120297466e+03, -8.875815570842641e+01, 4.737808273298275e+03, 8.146281501594757e+02, -2.867973630265654e+02, 2.452134210548050e+03
8722, 9.620481787598266e-01, 1.562516658836295e+00, 7.860708278619481e-03, -1.116673860422630e-09, 1.044537120332296e-09, -1.072762589590179e-09, 3.273187839189283e+03, 4.133941532198750e+03, -4.701548613260134e+02, 4.961824136331057e+03, 1.195000632928147e+03, -9.461432601908525e+02, 3.125966580201185e+03
8723, 4.012553898162895e-01, 2.740776795594161e-01, -1.434747351150509e-02, -2.272128911506067e-09, 7.542725607903875e-10, -7.475043989749255e-09, 5.708364867386559e+03, 5.486646362297291e+03, -1.838788755011890e+02, 1.063683671917482e+04, 2.181058214954950e+03, 3.369959469306419e+02, 6.336000729095482e+03
8724, 6.413691376265183e-01, 4.583968251493408e-01, -4.557219977335793e-03, -9.302102923542114e-10, 6.000712721021616e-10, -2.275369892925133e-09, 2.649161729020963e+03, 2.517118535260449e+03, -7.306265922283939e+01, 4.679634341890727e+03, 7.912405504756612e+01, -5.098479037370549e+02, 2.285387381800749e+03
8725, 6.878414502848120e-01, 1.073274324012636e+00, 2.233586412862736e-02, -1.194797122666667e-09, 4.803957010948628e-10, -1.917347675597244e-09, 4.998352890598934e+03, 4.529370173918229e+03, 1.810232139703491e+02, 9.603714080971184e+03, 1.451454360309325e+03, -4.184018180771728e+02, 5.525647384784063e+03
8726, 7.571437549568940e-01, 2.117068497848034e-01, 2.447684580185272e-02, -4.500894605000638e-10, 6.022091811218978e-11, -1.124615620756834e-11, 3.539576408768654e+02, 2.420911430528438e+02, -2.265761720610481e+01, 2.346816550902888e+02, 4.607170476667602e+02, -6.125412618331108e+01, 8.142326375947263e+02
8727, 7.896600595968892e-01, 1.177263152454247e+00, 2.100256555160039e-02, -8.458216537934394e-10, 3.976517110641547e-10, -1.238766591572685e-09, 4.033220501117932e+03, 3.727583487401932e+03, -1.130713078802241e+02, 6.213457336399038e+03, 1.032096798181845e+03, -3.563222289765780e+02, 3.021279708109816e+03
8728, 8.538825601808813e-01, 1.655583129244361e-01, 9.446459432245081e-03, -3.714055359999586e-10, -2.429896981857474e-11, 4.320403965655223e-10, -8.296477066718637e+02, -9.376643800572713e+02, -1.827879015222675e+01, -1.817226007475000e+03, 1.461532424347639e+02, 8.676882456246136e+01, 9.838570624154795e+02
8729, 3.343346567496629e-01, 2.194056860582477e-02, 5.551732453922412e-02, -2.376585976596536e-10, 5.810214441881057e-10, -6.799747287212374e-10, 2.365552761742638e+03, 3.094929424864703e+03, -1.858871242914934e+02, 3.675504206164016e+03, 2.377208375858473e+02, -9.655805538326862e+02, 2.088719264689222e+03
8730, 7.857127754433499e-01, 1.138690210908363e+00, 6.824018596158533e-04, -1.527404774467865e-09, 7.323221566141473e-10, -2.752837386511149e-09, 4.062299709138279e+03, 3.490291222272158e+03, -2.449805661938719e+02, 7.540128222211809e+03, 1.539791218163715e+03, -5.956453662503760e+02, 4.771700947019217e+03
8731, 3.346643863969503e-01, 3.115569189257693e-01, 2.112896615136542e-02, -1.576108806350092e-09, 8.385635520782372e-10, -4.324287687561171e-09, 5.351438313419675e+03, 5.210203921006989e+03, -5.057679531059738e+01, 1.083092530962831e+04, 9.683152804666634e+02, -2.971606649667815e+02, 5.822723398728497e+03
8732, 8.098022205723038e-01, 1.056020139736815e+00, 2.290705330286317e-02, -6.540539620423973e-10, 2.691006835583267e-10, -6.727265001532845e-10, 2.268628999837916e+03, 2.129170455914066e+03, -1.576300509105691e+01, 3.801380193297167e+03, 6.190816812299400e+02, -1.786793256481568e+02, 1.956742410614055e+03
8733, 7.540733562917128e-01, 5.591194488616734e-01, 2.811449494294881e-02, -5.584115555839808e-10, 1.796019914851471e-10, -3.018242588274258e-10, 1.210285068146213e+03, 1.093656071585054e+03, -5.190007360996466e+01, 1.758711204417946e+03, 6.172068596776602e+02, -2.197784282975518e+02, 1.293892340267363e+03
8734, 1.839444726283916e-01, 5.428410255583819e-02, -1.642262952030961e-02, -1.306847409243829e-09, 1.567535402224642e-09, -6.516829598191137e-09, 4.815352842800922e+03, 5.344077605976594e+03, -1.211104536836570e+03, 8.757519311199889e+03, 2.120549447544046e+03, -2.395073303073715e+03, 6.988243424819058e+03
8735, 3.852357129279872e-01, 2.300467915637497e-02, 2.151745372509411e-02, -3.861265584368603e-10, 7.648404213168434e-10, -1.133213759718682e-09, 2.607304567587046e+03, 3.803432177342688e+03, -4.285378949991021e+02, 3.381502358910705e+03, 1.154094360337973e+02, -1.333421233719186e+03, 2.651224788852014e+03
8736, 2.791876612862812e-01, 2.099212927471113e-01, 4.130995829791476e-02, -8.230823332626460e-10, 5.232964169671664e-10, -2.343161099339096e-09, 5.073826267492992e+03, 5.348121485127976e+03, 1.574623034144788e+02, 1.048508054094818e+04, 6.221787841272912e+02, -3.242843548518298e+02, 5.424372128406936e+03
8737, 5.449662039313913e-01, 8.832608578634173e-01, -4.362408949405028e-03, -1.506019792620442e-09, 6.107113362616517e-10, -6.815434100255758e-09, 7.676049428461907e+03, 6.550272745240055e+03, -3.315692149844033e+01, 1.443359076612327e+04, -4.043766120674209e+01, 9.811832341599056e+02, 7.578626915159892e+03
8738, 9.363222480339994e-01, 1.436118121918119e+00, 7.394170126934657e-03, -4.223742049364251e-10, 3.739603643042624e-10, -8.664009193563316e-10, 3.024960824303700e+03, 2.776951510965677e+03, -1.788587179546765e+02, 4.533180637679251e+03, -1.169034681538145e+02, -3.024398166553094e+02, 1.766824354286211e+03
8739, 4.765978753642988e-01, 4.883108097938776e-01, -1.043201333978395e-02, -1.750980884613341e-09, 6.576740118880090e-10, -4.462200108478108e-09, 4.206682091108224e+03, 3.803520303952397e+03, -1.210546363044452e+02, 7.018077343659021e+03, 5.622396053109893e+02, 8.511147695370668e+02, 3.516450152658673e+03
8740, 5.576337802226718e-01, 3.883106607391535e-01, 1.476941422299397e-02, -1.213849885583693e-09, 4.280951381459012e-10, -2.302826255131166e-09, 3.148464319618171e+03, 2.974262533462269e+03, 9.967115105750918e+01, 5.151023633255278e+03, 5.748344577154724e+02, -1.666308800023354e+02, 2.343895049517985e+03
8741, 4.444606671360651e-01, 6.079761707950176e-01, 1.762773986351280e-02, -1.434775971375479e-09, 6.746013442280306e-10, -4.186100874287253e-09, 5.728784557059216e+03, 5.621153364446976e+03, 2.531183849062073e+02, 1.175720721302322e+04, 9.085491670999413e+02, -3.987241800552737e+02, 6.336232709214844e+03
8742, 2.414875245069220e-01, 2.127268718632958e-01, 1.000521190735383e-02, -1.205420781123210e-09, 9.836363448775563e-10, -5.409039469183193e-09, 5.316218861032010e+03, 5.462329451159740e+03, 1.343285758569278e+02, 1.122282983488785e+04, 4.735144972302454e+02, -1.249323198182954e+02, 5.900846360965446e+03
8743, 6.654436336517621e-01, 1.084343542400728e+00, -2.280443243617855e-03, -1.824833910230414e-09, 3.285521508262977e-10, -6.498263467821597e-09, 7.651992842944858e+03, 6.820437777871169e+03, 2.392256667913549e+02, 1.630478309773156e+04, 2.134668155055408e+03, 9.136969744450411e+01, 9.829785908318718e+03
8744, 2.788543214149038e-01, 3.830634893197215e-01, 2.347326407900776e-02, -3.095817236494362e-10, 8.038307958921265e-11, -2.598036868386695e-09, 5.326139687051596e+03, 5.580557599334034e+03, 2.867631556679455e+02, 1.131308037165472e+04, -3.523575865495120e+02, 2.928941113418061e+02, 5.938141973313685e+03
8745, 9.093346092410646e-01, 6.848742054723373e-01, 9.701088504531212e-03, -3.240499613176711e-10, 6.917945301962967e-11, 3.249375715995909e-10, -5.192010974996442e+02, -6.055863009910368e+02, -1.968557899789484e+01, -1.386463269881486e+03, 1.519031539097243e+02, 7.928977315719417e+00, 8.690583043694821e+02
8746, 5.730403245895481e-01, 6.627024543387314e-01, 3.743480083825834e-02, -8.625930695227233e-10, 3.708030570662792e-10, -1.540742915830037e-09, 3.982846268355812e+03, 3.986617883717028e+03, 9.776087307351654e+01, 7.563517236787582e+03, 1.047648296539232e+03, -4.149060906568599e+02, 4.079893076105545e+03
8747, 6.168280711903616e-01, 6.310822297957032e-01, -7.348806156704260e-03, -1.251848700511527e-09, 6.682138091176360e-10, -2.536664836036379e-09, 3.388854830106583e+03, 2.890852542535616e+03, 6.421307621725032e+01, 4.866621583772846e+03, -1.336845525192956e+02, -6.064677311771302e+02, 2.082576779757585e+03
8748, 7.797234266212952e-01, 8.496997994863559e-01, -2.182585365313565e-04, -8.435562579991515e-10, 4.029017931834846e-10, -1.048863847134271e-09, 1.671534301740729e+03, 1.528420046386851e+03, -1.532999000055531e+02, 2.124556068790155e+03, 4.405465291664034e+02, -9.152198339576793e+01, 9.840830329791147e+02
8749, 3.295239207551126e-01, 3.972972451337498e-01, 3.422546473053435e-02, -5.902799557752349e-10, 3.716050982273115e-10, -2.377602955717332e-09, 5.354115904545090e+03, 5.793426901073977e+03, 3.674658304654575e+02, 1.166080769883828e+04, 2.935192417077873e+02, -1.504792028445885e+02, 6.158590950844851e+03
8750, 4.704216324311645e-01, 3.980013003166091e-01, 4.337836356759397e-02, -9.545749405487339e-10, 3.770258065026627e-10, -1.568834568669238e-09, 4.196343222694754e+03, 4.082204840684198e+03, -8.609247335686264e+00, 7.293604785973465e+03, 1.015875342015053e+03, -3.160374565231621e+02, 3.654509911854987e+03
8751, 4.577690074883882e-01, 3.860302527296499e-01, 1.556780283369643e-02, -1.772827471337245e-09, 6.788155691245439e-10, -3.516729580295392e-09, 4.709362244151567e+03, 4.455381377205337e+03, -1.033709456932706e+02, 7.525923624152343e+03, 8.744421588372221e+02, -1.079563858299760e+02, 3.327738670269524e+03
8752, 6.125842448408862e-01, 4.324893098353013e-01, 4.080848280503799e-02, -6.759998344165810e-10, 1.910015817348323e-10, -7.841730139968031e-10, 2.597988301156626e+03, 2.449644848894205e+03, -5.436857623198100e+01, 4.323776380298184e+03, 8.306968982859413e+02, -1.879329601550924e+02, 2.332671400930171e+03
8753, 9.409469239448275e-01, 1.072192210736176e+00, 9.284247001223989e-03, -4.343498473898097e-10, 1.625740374556274e-10, -4.447532292988580e-11, 4.819006284900464e+02, 3.485363773997748e+02, -4.221724345684183e+01, 3.658001568578926e+02, 3.387448357280956e+02, -1.397156215489981e+02, 6.511022449498563e+02
8754, 7.667616042242866e-01, 5.264102794715571e-01, 2.492215970352338e-02, -5.630559000810563e-10, 1.486939232289838e-10, -2.793720864368255e-10, 9.966384885868005e+02, 8.949748743720751e+02, -3.668806195316356e+01, 1.389630646836535e+03, 5.788760950922760e+02, -1.617452138063013e+02, 1.136902157053068e+03
8755, 6.243135990788701e-01, 8.937817269742206e-01, -4.278833819611381e-03, -1.304292951232146e-09, 1.131820556485398e-09, -3.917632290499921e-09, 4.628142088842325e+03, 4.417443964920862e+03, -1.136647244687444e+02, 7.682071587558649e+03, 3.153443694352457e+02, -1.336523701605181e+03, 3.963623132456989e+03
8756, 3.929247988724368e-01, 6.016636297247010e-01, -7.474920818853682e-03, -1.374089967698509e-09, 4.958891497655505e-10, -7.428570469831569e-09, 7.079042817926724e+03, 8.524028552634285e+03, 8.764272636384092e+02, 1.597416488514967e+04, 1.788260668032893e+02, 4.790959651085628e+02, 8.452618838672810e+03
8757, 9.075279113836613e-01, 6.436099171834212e-01, 9.315982104784452e-03, -4.105476209831069e-10, 1.450411345422116e-10, 4.641203296159941e-10, -7.856348091265525e+02, -8.486053469159976e+02, -1.877408775196335e+01, -1.661557185360922e+03, 2.601578066757571e+02, -1.944136546650187e+02, 1.016632507015526e+03
8758, 4.685413260987891e-01, 5.873230474577729e-01, -1.101932587656075e-02, -2.039075624719489e-09, 1.672571147668774e-09, -6.824879111946990e-09, 6.403920291638993e+03, 6.671304720074349e+03, -1.187084759813478e+02, 1.233601670836685e+04, 1.249200654332170e+03, -1.745361119398693e+03, 6.894762531269817e+03
8759, 6.324487234850282e-01, 1.023394428770486e+00, -3.537893363490693e-03, 1.836687474158638e-10, 1.005036982871016e-09, -7.536697836843438e-09, 7.851631876653551e+03, 7.799185617221182e+03, 4.397007868414141e+02, 1.688912312132653e+04, -1.942992947512950e+03, -1.018033578711234e+03, 9.857374571779143e+03
8760, 8.585254432627756e-01, 2.152643208193320e-01, 9.050443160573561e-03, -3.229935112285682e-10, 1.280902459651941e-10, 3.821528482349421e-10, -8.212947899499186e+02, -9.700216733114858e+02, 3.013302378315315e+00, -1.614759053570925e+03, 4.479181984337907e+01, -3.212117872334371e+02, 9.215600656562484e+02
8761, 9.229148921647814e-01, 7.419626440861665e-01, 9.102950078633496e-03, -3.627838921650538e-10, 8.531472425525463e-11, 1.524740898661329e-10, -2.488900508215126e+02, -3.750904758734719e+02, -2.752486075511341e+01, -6.619857203176292e+02, 2.820180415299329e+02, -1.113456506757029e+02, 6.422699380006005e+02
8762, 5.981683096120051e-01, 3.782916925346926e-01, -6.724570321214686e-03, -1.044047632838017e-09, 4.860585203319462e-10, -2.264985657862632e-09, 2.166038782112733e+03, 2.340585348925138e+03, -2.669598004036077e+01, 3.053407442499625e+03, 3.632363796262550e+02, -1.998190047665581e+02, 1.086621103584859e+03
8763, 4.729616759450562e-01, 3.166366819138907e-01, -1.143969965990304e-02, -1.508783122927343e-09, 1.288782467131403e-09, -4.232037405185623e-09, 3.558189985943236e+03, 3.323899231361529e+03, -1.376677840718244e+02, 5.417764468394048e+03, 9.545002869172958e+00, -1.153618104824154e+03, 2.828113380868284e+03
8764, 2.653884941124777e-01, 1.819156760279361e-01, -1.749664381429047e-02, -1.362199432145537e-09, 1.387409438588941e-09, -7.436859663965689e-09, 4.571581237869665e+03, 5.632651102005861e+03, -5.007185321559786e+02, 8.958634542708742e+03, -3.081923976607223e+02, -8.200847059179591e+02, 4.332650168644611e+03
8765, 4.965645965325465e-01, 1.790423125728910e-01, 2.446706434120371e-02, -1.090537380394063e-09, 5.064875378630046e-10, -2.257690851700828e-09, 3.054409834517375e+03, 3.003309482952060e+03, -6.715767415318747e+01, 5.458393746833515e+03, 6.060971165755537e+02, -1.595416732824879e+02, 2.663934413603225e+03
8766, 8.364981398461653e-01, 7.593978784172769e-01, 5.030507126031144e-03, -5.349279465112488e-10, 2.354332094741171e-10, -2.414938212081115e-10, 6.206523204157144e+02, 6.284150876397413e+02, -7.297405082856072e+01, 7.273852586123169e+02, 1.664516824881065e+02, -7.555426486568426e+01, 3.561503932431239e+02
8767, 5.218769555292713e-01, 1.780247912022234e-01, 1.408791101835511e-02, -1.124252033725390e-09, 5.208839070425380e-10, -2.270009579797489e-09, 2.837967304173942e+03, 2.833155151561587e+03, -1.194730267234043e+02, 4.746469696356557e+03, 5.244893287296128e+02, -2.103209967756997e+01, 2.126265310444435e+03
8768, 5.569889708417236e-01, 5.733343394461743e-01, 3.798186007133174e-02, -9.234860929668398e-10, 4.041567253909638e-10, -1.502616243527729e-09, 3.829997856173480e+03, 3.805849378942316e+03, -7.864072229540466e+01, 7.007475644235797e+03, 9.242401688533424e+02, -3.690381062387194e+02, 3.628148236076347e+03
8769, 8.801718209925936e-01, 3.706034308572728e-01, 9.591152160859867e-03, -4.640274955668594e-10, 9.563542291628632e-11, 5.066446018883684e-10, -9.452496766411974e+02, -1.101660124289736e+03, 1.027188636959500e+01, -2.366422150025617e+03, 5.494679851443499e+02, -1.358900220937376e+02, 1.668343260198518e+03
8770, 6.426228588747505e-01, 7.135298256352048e-01, 3.415940203526022e-02, -8.225398382328530e-10, 2.989531142571317e-10, -1.257495186660759e-09, 3.399257266650133e+03, 3.204328930565637e+03, -3.187846363044434e+01, 6.293173903590181e+03, 9.515901587909730e+02, -3.047602249828010e+02, 3.460507693535955e+03
8771, 5.010243265364754e-01, 5.201225877858230e-01, 4.127572645918171e-02, -8.700436035273553e-10, 4.700166133121761e-10, -1.595123927478098e-09, 4.352201188704775e+03, 4.246331966340041e+03, -7.441447468127808e+01, 8.081606491545092e+03, 8.492064557799856e+02, -4.573883185927281e+02, 4.137895723926468e+03
8772, 3.580407524670643e-01, 4.734040697948870e-01, -1.109282281820312e-02, -8.938216837580531e-10, 1.475053457248753e-09, -8.799912808392104e-09, 7.834157087635658e+03, 7.310038024008761e+03, 3.398290858843982e+02, 1.586776196546758e+04, -9.561552361916403e+02, -1.788256847170463e+03, 9.039181997082758e+03
8773, 1.365237959375804e-01, 1.221663845344199e-01, -9.669387067487035e-03, 1.851705001116871e-11, 9.531468739644242e-11, -3.899666377884760e-09, 3.660171802562598e+03, 3.904909270790250e+03, -2.534696234025627e+02, 5.321676853146886e+03, -2.344554615488684e+03, 6.346329187529145e+02, 4.506183455168024e+03
8774, 7.553363222835074e-01, 2.203854959982237e-01, 1.995555638491103e-03, -6.228482196968428e-10, 8.084917314161106e-11, -4.193736358004383e-11, 3.090244277400969e+02, 2.462325678164523e+02, -2.467417998802859e+01, 2.224339975636032e+02, 1.744220217945889e+02, -3.051127786948349e+01, 3.192051548379472e+02
8775, 3.152418872050431e-01, 1.924609506488515e-01, 4.722637097836535e-02, -8.501529072827678e-10, 5.050368182368943e-10, -1.959416982869610e-09, 4.786753983102367e+03, 4.851384045127773e+03, 9.298173274311507e+01, 9.124428760818573e+03, 8.545253273746670e+02, -4.344138151330226e+02, 4.617572829290760e+03
8776, 4.414079645287627e-01, 4.322395282843337e-01, 9.047159847470513e-03, -1.705117474214603e-09, 9.360300535430010e-10, -4.277198845373971e-09, 4.944989735936200e+03, 4.443346403601793e+03, -1.235450573960310e+02, 8.718336741858839e+03, 8.685982303630848e+02, -2.977804041865464e+02, 4.354063198258510e+03
8777, 6.393581245751974e-01, 2.017193950401918e-01, -2.983263791589131e-03, -6.636609853403876e-10, 2.912694519862276e-10, -1.679132853255204e-09, 2.007845256075448e+03, 1.925856362380913e+03, -1.242200377000233e+02, 3.613457153827885e+03, -1.798407294859589e+02, -2.457208473768603e+02, 1.743791905545056e+03
8778, 1.352656187341272e-01, 1.254043151616538e-01, 2.374262705783072e-02, 5.079604543757670e-10, 5.177506486667037e-11, -2.085175812503807e-09, 4.717495409612559e+03, 4.404897129725433e+03, 3.128074482044674e+01, 8.709713112858377e+03, -1.578525088354844e+03, 5.143599370985247e+02, 5.055228829146099e+03
8779, 7.886005523380817e-01, 1.274044599084473e+00, 1.341441757746833e-03, -2.053981292000929e-10, 3.311685307707381e-11, -2.820895718326873e-09, 4.110966207275809e+03, 4.694180797748217e+03, -1.918230280929606e+02, 8.548658665613933e+03, -7.059081722596159e+02, 9.411784226137937e+02, 4.659172067920347e+03
8780, 3.740244850832332e-01, 5.692544838916900e-01, -8.112452407796768e-03, -1.490759810093480e-09, 8.521493537112557e-10, -1.053195062348500e-08, 9.304494002844858e+03, 9.158769214042049e+03, 3.248249177075757e+02, 2.429989371224060e+04, -3.789767829307075e+02, -9.327117139967434e+02, 1.517977954141811e+04
8781, 7.566479119838686e-01, 7.902911287338249e-02, 2.318107267946899e-02, -3.426898750493259e-10, 2.746367900245413e-11, -4.472149291062926e-12, 2.350023997667869e+02, 1.506703706976373e+02, -4.848510093561816e+01, 2.054902827746044e+02, 3.661681990705408e+02, -3.235731042178961e+01, 6.464711061998829e+02
8782, 4.015213060700574e-01, 4.063747902335241e-01, 1.152309246358231e-02, -1.842599006834113e-09, 8.711839004989693e-10, -4.444915485715043e-09, 5.027789946213055e+03, 5.001230970460149e+03, 5.047930910245633e+01, 9.262855689069704e+03, 9.918716130194606e+02, -1.990788860365366e+02, 4.596404661751180e+03
8783, 4.479135381231522e-01, 6.993793967340143e-01, 2.401608381171096e-02, -2.654964702889264e-10, 1.811459311985520e-10, -2.450613729437982e-09, 4.786068886852609e+03, 6.227691509075918e+03, 2.943315232420906e+02, 1.171677161007010e+04, -2.436704940264577e+02, 8.824842220345727e+01, 6.370466278585022e+03
8784, 3.898613582972937e-01, 3.056921203449062e-01, 1.644601192384309e-02, -1.719779089134628e-09, 7.069343657477812e-10, -4.288009259537232e-09, 5.066846661084657e+03, 5.099334588477849e+03, -3.830558111981300e+01, 9.576667514009976e+03, 8.611350074308640e+02, -3.866136279008676e+01, 4.735670112782585e+03
8785, 8.367352426404910e-01, 1.539994045674711e+00, 5.259385253143744e-03, -1.205676878306318e-10, 7.086476696671312e-10, -2.536926158466531e-09, 5.952033763776795e+03, 7.270301960117532e+03, 5.275813869364474e+02, 1.108977064729030e+04, -8.426979192657593e+02, 7.656932755913839e+02, 5.107402517208074e+03
8786, 2.857536438108366e-01, 3.215519362421937e-01, -1.381080686573835e-02, -1.376021248366511e-09, 9.871375330096463e-10, -8.860606834962608e-09, 7.841449562619103e+03, 7.185067234989630e+03, -1.731216222124710e+02, 1.470371035481114e+04, -4.345955914468573e+02, 8.437674003375818e+02, 7.403924040792477e+03
8787, 5.386026573021957e-01, 2.052539555420322e-01, 1.561265680274902e-02, -1.089105277595938e-09, 4.860431200024233e-10, -2.066618612169394e-09, 2.677398051632603e+03, 2.666644426219171e+03, -1.798410904468203e+02, 4.342417501212113e+03, 4.357598752952082e+02, -2.612953181346714e+02, 1.913589452686477e+03
8788, 9.815091834994798e-01, 1.344921337424141e+00, 8.305445225843186e-03, -4.388155681146820e-10, 2.056194006879352e-10, -2.840232614337933e-10, 1.315539567323845e+03, 1.213145995239406e+03, -2.194155267941925e+01, 1.957481984367249e+03, 5.896871508356680e+02, -4.760262488755736e+02, 1.487529952369698e+03
8789, 8.464115905602770e-01, 7.855630261419191e-02, 9.223806406797531e-03, -4.429977288287899e-10, -9.715253409155527e-11, 5.442714708342664e-10, -1.118659940882711e+03, -9.957525888782676e+02, -1.062842130880435e+02, -2.348785879932698e+03, 4.153316468290186e+02, 2.023457320174745e+02, 1.534186782346394e+03
8790, 7.910116564345371e-01, 4.610582218345300e-01, 4.331346352759452e-03, -6.872738807988748e-10, 1.607818238900980e-10, -8.094702830176384e-11, 3.673338044956300e+02, 2.597548829498560e+02, -5.564274281273411e+01, 2.973661893578164e+02, 3.393187872800016e+02, -8.887251328145180e+01, 6.223637878981551e+02
8791, 6.321797932503448e-01, 1.558161420158862e-01, -5.175989311101803e-03, -7.037264627385636e-10, 2.319950609834830e-10, -1.232760469948097e-09, 1.400937068751226e+03, 1.147536499388600e+03, -2.345618322204682e+02, 1.707370595678387e+03, -1.913108030884540e+01, -3.381304683239576e+01, 6.366706414520394e+02
8792, 6.516836658971217e-01, 1.052667511504619e+00, 2.116891419795781e-02, -6.119445880372317e-10, 2.934673054985012e-10, -2.489233618338535e-09, 4.489673942156616e+03, 6.028152369776554e+03, 2.807487575070119e+02, 1.137352295445379e+04, 5.440961249263605e+02, -1.180181332425623e+02, 6.350591004408302e+03
8793, 6.523522673026130e-01, 1.051852213041807e+00, -3.072117317698665e-03, -1.076310852846640e-09, 8.207690197200810e-10, -4.780153936013466e-09, 4.570707298205413e+03, 5.970071792373919e+03, -1.022600373624391e+02, 1.074460291592174e+04, 7.837089896594385e+02, -1.182134107288608e+03, 6.123885335132415e+03
8794, 1.688097748773377e-01, 1.290080391981996e-01, -1.264975599117797e-02, -9.865248396039787e-10, 6.811157087387193e-10, -1.168425815135558e-08, 9.690251753053089e+03, 1.033152536124875e+04, 6.097976611319535e+01, 2.320741316198603e+04, 8.176495628846430e+02, -5.304987183416796e+01, 1.328465040608263e+04
8795, 5.310226765818769e-01, 3.280237620177953e-01, 4.381143067863399e-02, -7.668799369797053e-10, 2.667087664886099e-10, -1.216427810511539e-09, 3.119330535994163e+03, 3.048030331368041e+03, -8.013382091522236e+01, 5.735341402677760e+03, 8.457932406778116e+02, -2.458252176396339e+02, 3.062967793245638e+03
8796, 7.924609817216537e-01, 7.985570392075122e-01, 4.935199381470301e-04, -7.629834166630720e-10, 2.046564143481976e-10, -7.628277949494274e-10, 1.554112206348701e+03, 1.466961286111725e+03, -5.573808029631451e+00, 2.106992799000013e+03, 1.130422217579672e+02, 7.841476551543133e+01, 6.467857026246405e+02
8797, 4.437658220882721e-01, 2.156202380428513e-01, 5.056366589618598e-02, -7.618770269372335e-10, 3.391879168047812e-10, -1.246808747853126e-09, 3.752926635632153e+03, 3.592105512005006e+03, -8.169681901940140e+01, 6.536274711098112e+03, 9.246279543987564e+02, -3.204871265750366e+02, 3.333688764076240e+03
8798, 2.041038529837023e-01, 2.374171960457818e-01, -9.395158270476458e-03, -1.140458104971420e-09, 8.628407862546434e-10, -6.794948160622165e-09, 5.382605589844949e+03, 6.214820247151089e+03, 4.454341386150655e+02, 1.511750396592094e+04, -6.166880831241783e+02, -2.038307481287559e+02, 9.445638714517270e+03
8799, 4.059452590350837e-01, 7.305361827652826e-01, 3.577492450485636e-03, 2.061345087800658e-10, -9.911890670757873e-11, -1.851720787884814e-09, 3.709887140178195e+03, 3.171071658066690e+03, 6.571769431870090e+02, 7.143529134489151e+03, -5.747952703911246e+02, 6.694694864865352e+02, 4.190668267471580e+03
8800, 8.060723154687974e-01, 9.381769331131552e-01, 1.562893723834492e-03, -7.596740627637434e-10, 3.692477214686013e-10, -1.248190086920346e-09, 1.837884399427971e+03, 1.509616831439715e+03, -4.184961723205752e+02, 2.466669049187523e+03, 5.679904115345104e+02, -3.024380524829828e+02, 1.573912998874629e+03
8801, 7.661188130546155e-01, 5.501440016764280e-01, 6.570290505991186e-04, -7.666037829426155e-10, 2.373354548378421e-10, -4.640149414926740e-10, 9.487168414517346e+02, 7.737504259170777e+02, -2.437507399330315e+01, 1.079161455616599e+03, 3.490986213991358e+02, -2.413218676339815e+01, 6.630169929155007e+02
8802, 7.260100499943040e-01, 1.186512741084921e+00, -2.265084291575396e-03, -9.439490535195935e-10, 1.536250143228000e-09, -5.840957042154153e-09, 7.171220874970478e+03, 6.511748318018020e+03, -1.016105303246581e+02, 1.377294662943565e+04, 1.169970205527133e+03, -2.700481032517008e+03, 8.624766798016786e+03
8803, 4.679909987368580e-01, 2.515528579630693e-01, 1.377975947380331e-02, -1.389486465059439e-09, 6.366870669214230e-10, -2.907030458062425e-09, 3.658271384424766e+03, 3.380847374312854e+03, -1.499332175350379e+02, 5.686146405880988e+03, 3.583383266500168e+02, -2.381519040623477e+02, 2.318324906245155e+03
8804, 7.778777597818768e-01, 4.925875640386147e-01, 2.526923213782190e-02, -5.047589793834139e-10, 1.131594308655208e-10, -1.297216377927445e-10, 7.010097631561105e+02, 5.518815150088844e+02, -4.063648079887769e+01, 8.412520685794293e+02, 5.741617905221865e+02, -8.708976822119691e+01, 1.038996807953886e+03
8805, 7.332893204272607e-01, 4.268455915674972e-01, -5.113508783233939e-04, -8.485325563508133e-10, 2.253435475235246e-10, -5.562370393162107e-10, 8.991384298877754e+02, 7.149847121115142e+02, 3.260174603081642e+01, 9.610280726158572e+02, 3.077499661723185e+02, -9.914830592663289e+01, 6.049380412260217e+02
8806, 6.185724171544977e-01, 9.536751791310071e-01, 2.374572212909534e-02, -1.026586432211868e-09, 5.308735943198148e-10, -2.244482967552772e-09, 4.630786059281569e+03, 4.974036778077734e+03, 3.493459141165149e+02, 1.032459458277387e+04, 8.048186576676146e+02, -5.873838930545218e+02, 5.824711076229471e+03
8807, 5.431597513909512e-01, 8.836575170782287e-01, 2.044684417785842e-02, -1.095157020578345e-09, 2.999433548404780e-10, -3.102249523138591e-09, 6.382133191919559e+03, 6.339029405905745e+03, 3.475214009166120e+02, 1.392529115400533e+04, 1.083172724463852e+03, 9.201704628192381e+01, 7.818806359015719e+03
8808, 6.364041350038896e-01, 3.406044021724655e-01, 3.908873293206330e-02, -5.814140807787191e-10, 1.920684155316422e-10, -5.883055670919974e-10, 1.959692443669148e+03, 1.868151770383923e+03, -2.614062538119564e+01, 3.235139076114157e+03, 6.948339861122977e+02, -2.183644711416701e+02, 1.829038266133662e+03
8809, 3.307829397552081e-01, 5.811941999626967e-02, 5.406929248349665e-02, -4.542644286079887e-10, 8.734127963267975e-10, -1.220629907164449e-09, 3.238182046558038e+03, 3.314917707574202e+03, -1.209515831411291e+02, 6.020273211258961e+03, 4.753959906876262e+02, -1.080026742179268e+03, 3.428366841164128e+03
8810, 5.880338898748139e-01, 7.471580220362143e-01, -6.146329509778808e-03, -1.467847891330238e-09, 7.104599093626088e-10, -3.589844787752175e-09, 3.634814715606060e+03, 3.416642899748410e+03, -3.103353585436640e+02, 5.244844671025222e+03, 2.624347319093695e+02, 4.842504917491048e+02, 2.046971969432584e+03
8811, 5.111792933603051e-01, 7.920474227325713e-01, 2.532249460278143e-02, -4.628799999490021e-10, 6.359212176496227e-10, -2.427090652173597e-09, 5.235680237873964e+03, 5.889638442816913e+03, 2.695223343583691e+02, 1.119099761472565e+04, 2.414616931584550e+02, -4.239951050531559e+02, 5.738561787807319e+03
8812, 5.223216871325933e-01, 2.338980437340219e-01, 2.330641934473046e-02, -1.076913198250252e-09, 5.291310378205864e-10, -2.237214214865382e-09, 3.148716520613086e+03, 2.844810451216570e+03, 8.454925459254692e+01, 5.745629468251892e+03, 4.801779190549269e+02, -2.925265135398633e+02, 2.931792434276944e+03
8813, 4.780962701607993e-01, 4.437439954394251e-01, 4.235163534525935e-02, -9.010510272789422e-10, 4.356838044713738e-10, -1.601489389579858e-09, 4.174966340157116e+03, 4.119699429363131e+03, 3.152715000231809e+01, 7.421771016800621e+03, 9.420768193880963e+02, -4.363891091090049e+02, 3.736448895974121e+03
8814, 2.572397530263600e-01, 1.690057385363889e-01, 4.399353069843849e-02, -6.401096969352476e-10, 4.948550610495216e-10, -2.246365209292380e-09, 5.116391150487585e+03, 5.350467344445683e+03, 9.590049276511137e+01, 1.080938882171090e+04, 4.387324416808776e+02, -3.082882570845164e+02, 5.658850859502832e+03
8815, 3.399561818961350e-01, 3.580184849402232e-01, -1.360382881471059e-02, -2.193388312098222e-09, 1.333061253590877e-09, -6.704584218850655e-09, 5.787306438213977e+03, 5.167309144627350e+03, -6.373918153235400e+01, 8.734310937037673e+03, 1.931406935399925e+03, -3.070374567665943e+02, 4.731000874370377e+03
8816, 6.669279488164146e-01, 8.723402641706133e-01, -4.102138507966705e-03, -1.769675165505351e-09, 5.925011219431514e-10, -3.790651823638187e-09, 3.862211041248276e+03, 4.172149321139563e+03, -4.350856253758751e+01, 8.100887169981866e+03, 1.158497355695172e+03, -1.645925193206636e+02, 4.567494775041494e+03
8817, 7.716150724301447e-01, 4.226633820712176e-01, 2.861687842156742e-03, -6.744812487944483e-10, 1.441983687746704e-10, -9.338190232498036e-11, 4.601798511289874e+02, 4.117840403456037e+02, -4.245256111869811e+01, 5.852611537071557e+02, 2.467031979355765e+02, -2.824240785349052e+00, 4.604985236325048e+02
8818, 7.776237135377776e-01, 5.179276656873745e-01, 2.196578174478579e-03, -6.992673098740563e-10, 1.715150345360042e-10, -2.270441121815391e-10, 5.563960427850884e+02, 4.368516332895922e+02, -4.695251998000680e+01, 4.385134417179557e+02, 3.430524979974093e+02, -1.049095929164770e+02, 6.377944042899131e+02
8819, 8.513114141108367e-01, 1.288676912453257e-01, 1.016838662292606e-02, -4.338364217350020e-10, 1.447093263518601e-10, 3.873336619496111e-10, -1.009974784275521e+03, -1.058345562555632e+03, 2.653734952764562e+01, -1.924774296479829e+03, 2.205783215417065e+02, -3.025472868682896e+02, 1.103462721745275e+03
8820, 4.795031595911304e-02, 2.474407213072229e-02, 5.559742121314975e-03, 3.689201680874262e-10, 2.129184208186768e-10, -1.280763975451209e-10, 1.085466284569425e+03, 8.651173956124630e+02, 3.576994238652865e+02, 6.845642403979651e+02, -3.502717050147315e+02, -1.295460365162477e+02, 9.608338691497759e+02
8821, 5.295225496437983e-01, 6.656546224268374e-01, 3.615306764161601e-02, -8.944271054908127e-10, 3.139784123541828e-10, -1.704873375242802e-09, 4.643814477313909e+03, 4.502594813566599e+03, 1.125202213437164e+02, 8.702599355418455e+03, 9.316445854620229e+02, -1.751739445521465e+02, 4.449807068841675e+03
8822, 6.084389024107157e-01, 8.719860762439446e-01, 2.877208502134718e-02, -1.066911969746297e-09, 4.229765115237256e-10, -1.701296216139355e-09, 4.335812896116644e+03, 4.586873498997188e+03, 1.618125896916413e+02, 8.232242743779232e+03, 9.980441405765099e+02, -2.691583102178783e+02, 4.189405901495129e+03
8823, 6.649321356255558e-01, 2.865003281197401e-01, -3.093712750358984e-03, -1.019036957097535e-09, 9.049489514415207e-11, -1.401578259992972e-09, 1.395314351349822e+03, 1.512225038936286e+03, -1.331960420226074e+02, 2.769027139679888e+03, 7.815509613350290e+02, 3.480310760894013e+02, 1.997303028876176e+03
8824, 4.308911724643280e-01, 1.383914957341881e-01, 5.073764556540538e-02, -6.897149734726265e-10, 4.675086469712529e-10, -1.346173136623339e-09, 3.529238942214474e+03, 3.306157864997185e+03, -8.442057701359805e+01, 6.333963603869000e+03, 7.561640065679627e+02, -4.356086708813668e+02, 3.293618656117169e+03
8825, 7.645299652857758e-01, 7.716140659723681e-01, -5.612046603775712e-04, -7.981590278421407e-10, 3.347002630470855e-10, -1.068176660594516e-09, 1.969973405780196e+03, 1.708298960766176e+03, -1.085292696413081e+02, 3.037014644723870e+03, 2.751140954249865e+02, -2.028761497734321e+02, 1.368262856632210e+03
8826, 4.387346683980188e-01, 5.040746232856828e-02, 5.209448246836507e-02, -3.546453025924303e-10, 6.126774809582266e-10, -8.883013135061390e-10, 2.536129469388861e+03, 2.543912264781075e+03, -1.772856701624682e+02, 4.336730825873746e+03, 3.459288428799344e+02, -7.105801563175163e+02, 2.279534053296672e+03
8827, 3.859600261465232e-01, 8.709678049098842e-02, -1.635376432525535e-02, -9.424405540320111e-10, 8.369427848836108e-10, -6.542509770651432e-09, 5.267795655241372e+03, 5.087815234391755e+03, -3.906889254845931e+02, 1.053718634189595e+04, 3.893268815743207e+02, -2.793566766029249e+01, 5.446305104391174e+03
8828, 8.103377445203309e-01, 8.312002269983524e-01, 2.357398135160635e-02, -5.124249741456511e-10, 1.520380854105132e-10, -3.891229589110490e-10, 1.468771261123805e+03, 1.196202978477391e+03, -1.856264497206373e+01, 2.128523656939863e+03, 6.640403527255132e+02, -1.449988100950897e+02, 1.440954794670814e+03
8829, 3.615931346571430e-01, 6.556249730505658e-01, 3.297451238722372e-03, 5.331303931346818e-10, -1.759484523101266e-10, -1.120111892069144e-09, 2.308509450413291e+03, 2.666336785298456e+03, -1.289616958136453e+02, 4.650118746935790e+03, -1.109621623817956e+03, 2.191225835758937e+02, 2.942957798920696e+03
8830, 3.798922078281901e-01, 2.538969814009923e-01, 1.272938197123611e-02, -1.702897503539459e-09, 1.022691646426631e-09, -4.808344139889890e-09, 4.602594799213386e+03, 4.974951844078183e+03, -1.799118458185203e+02, 9.173799820955410e+03, 7.078309385696181e+02, -7.384221888640684e+02, 4.750623689885349e+03
8831, 7.018759437767667e-01, 1.136889821013763e+00, 2.161698362574487e-02, -4.902421499825938e-10, 5.020073939505921e-10, -1.907614366265029e-09, 4.193924866720206e+03, 5.099352779413059e+03, 1.160233998397609e+02, 9.578893394392946e+03, 3.814755934011604e+02, -7.950996392824576e+02, 5.226422334384826e+03
8832, 5.295238334049873e-01, 3.831002139704324e-01, 4.395164212965064e-02, -7.531552842691576e-10, 2.747031382040336e-10, -1.154628747933354e-09, 3.303310617645159e+03, 3.180285821504731e+03, 1.598503924874810e+01, 5.799936290395291e+03, 8.535153636132486e+02, -2.318794714613931e+02, 2.983782494552183e+03
8833, 7.655808422153658e-01, 3.410768077005934e-01, 2.539043735292790e-03, -6.472375016147623e-10, 1.817234400178620e-10, -1.221035761480536e-10, 4.037306835296474e+02, 3.512806388777186e+02, -3.431738189583013e+01, 4.834988508987977e+02, 1.908920209768322e+02, -1.271475123193851e+02, 4.179110197580005e+02
8834, 5.556038303744237e-01, 9.257723904000426e-01, -4.985116385920481e-03, -7.302581333893984e-10, 1.485293646319394e-09, -6.559749322855270e-09, 6.634781717090623e+03, 6.858320061909602e+03, 8.008513981401941e+02, 1.507795843231991e+04, -1.984855416478083e+03, -2.930999218457984e+03, 1.043863687953261e+04
8835, 8.564225834173860e-01, 8.978827145526198e-01, 4.435757158069643e-03, -3.861281043646467e-10, 1.654261627052050e-10, -5.641491462694373e-10, 1.247043854349571e+03, 1.099212270519190e+03, -5.059747291180874e+01, 1.856436548227575e+03, -6.861770983222274e+01, 5.071878808650412e+01, 7.161171616001599e+02
8836, 7.003161660247852e-01, 4.808352763058299e-02, 5.783161702305438e-04, -4.028711617111420e-10, 9.462034358014440e-11, -4.886362469536214e-10, 7.199040887376085e+02, 7.177727763999033e+02, -1.603174743641647e+02, 1.576224816903893e+03, 2.717715449403061e+02, -3.879156860421782e+01, 1.018976727886390e+03
8837, 6.207250935415394e-01, 5.697478900338359e-02, -4.443053601013238e-03, -4.367890799521454e-10, 1.440219363769249e-10, -1.257963795153561e-09, 1.103202073668916e+03, 1.509358753428160e+03, -3.095357856398583e+02, 2.423623724440352e+03, 2.569739695957052e+02, 2.033746585193959e+02, 1.407766435488320e+03
8838, 9.454881902142869e-01, 9.798113464237507e-01, 9.045495102057044e-03, -4.341045658687374e-10, 8.768953674674208e-11, -3.549756391115501e-11, 1.249203965343490e+02, 1.215537404132589e+02, 9.499308925790956e-01, 1.904016314352426e+02, 4.171846248223590e+02, -6.226550590335393e+01, 7.336772448731801e+02
8839, 4.201438599352757e-01, 1.971776012948982e-01, -1.374427099974795e-02, -1.717450104906054e-09, 9.069203597188752e-10, -4.959860810998651e-09, 3.844730168207274e+03, 3.537398635537369e+03, -2.970819587560530e+02, 6.620267463181533e+03, 8.506385501647922e+02, -7.607629482331430e+01, 3.332261061989246e+03
8840, 6.179920440821889e-01, 1.057013846182077e-01, 4.101483957486501e-02, -4.151123697745465e-10, 1.862038581672822e-10, -5.586064610067658e-10, 1.717830326832891e+03, 1.524121355787317e+03, -1.028196709162231e+02, 3.067917766164461e+03, 5.444995687332272e+02, -1.988880238548112e+02, 1.778091010418609e+03
8841, 5.475290162399056e-01, 5.989103087130302e-01, -8.593060529878908e-03, -1.138248126835221e-09, 1.046803240007429e-09, -4.138574619050848e-09, 4.010408938583117e+03, 4.094018396223917e+03, -3.553711072948781e+01, 6.561214798687119e+03, -1.643166093095878e+02, -6.968771291924277e+02, 2.800362706046143e+03
8842, 7.585430601499434e-01, 3.827300354152333e-01, 2.534175748829069e-02, -5.036078534325140e-10, 1.224173201663392e-10, -8.203368433613781e-11, 6.510862349449395e+02, 4.849934778235012e+02, -5.167697330891709e+01, 6.492576218208366e+02, 5.502769159772954e+02, -1.465821270566329e+02, 1.004077173229015e+03
8843, 8.042163221357763e-01, 9.802586940287918e-01, 1.174819443783441e-03, -8.847240551175644e-10, 3.081707959162024e-10, -1.110944965742267e-09, 2.139661647074604e+03, 1.899979770941837e+03, 1.319191645036477e+02, 3.032746072539966e+03, 4.804665740136227e+02, 1.007581204271711e+02, 1.358054610100435e+03
8844, 8.201920998879684e-01, 2.354425573810579e-02, 9.556920415596356e-03, -1.864326526037805e-10, -1.040945200209295e-10, 1.298950700801521e-10, -2.871461606278021e+02, -4.034518760620848e+02, -1.785298681313581e+02, -5.622452765426743e+02, 1.248307338767668e+02, 2.173320572899975e+02, 5.841896016802694e+02
8845, 5.402923212000064e-01, 5.098512483441030e-01, 1.918312870436507e-02, -1.327503821000146e-09, 7.941887823105619e-10, -2.753073541051816e-09, 3.543359550658430e+03, 3.551726200938073e+03, -1.709146163924642e+02, 7.242733582734905e+03, 7.989299883272885e+02, -3.240775111413003e+02, 3.996507019633141e+03
8846, 5.709390374863703e-01, 7.049720333737344e-01, -8.940775499475709e-03, -1.373085571543621e-09, 3.021711371789087e-10, -4.902062911403734e-09, 4.646761478283186e+03, 4.670988890669561e+03, -3.438052866295019e+02, 9.489308482889408e+03, 7.384532559924612e+01, 1.548899513043938e+03, 5.558935221987717e+03
8847, 8.714669453307965e-01, 1.014010153316085e+00, 1.885923628486948e-02, -4.525719194972379e-10, 1.721715003659976e-10, -4.515859107377593e-10, 1.449021103133204e+03, 1.421034247949584e+03, -2.525420503708137e+01, 2.411087961988710e+03, 5.302405597240860e+02, -2.520122853579671e+02, 1.410386537402657e+03
8848, 5.334885147336530e-01, 4.165513621206594e-01, 4.232244466494274e-02, -7.853854344475620e-10, 3.371186652924174e-10, -1.214355767104221e-09, 3.312261165596997e+03, 3.327886571671930e+03, -3.406832917481114e+01, 5.899739658598339e+03, 8.130070240085186e+02, -3.483790710253507e+02, 3.000897507530291e+03
8849, 5.682756284388606e-01, 7.014836443251566e-01, 3.623277429253249e-02, -7.740274642829334e-10, 3.630066683841114e-10, -1.499801567414545e-09, 4.207344895899062e+03, 4.191238253724408e+03, 1.229202181963913e+02, 7.745179452700017e+03, 7.703713850580580e+02, -2.833529020301139e+02, 3.826241806869567e+03
8850, 6.519100040856894e-01, 2.875859508837024e-01, 3.643744521369072e-02, -5.814596276815925e-10, 1.413339159857897e-10, -4.982351792806455e-10, 1.666287966791967e+03, 1.547128284507371e+03, -3.831197762561523e+01, 2.658425898740084e+03, 6.808084221476496e+02, -1.384412224125703e+02, 1.602860321027824e+03
8851, 6.906518847375024e-01, 1.488918089712359e-01, 3.128909133409705e-02, -5.237281371857516e-10, 9.363971404209937e-11, -3.213883497753149e-10, 1.041750204382698e+03, 8.843366867579750e+02, -2.668055629901652e+01, 1.655799191072214e+03, 5.622192772760134e+02, -9.700128898789282e+01, 1.215372222097249e+03
8852, 2.313810925399452e-01, 9.292455111573364e-02, -1.773041016323357e-02, -1.648132322310703e-09, 9.198761693340206e-10, -9.769206745038240e-09, 6.280645499383342e+03, 7.088418256403962e+03, -5.977857956678445e+02, 1.411809622903735e+04, 1.200505663890953e+03, 2.529728529234769e+02, 7.831661541166799e+03
8853, 5.976367043588694e-01, 1.650731674623714e-01, 2.004460015415611e-02, -8.540165790298182e-10, 2.666222948142249e-10, -1.209370762185853e-09, 1.953210090847570e+03, 1.991770580225718e+03, -7.390801500240221e+01, 3.294004401998414e+03, 4.274012616428449e+02, -5.399267175257521e+01, 1.523372225221910e+03
8854, 5.941778163902320e-01, 8.713969082793372e-01, -5.290775516574486e-03, -1.173560767423865e-09, 4.883796460622918e-10, -3.969396564061477e-09, 5.307703102494738e+03, 4.594558748437949e+03, -3.101392110473626e+02, 8.652945235336319e+03, -1.715372969882100e+02, 6.901992881325691e+02, 3.986329092351490e+03
8855, 9.760366925333027e-01, 1.273054767582616e+00, 8.738291791382318e-03, -4.066525329505054e-10, 1.842081128399815e-10, -2.480766821715728e-10, 8.562042584954696e+02, 9.206217852746776e+02, -6.049896735240993e+01, 1.326547889392122e+03, 4.263471627551212e+02, -2.851288087232359e+02, 9.976300781625549e+02
8856, 4.387232406869602e-01, 4.759592458362425e-01, 1.204734512151735e-02, -1.735413190637920e-09, 9.625850302017678e-10, -4.271790254663150e-09, 5.583884735088689e+03, 5.924225405746284e+03, 1.078521131165386e+02, 9.508691282176364e+03, 8.897807384336913e+02, -2.922080485863923e+02, 4.104917668489677e+03
8857, 6.342994173828830e-01, 7.980254679387236e-01, -4.589690962406506e-03, -1.592103743207305e-09, 5.265669289085623e-10, -2.786636476822959e-09, 3.586544050238706e+03, 3.600690956764805e+03, -2.249527072767347e+02, 4.799398643109677e+03, 4.520831835028704e+02, 5.004582861905899e+02, 1.723479771410011e+03
8858, 4.909734120472355e-01, 2.476588113557310e-01, 4.840871280952686e-02, -6.635351990989993e-10, 2.956835378062734e-10, -1.135706363952847e-09, 3.327963048133454e+03, 3.174217764503151e+03, -2.040335809868512e+01, 5.797807036592614e+03, 7.700380368690594e+02, -3.326700138441697e+02, 2.935238737167469e+03
8859, 5.095310259342635e-01, 5.005953098645620e-01, 1.354635052088128e-02, -1.261796529109897e-09, 8.290962309377167e-10, -3.486744066798113e-09, 4.356012004036501e+03, 3.800351138650310e+03, -1.540084453403296e+02, 7.803743957688754e+03, 1.738081269789967e+02, -4.397755723373324e+02, 3.854007732651390e+03
8860, 5.523753373449594e-01, 1.671514421307283e-01, -7.462932818182739e-03, -9.717712479324941e-10, 6.325260071783211e-10, -2.576924017248541e-09, 2.361250945452811e+03, 2.510952409482447e+03, -1.104878027605594e+02, 4.088861467972813e+03, -9.307668574120253e+00, -5.148265143445464e+02, 1.892206226270300e+03
8861, 3.364709200412094e-01, 3.662421192317298e-01, 1.190732333061797e-02, -1.628975097756062e-09, 8.305968747158978e-10, -5.133898944302678e-09, 5.645162844840451e+03, 5.985910456225311e+03, 5.862251735883651e+02, 1.147426686762806e+04, 7.486948253119398e+02, -3.814585116818145e+02, 5.937798653209844e+03
8862, 5.267051618172391e-01, 1.421889926956622e-01, 1.290284827949519e-02, -9.733858668165781e-10, 5.192363769547127e-10, -2.184199507394632e-09, 2.446474161913892e+03, 2.329093839957253e+03, -2.104108287186298e+02, 4.192785213092985e+03, 3.657613437130365e+02, 1.302739304307218e+00, 1.950007770357922e+03
8863, 7.780468124515215e-01, 1.058650397254463e+00, -1.216989138069627e-03, -1.232936047095447e-09, 7.307630583955131e-10, -2.632827683940008e-09, 3.581771751662206e+03, 3.622085572019837e+03, -7.963366676152472e+01, 6.136468337351508e+03, 1.005387758538146e+03, -3.636745614765048e+02, 3.142184913005088e+03
8864, 7.660715793336590e-01, 8.646431326222227e-01, 2.658507409644946e-02, -6.919511084082635e-10, 2.214628265628037e-10, -7.183675287085746e-10, 2.288412518957515e+03, 2.053693600648818e+03, -1.379131769302288e+01, 3.666029434253339e+03, 7.899883127390220e+02, -2.542626605837757e+02, 2.083995631940834e+03
8865, 7.939903593371210e-01, 2.402362356984609e-02, 1.480620612915778e-02, -1.869882837566965e-10, -5.760269513255342e-11, 9.200297240161085e-11, -1.239455287092976e+02, -1.928974982691864e+02, -1.787366925508660e+02, -3.214983427197629e+02, 5.442484348610912e+01, 1.281307513169490e+02, 4.291140963289246e+02
8866, 5.334601180860520e-01, 4.714138749404717e-01, 1.366227236723654e-02, -1.367143775573869e-09, 6.994666950473193e-10, -3.108722385030871e-09, 3.324648050094328e+03, 3.803501858922016e+03, -1.112999109268148e+01, 6.599376871256778e+03, 5.908507326485320e+02, -3.196486012400047e+02, 3.277078658383487e+03
8867, 6.320586001246022e-01, 5.901594592899070e-01, -6.986674191295065e-03, -7.045956961949480e-10, 5.600827088954806e-10, -2.921073230706726e-09, 3.163339732655996e+03, 2.998496986492143e+03, -3.451135560787361e+01, 5.370400203024928e+03, -7.210488577455900e+02, -1.417538540029426e+00, 2.612550565008483e+03
8868, 1.028181223850349e-01, 1.397292438659006e-01, 2.727266849155901e-03, -2.686512628001205e-11, 2.870629660861924e-10, -1.952324771341310e-09, 2.717609704422923e+03, 2.932155939904945e+03, -1.192745240687709e+01, 7.047690808758356e+03, -7.755244353759588e+01, -2.996574841073320e+02, 4.260807859692642e+03
8869, 6.298875105241277e-01, 9.870461073587115e-01, 2.451631403112390e-02, -6.338692089707262e-10, 5.472029497542840e-10, -2.149077986650082e-09, 4.992298218628374e+03, 5.561132933207585e+03, 4.642860494898597e+02, 1.026755970889729e+04, 4.808833740874986e+02, -6.460991979481093e+02, 5.267254355498550e+03
8870, 4.211640579042967e-01, 2.983897544359025e-01, 4.816592580909600e-02, -9.145463929961812e-10, 3.905276570039719e-10, -1.566479726977964e-09, 4.301698104202565e+03, 4.231417953470541e+03, 1.292855345381625e+01, 7.964144227868731e+03, 1.066304352026663e+03, -3.622602896301083e+02, 4.181036005851697e+03
8871, 3.551223667236958e-01, 1.432756367141478e-01, 5.227179362052175e-02, -7.483638730753352e-10, 5.257178576962352e-10, -1.625450102813083e-09, 4.272250423230068e+03, 4.122040522666432e+03, -1.044100056327828e+01, 8.069265025132155e+03, 8.007175026478856e+02, -4.649948927245084e+02, 4.193168901734499e+03
8872, 6.518097616050080e-01, 2.211814746941008e-01, 3.795961778539108e-02, -4.973019219182611e-10, 9.993223435325165e-11, -4.246814520190286e-10, 1.513004496335754e+03, 1.409608741232266e+03, -6.019437611533604e+01, 2.422654142902440e+03, 6.554352650131339e+02, -1.174472042996405e+02, 1.507728377317466e+03
8873, 8.372581967329050e-01, 1.302612261429571e+00, 1.258397790602415e-03, -9.871397163377506e-10, 5.340116773115130e-10, -1.434765364551651e-09, 3.064922722663326e+03, 2.899893616735329e+03, 4.483932721749631e+01, 4.838846187333554e+03, 1.055718767724332e+03, -4.723920591376274e+02, 2.736038904264924e+03
8874, 2.267026729346770e-01, 1.097038036565961e-01, 4.323922403601514e-02, -5.721044414420369e-10, 7.488343228804291e-10, -2.461279314236683e-09, 5.015105306810035e+03, 4.858048106622309e+03, 2.064444428331516e+02, 1.081668481921914e+04, 3.139953308491054e+02, -5.117847152032097e+02, 5.983609241025305e+03
8875, 7.212572598519331e-01, 6.797391145783371e-02, 1.520362529254204e-03, -4.175248355221027e-10, 4.936279358746148e-11, -3.330609974422371e-10, 5.522355520972606e+02, 5.605737005403661e+02, -1.083855443245365e+02, 9.722476825707727e+02, 8.840885730555927e+01, 9.574752487201889e+01, 5.090884140654948e+02
8876, 8.091588572510696e-01, 6.097177265726026e-01, 2.275940893204713e-02, -4.902467629540301e-10, 1.614751511046079e-10, -1.645382089514965e-10, 7.825803962212373e+02, 5.459902940006871e+02, -6.110114944344188e+01, 9.748031865376540e+02, 5.628160175205527e+02, -1.890917361785027e+02, 1.098706148791321e+03
8877, 6.078415829450420e-01, 7.370461463102607e-01, 3.600143417083575e-02, -7.661029157359815e-10, 2.985365522845181e-10, -1.387135119636411e-09, 3.909645308300792e+03, 3.876819052157196e+03, -7.991906969259711e+01, 7.308107945970551e+03, 8.566311781824654e+02, -1.934240209741682e+02, 3.740993895055452e+03
8878, 5.345668109721365e-01, 8.225015609630446e-01, -6.418986198242497e-03, -1.128719255720305e-09, 1.217633343464645e-09, -4.991095602668220e-09, 5.131705580724081e+03, 5.417816439778452e+03, -6.548815006557013e+02, 8.301572272494373e+03, -4.017080602665495e+02, -1.872268885386269e+02, 3.331495181614620e+03
8879, 9.957680592537916e-01, 1.462847143597950e+00, 7.818089402149968e-03, -3.488342771304594e-10, 3.971555830792491e-10, -8.539423015589438e-10, 2.263058588639853e+03, 2.209152610361539e+03, -3.548189970983232e+01, 4.225303648642107e+03, 2.441303947815871e+02, -5.925626518118918e+02, 2.279266461635261e+03
8880, 5.208277921563459e-01, 9.580631019439506e-01, 3.097617259192852e-03, 3.090581214799966e-10, -1.951208125562602e-10, -1.115284992092062e-09, 3.073830782260631e+03, 2.841785919994859e+03, 3.477115680914486e+02, 5.602247112817930e+03, -1.491553097955708e+01, 3.935764731142046e+02, 2.803841065649330e+03
8881, 8.318401752011139e-01, 1.024214454105317e+00, 2.242107498372361e-02, -5.104257674852519e-10, 1.760505009537364e-10, -5.489322515643362e-10, 2.077116883912490e+03, 2.056744176764963e+03, -1.209862296688168e+02, 3.117002793313244e+03, 6.098717269721967e+02, -1.133767793015057e+02, 1.516993572335999e+03
8882, 8.674103312312357e-01, 1.244501750106229e+00, 3.174207437491108e-03, -3.532631602673155e-10, 1.537021196058436e-10, -1.934758326530763e-09, 3.143089208733860e+03, 3.047435030273481e+03, -1.894304624823571e+01, 5.354104135809197e+03, -2.087213752176596e+02, 5.145828350209272e+02, 2.456702339058637e+03
8883, 6.639098836835025e-01, 6.143280332188127e-01, 3.574564169456573e-02, -6.400632521040631e-10, 2.539960380633376e-10, -8.085478251163462e-10, 2.568926326264771e+03, 2.502182660102241e+03, -6.021550708268892e+01, 4.243101650251259e+03, 6.997531739749509e+02, -2.622113089693324e+02, 2.145964556635953e+03
8884, 3.273880463198082e-01, 1.221832973664892e-01, 5.256114341705069e-02, -7.086697086072984e-10, 6.048575918002979e-10, -1.705165795051175e-09, 4.361595404273721e+03, 4.187507686079770e+03, -5.145691121705175e+01, 8.444034563625803e+03, 7.493012052829873e+02, -5.667634340800374e+02, 4.479205425277651e+03
8885, 6.355521052590053e-01, 3.980939837748882e-01, 3.937586582071119e-02, -5.711135862484741e-10, 1.939394077801183e-10, -7.117205222388559e-10, 2.264432292889311e+03, 2.065665532494548e+03, -7.041423493575449e+01, 3.812084110739117e+03, 6.781837309345638e+02, -1.740563281946466e+02, 2.056189908713749e+03
8886, 7.640828935159223e-01, 3.202699647960924e-01, 2.528829386449678e-02, -4.468874140645786e-10, 7.597759047010552e-11, -2.341144833388909e-11, 4.842509716532578e+02, 3.824286170665227e+02, -3.240555409816938e+01, 4.101178003711375e+02, 4.839743712805282e+02, -8.678370180280805e+01, 8.583433308409727e+02
8887, 3.943631814852410e-01, 2.779554369939772e-01, 4.914348535848534e-02, -8.662061264541469e-10, 3.988407902540223e-10, -1.673868114503846e-09, 4.499640413515315e+03, 4.508536466986428e+03, 3.017845860801479e+01, 8.741454954100107e+03, 1.037372276015265e+03, -4.174170472481993e+02, 4.659313386835414e+03
8888, 4.272621692569621e-01, 3.424169599499688e-01, 1.901327052349459e-02, -1.634739741483489e-09, 6.903858670183307e-10, -3.561190299858241e-09, 4.530378514465775e+03, 4.523588328427128e+03, -6.881075332698981e+01, 8.075392249313436e+03, 8.030297263392486e+02, -2.922860648662425e+02, 3.846596964106443e+03
8889, 5.113895218282981e-01, 7.022304230152112e-01, -1.002598464200291e-02, -1.427496638514957e-09, 1.364940907564543e-09, -6.319092688182095e-09, 6.552658473551155e+03, 6.319185525241603e+03, 3.493974666578858e+00, 1.131396723756969e+04, 3.133819198095476e+02, -1.202817465000753e+03, 5.335839055646221e+03
8890, 4.270642387848589e-01, 5.656195019911828e-01, 3.213866318068532e-02, -1.048629946433945e-09, 6.244032366463459e-10, -2.625026950835596e-09, 5.707486890293290e+03, 5.813940090567547e+03, 1.858595175466945e+00, 1.196960349530034e+04, 9.621308238005965e+02, -5.092359589589000e+02, 6.489520446119282e+03
8891, 4.184117035237772e-01, 6.606915196814604e-01, -7.808974280322081e-03, -2.040923164359761e-09, -6.024993554762686e-10, -6.150544185736155e-09, 6.039193882864090e+03, 6.050922769848005e+03, 1.818718298851903e+03, 1.458933857479795e+04, 1.992098852645196e+03, 2.644567776732808e+03, 1.076172042863382e+04
8892, 9.000705050124360e-01, 5.287669198862238e-01, 9.243071765449577e-03, -4.253774396562498e-10, 1.632955924898607e-10, 3.067018966503849e-10, -6.897052862750257e+02, -7.311969856666421e+02, 1.368571663915206e+02, -1.468444323868220e+03, 4.392833657812259e+02, -2.496792627996756e+02, 1.182354991061741e+03
8893, 6.904768215956961e-01, 1.115445953649021e+00, -1.478136999552505e-03, -3.440212708613083e-10, 2.344892316389986e-10, -3.966848881048408e-09, 5.152808838788528e+03, 5.548482375019238e+03, 8.214389218758798e+02, 9.559227364781247e+03, -1.225275824196112e+03, 1.046036337112216e+03, 5.257408379807179e+03
8894, 3.823010665340674e-01, 2.909985421089636e-01, -1.508108829558532e-02, -2.146639622767257e-09, 1.011177010293893e-09, -8.462281497088700e-09, 6.228910611683445e+03, 6.650176338307971e+03, -8.055893884195298e+01, 1.271533802626397e+04, 8.753245151790688e+02, 2.390182083124471e+02, 6.481368159522100e+03
8895, 7.681364284595190e-01, 1.284165050422988e+00, 1.686089219945871e-02, -3.778109303453385e-10, 2.289696688789559e-10, -1.612494369206665e-09, 3.883010235096773e+03, 4.340223004578552e+03, 2.870989560873816e+02, 7.886159169076137e+03, 2.577807287414868e+02, -1.164600364376588e+02, 3.858921229799415e+03
8896, 6.555547416714057e-01, 1.078097958575374e+00, 2.086291858449157e-02, -7.495623449847498e-10, 5.331927536010490e-10, -2.693792667159404e-09, 5.175411071339923e+03, 5.831036994812189e+03, 2.197092450724872e+02, 1.344592624603192e+04, 8.121421882148472e+02, -5.470802883988158e+02, 8.150480614169353e+03
8897, 8.254764204738705e-01, 1.154856951467950e+00, 2.273531329328241e-04, -8.083278731358366e-10, 5.149165076382005e-10, -1.162445638513062e-09, 2.554967297233199e+03, 2.502964692052280e+03, -2.015311011441515e+02, 3.943222795203934e+03, 2.684546730741342e+02, -5.089243986746790e+02, 1.765562437443967e+03
8898, 5.206745941747423e-01, 2.745492320849333e-01, 4.537514808503024e-02, -6.997336075164859e-10, 2.738954325502889e-10, -1.158802778694888e-09, 3.094252775377963e+03, 3.023971355749047e+03, -4.983492956430756e+01, 5.562215483480143e+03, 7.588309756269684e+02, -2.402071777855635e+02, 2.859589778858295e+03
8899, 7.611754611565085e-01, 6.229014539625836e-01, 8.574604646108264e-05, -7.324674771174421e-10, 2.165949347060527e-10, -6.868225146739864e-10, 1.289409696702497e+03, 1.118718700723180e+03, -3.690738955763231e+01, 1.639771817515052e+03, 1.372849177636039e+02, 5.974102716044097e+00, 5.219460441667738e+02
8900, 7.837309612243936e-01, 4.164908186300811e-01, 2.235522718514991e-02, -4.772198892075629e-10, 1.019035564286754e-10, -1.428370304454376e-11, 3.666698479532540e+02, 2.395621200988115e+02, -4.744519649510528e+01, 2.765731091577525e+02, 4.832650090055679e+02, -1.035250166556393e+02, 8.673882862282589e+02
8901, 6.070830918077573e-01, 6.829101185347596e-01, -7.729022842878047e-03, -1.216095228795558e-09, 9.576686243984309e-10, -3.441566443921533e-09, 3.579925757440988e+03, 3.799003477582456e+03, 1.828671505944892e+02, 6.338442596443368e+03, 1.767475462564928e+01, -1.316343271969576e+03, 3.514629115937151e+03
8902, 8.167536017005794e-01, 1.143890587303964e+00, 2.273580062309691e-02, -5.664132459341128e-10, 1.000845005779568e-10, -9.124318149303065e-10, 3.081877115253968e+03, 2.973918223469400e+03, -1.680322082384605e+02, 4.868014653641953e+03, 6.627337019733666e+02, 8.115807764445481e+01, 2.194740099985533e+03
8903, 7.678993789431152e-01, 9.231622861576596e-01, -5.725619825582545e-04, -8.069663159658473e-10, 9.414072236290818e-10, -2.208796588204391e-09, 2.804986031936127e+03, 2.848403767350694e+03, 9.949731316044104e+01, 5.469890774681615e+03, 1.051063113273208e+02, -1.345883922075127e+03, 3.533404874869606e+03
8904, 7.779178057346736e-01, 6.794975887325702e-01, -2.083286519556742e-04, -7.041470616610512e-10, 3.513207059804529e-10, -5.812536129920660e-10, 1.123956415203910e+03, 9.214813852330744e+02, -2.040446290210920e+01, 1.568729953601170e+03, 1.603446001375237e+02, -2.214100930352691e+02, 7.445284818794687e+02
8905, 7.744587858320554e-01, 8.315592081304096e-01, 2.686519029789585e-02, -5.879090166801010e-10, 1.876377666979544e-10, -6.070313455644718e-10, 2.140159860663612e+03, 1.928694854546475e+03, -8.087259569362725e+01, 3.313694979792666e+03, 7.074676724124354e+02, -2.011227644683145e+02, 1.820046012516573e+03
8906, 8.100777772666080e-01, 1.036364168879702e+00, -1.741110492781833e-05, -4.911552713294022e-10, 5.252437061922416e-10, -1.705322003013386e-09, 2.630389863458358e+03, 2.508371644414549e+03, 1.237918629515905e+02, 4.491733054840811e+03, -2.886454977108117e+02, -3.214892741542141e+02, 2.076678287400361e+03
8907, 3.772375948822540e-01, 3.745042048825049e-01, 8.795659490902023e-03, -1.876422720242884e-09, 1.157613410282969e-09, -5.266494474407395e-09, 5.465520744244288e+03, 5.886677798351460e+03, -1.947459519995684e+02, 1.022381319948635e+04, 7.859049499523238e+02, -8.354023396037692e+02, 4.987498456781050e+03
8908, 7.083399739951117e-01, 1.315928310636219e+00, 4.612652502933641e-03, 7.697367779538117e-11, 9.701833305254208e-11, -1.238177947631323e-09, 2.187611934056660e+03, 2.913839251671226e+03, 7.364157012902774e+02, 4.170088142274908e+03, -9.462611690076435e+02, -1.309538308889223e+02, 2.717074019378412e+03
8909, 8.537739167418015e-01, 9.793054722379957e-01, 2.071603181124032e-02, -4.720134391131506e-10, 1.543136461266686e-10, -3.414187372449129e-10, 1.373976863944040e+03, 1.136115711782312e+03, -6.674292598338681e+01, 1.970250201132908e+03, 6.466057759441205e+02, -2.344605984152460e+02, 1.409441855105839e+03
8910, 3.713156279242624e-01, 5.709367860962238e-01, 2.235079340599385e-02, 1.731614283857900e-10, 2.583889522993222e-10, -3.212397151213205e-09, 5.475801237613461e+03, 6.027326423214315e+03, 6.337095076985574e+02, 1.476858139392120e+04, -9.988554583414207e+02, -1.199691706887436e+01, 9.259215541385718e+03
8911, 3.350553263902074e-01, 4.284557657853422e-01, -1.263897851116167e-02, -1.753698936072358e-09, 2.010741353453446e-09, -8.800033704674084e-09, 7.706405386797770e+03, 7.739645114443608e+03, -6.418001958181114e+01, 1.399219571862333e+04, 8.038403923575664e+02, -2.605536200351796e+03, 7.849880192998186e+03
8912, 5.125538654343520e-01, 7.187999995797837e-01, 3.272154041826401e-02, -8.049150339099854e-10, 2.833360251955630e-10, -1.844393260197806e-09, 4.905396611536709e+03, 5.195874430402008e+03, 1.830471672197278e+02, 9.642041377520798e+03, 8.813406920828081e+02, -1.529989930357564e+02, 4.862645358286864e+03
8913, 3.361344285262945e-01, 2.428808105402176e-01, 4.661057253950893e-02, -8.213461349991925e-10, 5.701955016355111e-10, -1.961341703549047e-09, 4.919529023374408e+03, 5.010825764301918e+03, 4.308408361609658e+01, 9.628338662452576e+03, 7.576275637919308e+02, -5.702162718354548e+02, 4.945132093212107e+03
8914, 5.770401993175455e-01, 2.672435375703267e-01, 4.285871262605359e-02, -6.828788407625193e-10, 1.848681344321783e-10, -8.386387428431790e-10, 2.463543099033180e+03, 2.295694506055517e+03, -6.523861951137128e+01, 4.311163951379159e+03, 8.633133081947901e+02, -1.559673178229072e+02, 2.464482049852116e+03
8915, 5.753269277193901e-01, 8.306166181248427e-01, 2.820586479129092e-02, -1.110817157879533e-09, 5.731529113678285e-10, -2.342977778246359e-09, 5.185749560482008e+03, 5.184042687080572e+03, 7.235661096853724e+01, 1.061178258750413e+04, 1.030832545748231e+03, -4.274328271634922e+02, 5.762182658505861e+03
8916, 6.449575446361439e-01, 1.605123732337859e-01, 3.837033024522057e-02, -4.542651930740291e-10, 1.161842075124928e-10, -4.394943457340713e-10, 1.532566505915885e+03, 1.420760002081067e+03, -6.132356752615692e+01, 2.484025657974360e+03, 5.769015217338062e+02, -1.224160515399773e+02, 1.441818102199983e+03
8917, 3.577258577386822e-01, 2.071334388862345e-01, -1.649349156891610e-02, -9.613091488138981e-10, 1.452494449341261e-09, -6.304241633147857e-09, 5.296551023756834e+03, 4.991478857501667e+03, -2.782445805015324e+02, 8.524756916094742e+03, -1.485495888310869e+03, -1.019932421344512e+03, 4.633827656405876e+03
8918, 8.059720091165682e-01, 9.223316427146349e-01, 2.408238991109992e-02, -5.265036761694995e-10, 2.483821988229709e-10, -5.964664040084580e-10, 2.059367480077879e+03, 1.919883660586466e+03, -1.059495548635823e+02, 3.252552925860568e+03, 6.077818923897562e+02, -3.219786571817087e+02, 1.749988709959719e+03
8919, 8.002299418869507e-01, 7.042691207282151e-01, 2.250024047589411e-02, -5.493592631698972e-10, 1.800992376263686e-10, -3.233216484140675e-10, 1.161549094551079e+03, 1.017737695980907e+03, -3.778408103879990e+00, 1.684950773420670e+03, 5.916401615152527e+02, -1.578748254165851e+02, 1.222633475744943e+03
8920, 7.865944384464825e-01, 1.168982303524926e+00, -1.093850176844421e-03, -1.273118542831394e-09, 4.717520535844631e-10, -1.789721392778164e-09, 2.751342469659301e+03, 2.301893541325720e+03, -1.211127423922993e+02, 3.040526606195438e+03, 8.121714012912435e+02, 1.855316267477111e+02, 1.594284573772213e+03
8921, 7.555219010510444e-01, 2.795898171350648e-01, 2.210194570216982e-03, -6.093051201158066e-10, 7.116001494741303e-11, -2.201294888464997e-10, 5.275843349693650e+02, 4.165548414400726e+02, -3.170151967025907e+01, 7.644841855354732e+02, 1.395102925175754e+02, 7.428239115809836e+01, 4.155838100418009e+02
8922, 6.062929255565347e-01, 9.620019157747283e-01, -5.096247337810174e-03, -3.866228123395417e-10, 3.095534984100418e-10, -6.670793318247720e-09, 7.027950765461657e+03, 6.544461021310472e+03, 6.050275537430726e+02, 1.402120758312200e+04, -1.076880343780823e+03, 1.765977996549499e+02, 7.562494323658351e+03
8923, 7.950449048246327e-01, 7.460629732533781e-01, 1.495696959605967e-03, -7.637808201067264e-10, 3.273325719654394e-10, -9.523921112591535e-10, 1.252789834420102e+03, 1.287009988666160e+03, 1.587698333698300e+01, 2.022722664907210e+03, 6.988944161509787e+02, -3.103517102710340e+02, 1.524037848934635e+03
8924, 8.948095315156592e-01, 1.082600389227554e+00, 5.819381013601865e-03, -6.942407894346414e-10, 1.291856327594670e-10, -1.007614914877576e-09, 1.632950157219273e+03, 1.625186493263250e+03, -3.165618320062909e+01, 3.109906804537614e+03, 7.765808499423473e+02, -4.007940495282220e+01, 2.002495112359429e+03
8925, 9.589797712004821e-01, 1.149299602614076e+00, 8.267539843124290e-03, -3.659227156231960e-10, 8.007458531942831e-11, -6.739386889834377e-11, 4.973553888268511e+02, 3.944827807283252e+02, -2.024489925844503e+01, 5.186222631641235e+02, 2.927665332336528e+02, -1.623532873057561e+01, 5.219002651370537e+02
8926, 5.872899476943438e-01, 4.978993058794918e-01, 1.547444586777963e-02, -1.214835555330862e-09, 5.355336914885424e-10, -2.162501896334786e-09, 3.076233385121580e+03, 3.049749111061601e+03, -1.540950028648691e+02, 5.202549772375056e+03, 5.961154159200593e+02, -2.590319606685897e+02, 2.432452669297648e+03
8927, 4.223430158146732e-01, 4.439786479629504e-01, 1.676020631820499e-02, -1.579981118540512e-09, 7.984881752047649e-10, -3.826981639102579e-09, 5.016171079336177e+03, 4.879396696358926e+03, 7.492429815285779e+01, 9.493873163101433e+03, 7.919908960573996e+02, -3.012017253630918e+02, 4.780346770917051e+03
8928, 2.724967395377673e-01, 4.059437534373502e-01, 2.076867229847073e-02, -3.657340990391318e-11, -9.974443476259318e-11, -2.189595542082361e-09, 4.759155326350156e+03, 4.781330462624565e+03, 3.252029110047354e+02, 1.041875786468247e+04, -8.391952643073851e+02, 5.353044001417909e+02, 5.932601406494369e+03
8929, 3.849887945133791e-01, 1.813045183179404e-01, 5.081333476266883e-02, -7.908967314073519e-10, 4.834142936896222e-10, -1.592642366091577e-09, 4.130098708621335e+03, 4.092741402105798e+03, -1.795950581077476e+01, 7.729778342974726e+03, 8.349482766235553e+02, -4.466389839186716e+02, 3.972959353569009e+03
8930, 5.945478675476354e-01, 9.905079633260165e-01, -3.475556335468411e-03, -7.021280033986584e-10, 4.557753698105974e-10, -4.191859091360992e-09, 4.459817644530116e+03, 4.371285561925669e+03, 6.742662488141125e+02, 7.745201159966611e+03, 5.997611838225062e+01, -7.760262045196725e+02, 3.778067092499795e+03
8931, 1.599592631934395e-01, 1.877603122620005e-01, -7.687001362130210e-03, 1.514912767189346e-11, 8.982244692165137e-10, -3.844699818355159e-09, 4.004047601106302e+03, 4.494372643451135e+03, 1.237748816930379e+02, 8.569609410705158e+03, -1.563556039706515e+03, -3.532459628494225e+02, 5.157576490904358e+03
8932, 6.893525594279967e-01, 1.219377451816061e+00, 1.360573603424437e-02, 3.629435069199075e-10, -1.345211109785192e-10, -2.636662059459037e-09, 5.268261640620240e+03, 5.389094233127246e+03, 2.198945587551848e+01, 1.112144846917956e+04, -1.583157153822336e+03, 6.904662032531327e+02, 6.520581407330144e+03
8933, 8.827486343621556e-01, 1.259534499832263e+00, 1.674517076152852e-02, -5.373906870123550e-10, 1.980636628588464e-10, -6.462355040235850e-10, 2.584376940606996e+03, 2.601612969132943e+03, -9.314688327500620e+01, 4.005588379221020e+03, 7.114054714068328e+02, -2.391392275006192e+02, 1.926532627092620e+03
8934, 4.689760302281399e-01, 4.685608908343465e-02, -1.281082237868374e-02, -6.918339143576949e-11, 4.284767255152379e-10, -3.450492907867124e-09, 2.968939652863597e+03, 3.281782976529149e+03, 7.260510001508757e+01, 4.862638105577198e+03, -9.799618799826067e+02, -6.668967625452625e+02, 2.706026255043833e+03
8935, 7.934118990822013e-01, 1.022458868972386e+00, 2.517673758052440e-02, -6.357469859673283e-10, 2.071108342250491e-10, -8.902326703840671e-10, 2.965391371331429e+03, 2.788910749683249e+03, 7.849075570395399e+01, 4.566251167687208e+03, 7.582885888601169e+02, -2.317589828751989e+02, 2.186559410591768e+03
8936, 1.862332397981946e-01, 2.288778643871024e-02, 4.550403492082693e-02, -5.726492374921393e-11, 7.180623099218423e-10, -1.026987619226715e-09, 2.822309208763604e+03, 4.034312205833910e+03, -4.535534683572987e+01, 4.721919390936974e+03, -1.064975291474451e+01, -1.344959074578397e+03, 2.865029351701007e+03
8937, 5.338994248414141e-01, 5.899646001548357e-02, -9.261954464992381e-03, -7.124742135109349e-10, 4.398521527623278e-11, -3.098798167506533e-09, 2.615316460991161e+03, 2.759982629523354e+03, -4.286479824568135e+02, 5.755783695435009e+03, 9.056302502006018e+02, 7.464111210872005e+02, 3.756627184403764e+03
8938, 8.092357899912092e-01, 3.763654467266890e-01, 4.014524466781952e-03, -5.688136933250887e-10, 1.070194429385095e-10, 1.534242419016025e-10, -1.493596245978702e+01, -8.642136911954954e+01, -3.465674077901561e+01, -2.295349307072257e+02, 2.607035320155520e+02, -3.887128119546131e+01, 4.978527687881192e+02
8939, 4.957945955235270e-01, 2.627395104401656e-02, 4.903099115327628e-02, -2.322619320150035e-10, 4.135948962732413e-10, -5.174519153629612e-10, 1.620045933699921e+03, 2.091977426684155e+03, -2.143781314774825e+02, 2.552245591369158e+03, 2.650164505887358e+02, -6.539778508446472e+02, 1.511098062611150e+03
8940, 9.810186651647098e-01, 1.533770010542672e+00, 7.909618551279324e-03, -3.910402299623520e-10, 3.233124983838639e-10, -1.155536903902752e-09, 3.186756504693280e+03, 2.964104374386081e+03, -1.611430091122491e+02, 4.886648944454663e+03, 1.139445316554070e+02, -2.107033996302975e+02, 1.888844089855293e+03
8941, 9.302010756548608e-01, 7.997308506895037e-01, 9.096890940182734e-03, -3.502716918070968e-10, 6.370545379160228e-11, 1.434100879948107e-10, -2.764206078575122e+02, -3.616507869053845e+02, -1.222358435330538e+01, -8.104701809987731e+02, 4.041543998456042e+02, -4.160040294360435e+01, 8.617530705578283e+02
8942, 1.513217570194433e-01, 7.181250709597158e-02, 7.427604598265110e-03, 7.721368362376801e-11, 1.401617655288134e-09, -6.050499500262152e-09, 5.252210682324649e+03, 5.281113857994987e+03, 4.569200154161614e+02, 1.369074752320368e+04, -5.708006221802231e+02, -1.092190464129643e+03, 8.726296274928944e+03
8943, 3.772961268757581e-01, 4.904978311388170e-01, 3.343256753362035e-02, -6.772645102608023e-10, 3.854163546095816e-10, -2.098774004466041e-09, 5.261796789553996e+03, 5.750843177216941e+03, 3.635044043547553e+02, 1.049394110230119e+04, 4.715159971779770e+02, -1.080036750394933e+02, 5.114110083584927e+03
8944, 4.448643571153821e-01, 7.326149987413995e-02, 5.323948785246760e-02, -3.974577186953686e-10, 5.522104972678432e-10, -9.690254071254226e-10, 2.817251876520214e+03, 2.656307107323830e+03, -1.541108767522489e+02, 5.057028290793999e+03, 4.916388584339809e+02, -6.379156233213641e+02, 2.723998479903194e+03
8945, 9.008230170984040e-01, 5.880583943755802e-01, 9.930552421808386e-03, -4.153704874873086e-10, 1.219969965966948e-10, 2.591296019027145e-10, -6.149288974047990e+02, -6.993222250208230e+02, -2.978309365285959e+01, -1.474494715410661e+03, 5.586968771294864e+02, -1.934647705633118e+02, 1.313319291503920e+03
8946, 7.726470135205710e-02, 9.093304813833639e-02, 2.598826217897485e-03, 2.993367973264472e-10, 1.471563163704719e-10, -1.418540963970951e-09, 2.721798222878124e+03, 2.211799940691555e+03, -2.508206692400454e+02, 4.679969973560829e+03, -7.682036329621523e+02, 1.655768898417791e+02, 2.671065272671433e+03
8947, 8.008479908869082e-01, 8.603937789225502e-01, 9.375110908743829e-04, -7.890753020335254e-10, 2.748379315899926e-10, -7.673625088060716e-10, 1.325194563452118e+03, 1.345187571067203e+03, -1.207479439369252e+02, 1.779946488903753e+03, 2.517065711746653e+02, -2.686081783773551e+02, 8.052124114996271e+02
8948, 5.267625518504478e-01, 2.091593708732815e-01, -9.502532479251386e-03, -1.115183325737852e-09, 5.267882915535888e-10, -3.020381209987884e-09, 2.650013615522371e+03, 2.550682613911515e+03, 9.312423149451520e+01, 3.474701326577055e+03, 5.296500479241352e+02, -2.198080532685738e+02, 1.335830884924609e+03
8949, 2.842431663729110e-01, 4.246575866763812e-01, -8.140196988325125e-03, -6.024035429940179e-10, -5.034468900543932e-10, -4.813686893645723e-09, 4.349175608303141e+03, 5.638553613167825e+03, 1.104596806193251e+03, 1.249252120152615e+04, -1.213635388425175e+03, 2.618403169330772e+03, 9.280299712214848e+03
8950, 5.945567986041587e-01, 2.462537219703353e-01, 4.181628981168746e-02, -6.295517450255674e-10, 1.860417834808824e-10, -7.371130887653794e-10, 2.230276466083388e+03, 2.049712616223072e+03, -5.670454746927328e+01, 3.767885079525184e+03, 7.902185903399339e+02, -1.925300577527574e+02, 2.160709612814882e+03
8951, 3.800808441789854e-01, 6.033292344329674e-01, 2.120141534307897e-02, 1.837862863687882e-10, 1.734671647538341e-10, -2.805258569396491e-09, 5.495000853101390e+03, 6.586015390828100e+03, 3.720306227503198e+02, 1.321281178289354e+04, -1.196882467838129e+03, 5.562087838833293e+02, 7.614169833788486e+03
8952, 7.981045902064835e-01, 2.681165069778082e-01, 2.056976556777190e-02, -4.196503574675495e-10, 6.173996997061484e-11, 1.076481776310212e-10, -6.436421255596964e+01, -1.597884825018886e+02, -9.571552650238466e+00, -4.027066024535100e+02, 4.938892331932423e+02, -1.007113781955807e+02, 9.240011912848142e+02
8953, 2.525091090303649e-01, 3.715810602820697e-01, 2.003452564004442e-02, -1.318657821463079e-10, 5.386022111304689e-12, -2.349006288883495e-09, 4.765412865022589e+03, 4.948094935845736e+03, 3.194259090633538e+02, 1.078252563423840e+04, -7.485631753037514e+02, 4.505930142777997e+02, 6.142966840652540e+03
8954, 7.328301273628599e-01, 1.143961070392106e+00, -2.738444540050192e-03, -8.697697234040721e-10, 8.698217139802256e-10, -4.918044114437309e-09, 6.577884895463747e+03, 6.150507194348724e+03, -4.250583431936404e+02, 1.140726488956876e+04, -3.386119537692022e+02, -1.255046788892339e+03, 5.583991173394906e+03
8955, 7.889193673541137e-01, 4.844755414382514e-01, 3.050268157770798e-03, -6.762340031224341e-10, 1.447007581018112e-10, -1.376297575984223e-10, 4.317780100119583e+02, 2.754344365245242e+02, 1.573442878293296e+01, 3.794774547004016e+02, 3.454578087094970e+02, -4.406043044933902e+01, 6.193478662920807e+02
8956, 6.369398669189246e-01, 5.134461253697978e-02, 3.789691893603167e-02, -2.699732365601524e-10, 2.200645836622615e-10, -3.500862199759296e-10, 1.088205817925682e+03, 1.095454627825831e+03, -1.257267041550167e+02, 1.878201169442786e+03, 3.737458006433467e+02, -2.790046988029994e+02, 1.148228602373921e+03
8957, 9.562627531013294e-01, 1.109497374628571e+00, 9.337218854778204e-03, -4.230135645967868e-10, 1.265008021735441e-10, -1.141697929005471e-11, 4.152845978412113e+02, 2.389888232070670e+02, -4.029831971201933e+01, 3.911940507844486e+02, 4.779424217650650e+02, -1.384157636425513e+02, 8.803686745413360e+02
8958, 2.256744947385658e-01, 2.970226266449945e-01, -9.983247234093988e-03, -1.162536540050668e-09, 1.600168202160131e-10, -6.847311813824455e-09, 5.923600629956066e+03, 6.453582856529251e+03, 1.155521168171478e+03, 1.380265676643581e+04, -6.365257379829502e+02, 1.776007986692958e+03, 8.536301465493638e+03
8959, 9.590310282268278e-01, 1.037813125692783e+00, 8.690610377714465e-03, -3.959654495928695e-10, 7.255041393522694e-11, 6.324795125965598e-11, -2.852695714149606e+01, -8.854190042387663e+01, -4.835915665891312e+01, -2.724540300815950e+02, 3.763721132974383e+02, -7.079557385697227e+01, 7.039053258913528e+02
8960, 9.891320941993819e-01, 1.377619994371860e+00, 8.328252022653821e-03, -4.057248272022330e-10, 1.663435470718207e-10, -7.830492952703434e-11, 1.184940041483351e+03, 1.204081487299316e+03, -5.105919763616253e+01, 1.433128795181178e+03, 4.765195534123063e+02, -9.868924159192039e+01, 8.806053823305135e+02
8961, 6.108096570426081e-01, 9.928332862014710e-02, -4.068798488933517e-03, -5.464404612791252e-10, 1.675315566579686e-10, -2.203937110764582e-09, 2.130555399827469e+03, 2.090238324478806e+03, -1.409056827078605e+02, 4.461278147385173e+03, -5.758479289336327e+01, 1.649330535867581e+02, 2.383061458093329e+03
8962, 7.811404174737842e-01, 3.494415072983588e-01, 2.245819924085699e-02, -4.714899530175595e-10, 8.949790494327361e-11, 1.082229416080584e-11, 2.571941499460161e+02, 1.444772251282541e+02, -3.200673288065084e+01, 1.107212587408000e+02, 5.015396554877836e+02, -1.075814772783707e+02, 9.000389618356825e+02
8963, 8.821808195341148e-01, 4.034334898830077e-01, 8.905409786836146e-03, -3.093508503958190e-10, -6.388413732319275e-11, 5.097967575201155e-10, -9.147905110950700e+02, -1.050200084239308e+03, -4.006730571520552e+01, -2.168003308631245e+03, 1.563213863335245e+02, 2.145967944744781e+02, 1.278851713635313e+03
8964, 7.629029437749765e-01, 3.820574774985820e-01, 7.323301942849803e-04, -6.539578326372805e-10, 1.893216523700531e-10, -1.126773743871493e-10, 5.454169741409954e+02, 3.671721908433947e+02, -5.052264729647980e+01, 5.246733531350399e+02, 1.803110604311426e+02, -1.317252254349866e+02, 4.309901537307672e+02
8965, 5.541316741546815e-01, 3.248167765817450e-01, 1.602350682283232e-02, -1.296379567809256e-09, 4.143610476363654e-10, -2.414245658246388e-09, 2.941361389426981e+03, 2.954549279759693e+03, -9.157835369590748e+01, 5.392563706767982e+03, 8.218862532056822e+02, -2.723584882190702e+01, 2.833746059944410e+03
8966, 6.842092261203424e-01, 6.559004361749142e-02, 3.156781070002296e-02, -3.565458488045353e-10, 1.475381160771552e-10, -2.989859315860345e-10, 8.605804383717152e+02, 7.702400821423047e+02, -1.258039720328671e+02, 1.498140370930195e+03, 4.059524496446897e+02, -1.205878243188466e+02, 1.028463806543397e+03
8967, 6.580385265372320e-01, 4.219443678262594e-01, 3.603722528081484e-02, -6.222880216733024e-10, 1.754343493722637e-10, -6.565352638789927e-10, 2.060046893028432e+03, 1.890293560356883e+03, -2.685336570974687e+01, 3.369709036263913e+03, 7.366041708892419e+02, -1.393289866171764e+02, 1.911676949660860e+03
8968, 8.455870567842239e-01, 1.282629003073809e+00, 1.836944531384146e-02, -7.063225621726639e-10, 1.793414607228580e-10, -1.048932177988416e-09, 3.518234801981287e+03, 3.292483025385172e+03, 1.331463878491532e+02, 5.471722113421715e+03, 6.751257583292060e+02, -1.598671981307297e+02, 2.409423288941940e+03
8969, 7.585900308649087e-01, 1.077873338281600e+00, 2.404175125627909e-02, -7.970991273522051e-10, 4.414855096929449e-10, -1.321929981922426e-09, 3.666324032766017e+03, 3.596606537008553e+03, -3.531635666902470e+01, 6.324589254372398e+03, 7.002694940524808e+02, -4.795917576876691e+02, 3.069439802651095e+03
8970, 8.426030200998798e-01, 1.193593455252453e+00, 9.313576823200241e-04, -5.627644112960505e-10, 1.840596025241317e-10, -1.192677129140939e-09, 2.414769293039011e+03, 2.331661826306137e+03, 8.315736077390820e+01, 3.165858151792826e+03, 1.216777942853176e+02, -2.686030479759588e+02, 9.565913997513105e+02
8971, 6.475474930504818e-01, 5.948113539727368e-01, 3.542579015963547e-02, -7.251515720982415e-10, 2.559793705854885e-10, -8.920561853709196e-10, 2.778542720489653e+03, 2.546107597335581e+03, -6.282442082275882e+01, 4.439563452878256e+03, 7.826503235933415e+02, -2.272473232105110e+02, 2.281114829799476e+03
8972, 6.880127344139048e-01, 8.432504768267705e-01, -2.801430149470335e-03, -8.569248216437866e-10, 7.668045454994404e-10, -2.545463349577642e-09, 3.442884302341331e+03, 2.944015214259266e+03, 9.205060453645532e+01, 5.344310673232259e+03, -5.245716630824362e+02, -7.039482580339063e+02, 2.674029007162326e+03
8973, 2.958359332252348e-01, 1.168135811069694e-01, 1.741428047455952e-02, -1.403404761983453e-09, 1.217087825903378e-09, -4.781389937959266e-09, 4.805483742178137e+03, 4.562417542089726e+03, -2.906041263651572e+02, 9.173946879459138e+03, 5.945060595023898e+02, -4.171865361591393e+02, 4.694696534538468e+03
8974, 3.714055612412527e-01, 4.203060823958230e-01, 8.309228602861669e-03, -1.674963130167726e-09, 7.948256502275427e-10, -5.643272253823060e-09, 5.051301111214226e+03, 5.086278138733285e+03, 3.994958482349076e+02, 1.224560488575323e+04, 9.835225410586247e+02, -3.593641612928606e+02, 7.434767191886032e+03
8975, 5.215111506845509e-01, 7.675038081990644e-02, 2.256919760615695e-02, -8.010095683283557e-10, 5.879477492136504e-10, -1.785259541601501e-09, 2.415393366814856e+03, 2.351791571550294e+03, -1.391772591965936e+02, 4.465361374810314e+03, 5.587417495639918e+02, -1.525084223458617e+02, 2.324061118154676e+03
8976, 2.049931845478552e-01, 6.224966584581629e-02, 4.654112620645263e-02, -3.335999989889738e-10, 9.525921106528132e-10, -1.815334994559110e-09, 4.076254575949070e+03, 4.218324184246291e+03, 4.986284250256016e+01, 8.532309483063693e+03, 2.362508759960028e+02, -1.245500563917872e+03, 4.906348584863341e+03
8977, 6.402435777626001e-01, 3.311528306951865e-01, -4.242152708214597e-03, -8.978250218194659e-10, 4.379736048769207e-10, -2.170193160340088e-09, 2.457188231305501e+03, 2.283865085198091e+03, 3.336568423149302e+01, 4.473685169314171e+03, -1.505967226351009e+02, -4.907971625616498e+02, 2.289067473225777e+03
8978, 7.475144097513130e-01, 1.746235813788525e-01, 2.498947774184627e-02, -4.483154478608084e-10, 5.487865777995269e-11, -6.678035726885868e-11, 4.526180489321468e+02, 3.093585103997967e+02, -1.670248956544496e+01, 4.370012722303750e+02, 5.142152104351222e+02, -3.561158537947892e+01, 9.035614253124569e+02
8979, 7.622400952158747e-01, 7.123964509022152e-01, -6.931959264532845e-04, -9.667219636891153e-10, 3.328791808091358e-10, -1.096372424563441e-09, 1.694632443423438e+03, 1.551677691465241e+03, -5.572704893143527e+01, 2.899324136873833e+03, 7.374209013447631e+02, -5.463764157373434e+01, 1.814821099832576e+03
8980, 8.020361244513902e-01, 1.281972561881044e+00, 1.902619727872310e-02, -6.751079411542499e-10, 3.930182043015660e-10, -1.527520204782598e-09, 3.796138096183404e+03, 4.511606988724357e+03, 3.155003051864968e+01, 7.740592983775628e+03, 6.291674874644609e+02, -2.729254626909402e+02, 3.829163308873103e+03
8981, 6.973045716246624e-01, 7.835458655020464e-01, -3.127736494517776e-03, -8.359679733990436e-10, 5.902689004306190e-10, -1.663588214885119e-09, 2.495512500281050e+03, 2.311057988284101e+03, 1.990641395192991e+02, 3.810067219594916e+03, -3.788709169431146e+02, -3.646589827641502e+02, 1.718426826340329e+03
8982, 6.839211766915902e-01, 7.218605982022936e-01, -5.475770995785157e-03, -7.917493870051285e-10, 2.427770944720260e-10, -2.502169593428761e-09, 2.849734390662516e+03, 2.975845682832509e+03, -4.110065426701246e+01, 4.716833400715267e+03, -1.879233747044922e+02, 1.107019348143501e+03, 2.655934748765935e+03
8983, 1.997380418546901e-01, 1.434928886798132e-01, 1.302585744297534e-02, -5.956434516854776e-10, 5.997785119741714e-10, -4.918298569873247e-09, 4.659982041162032e+03, 5.441048056940665e+03, 4.490816645103063e+02, 1.084470037041171e+04, 1.955745987587757e+02, 4.501395791933211e+02, 5.946240816392079e+03
8984, 4.513934321512112e-01, 8.270598863919261e-01, 4.161675854677804e-03, 3.377173569417535e-10, 1.109213720462840e-10, -1.202522754352653e-09, 2.747287633225686e+03, 2.746299755674981e+03, 4.498464866380828e+02, 4.852622725070356e+03, -5.964046999030628e+02, 7.687737790692393e+01, 2.475162280467971e+03
8985, 6.549888854603717e-01, 6.636112973679650e-01, -6.808603275682539e-03, -7.963355816456441e-10, 6.982922307036133e-10, -2.061956066802115e-09, 2.345069624459436e+03, 2.284832157382870e+03, 6.099016343178446e+01, 3.311724558682244e+03, -1.540027769812014e+02, -5.963705743522256e+02, 1.464773945355197e+03
8986, 3.161967859602516e-01, 2.720446570131018e-01, 4.429231108939351e-02, -7.686683899280734e-10, 5.697132218450489e-10, -2.043358944400448e-09, 5.224100775062534e+03, 5.346873848874197e+03, 8.472663972310399e+01, 1.059665334137210e+04, 7.421134376970913e+02, -5.975792662094607e+02, 5.564604687173251e+03
8987, 5.432043782879257e-01, 7.936779482294638e-01, 2.838928700671970e-02, -9.068473515180663e-10, 6.599513754661751e-10, -2.425878510892456e-09, 5.064525176658029e+03, 5.605248612444555e+03, 8.678528472892312e+01, 1.088088406679160e+04, 5.975242807189344e+02, -6.266574091985784e+02, 5.766209360628265e+03
8988, 5.475110405894913e-01, 7.405680611814199e-01, -9.481130623605116e-03, -9.469890241781394e-10, 1.138203085246569e-09, -6.134473611682839e-09, 5.950537667815272e+03, 5.786809198073232e+03, -1.191013041740810e+01, 1.086876853759842e+04, -1.338466209166883e+03, -2.035721798283279e+03, 6.544344655297513e+03
8989, 6.366312471473211e-01, 3.907409114930233e-02, -1.606008836392157e-03, -2.788330431016808e-10, 9.986135618172853e-11, -1.155280871841641e-09, 1.241897659962489e+03, 1.165139704709383e+03, -2.291981454424908e+02, 2.552143004328964e+03, 3.324072905975139e+01, 1.322064194007552e+02, 1.427078210702742e+03
8990, 4.613294439927214e-01, 3.315419197887907e-01, 4.801576261665554e-02, -7.846945288361381e-10, 3.379982122540805e-10, -1.306516054266226e-09, 3.975584763914905e+03, 3.833718533961745e+03, -8.003018952002703e+00, 7.023866357071823e+03, 9.771631448102272e+02, -3.726217184891049e+02, 3.609137200325000e+03
8991, 9.911203293416324e-01, 1.502972815956299e+00, 7.478735269685160e-03, -5.368740462514108e-10, 5.242874965841018e-10, -5.891681468480351e-10, 2.163234028965026e+03, 2.433684608300787e+03, -2.067462021372596e+02, 3.309950333488464e+03, 6.327674678367730e+02, -6.716961475898260e+02, 1.939307823797985e+03
8992, 2.914305143929043e-01, 1.038478073612721e-01, 5.192673317691002e-02, -6.335202170434904e-10, 7.459831368789028e-10, -1.773107301573531e-09, 4.457858373651793e+03, 4.267391092992452e+03, -2.345147233162892e+01, 8.848405789084607e+03, 6.579332500516990e+02, -7.951749364658988e+02, 4.831834843718677e+03
8993, 4.257057547703090e-01, 1.834204343682792e-01, 5.168786073802410e-02, -7.334991655864611e-10, 3.805145590150860e-10, -1.333980507165289e-09, 3.775150666659299e+03, 3.663906450146130e+03, -8.190779197440672e+01, 6.815797349673946e+03, 8.356340586301826e+02, -3.475979393942239e+02, 3.474710688097771e+03
8994, 3.853312773048305e-01, 2.487644132007072e-01, 5.050269706345126e-02, -8.307767414387178e-10, 4.422620085878525e-10, -1.596673274322659e-09, 4.432549518247467e+03, 4.478211975012461e+03, -3.396294129135993e+01, 8.616944960102204e+03, 9.788578372518981e+02, -4.896658347743182e+02, 4.573559535837349e+03
8995, 5.539802195716369e-01, 2.359722143095758e-01, 4.504494525215919e-02, -6.376939756311490e-10, 2.538524624339148e-10, -9.235643150418290e-10, 2.692046950955311e+03, 2.568604458796964e+03, -7.291221751798543e+01, 4.734119097512073e+03, 8.139876816289244e+02, -3.129558129405590e+02, 2.595163888857935e+03
8996, 7.469293827407411e-01, 2.577891813082330e-01, 2.683945312919377e-02, -4.636755143392128e-10, 8.939289078596736e-11, -7.564625986283999e-11, 6.345064889137029e+02, 4.572497527982093e+02, -2.316145580040984e+01, 6.877326019879766e+02, 4.747302480524648e+02, -1.044947162473296e+02, 8.684243652811971e+02
8997, 6.215006437860872e-01, 6.385974919802233e-01, 3.855192292741683e-02, -7.496307995209856e-10, 3.318994701334765e-10, -9.540523200289813e-10, 3.252672229211571e+03, 3.140801270403249e+03, -2.472405796383184e+01, 5.382538296251133e+03, 9.639825697448470e+02, -4.328587073219832e+02, 2.852864479248865e+03
8998, 7.565068759248685e-01, 1.162038133182079e+00, 2.302577788652673e-02, -9.152247028230839e-10, 4.247603142091704e-10, -1.564539124921131e-09, 4.303155011536219e+03, 4.411002521291915e+03, 2.281250741024583e+00, 8.233183945566636e+03, 1.231238248943002e+03, -4.520808086811211e+02, 4.493762825951387e+03
8999, 8.708993084227095e-01, 2.854809760443917e-01, 9.631575413511556e-03, -4.920457639760721e-10, -5.036943238609588e-11, 4.942551299249198e-10, -9.933699057676073e+02, -9.317081529279443e+02, -1.029285063369900e+02, -2.056568102744994e+03, 3.897571132005466e+02, 2.601895585263681e+01, 1.299729531315407e+03
9000, 2.348273936891052e-01, 3.232889971202897e-01, 2.158712953414893e-02, 3.187489661676022e-11, 2.198200097693929e-10, -2.337959064493782e-09, 4.908882068545096e+03, 5.366203041045973e+03, 2.680275482803584e+02, 1.067037613657208e+04, -1.066215268546175e+03, -7.138324817464090e+01, 5.866033779178698e+03
9001, 4.070477232761628e-01, 1.611456057322560e-01, -1.495867991509067e-02, -1.455818072500016e-09, 8.727750438114000e-10, -5.266748144110392e-09, 3.160333469004351e+03, 2.776845607113278e+03, 7.310168701788798e+01, 3.757173673011843e+03, 6.180488672739978e+02, 4.812571487399343e+02, 1.609028355764257e+03
9002, 4.869707102585604e-01, 2.248575673343651e-01, 1.694046552853406e-02, -1.068301967642396e-09, 5.638884405496754e-10, -2.644854788738663e-09, 3.203950823459387e+03, 3.159973668743537e+03, -4.118004749553135e+01, 5.826250421304181e+03, 1.863238860135406e+02, -1.278326055967631e+02, 2.674316946757310e+03
9003, 6.246454961797834e-01, 3.825246177382711e-01, 2.117737623400592e-02, -8.488827304415725e-10, 3.441145341903152e-10, -1.353387386969766e-09, 2.348067134898583e+03, 2.103949638895894e+03, -6.523754013250884e+01, 3.884761366782187e+03, 3.564521788818794e+02, -2.713097319063412e+02, 1.846869148441756e+03
9004, 6.436409634481594e-01, 4.645143132983604e-01, 3.876279620971080e-02, -6.213933661149636e-10, 1.874674550043258e-10, -6.352248474018231e-10, 2.315843013860527e+03, 2.124629524900694e+03, -7.201650427339501e+01, 3.667261164545674e+03, 7.549799068757342e+02, -1.831087328593153e+02, 1.986814669305418e+03
9005, 1.421392098396239e-01, 1.486736954483560e-01, -9.626509321096082e-03, -2.553008636853276e-10, 3.885613714020509e-10, -3.115185442694275e-09, 3.157588256608378e+03, 2.886284127504697e+03, -1.682265015901438e+02, 4.717517156862548e+03, -2.080267292968405e+03, 1.251239747528680e+03, 4.549114031495033e+03
9006, 9.328362746428914e-02, 6.751270775271105e-02, 1.931266604495003e-02, 7.312590807494351e-10, 2.217722651966128e-10, -1.324895373247008e-09, 3.074141287029862e+03, 2.402478279118416e+03, -1.543899484415008e+02, 6.186384432145751e+03, -1.432791139687231e+03, 2.113578492172397e+02, 4.311816754273427e+03
9007, 4.139861529195723e-01, 7.536593829492909e-01, 3.088488004983419e-03, 4.825654193871743e-10, 5.185229068505934e-11, -1.671525077271350e-09, 2.880824950081226e+03, 3.177198709984873e+03, 7.852867652745754e-01, 6.905474256401005e+03, -1.509735499883975e+03, -6.676191173312444e+01, 4.684454732905693e+03
9008, 5.082221292145127e-01, 3.685299527984247e-01, 1.159075263694527e-02, -1.461514966120316e-09, 5.879608867347265e-10, -3.181477712812122e-09, 3.878530002209317e+03, 3.565851446868984e+03, -7.319034071996487e+01, 6.110103248481002e+03, 6.781576491525529e+02, -8.566662792168781e+01, 2.682020192668302e+03
9009, 6.012074507460247e-01, 5.850609256719089e-01, 3.935467708203311e-02, -8.210728515404150e-10, 2.865428476172184e-10, -1.088070790019733e-09, 3.307714031802734e+03, 3.164348591644241e+03, -3.046998137031050e+01, 5.700712317498702e+03, 1.045484711435473e+03, -2.647055417302696e+02, 3.095508823053362e+03
9010, 9.680097769409047e-01, 1.206729339937345e+00, 9.188506908280762e-03, -3.715308813148442e-10, 1.146887930969654e-10, -5.898895642658910e-11, 4.626990644272414e+02, 3.584133305370275e+02, 2.086820037605698e+01, 4.182985561702831e+02, 3.419437316092399e+02, -1.931708958917646e+02, 6.872005216951335e+02
9011, 7.633751476220582e-01, 1.241297883975684e+00, 1.864541525304369e-02, -5.806213551946544e-10, 8.208939885799662e-11, -1.825837796841329e-09, 5.299083420112152e+03, 5.195164387577754e+03, 3.302066438027081e+02, 9.015663746080269e+03, 5.058957957593273e+02, 1.157168254626128e+02, 3.917277628523132e+03
9012, 8.291095267651275e-01, 1.004212450075525e+00, 1.303171732533723e-03, -6.160629141041166e-10, 7.405367202613336e-12, -1.520368430561083e-09, 2.327671411425588e+03, 2.226661856943980e+03, 5.085688432713237e+01, 3.816124743156794e+03, -2.877369987109122e+01, 4.941063949142518e+02, 1.765987172289713e+03
9013, 3.861057785062552e-01, 8.997132721344089e-02, 5.460258600775313e-02, -5.725408705024828e-10, 6.548320161391222e-10, -1.271688052249586e-09, 3.413556982297466e+03, 3.159922062196635e+03, -1.387788458873099e+02, 6.392196433133284e+03, 7.000918333211918e+02, -7.184255147475092e+02, 3.573329080851521e+03
9014, 7.160133871773846e-01, 2.894275983756139e-01, 2.912649877428557e-02, -5.389557626942662e-10, 1.046787010629657e-10, -2.496774039541520e-10, 1.005801014480592e+03, 8.175195223368728e+02, -4.323353232218820e+01, 1.377276861104546e+03, 5.940548722359736e+02, -1.101225669716412e+02, 1.159343857321410e+03
9015, 8.468621010631634e-01, 1.568351175617288e+00, 4.477552488335649e-03, -4.570771804204650e-10, 2.491001396393577e-09, -2.119201426753940e-09, 6.441071539168357e+03, 7.906448345122243e+03, -6.427100178265488e+01, 1.061664462793070e+04, -6.258103106908046e+02, -1.962067382523461e+03, 5.118631165437196e+03
9016, 2.952629258351419e-01, 2.832709113136518e-01, 1.019069077444019e-02, -1.418828664431034e-09, 1.300253824265050e-09, -5.806517361295339e-09, 5.973739791049039e+03, 5.882298912021915e+03, 4.112623529180487e+02, 1.209413129050531e+04, 2.801931248085405e+02, -7.977958732187070e+02, 6.378054328398402e+03
9017, 4.200035198628813e-01, 6.605149847804005e-01, 2.207702480434175e-02, -2.539084432881062e-10, -1.292912061198322e-10, -2.455647753511776e-09, 5.060998735224555e+03, 5.555897911433718e+03, 5.595174409957658e+02, 1.149601546616967e+04, -9.109970096652080e+01, 8.601061658243667e+02, 6.453921727095114e+03
9018, 4.097620129091887e-01, 3.693089752599672e-01, 2.044016871365973e-02, -1.672599899374115e-09, 7.696045253833238e-10, -3.820050465300985e-09, 4.978059367875074e+03, 4.953303602315433e+03, -1.142396272249054e+02, 9.253292150640451e+03, 6.811107046702582e+02, -4.243891018579051e+02, 4.511681575411239e+03
9019, 6.651220971113511e-01, 3.589226848226770e-01, 3.742859876443355e-02, -5.737638842766768e-10, 1.868962906204580e-10, -5.053773695908136e-10, 1.666773803863068e+03, 1.608655980518046e+03, -4.834711372746712e+01, 2.794384783434120e+03, 7.362446437337759e+02, -2.577987298123693e+02, 1.781286027040052e+03
9020, 7.858720952235209e-01, 5.583571642841021e-01, 2.506417669257806e-02, -5.028081589687887e-10, 1.512021462204765e-10, -1.671774582422926e-10, 8.012426516704679e+02, 6.628383197791259e+02, -2.284940881023417e+01, 1.020682920750464e+03, 5.546084728719279e+02, -1.858433658374240e+02, 1.060958295826249e+03
9021, 6.891879788893343e-01, 5.861462698080718e-01, 3.405333633347637e-02, -5.717793101573353e-10, 2.007170603086681e-10, -7.098664881089008e-10, 2.112924619137658e+03, 2.047643296466791e+03, -9.020893249359522e+00, 3.714398866937286e+03, 6.981968608283535e+02, -2.055914097423286e+02, 2.064706264050893e+03
9022, 6.754730314854833e-01, 2.927251539387556e-01, 3.461711572278826e-02, -5.715789491278201e-10, 1.253202160011073e-10, -3.922841561076963e-10, 1.358442282465054e+03, 1.263368544141093e+03, -3.516490842157061e+01, 2.160805895838631e+03, 6.585555611292199e+02, -1.167156314970054e+02, 1.440407477606991e+03
9023, 3.798033810233826e-01, 1.096112675030912e-01, -1.671695549468981e-02, -1.223727386589188e-09, 6.006483840490512e-10, -5.827059896861563e-09, 3.952768111206476e+03, 4.163484880354672e+03, -2.993511101604844e+02, 7.368540743709380e+03, 3.689270531727792e+02, 1.185997981610671e+03, 3.986109891961734e+03
9024, 4.825128544650897e-01, 9.910153295959567e-02, 5.183419488636604e-02, -4.608533333247146e-10, 3.840329885400465e-10, -9.593874813601356e-10, 2.808486670649563e+03, 2.623601378725252e+03, -1.197235399362978e+02, 5.167274364905223e+03, 6.025100509343797e+02, -4.407923793239431e+02, 2.783723609963365e+03
9025, 8.049162854660981e-01, 4.540628250039314e-01, 2.171901742491248e-02, -4.686725156704342e-10, 8.597761959238676e-11, 2.224989903525582e-11, 2.832063142632892e+02, 1.507171237365112e+02, -4.023301408282783e+01, 8.234970020667099e+01, 5.162629367376198e+02, -8.970958987221594e+01, 9.272902523843142e+02
9026, 6.452747872301939e-01, 7.180757356926188e-01, -7.114992523243598e-03, -1.486974582157249e-09, 8.940558699393564e-10, -3.917353677558490e-09, 3.936733505814900e+03, 3.247509877200211e+03, -2.421382977910484e+01, 6.603719545681008e+03, 1.174991441479931e+03, -7.492259759807714e+02, 3.905583928621524e+03
9027, 7.889325669269455e-01, 1.113186260422300e+00, 6.956978022840989e-04, -9.158941528080386e-10, 4.867821836191770e-10, -1.675429631331148e-09, 2.761968153850348e+03, 2.434149447732160e+03, -3.956697823700888e+02, 3.467046044067758e+03, 5.618710681968626e+01, 3.888514892081609e+01, 1.148655093759007e+03
9028, 8.242410418522294e-01, 7.712044886281202e-01, 2.287917131760492e-02, -4.633029049024564e-10, 1.626390212260427e-10, -2.407145533020782e-10, 1.154589309367193e+03, 9.321177266557844e+02, -3.599346399591052e+01, 1.518816012180202e+03, 5.939313566471151e+02, -2.190579654209737e+02, 1.212144348424384e+03
9029, 6.459071450994738e-01, 5.111013967414653e-01, 3.747492415425487e-02, -6.660005522618462e-10, 2.628440109414289e-10, -7.205289818842617e-10, 2.412545142457838e+03, 2.220294321492944e+03, -2.769350333043057e+01, 3.768485536326697e+03, 8.128386085237061e+02, -2.876959324070045e+02, 2.090201625025364e+03
9030, 4.992690900704267e-01, 7.674945482515120e-01, -7.843197938750827e-03, -8.482840785787027e-10, 4.653793183463054e-10, -7.228281008730635e-09, 6.530543111004141e+03, 6.687107593051825e+03, 7.182008545773292e+02, 1.348978452425482e+04, -1.249687826538355e+03, 4.958725843146447e+02, 7.371312550095654e+03
9031, 7.017873025131084e-01, 1.170502410660322e+00, 2.025478900999012e-02, -3.201778018914427e-10, 4.167696327652009e-10, -3.009737021927430e-09, 5.869958690585843e+03, 6.739058758735235e+03, -7.886123722344210e+01, 1.438274987185618e+04, 7.158859650494070e+01, -3.613564118431231e+02, 8.139425573305891e+03
9032, 1.402410347513402e-01, 1.499920918789630e-01, 2.040738837523821e-02, 4.722939718672770e-10, -6.633115396013027e-11, -1.808355993866275e-09, 4.796792953340825e+03, 4.639617094606854e+03, -9.011084668658256e+01, 7.979737825759602e+03, -1.291182825140855e+03, 6.656003520086189e+02, 4.124441180174706e+03
9033, 6.841563713904064e-01, 3.994359295372324e-01, -3.539028260583476e-03, -9.875434569078787e-10, 2.127489602667194e-10, -1.236606658853424e-09, 1.409843048136001e+03, 1.183477542017441e+03, 3.922375641840585e+01, 2.018140847343099e+03, 6.255549095995015e+02, 5.601027255179137e+01, 1.321721979062784e+03
9034, 4.874328627173853e-01, 6.180641152875734e-01, 3.464658437670814e-02, -1.070493388939443e-09, 5.171864354525083e-10, -2.131585976061729e-09, 5.237375952108075e+03, 5.199209707155163e+03, 9.388551965235327e+01, 9.950088164112025e+03, 9.991581109453543e+02, -5.158253343856779e+02, 5.119629007583267e+03
9035, 7.590274885942236e-01, 6.513592584845926e-01, 2.824263344867157e-02, -5.589578985831155e-10, 1.996938207155382e-10, -4.511721254428674e-10, 1.528020792316051e+03, 1.435919389255661e+03, -9.239713202733839e+01, 2.485170250208567e+03, 7.155793217068679e+02, -2.438603980061098e+02, 1.659201382994582e+03
9036, 3.590036086615824e-01, 3.198833020794177e-01, -1.650661292541786e-02, -2.052474466051673e-09, 6.377778872233199e-10, -6.582787218761661e-09, 3.981344276736270e+03, 4.317151680632004e+03, -7.492199036918490e+01, 5.985597394020400e+03, 4.075333236363022e+02, 9.186794597449880e+02, 2.550247071835600e+03
9037, 7.915270412085521e-01, 6.432291500841001e-01, 2.579166956676606e-02, -4.925758862829340e-10, 1.185104062037352e-10, -2.420372485925638e-10, 1.072115701155940e+03, 9.172951618868221e+02, -6.817018887424801e+01, 1.556729802622853e+03, 5.958456786975072e+02, -9.309089249733304e+01, 1.199534880053712e+03
9038, 1.061680641523441e-01, 6.610270550451391e-02, -9.555009438004500e-03, 1.844488327824304e-11, 1.418175522720767e-10, -4.738897230288631e-09, 4.624159531358793e+03, 4.099300207183624e+03, 5.483145553919561e+02, 1.114813707909000e+04, -1.068688941731801e+03, 2.106811900382461e+03, 7.994131264145821e+03
9039, 7.760163502316646e-01, 2.488877918837411e-01, 1.930793966985294e-03, -6.084164566186275e-10, 8.707229425384315e-11, 4.646508713372584e-11, 8.923564971673186e+01, 8.322977997629067e+01, -1.164128578602354e+01, -3.664576345863736e+01, 2.743418312445135e+02, -6.306243836003531e+01, 5.032431483844246e+02
9040, 6.911443508639078e-01, 1.116026758791761e+00, 2.196915596022937e-02, -6.348354742280545e-10, 2.494142247227342e-10, -1.828616155608798e-09, 4.722146033830604e+03, 5.040906836797631e+03, 6.236227238390953e+02, 9.522634054856089e+03, 3.217447958633256e+02, -1.490108652554972e+01, 4.805624563623493e+03
9041, 5.851498842755009e-01, 7.421778394567496e-01, 3.423946422843961e-02, -7.881680770532888e-10, 4.351708157320166e-10, -1.610839107665678e-09, 4.344669969643024e+03, 4.368740745009984e+03, -1.343316613802254e+02, 7.770377128417419e+03, 7.240129819758300e+02, -2.946404413426591e+02, 3.679775517799009e+03
9042, 3.580633217896779e-01, 7.777111179939626e-02, 3.008917995790233e-02, -9.067243613921992e-10, 1.223058443057411e-09, -2.983824268693295e-09, 3.586303820024769e+03, 3.248728964857725e+03, -2.524647009572829e+02, 7.238762107924287e+03, 4.610994313146891e+02, -6.541556402728270e+02, 4.098804526041108e+03
9043, 9.338408564319831e-01, 7.706812279363797e-01, 8.377641928294393e-03, -3.434540648131603e-10, 7.534745618505238e-11, 1.638768957421389e-10, -3.195748088932017e+02, -3.544715181582394e+02, -5.475651002345097e+00, -6.145675822170014e+02, 2.920203527751630e+02, -1.165549239749219e+02, 6.120596360320759e+02
9044, 8.110037076168362e-01, 1.181410196453968e+00, 6.884205826801423e-04, -6.971924334464460e-10, 3.372977622109858e-10, -2.329482796435814e-09, 4.003155075652339e+03, 3.760736000875165e+03, -7.616615635838704e+01, 6.264111490614932e+03, -2.602725865972633e+02, 9.109947928722828e+01, 2.442195023725092e+03
9045, 3.084123765389408e-01, 1.097711424412164e-01, -1.853106284498211e-02, -8.894991294797642e-10, 1.013915448897603e-09, -7.657392005250191e-09, 5.970245262527119e+03, 5.581455825470789e+03, -5.645517106315176e+02, 9.456333130917923e+03, -1.450185488215658e+03, 3.624317368314371e+02, 4.617213449322157e+03
9046, 1.472785625050117e-01, 2.244835815467243e-01, 8.990138484281349e-03, 4.690513959365030e-10, 2.562803420284460e-10, -1.216297255905522e-09, 2.961957353516778e+03, 3.008150308433936e+03, -6.062782444006334e+01, 5.904844738891029e+03, -7.538774516570496e+02, -3.490407688711133e+02, 3.257036766510659e+03
9047, 5.641993592670618e-01, 2.858821384951573e-01, -7.969470489447378e-03, -1.111595502075560e-09, 3.689267072311960e-10, -2.944326693041699e-09, 2.343288547643776e+03, 2.360059897480082e+03, -7.656401945368572e+01, 4.036871427678105e+03, 4.467748376709121e+02, 2.916676052754630e+02, 1.926582458296702e+03
9048, 5.211880343055691e-01, 2.281452092264327e-01, 4.705588268957608e-02, -6.282550354839452e-10, 3.024695489099024e-10, -1.041273077691902e-09, 2.967057715667035e+03, 2.850415436035320e+03, -2.527467017306067e+01, 5.295958678904102e+03, 7.809515817517768e+02, -3.382185657760562e+02, 2.807807218460414e+03
9049, 9.365247362236386e-01, 8.404044642670624e-01, 7.971275913355193e-03, -2.958581880075621e-10, 6.147570007635465e-11, 1.320674739565163e-10, -1.748836297047765e+02, -2.366216000742935e+02, -3.027055083049564e+01, -5.154109264243823e+02, 2.454574834266283e+02, -7.548637157915360e+01, 5.471184303030986e+02
9050, 9.725567460070880e-01, 1.176987117615906e+00, 8.724288004192924e-03, -3.673061481225277e-10, 9.773044102780374e-11, 2.682110589317528e-11, 3.154723074943743e+02, 2.080704700970406e+02, -1.450794634877624e+01, 8.360978791394683e+01, 3.919773160447248e+02, -8.485971126273036e+01, 7.235789688938114e+02
9051, 4.703417586912175e-01, 5.083553655174158e-01, 1.694959736925954e-02, -1.681375915541798e-09, 1.041083255886056e-09, -3.382830667449134e-09, 5.075822403840602e+03, 4.975304176529970e+03, -2.004720399655031e+02, 8.033008647965396e+03, 9.766072266351634e+02, -6.271576349373566e+02, 3.635125548657420e+03
9052, 4.157841932339349e-01, 8.564198731318047e-02, -1.576352191619774e-02, -1.538351581302033e-09, 8.644071987601869e-10, -5.152550366019113e-09, 3.834239564876616e+03, 4.076710425546998e+03, -8.290184943883381e+01, 6.992769576170849e+03, 1.408128885033659e+03, -3.223062653474072e+02, 3.943348255834750e+03
9053, 2.757181519248771e-01, 4.023615056316069e-01, -7.292058011729993e-03, -5.463666155698364e-10, 4.723636745866830e-10, -6.248874741954147e-09, 6.414396465214029e+03, 6.763845431005177e+03, 7.919703871423595e+02, 1.525020767813273e+04, -2.101813158164211e+03, -9.527986336536848e+02, 9.641783648602417e+03
9054, 7.425985725162730e-01, 4.495016590939635e-01, 1.003680455736055e-03, -6.699508972533287e-10, 2.762035129841848e-10, -8.643828617931863e-10, 1.298147684712622e+03, 1.082099598210673e+03, -3.256173293780972e+01, 2.063984245234882e+03, 8.920051359037268e+01, -2.041154317580807e+02, 9.750283376719101e+02
9055, 2.939072815412384e-01, 3.670226664649856e-01, 3.208089784976514e-02, -4.690378765980576e-10, 2.359552367233045e-10, -2.355801755491647e-09, 5.294317686739128e+03, 5.627362078819719e+03, 3.603732608704616e+02, 1.186046899060213e+04, 8.405945492405586e+01, 9.922976760815617e+01, 6.440402621008276e+03
9056, 9.828692422267349e-01, 1.574328112026937e+00, 7.217613209907882e-03, -8.972266401142835e-10, 8.382938410497679e-10, -5.024905512330873e-10, 2.394778993285096e+03, 2.565114383708889e+03, -4.356449016113505e+02, 1.996449195265390e+03, 8.405001788393678e+02, -5.728259748528817e+02, 1.982069706158122e+03
9057, 4.594691688608833e-01, 2.945570772763783e-01, 2.171552607288353e-02, -1.391999193000152e-09, 6.003954502709615e-10, -2.795670273028711e-09, 4.085332958306277e+03, 3.700062791617501e+03, -1.155128055177492e+02, 6.548613089161624e+03, 5.631289703179622e+02, -2.509287471325704e+02, 2.888854183891139e+03
9058, 8.409396881496335e-01, 4.805840596496254e-02, 9.263376227280674e-03, -3.074720864346870e-10, -1.106838051502709e-10, 5.110674109563266e-10, -1.071088212131765e+03, -9.620617670042479e+02, -1.316325485967673e+02, -1.953359582463875e+03, 1.354594444557432e+02, 1.158315856319388e+02, 1.016740125748453e+03
9059, 8.165088076086393e-01, 1.110609348100347e+00, 2.812359692555728e-04, -6.125018560052472e-10, 3.480145863229123e-10, -2.278648303501570e-09, 3.700329422941802e+03, 3.228764086890735e+03, -1.504773515307888e+02, 7.003038210992279e+03, 2.301130782244527e+02, -2.633539874721023e+02, 3.622506665111877e+03
9060, 4.856041239481771e-01, 6.684992137577908e-01, 3.349801583467400e-02, -8.553118289886693e-10, 2.725960085614770e-10, -2.168423833938552e-09, 5.154400092585923e+03, 5.442448627120705e+03, 2.419042729094479e+02, 1.093011012559545e+04, 9.188315258773397e+02, -1.272203106836200e+02, 5.876646637810833e+03
9061, 8.699003407550958e-01, 2.552435791280621e-01, 8.953658668314435e-03, -2.684172415103997e-10, -6.931451401689166e-11, 6.837445720531364e-10, -1.283320783411549e+03, -1.516023927389835e+03, -3.874340886973855e+01, -2.813617796531681e+03, -9.469564252329137e+01, 2.193106822990334e+02, 1.488472791437850e+03
9062, 7.462782529545745e-01, 1.223679149526338e+00, 2.056556324006186e-02, -6.964380651066576e-10, 8.421143903578945e-11, -1.961329545337229e-09, 5.172526735341895e+03, 5.634297210834116e+03, 2.284231425584478e+02, 1.058554717681961e+04, 7.103610497864311e+02, 3.160398425550181e+02, 5.383722007529565e+03
9063, 5.727680153224011e-01, 6.650400756147077e-01, -8.365543972048910e-03, -1.220864367184030e-09, 9.184263340905230e-10, -5.749815584029211e-09, 5.826934717059818e+03, 5.929055377992697e+03, -4.867321294805571e+01, 1.021817616278711e+04, -2.911892971607733e+02, -6.529101291794163e+02, 4.515013771959421e+03
9064, 6.626550936398764e-01, 1.992247234806140e-01, 3.680634871957884e-02, -4.862809086312490e-10, 9.491735208091163e-11, -3.949481798878316e-10, 1.390539453525349e+03, 1.265614012246522e+03, -7.485870993519957e+01, 2.298157085068647e+03, 5.886775878447833e+02, -1.022880952632730e+02, 1.428490326900912e+03
9065, 4.726648859519603e-01, 1.257998345268080e-01, -1.463020708569097e-02, -8.482242848625807e-10, 5.470988195114736e-10, -3.835373136497808e-09, 2.745224298788077e+03, 2.555836308462806e+03, -7.215769245069031e+01, 3.028438842164453e+03, 1.075720249417508e+02, 6.328276707517634e+01, 4.817315298752816e+02
9066, 6.680789619378005e-01, 5.508770806357556e-01, 3.693748519315844e-02, -5.951523359301746e-10, 2.577459320990360e-10, -7.093286576601061e-10, 2.400921481324625e+03, 2.195119091444743e+03, -3.423745775981534e+01, 4.011991905609810e+03, 6.648977447497934e+02, -3.246269668966464e+02, 2.148347347530329e+03
9067, 8.033578730494068e-01, 8.368333312972781e-01, 2.069118763378159e-03, -7.992168510796580e-10, 1.370729118392420e-10, -8.310518039503471e-10, 1.525361392897198e+03, 1.373048583428608e+03, 6.654946936843734e+00, 2.624237822408708e+03, 4.712875452228452e+02, 2.979651572986259e+02, 1.526735070729889e+03
9068, 5.497052977512547e-01, 3.570789909148980e-01, 1.425775539246426e-02, -1.258273646380092e-09, 4.357413696309462e-10, -2.328443276698218e-09, 2.841426414330895e+03, 2.734421541773569e+03, -6.018683643223590e+01, 5.058391383386867e+03, 7.253707049980700e+02, -2.467352206174707e+02, 2.633552718833830e+03
9069, 7.848236274829760e-01, 1.249614834811585e+00, 2.159239740659144e-02, -5.060383717111218e-10, 2.000354547494637e-10, -1.721187838798888e-09, 4.618474710454583e+03, 4.755118233578896e+03, 7.891975665242809e+01, 9.115523667563208e+03, 3.120070607953245e+02, -3.165280937385581e+02, 4.498769661383843e+03
9070, 8.080036421484255e-01, 1.959918129485189e-01, 1.848568955265569e-02, -4.757982695529867e-10, 4.524637196891520e-11, 1.572089280475218e-10, -2.463796660096420e+02, -3.670285508788238e+02, -5.152865735136437e+01, -6.979507430317719e+02, 4.618033214286002e+02, -3.686301400083171e+01, 9.032276679650865e+02
9071, 6.739281774475950e-01, 5.137584610164841e-01, 3.469609148263518e-02, -5.877039569779726e-10, 2.382540536169874e-10, -5.974173824880246e-10, 1.953327924112437e+03, 1.865012019675020e+03, -3.397910810033456e+01, 3.181621220377729e+03, 6.775690582243410e+02, -2.835177856221015e+02, 1.801913478401242e+03
9072, 6.073113789827495e-01, 7.842548363431399e-01, -7.163256550370273e-03, -1.150124778345785e-09, 6.269804296880954e-10, -3.641704370940720e-09, 4.229417502048227e+03, 3.596282227219769e+03, -4.421976358140578e+02, 6.321562699310784e+03, 9.678349159958890e+01, -1.549769382003513e+02, 2.605631144527151e+03
9073, 7.904968424539964e-01, 9.725911078674605e-01, 2.581455704438929e-02, -6.621066573542129e-10, 1.254001886612415e-10, -8.880344797458568e-10, 2.636393956482058e+03, 2.614911375532693e+03, -1.164761737979012e+01, 4.502190179230844e+03, 8.791968458782399e+02, -7.443421025125168e+00, 2.416872702569664e+03
9074, 3.393005016335401e-01, 4.124618994347773e-01, 1.660976450843430e-02, -1.113787921086112e-09, 6.259823963828603e-10, -4.723794667875994e-09, 6.186823708866196e+03, 6.434143948793654e+03, 2.090290190589876e+02, 1.294375717576147e+04, 5.586389077226944e+01, -6.291820968626531e+02, 6.736040589193412e+03
9075, 9.267828127830666e-01, 1.212793973123517e+00, 5.780229921034106e-03, -5.525582480064271e-10, 8.284263104565191e-11, -4.081433782266404e-10, 1.314917365085154e+03, 1.270321318687702e+03, -5.121915210583055e+01, 2.000218225878973e+03, 5.862629961936349e+02, 2.289240563608415e+02, 1.303222760555711e+03
9076, 5.616413382679394e-01, 7.464382474494713e-02, 1.828791592096760e-02, -6.429722487135551e-10, 5.159249784425093e-10, -1.315446044730157e-09, 2.150716962851738e+03, 1.750721918419343e+03, -1.032094066320367e+02, 2.854853504934123e+03, 3.732826975444535e+02, -3.504326328122273e+02, 1.325081501279170e+03
9077, 2.664985184432790e-01, 1.112694540334727e-01, -1.961702128664841e-02, -1.226191374380323e-09, 2.253383553369800e-09, -8.912943803537081e-09, 6.327172497270259e+03, 6.046857795314124e+03, -1.825583925279542e+02, 1.167434925012312e+04, -1.003339195751542e+02, -2.590551186791723e+03, 7.101606688393035e+03
9078, 4.832402495481752e-01, 8.056985656142444e-01, 1.983162853731014e-02, -7.664937849830687e-11, 1.245295939352458e-10, -2.222464894331924e-09, 5.200104143160434e+03, 5.864166235852733e+03, 4.148294541297601e+02, 1.138930840550924e+04, -6.144907980246034e+02, -1.603698078489396e+02, 6.030208504346437e+03
9079, 4.587136051679457e-01, 6.361417900293871e-01, -1.033112610685747e-02, -2.049399563373740e-09, 4.734935369974194e-10, -8.058576735429033e-09, 7.152389340327910e+03, 7.427280304468673e+03, -4.780285752870305e+01, 1.344037711480456e+04, 4.943285866398724e+02, 4.820639711756401e+02, 6.270800497822552e+03
9080, 7.806423666099144e-01, 1.208116891690258e+00, -9.857384747721382e-04, -1.267919682249620e-09, -3.300940623547570e-11, -2.453962228609959e-09, 3.997759171484632e+03, 2.974659849821518e+03, 3.675025238142725e+02, 5.875252138383938e+03, 1.322843541047635e+03, 2.692985945550161e+02, 3.516398506995143e+03
9081, 4.982980096898907e-01, 4.261788327377884e-01, 1.921154653471307e-02, -1.350337658033624e-09, 6.967031163859387e-10, -2.642844570081556e-09, 3.998081413944604e+03, 3.749738245756922e+03, 7.827652928142689e+01, 6.266954221285973e+03, 6.072621129348213e+02, -4.030656194678688e+02, 2.717533137532442e+03
9082, 5.213685761706014e-01, 6.218581759519164e-01, 1.092053661888243e-02, -1.715096161930531e-09, 7.881036590186255e-10, -3.955394012201536e-09, 4.829142684952846e+03, 4.629135202441275e+03, -2.957760639271858e+02, 8.806049502504886e+03, 9.450334006451279e+02, -6.765539877757601e+02, 4.578874607304890e+03
9083, 7.778766380386758e-01, 2.374554073600503e-01, 2.299908270950877e-02, -4.239460078363753e-10, 5.280402655508457e-11, 4.326474770423571e-11, 9.719264749382981e+01, 1.072161196135156e+01, -2.069475582482302e+01, -1.401734033401792e+02, 5.070963432934119e+02, -5.836710065298869e+01, 9.089772670838506e+02
9084, 2.393943107200280e-01, 4.108426939671744e-02, 6.315306025746792e-03, -6.778727731529413e-10, 1.588123064493831e-09, -3.495532267954931e-09, 4.089113825055605e+03, 4.762280713976067e+03, -4.228929939150137e+02, 6.828284077251477e+03, 1.621531030278836e+02, -1.710802618860870e+03, 3.938047962561533e+03
9085, 6.961900927936365e-01, 6.696551351594991e-01, -5.408555065524109e-03, -7.311598260519503e-10, 3.688962930743285e-10, -1.817839893715684e-09, 2.300353735281706e+03, 2.269186666210494e+03, -1.230037962521634e+02, 3.363839539737557e+03, -1.703414185132907e+02, -2.353084668646651e+02, 1.209821391773437e+03
9086, 7.022150678051744e-01, 1.169993298567659e+00, -2.930252812931081e-03, -1.179117869276071e-09, 3.231134538658070e-10, -7.242718362342399e-09, 6.732389604692478e+03, 7.887604655741389e+03, -4.419043662642081e+01, 1.787935607522928e+04, 1.963040417550389e+03, 9.909825726559752e+02, 1.127939806345802e+04
9087, 7.872858622797961e-01, 5.788332304724632e-01, 6.937593604848628e-04, -6.009863769347997e-10, 1.751808461704691e-10, -3.533511347545910e-10, 8.929693952052805e+02, 7.239097829338012e+02, -6.073787750459354e+01, 1.233848315443408e+03, 1.073779340535961e+02, 1.120520566034640e+02, 5.345397744550116e+02
9088, 7.852034474231642e-01, 1.248737392149660e+00, -1.491367024783476e-03, -1.304203570997505e-10, 8.748821256706785e-10, -3.784115148661653e-09, 4.592240109651541e+03, 4.346864680438061e+03, -5.606791588057222e+01, 8.290697777101323e+03, -1.458001829144182e+03, -1.035722023417234e+03, 4.924551555326590e+03
9089, 3.726383814770415e-01, 1.139034450131319e-01, 5.499328352154044e-02, -6.307836474445537e-10, 5.632239255912004e-10, -1.388648402119323e-09, 3.882731173919992e+03, 3.701288505951359e+03, -8.732199787989279e+01, 7.306939941697276e+03, 7.897179134784986e+02, -5.927387045526577e+02, 3.915007121291287e+03
9090, 8.546116483197405e-01, 1.112592171400518e+00, 2.077791155678724e-02, -4.186661345486864e-10, 1.660469521348397e-10, -7.611838317912378e-10, 2.470241757233002e+03, 2.240169724004357e+03, -1.686504525953766e+02, 4.201019712128901e+03, 5.018220526029837e+02, -6.386062506264483e+01, 2.073588352107495e+03
9091, 7.333593419189868e-01, 1.224514021149729e+00, -1.674739363151660e-03, -5.677684904289737e-10, -3.846414173597536e-11, -3.613156853515941e-09, 5.164044201445648e+03, 4.809878976339153e+03, 2.155505713707597e+02, 9.058370890553218e+03, -2.668053804618863e+02, 1.795096542131496e+02, 4.137639554638426e+03
9092, 8.903585557278451e-01, 4.464014354725353e-01, 9.194861741964842e-03, -3.260186928353944e-10, 2.034621545237140e-11, 2.352808601715138e-10, -6.301618805738212e+02, -7.105779498386260e+02, -1.034056344962694e+02, -1.052513674279636e+03, 2.842312321430595e+02, -2.770214210180635e+01, 6.539315656016762e+02
9093, 7.420175824717049e-01, 9.693967945939662e-01, 2.855640880669806e-02, -5.650029625519563e-10, 2.663548007237800e-10, -1.047568370995900e-09, 3.382139395971780e+03, 3.084926903881119e+03, -8.913320868869833e+01, 5.720433086879560e+03, 5.574078810372446e+02, -2.335533665906952e+02, 2.714868154228987e+03
9094, 1.572255268251499e-01, 1.332356456101106e-01, 2.980756701445034e-02, 3.064358896051817e-10, 1.132654616548077e-10, -2.168934040640257e-09, 4.631143612804611e+03, 4.702807951167121e+03, 2.440231914777758e+02, 1.079550112686440e+04, -1.175868767302103e+03, 5.358982512306945e+02, 6.538415677407354e+03
9095, 6.875168328003157e-01, 2.335453371796591e-02, 3.016868176516675e-02, -2.001453104041039e-10, 1.179375922869521e-10, -1.549820732280434e-10, 5.739303201529572e+02, 6.613910724193604e+02, -1.625693232789028e+02, 8.151902819692575e+02, 2.031836456885107e+02, -1.964362285028807e+02, 6.030370523074038e+02
9096, 5.230561539907748e-01, 4.002217731998775e-01, 1.419482602727427e-02, -1.269596596696037e-09, 4.905969968977810e-10, -2.655301117413613e-09, 3.413090613798539e+03, 3.277193001606560e+03, 3.829180640498748e+01, 5.966437695824465e+03, 4.233212115848230e+02, -1.084621315423525e+02, 2.731727784318343e+03
9097, 4.611661973560073e-01, 6.579297454500372e-01, 3.061034580683735e-02, -7.837779565076174e-10, 2.120558220058686e-10, -2.538659952030258e-09, 5.435315668567705e+03, 5.830463996024726e+03, 4.190271537230984e+02, 1.224299492651757e+04, 6.044917875320822e+02, -1.775362080513597e+00, 6.740444176250905e+03
9098, 5.089856897623447e-01, 3.047593676016845e-01, 1.322063104434780e-02, -1.250035029446444e-09, 6.879723775797680e-10, -2.622673514798876e-09, 3.166862930603191e+03, 3.074174351391219e+03, -1.173977455332047e+02, 5.403068292604247e+03, 3.076474761043833e+02, -3.157430545490400e+02, 2.416784003941102e+03
9099, 5.170138425878700e-01, 5.357944399763866e-02, 2.051528111142197e-02, -6.665283269217070e-10, 7.175838496724308e-10, -1.556160193419558e-09, 1.998502743824585e+03, 1.961066689938807e+03, -3.761777158544275e+02, 3.966858380741115e+03, 3.627837670204187e+02, -5.742908399851656e+02, 2.399647464197843e+03
9100, 7.001880490928872e-01, 7.291865999992865e-01, 3.225848075571161e-02, -6.111511708978250e-10, 1.954282838817120e-10, -7.891499505562266e-10, 2.571240935845542e+03, 2.401840817002412e+03, -1.439227281718632e+01, 4.246629798535612e+03, 6.846803863881291e+02, -1.633671011826484e+02, 2.146272315026436e+03
9101, 6.656603070473366e-01, 1.302094785050306e-01, 3.606557081119200e-02, -4.359236743254960e-10, 1.035477367804915e-10, -3.804553380186361e-10, 1.243095844732883e+03, 1.128708820508353e+03, -2.390779917022439e+01, 2.088090335958190e+03, 5.988449533476726e+02, -1.547596611944233e+02, 1.404695243845405e+03
9102, 2.981490046328017e-01, 3.663251238727612e-01, -1.338148236688847e-02, -1.239773133376776e-09, 1.079799714582241e-09, -7.835186569318723e-09, 5.930260587836517e+03, 5.823684903037876e+03, -1.257611841074156e+02, 1.082016971475431e+04, -1.251293917319726e+03, -6.706568367167504e+02, 5.526093906790013e+03
9103, 6.816794649861115e-01, 4.894489063869954e-01, 3.503443998052329e-02, -5.843624900736226e-10, 2.022449192593655e-10, -5.278749654919141e-10, 1.765365045726440e+03, 1.721550027050825e+03, -3.763389511334535e+01, 2.973346921357605e+03, 6.234558076744999e+02, -2.284403442178765e+02, 1.685515663323263e+03
9104, 8.251346547599413e-01, 6.431807196086664e-01, 2.334616808688034e-03, -6.562662810870102e-10, 1.514914745095459e-10, -9.985435066601145e-11, 5.216870204341976e+02, 4.377397428315797e+02, -4.959848376067406e+00, 7.324222226188371e+02, 3.432646253089725e+02, -6.355898313801765e+01, 6.594178945410980e+02
9105, 8.517291854088103e-01, 5.781797558649863e-01, 1.742632791070938e-02, -4.730464100508141e-10, 1.631196230586845e-10, 8.975172458238231e-11, 1.796006578234185e+01, -1.773602617726752e+02, -3.138539332393808e+01, -3.970972903149639e+02, 4.820201114327197e+02, -1.741146937524569e+02, 9.593156792319746e+02
9106, 8.182408118752170e-01, 6.839173806700438e-01, 1.567751104851658e-03, -6.248305062533999e-10, 2.215183906973495e-10, -2.292255410356035e-10, 6.967805605194523e+02, 4.344405985846654e+02, -7.973722711660876e+01, 5.492268239341834e+02, 2.187920733810545e+02, -1.187892089590975e+02, 5.068547503500078e+02
9107, 3.010597948657255e-01, 1.572406099336472e-01, 5.047523230496106e-02, -7.454387792577393e-10, 4.786073407847959e-10, -1.829068996137399e-09, 4.835666392867213e+03, 4.846326652233020e+03, 5.145708565400611e+01, 9.646849270059734e+03, 8.753262345142734e+02, -4.686084980688218e+02, 5.105058195599618e+03
9108, 6.030782030497015e-01, 5.247465329697804e-01, 2.460620397147077e-02, -1.154821868612705e-09, 5.090832435564024e-10, -1.753343543285006e-09, 3.051115702063310e+03, 2.948309658421576e+03, -1.012018823574136e+02, 5.264303323453605e+03, 8.761922490139671e+02, -3.707734785702502e+02, 2.807593372478333e+03
9109, 4.486602731542716e-01, 6.969787921538857e-01, -6.660425905848005e-03, -1.005163999574540e-09, -1.043791805127431e-10, -6.449759019775136e-09, 5.416891022625558e+03, 6.263716869673266e+03, 3.748732400883022e+02, 1.182579692846250e+04, 6.373717221257812e+01, 1.381175562838606e+03, 6.520788041230585e+03
9110, 8.030883724598462e-01, 3.345482413169832e-01, 3.483002123224117e-03, -6.325460383679665e-10, 1.131434319062138e-10, 2.495312809832818e-10, -1.219016212257039e+02, -1.823510092510470e+02, -1.179237930174344e+01, -5.781256791090432e+02, 3.616407648421568e+02, -5.903630265117441e+01, 7.664471400628387e+02
9111, 6.316914559764768e-01, 2.555410218985947e-01, -4.276682240279335e-03, -1.084982968581893e-09, 1.959138961510960e-10, -1.532437137683371e-09, 1.728368836867683e+03, 1.451162553664444e+03, -2.753842546302284e+01, 2.609668441191409e+03, 5.618020912922251e+02, 1.361439154857844e+02, 1.450027401422083e+03
9112, 5.068253635343735e-01, 7.385727929731162e-01, -8.046765573985412e-03, -1.077004595351740e-09, 1.141753532051311e-09, -4.509856693867746e-09, 5.227042976902011e+03, 5.459643023341015e+03, 1.349600116137956e+01, 9.971288422198289e+03, -4.641639718390915e+02, -9.427837069059622e+02, 4.977134745448266e+03
9113, 4.290835747814328e-01, 5.614260019575632e-01, -1.013446632552424e-02, -1.485364846432006e-09, 9.465168362660827e-10, -6.690280695491859e-09, 5.472277806930458e+03, 5.134856608768749e+03, -7.853235067412327e+02, 9.535715717387679e+03, -3.255117560982040e+01, 9.099936693378558e+01, 4.458103994713543e+03
9114, 5.170116402450821e-01, 8.543932561001591e-01, -4.948218393079136e-03, -1.718330258853684e-09, 2.467535017989789e-09, -9.739438748531654e-09, 9.674014587871372e+03, 1.029112220296669e+04, 2.996355159739688e+02, 2.193584112408676e+04, -9.679697868003605e+02, -3.073008318093131e+03, 1.321274863544110e+04
9115, 7.213645877580771e-01, 1.257874584557190e-01, 2.944732018109219e-02, -4.167317410786158e-10, 7.233133943068490e-11, -1.181540417610473e-10, 6.746197182306066e+02, 5.593880292665032e+02, -5.446707253895056e+01, 8.423342099442790e+02, 4.374137206064599e+02, -6.756085908154444e+01, 8.107516271664061e+02
9116, 8.311813816281839e-01, 1.341453812243669e+00, 8.788563427350043e-04, -7.069867844227603e-10, 6.200220723224680e-10, -1.945864803405810e-09, 3.896296711709982e+03, 3.519733616472071e+03, -3.521107128416913e+01, 5.701295936024072e+03, 1.263640574438895e+02, -3.868538064528409e+02, 2.140118862503788e+03
9117, 4.000615354348117e-01, 4.670695231757869e-01, -1.339237835402237e-02, -1.494342968705948e-09, 8.722135275483845e-10, -6.657553992009138e-09, 6.310652427838630e+03, 6.531930190788073e+03, -7.712325521332650e+01, 1.148614548385530e+04, -1.292950075651520e+03, 1.734966393306416e+02, 5.550925835489058e+03
9118, 7.475700037914254e-01, 1.262996758357628e+00, -2.022324508823697e-03, -1.158007255910449e-09, 1.318888286233741e-09, -4.050278137948057e-09, 5.785537606573965e+03, 6.053857572200090e+03, 6.274850393299757e+02, 1.160188719606262e+04, 1.889814722725179e+03, -2.498941409932548e+03, 7.935415012615261e+03
9119, 5.562393866578882e-01, 5.361219570045465e-01, 1.011104375316200e-02, -1.508926842021479e-09, 7.179431759559354e-10, -3.244820530923205e-09, 4.020477742831168e+03, 3.729524724084559e+03, 5.871570345394709e+01, 6.931816903963499e+03, 4.117538015110291e+02, -3.167354151446731e+02, 3.198052913583572e+03
9120, 8.239796633094977e-01, 1.120132309747315e+00, 2.137111602352609e-02, -5.963701566398050e-10, 1.816496387740423e-10, -1.017441834262654e-09, 2.877574446538403e+03, 2.600479931406530e+03, -8.059023102006424e+01, 5.165292927111036e+03, 6.650543510505477e+02, -9.626148840288339e+01, 2.705277528796673e+03
9121, 5.909395016153483e-01, 2.718922325564395e-01, 9.946796438958846e-03, -1.072196597388492e-09, 2.168846478785018e-10, -1.650854168311274e-09, 2.371015416663056e+03, 2.213873655286117e+03, -7.139022255688060e+01, 3.728402681203863e+03, 5.796959210100229e+02, 3.248240145501121e+01, 1.762694822729329e+03
9122, 6.694621287714676e-01, 1.253392836348500e+00, 3.670877912916037e-03, -3.234653635867229e-11, 6.585023023716936e-11, -2.047079941350062e-09, 5.346204044000266e+03, 4.662467739971792e+03, -5.752984760371450e+01, 9.647041624717998e+03, 2.773884307737103e+02, -3.188003833693249e+01, 4.706288251481999e+03
9123, 8.182001200739543e-01, 5.507805210243234e-01, 3.275506536730229e-03, -6.229335245511862e-10, 1.478061156448432e-10, 3.733097473355031e-12, 2.625867516394778e+02, 2.899164070407110e+02, -6.258140804464227e+01, 2.218715461609047e+02, 3.338591111904863e+02, -9.544316776360873e+01, 6.139874442106646e+02
9124, 7.713710233681996e-01, 5.965238250744048e-01, 4.770843002020776e-04, -7.719132928151537e-10, 2.457175375596707e-10, -5.067230442803240e-10, 1.185593612288916e+03, 9.933465237379224e+02, -2.139203699299183e+01, 1.421602301356796e+03, 3.175493259786932e+02, -1.976842482650441e+02, 7.477658689609683e+02
9125, 2.852512311783426e-01, 2.431095370223327e-02, 5.580297901815318e-02, -2.602321496761710e-10, 6.077461007028221e-10, -7.396975735907995e-10, 2.553667111293403e+03, 3.445697526955727e+03, -1.869566051509681e+02, 4.003358567967834e+03, 2.574684889391294e+02, -1.082621766766602e+03, 2.328968175821893e+03
9126, 5.791566391990605e-01, 8.062430460721760e-01, 3.231584723336628e-02, -1.010952273851873e-09, 6.274654985002314e-10, -1.918313990917378e-09, 4.887223769251926e+03, 4.949151989130497e+03, -2.214959787980604e-01, 9.690660695578985e+03, 1.096042701610017e+03, -6.879144373707409e+02, 5.272853201952593e+03
9127, 6.348250263297943e-01, 8.237371227312897e-01, 3.468611197963536e-02, -8.439580565805761e-10, 4.033892620701930e-10, -1.333881709278718e-09, 4.209180354208687e+03, 3.919644815919401e+03, -8.616217416133489e-01, 7.371721419120489e+03, 1.120660387275847e+03, -5.824215559968565e+02, 3.973216680405234e+03
9128, 8.624068775313655e-01, 1.369767111445980e+00, 1.574453675958612e-03, -9.552102233303148e-10, 6.134466787991541e-10, -1.576790260088946e-09, 3.001946316437655e+03, 2.878633724381219e+03, -3.703759758649702e+02, 3.639618767881406e+03, 5.651077178988603e+02, -2.848452517161041e+02, 1.453771280090670e+03
9129, 5.227458771487291e-01, 8.797279497332637e-02, 4.733883394002569e-02, -4.908518824348066e-10, 3.870765636956631e-10, -8.664041506160654e-10, 2.433563105446268e+03, 2.220915205956470e+03, -9.223053681532805e+01, 4.373543223134974e+03, 6.425275698966493e+02, -3.953249261999838e+02, 2.440115678627565e+03
9130, 5.846438991610319e-01, 3.606582381264257e-01, 1.923852626586605e-02, -1.079699640484762e-09, 4.240675731226473e-10, -1.670857152998277e-09, 2.635736740530437e+03, 2.630859479029050e+03, 1.672688247555317e+00, 4.251670794834238e+03, 5.179852095169032e+02, -1.516110420645970e+02, 1.868967666443371e+03
9131, 5.029793710382716e-01, 8.367131552219076e-01, 2.065748904883880e-02, -1.241914781459471e-10, 5.969018500024967e-10, -2.456356623565425e-09, 4.967686559374602e+03, 5.936628011748863e+03, 4.220245017012764e+02, 1.203248091141119e+04, -6.747723212456275e+02, -6.192599627798706e+02, 6.859701923238510e+03
9132, 4.085871509841467e-01, 4.125368483885667e-01, -1.420947817183484e-02, -2.061979917491962e-09, 9.949140796864388e-10, -6.055796062615084e-09, 4.145005546286522e+03, 4.654009558184948e+03, -5.900561236012878e+00, 7.566945089787427e+03, 6.167090982208618e+02, -8.714682039841951e+01, 3.375033756521344e+03
9133, 8.353908411359409e-01, 1.586000931348256e+00, 3.556206592962546e-03, -5.527362293661161e-10, 3.444539866892709e-09, -2.791570497357940e-09, 7.338507576243973e+03, 1.333321945213479e+04, 3.482442758553108e+02, 1.959607845377878e+04, 7.632349486357911e+02, -4.295972303424223e+03, 1.304536498785771e+04
9134, 6.296628979229246e-01, 1.046538784767173e+00, -3.715111967706384e-03, -1.637277295428519e-10, 2.192451709667688e-10, -5.087372595124520e-09, 5.206719636764464e+03, 6.325300658458285e+03, 3.297445009025491e+02, 1.165167287084249e+04, -7.291618251916676e+02, 1.097844878288073e+03, 6.412211682261394e+03
9135, 2.929862124142177e-01, 4.263393666180292e-01, 2.347477328118605e-02, 6.123522394887898e-11, 5.031765611781200e-11, -2.298895161456935e-09, 5.089644738347273e+03, 5.415920870067199e+03, 5.111123509822580e+02, 1.081353442146441e+04, -8.350276382680736e+02, 5.799774676624877e+02, 5.906474684565150e+03
9136, 7.236991691777149e-01, 1.191809115286551e+00, 2.085863878315129e-02, -7.633078390883358e-10, 1.650860542198243e-10, -2.276724717858344e-09, 5.142769503559347e+03, 4.404551425140753e+03, 1.745861386520069e+02, 1.180717941850464e+04, 7.401343282802295e+02, -1.774704959014026e+01, 7.184350745290916e+03
9137, 4.729610250578386e-01, 4.202228568720131e-01, -1.284639903880819e-02, -1.074525811092397e-09, 7.312070410386053e-10, -5.766386940757624e-09, 4.793778094173605e+03, 4.794056701589886e+03, -1.449109185226282e+01, 8.745145577309058e+03, -3.110656168911291e+02, 1.066414855614478e+02, 3.992146895181851e+03
9138, 5.733597350133156e-01, 7.791216268677721e-01, 3.214889655581075e-02, -9.914364346536328e-10, 6.765598897113622e-10, -1.839639590946692e-09, 4.543528074759009e+03, 4.772965772361120e+03, -4.240549134052447e+01, 8.886972465492083e+03, 1.039262787584375e+03, -6.925795910785106e+02, 4.754597409223500e+03
9139, 3.992542974405767e-01, 3.511638412777073e-01, 1.089677809536151e-02, -1.687453202296544e-09, 9.650701006220143e-10, -4.542429112558013e-09, 4.957773521562587e+03, 5.143989691294709e+03, -3.140488925378602e+01, 8.572844914308258e+03, 3.890906360952507e+02, -4.297096650073486e+02, 3.666240233202524e+03
9140, 7.727855861436411e-01, 8.863686640180486e-01, -1.554411001402432e-03, -6.154231629293663e-10, 1.046701756504545e-10, -1.873854859889879e-09, 2.720262872998898e+03, 2.490775536349323e+03, -4.424811063794031e+01, 4.570682456017596e+03, -2.964105190185401e+02, 8.394633515190106e+02, 2.506972748468355e+03
9141, 3.255919381652195e-01, 4.597418818414181e-01, -1.015067746848700e-02, -1.510677137415479e-09, 5.033961824667408e-10, -7.933794185565529e-09, 6.449777040887676e+03, 7.029576986667860e+03, -1.461798997522981e+02, 1.389748447619809e+04, 6.169985002534561e+02, 1.408122144984008e+03, 7.657736265681130e+03
9142, 5.162454120562290e-01, 5.446562554401372e-01, 1.540439189674165e-02, -1.523350901587845e-09, 6.448414100222819e-10, -3.376733712751896e-09, 4.545250570776901e+03, 4.502025656538408e+03, -1.107417392040241e+02, 7.611795684817605e+03, 6.922719971864069e+02, 1.188473236323009e+02, 3.324906809355048e+03
9143, 7.164297381496650e-01, 2.627081241060641e-01, -4.738147135744560e-04, -7.285039172104881e-10, 1.386299137958005e-10, -4.010876977426136e-10, 7.081107050205632e+02, 6.509169606948182e+02, -1.178180534867561e+02, 7.871790712992223e+02, 2.442419342114003e+02, -6.204350286183411e+01, 4.961844254583899e+02
9144, 5.666701673783486e-01, 1.510355503250457e-01, 2.272434094759684e-02, -8.382501757074129e-10, 2.725164617722009e-10, -1.486890555808022e-09, 2.267696218193489e+03, 2.182556956288622e+03, -1.241307967795110e+02, 3.981440605307133e+03, 4.726190568548396e+02, 4.942333484880395e+00, 1.951020351843861e+03
9145, 2.322314243446244e-01, 2.654049587335050e-01, -1.445827999711023e-02, -2.084608369901466e-09, 1.683313152138540e-09, -8.001725045154792e-09, 7.302522007680334e+03, 6.775970247639993e+03, 2.926563478093980e+02, 1.149221228748253e+04, 1.346331196543840e+03, -1.222374869779800e+03, 5.496746077492829e+03
9146, 2.027136998514915e-01, 1.760099843272458e-01, 1.339660752231412e-02, -5.487997224055464e-10, 6.600398922933924e-10, -4.748765714001773e-09, 4.869751321520502e+03, 5.869351731505396e+03, 1.718609680127394e+02, 1.195643431314001e+04, -1.860406658692357e+02, -2.053335523043625e+02, 6.667484769210289e+03
9147, 5.012316033853651e-01, 3.273727955076768e-01, 1.561849050077776e-02, -1.250103805967052e-09, 6.781952593504417e-10, -2.711244420373865e-09, 3.627093937955962e+03, 3.303153726061476e+03, -1.663520436754449e+02, 6.051661099357069e+03, 4.125100707758216e+02, -2.875253664039128e+02, 2.758695918871828e+03
9148, 4.893589926311623e-01, 8.045224470097391e-01, -7.512169673768054e-03, -7.071998014061229e-10, 2.401996829707714e-09, -6.760765664076578e-09, 7.585281388761099e+03, 8.011785865252456e+03, 2.413460230153985e+02, 1.642285779772706e+04, 1.265940944628114e+02, -3.552175202138468e+03, 1.061094080917510e+04
9149, 5.307899053550442e-01, 4.318154034436352e-01, -1.106398377973685e-02, -1.510827406660160e-09, 1.156529385526111e-09, -4.153005204695822e-09, 3.317354655863536e+03, 3.654915761730203e+03, -1.014744868971201e+02, 5.649575688708322e+03, 3.361203872226773e+02, -1.299411752692699e+03, 3.193927050351329e+03
9150, 8.051878044255684e-01, 1.496501106543112e+00, 3.639847518845780e-03, -2.283361775285177e-11, 3.101478379228053e-10, -1.254644476903299e-09, 5.235309919446477e+03, 4.650043108950172e+03, 1.662882611011314e+02, 9.407737016936211e+03, -9.555860428641048e+02, 6.736226673424164e+02, 4.937343428390817e+03
9151, 8.381555026941055e-01, 1.269381346368891e+00, 9.430541393671086e-04, -9.477528754586504e-10, 3.090807692287418e-11, -1.931250053702435e-09, 3.199695362195356e+03, 3.349947705289081e+03, 1.473892360717375e+02, 5.250278123467780e+03, 6.061877264702529e+02, 5.179072760495288e+02, 2.427263035292652e+03
9152, 7.124622549867921e-01, 3.808531545972861e-01, 6.567921468576654e-03, -8.757183677473886e-10, 2.567794274059029e-10, -5.351050629923037e-10, 9.454974576735032e+02, 9.012384363424673e+02, -1.092536308171685e+02, 1.402141009356468e+03, 2.932664974936129e+02, -3.783371487153367e+01, 7.271944334887935e+02
9153, 8.505649036320003e-01, 3.781623449282276e-01, 1.510163907440108e-02, -3.416270842884061e-10, 3.000428777851567e-11, 2.846091273909197e-10, -5.168589214412461e+02, -6.146868186740578e+02, -8.568060267662226e+00, -1.355474927462319e+03, 2.219947168487939e+02, 4.943443044652867e+01, 8.866811993124737e+02
9154, 3.516055992713696e-01, 3.939156862761768e-01, 7.180236591625224e-03, -1.323171918362087e-09, 1.062791916138717e-09, -5.803277100103631e-09, 4.749618292263081e+03, 5.218084961797122e+03, 3.811136882019586e+02, 1.165695517338141e+04, 4.766596997825231e+01, -1.057516278458471e+03, 6.963654773707213e+03
9155, 4.542460518387556e-01, 2.904175095381138e-01, -1.403577991148842e-02, -1.669168315932977e-09, 9.942196010182610e-10, -4.391644000935054e-09, 3.621798296120342e+03, 3.450178430073575e+03, -1.628618222006706e+02, 5.501892488398215e+03, 8.625483112158338e+02, -5.337734578804919e+02, 2.655777111062119e+03
9156, 3.456645412644216e-01, 2.377775966957510e-01, -1.759017950198149e-02, -2.148257292694234e-09, 1.177578925871326e-09, -6.327827946940456e-09, 4.246500617263563e+03, 4.116018378355073e+03, -1.693257261803369e+02, 6.273648512490730e+03, 9.836041599926028e+02, -4.922703038510626e+02, 2.847155807332467e+03
9157, 8.587558212140206e-01, 9.802798948314778e-02, 8.769232956073011e-03, -3.815991754780043e-10, 1.459296077683751e-10, 5.652619683791203e-10, -1.243852634418663e+03, -1.149312702976561e+03, -8.230699752520330e+00, -2.571015432225156e+03, 2.466641281659053e+02, -2.400426033815388e+02, 1.500454242680235e+03
9158, 9.561171900434314e-01, 9.483843871712788e-01, 8.146856366986307e-03, -3.862240281034913e-10, 7.978344468171353e-11, 9.800524252091910e-11, -1.707616359906419e+02, -1.982261432818128e+02, -6.539416679444167e+01, -3.659546846867838e+02, 3.090804476964236e+02, -6.428774488294036e+01, 5.876341102541826e+02
9159, 4.318606969999532e-01, 2.522308783012592e-01, 2.350866206359579e-02, -1.503146455922400e-09, 6.965069768527231e-10, -2.980053945165440e-09, 4.092134465246259e+03, 3.892425851907350e+03, -1.211699637288200e+02, 6.918015866629524e+03, 8.230879269310813e+02, -2.765344164620296e+02, 3.300867100964426e+03
9160, 4.390831330395820e-01, 2.599079666381538e-01, -1.541940108693376e-02, -1.140439206724555e-09, 3.242208168110913e-10, -5.140387757695796e-09, 4.035485478557162e+03, 3.889052905791239e+03, -5.276139794235922e+01, 7.393238128898296e+03, -3.077782692885997e+02, 8.006585069200407e+02, 3.742101753978431e+03
9161, 7.704578138049779e-01, 1.036956634863208e+00, -1.078263234526179e-03, -1.006785725752577e-09, 4.026609442838258e-10, -1.839625052334302e-09, 2.314750859911372e+03, 3.058916821190109e+03, -1.874143223535957e+02, 3.501743778781150e+03, 2.887259361959270e+02, 1.529669481591388e+01, 1.198155996043258e+03
9162, 4.595300350498823e-01, 2.227872373648338e-02, 2.250303180427748e-02, -3.062763268638823e-10, 5.643567054093662e-10, -9.479551449893144e-10, 2.014779406204130e+03, 3.032765058530504e+03, -2.629303202023025e+02, 2.719983105341634e+03, 9.277487561281751e+01, -1.135670802524365e+03, 2.217697658728325e+03
9163, 2.307534290105210e-01, 3.450148699617125e-01, -7.181924272472846e-03, -2.753158901992694e-10, 1.008041333086128e-09, -4.614031140910232e-09, 5.046429244430534e+03, 4.796920697615142e+03, -4.632180945256356e+01, 1.200218641481520e+04, -1.098098587869865e+03, -1.437268815757179e+02, 7.339359924235610e+03
9164, 4.798418136820072e-01, 1.661026730824833e-01, -1.388706206484719e-02, -8.758762320433828e-10, 2.427067767812725e-10, -4.454615399709730e-09, 3.694502629195004e+03, 3.152075751149162e+03, -2.674854637096315e+02, 6.121379848973116e+03, -5.437796642229564e+01, 8.145083055245386e+02, 3.116753285154155e+03
9165, 2.501191482393544e-01, 3.606630853506185e-01, -8.670812634577078e-03, -5.758242152955583e-10, 7.194697618390096e-10, -7.059813478869601e-09, 6.072656753067613e+03, 6.441401409747766e+03, 6.704244251588823e+02, 1.474448077963546e+04, -2.201173756593855e+03, 1.371919788033122e+03, 9.678285589928315e+03
9166, 8.131817486284650e-01, 1.211620834820948e+00, 1.298108478025601e-04, -8.270648921438491e-10, 7.838283815915053e-10, -2.118105548317209e-09, 3.124981447521632e+03, 3.034874799713695e+03, -1.038488592962948e+02, 5.350197065328970e+03, 4.927555508558883e+02, -1.108006137630044e+03, 3.099035516445431e+03
9167, 4.587180382336117e-01, 3.429312534995385e-01, 1.329534683946622e-02, -1.481967367418326e-09, 7.592158633483912e-10, -3.337930817010367e-09, 4.129617674356518e+03, 3.699379606209281e+03, -1.009788496843428e+02, 6.934461887711754e+03, 4.960537549329300e+02, -2.464368058098542e+02, 3.195308760926950e+03
9168, 8.390239659766239e-01, 6.491770685268056e-01, 2.038024677896209e-02, -4.278663554018700e-10, 1.270510566976941e-10, -8.444005097327256e-12, 3.939098974355978e+02, 2.788714255451840e+02, -1.421501299126568e+01, 2.410548775727678e+02, 5.009108800452228e+02, -1.471026301462268e+02, 9.150263272825683e+02
9169, 6.402090683331872e-01, 3.977477233000297e-01, -6.893083693728579e-03, -8.272919098429934e-10, 2.170446567323292e-10, -2.430638199220330e-09, 2.544353975203324e+03, 2.339432527781306e+03, -2.770249327920098e+01, 5.335417797986508e+03, -1.720517254565291e+02, 3.800850802854990e+02, 2.988056321212979e+03
9170, 4.991874935292575e-01, 2.308845737630866e-01, -1.268523159426397e-02, -1.559638067839833e-09, 6.897058749465123e-10, -4.945962325375257e-09, 3.533841596316805e+03, 3.824730786687913e+03, -1.615935156960406e+02, 7.658679179356398e+03, 4.829597955965347e+02, -1.448921388066706e+02, 4.091466732564844e+03
9171, 5.160939832888328e-01, 8.556935168500522e-01, 1.978534240836968e-02, -5.010947363308744e-10, 7.348885987379354e-10, -3.557026616760950e-09, 6.395417783433224e+03, 6.993213511385376e+03, 3.212691048272385e+02, 1.627372305661418e+04, -1.811842119185090e+02, -8.813059136766813e+02, 9.735054756925478e+03
9172, 8.446615327185529e-01, 1.230495315916293e+00, 2.069332444279548e-02, -5.603640967765047e-10, 2.670482373935127e-10, -9.239233774800612e-10, 3.328001975040783e+03, 3.005901684007997e+03, -2.228663430643217e+02, 5.561087218336898e+03, 7.382153554992195e+02, -2.054231344447142e+02, 2.778522206941913e+03
9173, 6.053012228480649e-01, 1.129721532605170e+00, 3.716982288798229e-03, 2.822511932440794e-10, -3.999700966466505e-10, -1.103200342826268e-09, 2.428554111938585e+03, 2.962421325698470e+03, 3.268878111221300e+02, 5.741082628528613e+03, -5.655670188919887e+02, 1.117296716829421e+03, 3.809807074848668e+03
9174, 5.555723618355217e-01, 2.167372792317515e-02, 2.045770155791028e-02, -2.811339568327815e-10, 3.665696454008837e-10, -4.745334921878630e-10, 1.466625468282515e+03, 1.937804872023826e+03, -3.666813060486720e+02, 1.751441464794113e+03, 2.101877795395297e+02, -6.683939045218673e+02, 1.430064416168903e+03
9175, 4.527754976702453e-01, 2.371245497850838e-01, 5.044145572353008e-02, -7.455756652296140e-10, 3.199104225331632e-10, -1.195689846920507e-09, 3.757799763098623e+03, 3.604103072024307e+03, -6.316921540107334e+01, 6.439611597055547e+03, 9.389243880294379e+02, -3.590921642462972e+02, 3.266721997119361e+03
9176, 3.301608783962021e-01, 5.055460098299911e-01, 2.261383516837204e-02, -1.687892363240894e-10, 5.458559191911534e-11, -2.187523770515272e-09, 4.781103923968174e+03, 5.633767006964236e+03, 6.150388416225471e+02, 1.089653963837387e+04, -1.817220740554211e+02, 5.459577685880639e+02, 5.919398513529805e+03
9177, 8.445217206682997e-01, 9.379139812975861e-01, 2.190458748379247e-02, -4.658213927954674e-10, 1.304642028624068e-10, -3.622992313851616e-10, 1.383113319250109e+03, 1.212716293551623e+03, -5.274001333804914e+01, 2.177016157006717e+03, 6.460930605139381e+02, -1.543298460622588e+02, 1.458321605175791e+03
9178, 8.512417971479133e-01, 9.911465843439325e-01, 1.222180731647475e-03, -9.070040952636427e-10, 1.497277585754010e-10, -6.713501561219492e-10, 1.528706704241235e+03, 1.198810140586067e+03, -2.120235259875826e+01, 2.163268644282972e+03, 8.782708288175131e+02, -1.178971413818635e+02, 1.754413627189370e+03
9179, 5.709966493917417e-01, 4.330611742872134e-01, 2.235043723966627e-02, -1.189598919002210e-09, 4.442842964989752e-10, -1.877516399795377e-09, 2.991190718680485e+03, 2.904702223955448e+03, -2.118327513324975e+02, 5.127212761729281e+03, 6.427166185844956e+02, -1.283410654309449e+02, 2.485578271864747e+03
9180, 8.406412787015812e-01, 4.834335467131705e-01, 4.541228961588953e-03, -5.874219812770591e-10, 6.645402880242984e-11, 3.556180031435905e-10, -2.001022046031991e+02, -2.425440041313910e+02, -3.618677018834700e+01, -8.519522295792679e+02, 4.127318112247818e+02, 8.497413188846814e+00, 9.561546854036626e+02
9181, 9.677667777076499e-01, 1.064974612842203e+00, 9.000012918384478e-03, -3.574897752747305e-10, 1.169912009054737e-10, 7.700319640465936e-11, 6.410731447001827e+01, -1.183260829136254e+01, -1.221762642002421e+01, -2.099473927298189e+02, 3.654171089203189e+02, -1.184661450030069e+02, 7.093663688863006e+02
9182, 6.043959051229891e-01, 7.311077135922952e-01, -6.465864948555576e-03, -1.413939631603096e-09, 5.060989629006439e-10, -5.353976641375633e-09, 5.126679765082520e+03, 5.209474037714354e+03, -3.318628507000615e+02, 1.058774468407011e+04, -7.142426176190349e+01, 5.026497166185937e+02, 5.521015611877405e+03
9183, 6.832099330235474e-01, 8.131490513373432e-01, -5.016294884807107e-03, -1.369393231964854e-09, 6.633052844286872e-10, -2.942459137422852e-09, 3.735510202649873e+03, 3.586121390094612e+03, -1.147924974619354e+02, 6.414642671046629e+03, 9.525934514440731e+02, -5.831202842973605e+02, 3.373755002985034e+03
9184, 8.256688050087768e-01, 9.078278272008909e-01, 9.612359158284421e-04, -8.056523451768841e-10, 3.128770513519886e-10, -1.088023264826079e-09, 1.755861227113724e+03, 1.678092390325640e+03, -1.202523952828011e+02, 3.064197696436270e+03, 5.220731161424923e+02, -2.373218162886015e+02, 1.688066343261103e+03
9185, 5.773697983424736e-02, 5.074415005105844e-02, 2.716269916357919e-03, 7.054436667439028e-10, 2.926500488022890e-10, -2.984336699180782e-10, 1.861078065582778e+03, 1.020682879629860e+03, 1.598761055140558e+02, 1.663478572989757e+03, -7.924393602529057e+02, -9.070327935773331e+01, 1.601402743459563e+03
9186, 5.586690713177084e-01, 9.016992284984048e-01, -5.068687490486475e-03, -1.806980348949899e-09, 5.520968378538913e-10, -5.307887899556621e-09, 5.739664201297782e+03, 6.003397129630730e+03, 1.509982800105723e+02, 1.103298629890111e+04, 1.789699711419030e+03, 1.503670150814619e+02, 6.036397756906378e+03
9187, 5.182859751323871e-01, 4.457808908605249e-01, 1.866296535028516e-02, -1.149486363154168e-09, 6.542773605044840e-10, -2.743560733247530e-09, 3.460954869458122e+03, 3.630399664311064e+03, -1.078678667892348e+02, 6.637572761470191e+03, 2.588440357672696e+02, -4.483591888687358e+02, 3.228054588240218e+03
9188, 7.759166566071787e-01, 9.152215119339923e-01, 2.703866700634877e-02, -6.017229724999158e-10, 3.161568824252752e-10, -7.786507647199792e-10, 2.412633209525361e+03, 2.477085379669277e+03, -6.832598317771179e+01, 4.168626050659248e+03, 7.255068273546128e+02, -5.105015536534427e+02, 2.312878874773875e+03
9189, 8.429433888361256e-01, 1.030964041938743e+00, 1.244615801977572e-03, -6.339094682933373e-10, 3.527965374092955e-10, -6.942327303355798e-10, 1.574548666249691e+03, 1.366484605418735e+03, -6.908082107609142e+01, 1.781187725077225e+03, 1.649863566608614e+02, -3.728324444938859e+01, 4.786779813955043e+02
9190, 7.733737852630495e-01, 5.936247720402473e-01, 2.741849434895737e-02, -4.950185488703773e-10, 1.689149280506305e-10, -2.518666225001390e-10, 1.194946619338007e+03, 9.906441173184060e+02, -3.557915684510086e+01, 1.638919790877959e+03, 6.401493505312832e+02, -2.044687106038861e+02, 1.299288298324989e+03
9191, 2.303918099288939e-01, 3.508034361869039e-01, 1.799812059963870e-02, -1.130460376048780e-10, 2.666465397027626e-10, -2.123985220372502e-09, 5.243992799004369e+03, 5.106564293918641e+03, 5.520381669542252e+01, 1.071621107694564e+04, -8.883604903722896e+02, -6.163228787316781e+01, 5.753624017635059e+03
9192, 8.249344108106220e-01, 9.654095522199931e-01, 2.364138229339506e-02, -5.634915900404848e-10, 1.627061201834920e-10, -5.203557369832582e-10, 1.832506704184366e+03, 1.728661077192610e+03, -1.684615096376389e+01, 2.734295423368281e+03, 7.442551944205655e+02, -1.643648491749872e+02, 1.631349072349703e+03
9193, 8.220270949920200e-01, 1.264799527079298e+00, 2.096395414663969e-02, -7.532157576601444e-10, 2.011222828830462e-10, -1.149880073368423e-09, 3.332413262395033e+03, 3.276094102358709e+03, -1.600124977985864e+01, 6.428380054064180e+03, 9.675395425181299e+02, 1.777328721669973e+02, 3.558999552212788e+03
9194, 4.782564208416890e-01, 5.476047547598674e-01, 4.004047377995409e-02, -9.422906274917208e-10, 5.179138775527619e-10, -1.725588166239861e-09, 4.758688288529908e+03, 4.673203664853773e+03, -5.857091523756861e+01, 8.975196047510672e+03, 1.058013464107569e+03, -5.289526952485010e+02, 4.728058150012535e+03
9195, 5.086829678524848e-01, 3.743571704084309e-01, 4.738017625707807e-02, -7.287098377831274e-10, 2.549409361778498e-10, -1.135248518842755e-09, 3.580460401356281e+03, 3.447499401601258e+03, -1.538402038194708e+01, 6.313975722762653e+03, 8.910155963235144e+02, -2.457196001006510e+02, 3.227507756511911e+03
9196, 5.396041019209519e-01, 2.979398214268703e-01, 1.322210981102885e-02, -1.239516645879916e-09, 4.524681330642341e-10, -2.599539162061246e-09, 3.050260317859848e+03, 3.194704056411389e+03, -1.743688385858530e+02, 5.493240988288141e+03, 4.305621807448537e+02, -2.878439465380793e+02, 2.555791961642356e+03
9197, 9.932232552928874e-01, 1.553544314343047e+00, 8.144014758553291e-03, -3.908994895273380e-10, 4.851676540893828e-10, -1.084332967093612e-09, 3.050100945761093e+03, 3.261843118951188e+03, -3.095836257585130e+02, 4.427558982717868e+03, 1.322698625591154e+02, -2.467327538913782e+02, 1.474178619579982e+03
9198, 5.718895985667694e-01, 7.849697687256846e-01, -9.983524286515527e-03, -1.519775087090072e-09, 1.768698841335806e-09, -6.021088831066065e-09, 5.790989685267831e+03, 6.065518879038505e+03, -4.474292993568762e+02, 1.179120753936451e+04, 6.152621747164405e+02, -2.426608205836246e+03, 7.337046362365048e+03
9199, 7.657200468712396e-01, 3.181932619011509e-01, 1.461210027960463e-03, -6.294271094285208e-10, 1.152743653913497e-10, -2.974575814134668e-11, 2.806932801716549e+02, 2.480270589537512e+02, -1.557350142043650e+01, 2.061330551580739e+02, 1.875054027048973e+02, -1.428916509398645e+01, 3.331751477011547e+02
9200, 3.501160260902096e-01, 3.408477014919712e-01, 1.591302544019199e-02, -1.659124821066911e-09, 7.658701123405802e-10, -4.423415133189640e-09, 5.372164820222288e+03, 5.545170487510243e+03, 1.126872813744140e+02, 1.008272310438339e+04, 8.122768086041813e+02, -3.398326134484370e+02, 4.875271454716263e+03
9201, 8.624195699996624e-01, 1.321500708183713e+00, 1.425448893583942e-03, -5.960515783810277e-10, 1.032128609232481e-09, -1.815024444108775e-09, 3.539641890384091e+03, 3.161893628204146e+03, -1.436061953026347e+02, 5.206225223138221e+03, -1.533747458015972e+02, -1.407227209232567e+03, 3.102103741571228e+03
9202, 4.471059329149681e-01, 3.560794891354153e-01, -1.484545844655973e-02, -1.441806840145128e-09, 9.435741467434767e-10, -5.069541328162048e-09, 3.814281073283171e+03, 3.819743057116243e+03, -1.199351105114423e+02, 6.649515687448841e+03, 4.682987128960611e+02, -4.718960991277571e+02, 3.064673110760998e+03
9203, 7.672071641569462e-01, 7.948813751305278e-02, 2.935566553152819e-03, -4.529145016916581e-10, 8.053464271368967e-11, -1.079034243677125e-11, 7.861487493103436e+01, 9.545499863059220e+01, -5.269729659040954e+01, 1.444254704229554e+02, 1.839876562202421e+02, -8.689429590175732e+01, 3.688409003693129e+02
9204, 6.548290645116832e-01, 5.857034561522462e-01, -4.661070996998643e-03, -1.187856040011621e-09, 7.237300614127320e-10, -2.081503593793473e-09, 2.385601324524598e+03, 2.239239447897387e+03, -3.172672738695877e+02, 3.839430375450458e+03, 6.430118935990356e+02, -3.290246352515482e+02, 2.053038222580648e+03
9205, 7.342243573429187e-01, 3.187118547073984e-01, 2.821673943274778e-02, -5.204711001340482e-10, 9.169843619275176e-11, -1.325144899090291e-10, 7.485438213162882e+02, 6.394594552984998e+02, -2.214470681155029e+01, 9.086107435998554e+02, 5.221545792247964e+02, -6.678618517168690e+01, 9.422155691674277e+02
9206, 2.336826733463502e-01, 2.688125866663432e-01, 3.081620330733206e-02, -3.794192235071920e-10, 3.607522480722023e-10, -2.444889834016047e-09, 5.192268774887697e+03, 5.718745283645790e+03, 4.343598609113765e+02, 1.182635566174113e+04, -1.063080840908775e+02, -8.346017077474340e+01, 6.435557623583647e+03
9207, 3.796566801486341e-01, 5.001059411896189e-01, -1.297349266701433e-02, -1.855348288383856e-09, 6.285098410521527e-10, -6.171608065278005e-09, 5.730282377701918e+03, 5.844862407272022e+03, 5.824394387213681e+02, 1.157076810673594e+04, 7.427570917950507e+02, 1.728748564731625e+03, 6.715183191726382e+03
9208, 5.784719079321823e-01, 1.171564311108328e-01, 2.088420365004159e-02, -7.256159046756084e-10, 3.562251246877344e-10, -1.515354180789582e-09, 2.166316102946808e+03, 1.754693160877704e+03, -2.541869888239275e+02, 3.704450132232444e+03, 4.281543907807897e+02, -1.668271905671764e+02, 1.998923848061650e+03
9209, 3.917059711806409e-01, 4.556925042752140e-01, 1.118152900778577e-02, -1.661498033583819e-09, 7.869397272154826e-10, -4.623702838101213e-09, 5.444208087307136e+03, 5.688903527221467e+03, 3.136355114094059e+02, 1.020057653376744e+04, 7.590704724098387e+02, -1.482791531769512e+02, 4.858876491278831e+03
9210, 7.912636564010516e-01, 1.617553766308084e-01, 2.058229543498389e-02, -3.926742442486454e-10, 5.749116621403504e-11, 1.090999259205684e-10, -3.613817516223797e+01, -1.856855324003739e+02, -3.664433848839366e+01, -5.084938595471640e+02, 4.115216672743351e+02, -8.623571042108442e+01, 8.421598566456814e+02
9211, 5.025714428220969e-01, 2.879992056095320e-01, 4.911250617618415e-02, -6.370421550294037e-10, 2.642074588509627e-10, -1.037171860741534e-09, 3.389124341140734e+03, 3.260037153014875e+03, -5.133451016460712e+01, 5.862129605757807e+03, 8.022034761875191e+02, -2.849504628335365e+02, 2.938322494727654e+03
9212, 9.143953150218539e-01, 6.126652950764698e-01, 7.835215930635023e-03, -3.667512285688078e-10, -6.943419744591315e-12, 2.335663691018007e-10, -5.534809047054254e+02, -6.363974010186188e+02, -4.573003056081927e+01, -1.227551022579540e+03, 2.628928052255210e+02, -3.033052677282319e+00, 7.867612872765648e+02
9213, 8.293496637154157e-01, 8.336992638514102e-01, 1.337152793645321e-03, -6.156493190451247e-10, 2.664521666783775e-10, -4.879784676542019e-10, 1.030089179954926e+03, 9.134758740138110e+02, -9.167363600382697e+01, 1.213432415508042e+03, 2.064487019163650e+02, -1.648849210007703e+02, 5.506633669212293e+02
9214, 8.256407714109192e-01, 7.944277074532461e-01, 1.241496888241950e-03, -6.045715437243811e-10, 2.825197056290405e-10, -4.586599044988869e-10, 1.071993335377498e+03, 8.379415419477326e+02, -2.443686707483210e+01, 1.442544747733720e+03, 1.268661146562565e+02, -1.784536899210605e+02, 6.514832973510028e+02
9215, 7.247412291362519e-01, 1.341754112319999e-01, -4.032160480731649e-04, -6.066647753130572e-10, 1.699023760067968e-10, -2.413833922438592e-10, 4.513295380347475e+02, 4.223372872172658e+02, -8.023596247788552e+01, 7.252845834198553e+02, 2.047199555481559e+02, -1.780258638147751e+02, 5.691733699604235e+02
9216, 4.558775475199673e-01, 7.579139094944192e-01, 2.044537245766228e-02, -4.120478047066344e-10, -2.491405294750167e-10, -2.256139490238574e-09, 4.820847771012363e+03, 5.003457874087962e+03, 3.764473776146523e+02, 1.177948403160649e+04, 5.135602673332841e+00, 8.876007155227149e+02, 7.069226964128436e+03
9217, 7.188168021808553e-01, 9.115474698737945e-01, -2.948331767111411e-03, -1.065296194994935e-09, 9.061701572257805e-10, -2.445611957579295e-09, 3.014270918587385e+03, 3.220895257197617e+03, -7.608738691213978e+01, 5.482978385230366e+03, 3.573423099396913e+02, -8.815336414134026e+02, 2.891170741972679e+03
9218, 4.675374935729709e-01, 8.667949808525094e-01, 2.885528764890130e-03, -5.109348216877948e-10, 1.881447875489325e-10, -2.923104824975927e-09, 4.598840635049490e+03, 4.151680326696947e+03, 5.231402263547868e+02, 1.001901394379091e+04, -4.038948174052602e+02, 2.206218467886927e+02, 5.784320147081530e+03
9219, 3.230979372177579e-01, 4.610416207594358e-01, 2.701677938001818e-02, -2.100674560414345e-10, 1.589856327017047e-10, -2.516048533595395e-09, 5.138804476887396e+03, 5.650377524707601e+03, 2.222720399386160e+02, 1.190521024817980e+04, -6.061023691863222e+02, 9.569715480136301e+01, 6.622855266662058e+03
9220, 8.561171111656125e-01, 7.196592831584422e-01, 1.948095935125803e-02, -4.062858807702258e-10, 1.236201111715469e-10, -3.390229863527327e-11, 3.660882239957537e+02, 2.169909316989274e+02, -9.551526238882042e+00, 2.962663472171506e+02, 5.050580442117490e+02, -1.676336292817334e+02, 9.308719161647983e+02
9221, 5.700303326302372e-01, 2.283029964938661e-01, 1.935296801553482e-02, -9.838515390147891e-10, 4.163271731159254e-10, -1.718897558442918e-09, 2.482366555637650e+03, 2.298806664639930e+03, -2.018000226691955e+02, 4.122036348751987e+03, 5.151803912091707e+02, -2.946704731212965e+02, 2.049898336412511e+03
9222, 6.734238463675439e-01, 1.012786054167947e+00, -5.568801653677340e-03, -2.022123193010516e-09, 1.311254413442253e-09, -6.339809854832488e-09, 6.743433108157410e+03, 5.730254044910496e+03, -1.168612166749390e+01, 1.382032045334898e+04, 2.519594906072631e+03, -1.291270687192568e+03, 9.073403194672232e+03
9223, 3.554966810888980e-01, 3.993751691714451e-02, 2.875780398918071e-02, -5.989600058432966e-10, 1.105551582333759e-09, -1.764201112559758e-09, 2.796678764733605e+03, 3.522317566536801e+03, -3.807937202654265e+02, 4.563458356489591e+03, 2.997990884159709e+02, -1.229859295731313e+03, 2.758320083824887e+03
9224, 9.181330423371366e-01, 6.638197842758575e-01, 9.240487864263888e-03, -3.888847906211470e-10, 5.710005059072513e-11, 1.951032632524930e-10, -5.108851872851349e+02, -5.438353983487485e+02, -1.680058674573415e+01, -9.026519866848661e+02, 2.860015321390003e+02, -1.094870229552801e+01, 6.231012544856144e+02
9225, 3.614461034706639e-01, 7.732709733170313e-02, 7.144590818966899e-03, -9.799573861730879e-10, 1.280924067058828e-09, -4.711108769952575e-09, 4.257808977330104e+03, 4.079737920263556e+03, -1.759002058012169e+02, 8.459187920363953e+03, 2.645700997377080e+02, -9.239250031842846e+02, 4.614668483066994e+03
9226, 9.256551421357418e-01, 7.059471491208127e-01, 9.700239745552921e-03, -2.957664033332132e-10, 7.398823761099636e-11, 2.521976274923852e-10, -6.332445875228035e+02, -7.021105667221702e+02, 1.615280853267694e+01, -1.590070410738215e+03, 1.557052772491994e+02, -8.741471073839655e+00, 9.633845605643689e+02
9227, 3.503207020272894e-01, 4.326160648968456e-01, 1.082820657981312e-02, -1.217293431028251e-09, 4.685767052671989e-10, -5.437128816497710e-09, 5.538771513161480e+03, 6.204539425738271e+03, -3.188411838481390e+01, 1.309746241837168e+04, 4.100372440046529e+02, -9.976741766352171e+01, 7.285741093153078e+03
9228, 8.330228371245991e-01, 5.405697330321940e-01, 2.020479302582810e-02, -4.149372575536521e-10, 9.702344453106901e-11, 1.072875333052784e-10, 8.208627484102928e+01, -3.968426453218720e+01, -4.123333302852666e+01, -3.382262948206755e+02, 5.434825530166696e+02, -9.021575082780018e+01, 1.027592378724447e+03
9229, 5.886014453629093e-01, 3.908501813691634e-01, 1.586517479850567e-02, -1.078100269708688e-09, 5.218600032948021e-10, -1.955419974211896e-09, 2.807080910487852e+03, 2.657401323279495e+03, -7.257104648298844e+01, 4.627895830433536e+03, 4.912445539433548e+02, -4.240805309517669e+02, 2.211245344375174e+03
9230, 4.988994297292642e-01, 5.662917678885745e-01, 3.875671464971212e-02, -9.945932770005572e-10, 5.015435419452314e-10, -1.750121649867147e-09, 4.770176213167945e+03, 4.670911779247195e+03, 2.201860309818299e+01, 8.631855648160992e+03, 1.059014841415148e+03, -4.419213225934903e+02, 4.388350947148141e+03
9231, 8.237027007999844e-01, 8.721319202752716e-01, 8.226466897114301e-04, -5.665946937414909e-10, 1.791401067238474e-10, -1.049278935874458e-09, 1.771313844824870e+03, 1.656846291912457e+03, -8.455492256249300e+01, 2.874928866749993e+03, 2.465608153072908e+01, -8.243560022336780e+00, 1.175105650105223e+03
9232, 4.527414069429300e-01, 2.362207202545794e-01, 2.145937304825705e-02, -1.380481117661234e-09, 6.428273726137944e-10, -2.729581507114858e-09, 3.917326753046886e+03, 3.625793331496787e+03, -1.366839651940554e+02, 6.127606020344292e+03, 7.083256027394374e+02, -2.407935224400486e+02, 2.711063262183539e+03
9233, 6.368429110141572e-01, 9.755134185358814e-01, -5.639704899467499e-03, -1.538928775815038e-09, 7.021043205335597e-10, -4.142977347860118e-09, 4.271204666119730e+03, 5.060391840666014e+03, 1.445651790931259e+02, 8.743126634411059e+03, 1.223606781086214e+03, 2.931635584526657e+02, 4.680159353825542e+03
9234, 6.468829420952618e-01, 3.213817719461843e-01, 1.927678295044180e-02, -8.812726295635618e-10, 3.027470269789910e-10, -1.042345985253712e-09, 1.922000612656704e+03, 1.890776054713951e+03, -1.258201322175516e+01, 3.088125710524213e+03, 4.770620865173133e+02, -2.446466327780190e+02, 1.503339617890068e+03
9235, 5.864268828688108e-01, 2.336638107817739e-02, 1.240464312383447e-02, -1.632201019240858e-10, 3.183638241066014e-10, -5.138527958712862e-10, 1.206740530092504e+03, 1.505697802374863e+03, -1.805177217373835e+02, 1.511606154958561e+03, -1.304042804367746e+02, -5.110712238698289e+02, 1.011698504747707e+03
9236, 9.986763306306362e-01, 1.412974258346234e+00, 7.815093614150156e-03, -3.263219300716871e-10, 2.097193753960936e-10, -1.457415913911356e-10, 1.028541476601009e+03, 8.280859720238111e+02, -1.676940848370046e+02, 1.203801260595757e+03, 4.282826366709109e+02, -1.331307878599698e+02, 8.909790000622437e+02
9237, 8.702936699307586e-01, 1.407353217159502e+00, 1.510390996417515e-03, -1.128130697274636e-09, 1.019657471747741e-09, -2.741695672688880e-09, 4.753390786631322e+03, 4.033950212441316e+03, 6.450954246205170e+01, 7.455315852832701e+03, 1.930786552191878e+03, -1.949331940404537e+03, 5.688395902135277e+03
9238, 8.791624561976162e-01, 8.192188755918550e-01, 1.733429831763875e-02, -3.479149798128920e-10, 1.142150067204664e-10, -5.102799258072883e-11, 4.970074376666342e+02, 3.722854695165185e+02, -3.936750543559808e+01, 4.475700834356466e+02, 4.403377985642352e+02, -1.565488571941058e+02, 8.195717560195528e+02
9239, 4.026116236443349e-01, 4.727842158579420e-01, 3.863651173976260e-02, -8.159068528583325e-10, 4.029653118873298e-10, -1.991527248694889e-09, 5.036948605429717e+03, 5.367160937372743e+03, 2.634003487901325e+02, 1.015567926180883e+04, 7.656689557694012e+02, -3.057596770035668e+02, 5.183389697008197e+03
9240, 7.027974870690833e-01, 9.540922073914990e-01, -3.225789214824002e-03, -9.877326189375297e-10, 1.025775027912503e-09, -2.684080248182674e-09, 3.546266602799031e+03, 3.306913174030463e+03, -3.151606276925692e+02, 5.910763533066941e+03, -1.395088641654539e+02, -8.420444959461117e+02, 2.949164267623350e+03
9241, 6.285075927630787e-01, 5.614399243603987e-01, -7.426415734088844e-03, -1.146338048670667e-09, 5.901072976426198e-10, -2.017071824898594e-09, 2.397298568920951e+03, 1.680530087235827e+03, 1.518936946524905e+01, 2.421079964378434e+03, 3.362852819056739e+02, -3.836069014780935e+01, 9.358090172576652e+02
9242, 5.576828792403564e-01, 4.906598189290670e-01, 1.317497715621255e-02, -1.419789053166748e-09, 7.091350047549405e-10, -2.739492515170898e-09, 3.488494213332251e+03, 3.554226637423719e+03, -2.186967481452652e+02, 6.187357096754666e+03, 9.105558044000211e+02, -3.844015190107987e+02, 3.191377887473579e+03
9243, 1.602507005568424e-01, 9.268781795089008e-02, 1.267167966837163e-02, -5.589015077951667e-11, 7.069543283413801e-10, -5.390634615124448e-09, 4.593830924919643e+03, 4.529984320804991e+03, 4.559279828723289e+02, 1.343945178961446e+04, -4.126016758083841e+02, 3.489900093535213e+02, 8.961783372158759e+03
9244, 6.387542260620355e-01, 6.248673643785509e-01, -7.674557386251547e-03, -1.285405846333508e-09, 5.706430584258516e-10, -1.991696083005909e-09, 2.567750960090325e+03, 2.498994690546434e+03, -1.209555390465385e+02, 4.266842344931524e+03, 2.022911754653428e+02, -5.092938062418008e+02, 1.988280305540285e+03
9245, 4.406019217456219e-01, 5.033869935378710e-01, 1.359905566426361e-02, -1.784847285537456e-09, 1.110624979889746e-09, -3.886495318280543e-09, 4.551162529508436e+03, 5.172380255578717e+03, -5.473817327122080e+01, 9.295663953759817e+03, 1.096754866528767e+03, -7.628825348355102e+02, 5.031143870162196e+03
9246, 9.462376738576447e-01, 8.745389576916159e-01, 9.488863606244121e-03, -3.719816507166827e-10, 3.496243147974999e-11, 3.065334442556979e-10, -3.944066932913503e+02, -5.048293710299687e+02, -9.800512186439137e+00, -1.222598892786118e+03, 4.296983142684469e+02, -1.489079220027899e+01, 1.077738172174643e+03
9247, 2.061924045491149e-01, 2.178426236977490e-01, 3.197280317188908e-02, -1.444170989819302e-10, 3.240516822197932e-10, -2.250399937764892e-09, 5.095424380804143e+03, 5.681164906407348e+03, 2.060808771180958e+02, 1.164519385520558e+04, -4.446402416737067e+02, -1.257062105855050e+02, 6.338299116328187e+03
9248, 7.342052487485297e-01, 7.442579718135757e-01, 3.048745727915969e-02, -5.951516369103686e-10, 2.344099593968534e-10, -7.771029707889652e-10, 2.257731320183852e+03, 2.182372156114816e+03, -1.608514994941283e+01, 3.902135271175644e+03, 6.740461610350843e+02, -1.981131092090174e+02, 2.077306321819592e+03
9249, 8.717715249708227e-01, 1.356389142619377e+00, 1.737852143210116e-02, -6.818550033298359e-10, 4.026131636845267e-10, -9.406156899216518e-10, 3.324921220527665e+03, 3.160961993445244e+03, 9.758680914732392e+01, 5.327179743716350e+03, 9.770689864280808e+02, -4.921858171826757e+02, 2.825510960214665e+03
9250, 8.299489762928971e-01, 1.064816793882542e+00, 2.439712084768477e-04, -6.987578078665304e-10, 2.223773013283832e-10, -1.232446138991665e-09, 2.450429277164089e+03, 2.466197610899404e+03, -6.565954926011969e+00, 3.949643185771696e+03, 2.396870399928632e+02, 3.162999523203945e+02, 1.642214001002086e+03
9251, 7.211644314855065e-01, 1.241571995623340e+00, 1.717683670284927e-02, -9.136780715086500e-10, -5.270054968546338e-11, -2.743855960606709e-09, 6.304035590740102e+03, 6.824356141994541e+03, 2.691810883126825e+02, 1.265949134524736e+04, 9.523583622629876e+02, 6.094734185131061e+02, 6.434934758873099e+03
9252, 1.952128835996729e-01, 1.769476576644759e-01, 3.478838767845213e-02, -4.997561873268496e-11, 2.805714131459011e-10, -2.083762729713388e-09, 5.097955837724561e+03, 5.533226656500000e+03, 2.139624720164721e+02, 1.091747979171239e+04, -6.177080881060925e+02, -5.483707376647922e+01, 5.728376886953850e+03
9253, 4.998573907839580e-01, 4.013568987888526e-01, 1.496778291407149e-02, -1.401490081122907e-09, 6.556841801189419e-10, -2.724866348631450e-09, 3.801442855288756e+03, 3.529358248431179e+03, -6.635020818457926e+01, 5.763694117615450e+03, 4.765830825023612e+02, -2.130312584693809e+02, 2.299805800121697e+03
9254, 2.660070188912863e-01, 2.924206066238974e-01, -1.479748850450064e-02, -2.516895210218976e-09, 6.049562588210916e-10, -8.188396861403471e-09, 6.366982748693354e+03, 6.452328607104299e+03, 6.394929470625070e+02, 1.101871106630969e+04, 2.157104201160832e+03, 1.020305450211576e+03, 6.289520922718969e+03
9255, 7.763459754002647e-01, 9.442519993983826e-01, -1.440327723215472e-03, -1.002669106081260e-09, 4.898508780000262e-10, -2.736122103273971e-09, 3.537175175074181e+03, 3.304161844742532e+03, -2.107798992837724e+02, 7.495458474729130e+03, 4.947108326243072e+02, -5.166741712670500e+02, 4.279368199375403e+03
9256, 2.703405331003346e-01, 1.554097292083884e-01, 1.688269025866254e-02, -1.352110903477096e-09, 8.607738534138224e-10, -5.338906607698733e-09, 5.339122796999498e+03, 5.581312931220270e+03, 3.374895135324945e+01, 1.141308144573046e+04, 4.315154033378030e+02, 1.336138964013262e+02, 6.008008696087271e+03
9257, 7.198541571804628e-01, 5.781048531663178e-01, 3.161036697175872e-02, -5.988659155044172e-10, 2.051901358155424e-10, -5.447054515137141e-10, 1.803120308983355e+03, 1.646743324507704e+03, 2.351673980352899e+01, 2.958680335703224e+03, 7.314410057455148e+02, -2.419494028936762e+02, 1.822847008247919e+03
9258, 8.621119370163399e-01, 9.403697817005311e-01, 2.199889195898010e-03, -5.819771183555921e-10, 2.318592156534672e-10, -3.833001094237933e-10, 9.173243402260026e+02, 7.403339736937467e+02, -1.187481250655889e+02, 1.054978097626294e+03, 3.244892308147618e+02, -6.616809245495872e+01, 6.677988615518072e+02
9259, 5.185481990317969e-01, 4.430148385700340e-01, 4.505965066133723e-02, -7.286827979369919e-10, 3.617624809836551e-10, -1.227068383959531e-09, 3.589742772852583e+03, 3.624998522257644e+03, -2.970972550271624e+01, 6.535972932912089e+03, 8.184937580087703e+02, -4.266713686917835e+02, 3.337099495272495e+03
9260, 9.060977276672503e-01, 4.941382999590950e-01, 9.042631383603290e-03, -4.746157195889853e-10, -8.976909097350373e-11, 5.322154993592280e-10, -1.258309081675848e+03, -1.232474067617359e+03, -9.899068588085065e+01, -2.508303705827281e+03, 5.978305017886414e+02, 2.979835620799896e+02, 1.721462064971683e+03
9261, 3.018760907325588e-01, 3.063419909046551e-01, 1.208695452347231e-02, -1.560290530299168e-09, 9.642899162328330e-10, -5.633685716926017e-09, 5.802939219918340e+03, 5.889356908470430e+03, 1.205823944020942e+02, 1.300413042728670e+04, 3.495997635404482e+02, -3.695711902534828e+02, 7.215423857441056e+03
9262, 4.822898609176136e-01, 6.656738019761789e-01, -1.206670514162217e-02, -1.984978688899598e-09, 2.021989146809923e-09, -7.595288438448374e-09, 7.694256065190364e+03, 7.065976809694022e+03, -3.199830216467340e+02, 1.347078280757444e+04, 2.008796216056627e+03, -2.780793367507776e+03, 8.544217771282971e+03
9263, 3.853276315289341e-01, 5.425151805721450e-01, 3.089616730874728e-02, -4.796649926731853e-10, 6.549460679979873e-10, -2.367758633209514e-09, 5.341259264197770e+03, 5.906993120989761e+03, 3.742983880909054e+02, 1.217170088112842e+04, 4.623845700803775e+01, -7.976994717812396e+02, 6.741399007329434e+03
9264, 3.732542069760927e-01, 3.233167113968914e-01, 1.717400125355706e-02, -1.682651059202264e-09, 7.640388517592760e-10, -4.239390442603264e-09, 5.056585704043162e+03, 5.067672731773788e+03, 2.220070601476939e+00, 9.410473349484133e+03, 7.528003948050076e+02, -1.427591775488629e+02, 4.546368827533224e+03
9265, 7.246170722816063e-01, 6.718327709385289e-01, 3.111339009874153e-02, -6.012296624751152e-10, 2.179141307379833e-10, -7.293822582900461e-10, 2.094173888263105e+03, 1.993342453375572e+03, -4.636385367764297e+01, 3.710853127664532e+03, 7.144508341631687e+02, -2.023357315462765e+02, 2.108890437578196e+03
9266, 8.217285859883038e-01, 6.154990163261539e-01, 3.842565433105131e-03, -5.489246639990448e-10, 1.315204800445279e-10, -2.123268631898768e-10, 5.387784625750880e+02, 4.278926676439658e+02, -4.852975038462702e+01, 7.224495962450180e+02, 2.400592763043083e+02, -3.152122563766349e+01, 4.993283548503165e+02
9267, 4.493418892636922e-01, 6.287358077316395e-01, 3.351777328925377e-02, -8.039289838447961e-10, 2.777405933863151e-10, -2.340632834514532e-09, 5.672974467075635e+03, 5.828377149039372e+03, 3.473927851385122e+02, 1.226966887360822e+04, 8.015745900647494e+02, -2.373523413479535e+02, 6.706265890755514e+03
9268, 6.342049022844216e-01, 7.346094835602756e-01, 3.503312658106483e-02, -7.779899805715129e-10, 2.698206684022594e-10, -1.248460173708380e-09, 3.468080844344758e+03, 3.475514716903117e+03, -1.949383579488548e+01, 6.405217609190133e+03, 8.883223745139969e+02, -1.146997452394417e+02, 3.318576710614622e+03
9269, 4.894748117937170e-01, 2.713493498273056e-01, -1.275750869864387e-02, -1.413226053793763e-09, 1.107517485536124e-09, -4.324411537202909e-09, 3.928898216711069e+03, 3.738306704893374e+03, -4.536745968744096e+01, 5.926733567749224e+03, 7.508627708429926e+02, -1.265235232827788e+03, 3.302796024344795e+03
9270, 4.289914129641194e-01, 3.285359379225766e-01, -1.496881207268673e-02, -1.969825444621965e-09, 1.060572595811627e-09, -5.866028291358855e-09, 4.935092514937018e+03, 4.912514617522042e+03, -2.942918481257958e+02, 1.022313278733250e+04, 1.567624872758082e+03, -6.234741843660906e+02, 6.073022228769358e+03
9271, 4.808011066144860e-01, 2.980799663893970e-01, 4.707005566220025e-02, -7.862688358936765e-10, 3.252587261720895e-10, -1.247984713215995e-09, 3.614123713689192e+03, 3.449757200546592e+03, -3.809545803729014e+01, 6.238291293459767e+03, 8.485768452839953e+02, -2.989627028941574e+02, 3.126873036172292e+03
9272, 7.540994436453173e-01, 4.700899866554583e-01, -2.749161707898962e-04, -7.117911272773550e-10, 1.741506657134008e-10, -6.255150711531599e-10, 1.042010943370525e+03, 9.601764995097973e+02, -4.843104187357255e+01, 1.839166728609081e+03, 1.518342489998086e+02, 1.847925708534552e+01, 8.857827534349598e+02
9273, 4.006884017430685e-01, 5.151980337334017e-02, 5.494504151237147e-02, -3.863360539371446e-10, 6.859983297407867e-10, -8.945748668799992e-10, 2.710666451751814e+03, 2.720102198252455e+03, -1.756907943579099e+02, 4.702227444840652e+03, 4.799795370297386e+02, -8.413939741219060e+02, 2.618241136806888e+03
9274, 7.569497336894627e-01, 1.196870273461920e+00, -1.970143006929739e-03, -1.231905101894483e-09, 5.042966204617639e-10, -5.054098592885992e-09, 5.703945806896209e+03, 5.723296858162845e+03, -1.008215763421264e+02, 1.243499420642092e+04, 1.137076273427611e+03, -9.919920047048595e+02, 7.213778544910519e+03
9275, 6.320728444672226e-01, 1.175931562696711e+00, 3.226476034262959e-03, -1.015737061085809e-10, 2.745026507773008e-10, -1.119621817694579e-09, 1.741134596297346e+03, 2.312667429725535e+03, 5.159665697566561e+02, 4.178806750618638e+03, -4.974351248476399e+02, -5.354772231227965e+01, 2.534813075479537e+03
9276, 7.455118172373094e-01, 1.759190649550641e-01, 2.454946446128706e-03, -6.551388455078183e-10, 9.950796150365699e-11, -1.460022761132665e-10, 3.638088123768279e+02, 3.294416416576135e+02, 7.304563801427077e+00, 5.944987339808256e+02, 2.920401882104696e+02, -1.126942343605797e+01, 5.645622964143279e+02
9277, 3.005409968384682e-01, 4.995805075572739e-02, 3.827205247856875e-02, -6.504864891388723e-10, 1.247140812524685e-09, -2.115496013163865e-09, 3.533490483509994e+03, 3.956281982326522e+03, -2.534424009233936e+02, 6.047988000955835e+03, 4.027885995831157e+02, -1.147973912081374e+03, 3.173529528871526e+03
9278, 4.224049361134630e-01, 1.264425465307119e-01, 3.197077877720500e-02, -1.043706018935028e-09, 7.460195625942801e-10, -2.436574549913368e-09, 3.601172030464082e+03, 3.387624897213848e+03, -1.780401443739724e+02, 6.370281473972786e+03, 6.606869328185667e+02, -3.399877457963933e+02, 3.171166413491854e+03
9279, 4.192016273082703e-01, 2.879053150596687e-01, -1.585264202288656e-02, -1.437232076190132e-09, 1.251485640379010e-09, -5.739009965540351e-09, 4.555406968424941e+03, 4.164640568039088e+03, -1.087151049610072e+02, 5.791819242218012e+03, -9.873555560738961e+01, -1.283303690322651e+03, 2.677661330495368e+03
9280, 8.211929796992746e-01, 1.393886053741211e+00, 1.100852975658186e-04, -3.620590443823982e-10, 6.316086278916727e-10, -2.966926490107613e-09, 4.993151032659693e+03, 4.862091377200330e+03, 2.620839928381114e+02, 7.490976383222895e+03, -5.523388484868268e+02, 1.947527973934885e+02, 2.796204010775093e+03
9281, 6.512301957319350e-01, 6.698200471887682e-01, 3.812856967787720e-02, -6.497130520497201e-10, 3.209635310033489e-10, -8.119759358043771e-10, 2.914704926035341e+03, 2.725848658763800e+03, -5.768915114362598e+01, 4.957406671912855e+03, 8.485950317508066e+02, -4.738553393275778e+02, 2.727272535926233e+03
9282, 5.423149753757430e-01, 1.318447853160817e-01, 2.561876310776563e-02, -8.291605037754589e-10, 3.916991295817031e-10, -1.621580295938593e-09, 2.438410794517451e+03, 2.245895105421770e+03, -1.518816321228204e+02, 4.266386340036912e+03, 4.748160340058736e+02, -1.116549881357766e+02, 2.124482585351965e+03
9283, 8.929635038901920e-01, 1.473960208138438e+00, 1.534586436252117e-02, -7.869702022574688e-10, 6.193198470190803e-10, -1.220723941181313e-09, 3.643985422948837e+03, 3.842382368745908e+03, -2.631312865983688e+02, 7.098645663327979e+03, 6.002861489123188e+02, -8.033510393279325e+02, 3.809659822734410e+03
9284, 4.762610398969440e-01, 7.065262661564825e-01, -1.094256549946057e-02, -1.967216681022867e-09, 1.245788012640586e-09, -5.465638834360280e-09, 4.808888478302128e+03, 5.801798651677238e+03, 9.813269113235435e+01, 1.000791634946176e+04, 1.235312773229236e+03, -1.216538295305576e+03, 5.648041522749530e+03
9285, 8.071634337077683e-01, 1.296244306423613e+00, -7.543568005211609e-04, -7.151360761225584e-10, 8.772315701006885e-10, -3.585215358893162e-09, 4.570415843123772e+03, 4.779385634460478e+03, -6.042142667903760e+01, 8.867616969527471e+03, 8.855130464502874e+02, -1.756693333264017e+03, 5.406744619995437e+03
9286, 2.612491962720151e-01, 4.675257439862122e-02, 5.288594981924408e-02, -3.921202152533418e-10, 9.157899499690735e-10, -1.324253139984443e-09, 3.411000944014724e+03, 3.727306798541688e+03, -5.320665859514419e+01, 6.399468388531176e+03, 3.755263700170983e+02, -1.126697751580708e+03, 3.510785352498959e+03
9287, 2.153653722167179e-01, 3.110751588084099e-01, 1.840627255446217e-02, 1.991183420964545e-10, 1.000087554651816e-10, -1.869888030439281e-09, 4.479653368355383e+03, 5.080483655012312e+03, 2.520871014042686e+02, 9.261288513824869e+03, -1.082035870089712e+03, 4.784183020862304e+02, 4.974111105563565e+03
9288, 3.368258134966506e-01, 3.751149145307032e-01, 3.756769549699575e-02, -7.812874857908439e-10, 4.078748205737141e-10, -2.335393681621283e-09, 5.428692930124883e+03, 5.723654480131396e+03, 2.707322204580627e+02, 1.135135175243328e+04, 5.901808003298358e+02, -2.711575359370445e+02, 5.907904906120668e+03
9289, 9.590427712532180e-01, 1.006336025172591e+00, 8.357295944910291e-03, -3.397086935287270e-10, 9.567937079665902e-11, 1.274076120607314e-10, -3.355003322986870e+01, -1.939874570572057e+02, 8.135019146342998e+00, -4.525766862702102e+02, 2.455904273744557e+02, -7.116050002372963e+01, 5.748303281387289e+02
9290, 1.746636328614674e-01, 2.016143845525454e-02, 1.182288195276976e-02, -4.330224181490228e-11, 9.929134051736997e-10, -1.915381544558630e-09, 3.400156013503519e+03, 5.811882533940211e+03, -1.410391394196599e+02, 4.610510543347064e+03, -1.280097991751138e+02, -2.378909936038910e+03, 4.631286200667081e+03
9291, 6.836552421406989e-01, 2.736427441575968e-01, -2.834736400886020e-03, -7.308966912481997e-10, 1.933307117544078e-10, -8.152568264328696e-10, 1.054272429215925e+03, 8.357073224430657e+02, -8.455479019974874e+00, 1.529200507740902e+03, 1.768608195564350e+02, -3.004743211258734e+01, 6.883984095354036e+02
9292, 6.488174808661120e-01, 4.798196065297379e-01, -6.075037726276218e-03, -1.029011792492159e-09, 2.842516915312669e-10, -1.835167294096459e-09, 2.109215737287825e+03, 2.122037404349408e+03, -6.700934750545049e+01, 3.827535641260315e+03, 2.653517309306225e+02, 4.966161304095556e+02, 1.973662606944782e+03
9293, 8.298660768041477e-01, 1.436260930434195e+00, 1.376635462689006e-02, -5.405702668508168e-10, 5.011705936427139e-10, -2.413267357912026e-09, 5.969107492847981e+03, 6.312260616872045e+03, -1.397174623301405e+02, 1.239441489301838e+04, 7.627307303371979e+02, 2.050309303081175e+02, 6.413065990773806e+03
9294, 9.216066526561077e-01, 9.993379412376123e-01, 1.464287879504077e-02, -3.827903984095984e-10, 6.637189015110397e-11, -5.786059176962763e-11, 4.252560241951583e+02, 3.386135657965236e+02, -6.026782443546906e+01, 5.292734888975398e+02, 3.733915952626022e+02, -2.576708593912140e+01, 6.771197735976009e+02
9295, 7.321144787075592e-01, 1.367569172318919e+00, 4.415650455547992e-03, 3.932672639132760e-10, 1.724170471739472e-10, -1.208419974264155e-09, 2.957263179455776e+03, 3.549365066560643e+03, 2.606630623479964e+02, 6.086154232221723e+03, -7.760685410073182e+02, -7.903340178107729e+01, 3.212062147738824e+03
9296, 6.295390428416614e-01, 6.498004572634264e-01, -6.106138504684621e-03, -1.212238177523113e-09, 4.254857917767646e-10, -3.492294599699939e-09, 4.120035254043070e+03, 3.826833347078968e+03, -1.090811008322537e+02, 6.934148771905543e+03, 2.828840578910357e+02, 3.787854171548737e+01, 3.018339987739109e+03
9297, 3.374204246705482e-01, 6.123201137808634e-01, 2.877632666222596e-03, 5.850306195876799e-10, -1.819761640894991e-10, -8.853110267714812e-10, 2.524749391691131e+03, 2.427653220001494e+03, -1.593899376735927e+01, 4.665193686408924e+03, -1.238788645958291e+03, 5.146765187362320e+01, 3.067777572165131e+03
9298, 5.378719673712512e-01, 2.311838414681407e-01, -1.124340688872544e-02, -6.462491233557126e-10, 1.105703558720571e-09, -4.074307216063891e-09, 3.521410513583250e+03, 3.213915737377943e+03, 1.732389769446442e+01, 5.855140804284963e+03, -6.007501849600674e+02, -1.430525798756289e+03, 3.671685562490302e+03
9299, 5.403171342877904e-01, 7.495610879283338e-01, 3.450042038970208e-02, -7.075813422040051e-10, 4.586565885955766e-10, -1.662904429638421e-09, 4.652490746888247e+03, 4.904013367691119e+03, 1.198805367695872e+02, 9.199152424572354e+03, 7.631594849738993e+02, -5.799224739231774e+02, 4.731922361378156e+03
9300, 8.060638780925253e-01, 1.059073399707446e+00, 7.795321291255430e-04, -5.863935274775629e-10, 3.037656943507579e-10, -1.347692706075981e-09, 2.428840458684062e+03, 2.207053746405268e+03, -1.003469123320711e+02, 3.193443331781250e+03, -1.096189366122562e+02, 2.958894812741740e+02, 1.064093442483742e+03
9301, 8.403351020445302e-01, 8.027015066873893e-01, 2.116591981074491e-02, -4.143480213096173e-10, 1.628936049166484e-10, -2.607882036081222e-10, 1.079595082162328e+03, 9.011137132075309e+02, -5.575227558846596e+01, 1.547023487463421e+03, 5.059878649612133e+02, -1.875868693841390e+02, 1.103057016963639e+03
9302, 8.487344083552302e-01, 1.121176266904433e+00, 6.758609128114969e-04, -8.467894612578869e-10, 2.809288407263966e-10, -1.318458817482579e-09, 2.436169004878373e+03, 2.327423229321697e+03, -7.208974631550299e+01, 4.274858163110813e+03, 7.911984855936643e+02, 2.292093059672314e+01, 2.342585147948621e+03
9303, 3.642634653863312e-01, 1.360961824308433e-01, -1.736808594255983e-02, -1.324925056537912e-09, 8.030536217615019e-10, -5.916436348984058e-09, 3.968923801789161e+03, 3.384880895061385e+03, -1.358510742964810e+02, 5.640675390276478e+03, 7.483804483157822e+01, 2.090334965007529e+02, 2.077375242362092e+03
9304, 6.428804055279927e-01, 2.626619004120990e-01, 3.913374080642536e-02, -5.409928547227867e-10, 1.209294713540406e-10, -4.994236040443281e-10, 1.673799308623671e+03, 1.551896392771230e+03, -2.298419692882285e+01, 2.748277657683399e+03, 6.925769006840214e+02, -1.424038893734916e+02, 1.673844616562983e+03
9305, 7.853811135415610e-01, 4.533375184874144e-02, 1.840350024822662e-02, -3.015442655383194e-10, -3.339778666039831e-13, 1.190510059826537e-10, -1.465246253328092e+02, -1.912992847557984e+02, -1.044536382707773e+02, -5.784178789133283e+02, 3.035177284510071e+02, -8.848674256906921e+00, 6.917617353418418e+02
9306, 7.517450604935820e-01, 1.400644749389958e+00, 4.744822968709511e-03, 7.310915126109786e-11, 3.092547685958528e-10, -1.680002315473369e-09, 4.223489252475174e+03, 4.329850962434408e+03, -4.768159887687973e+01, 8.894228590463546e+03, 2.334310565489563e+01, -4.171330851480105e+02, 4.675551977312381e+03
9307, 4.038253167173962e-01, 2.289678716242745e-01, 5.158033430741674e-02, -7.858565492700513e-10, 4.182106741295778e-10, -1.454595768023644e-09, 4.111493775462711e+03, 4.142561510245565e+03, -3.986042987540042e+01, 7.775195699462222e+03, 1.027371120156947e+03, -4.678860890340520e+02, 4.139788287642972e+03
9308, 7.295994302905620e-01, 1.114242812839341e+00, 2.449899935233356e-02, -7.700579655993674e-10, 4.982158566087257e-10, -1.433192391351177e-09, 3.971191505511431e+03, 4.094642929298677e+03, 1.077000558513233e+02, 7.482372244515442e+03, 8.359947024792539e+02, -6.755957660406169e+02, 3.925674263826628e+03
9309, 7.626508503507475e-01, 1.379482401666935e-01, 2.435352640878252e-02, -4.076338117080609e-10, 6.204908931861156e-11, 1.808099985515887e-11, 2.329755317847517e+02, 1.185518513668620e+02, -3.018625484388766e+01, 1.320786528240675e+02, 4.642088418953456e+02, -6.465295017247676e+01, 8.206528834501169e+02
9310, 5.035280975526687e-01, 2.160188119059785e-02, -1.266030536132382e-02, -2.748126924001993e-10, 4.656567775373893e-10, -1.088830851606341e-09, 1.320816456370597e+03, 1.818835042463837e+03, -3.077307545488530e+02, 1.795163726034537e+03, 2.397135335107608e+02, -1.309082484001232e+03, 2.415443504589476e+03
9311, 7.191292391100537e-01, 2.212172957244707e-01, 2.900752926912090e-02, -4.956250519763723e-10, 7.686465349434625e-11, -1.653792576737728e-10, 8.180427369185810e+02, 6.921331681666085e+02, -2.376265453357075e+01, 1.048697136459005e+03, 5.609948835658687e+02, -8.233581864586176e+01, 1.031636369083839e+03
9312, 2.910528893112122e-01, 8.672079865742162e-02, 1.272210664148652e-02, -1.185911818954090e-09, 1.400968233832745e-09, -4.707314821739702e-09, 4.576760109220175e+03, 4.318573604675068e+03, -1.830298202905059e+02, 8.162045550049761e+03, 4.318249851878312e+02, -5.436053414456981e+02, 3.923396841986175e+03
9313, 7.284920264091431e-01, 1.099753884229653e+00, -3.143447389447593e-03, -1.221906451939629e-09, 9.622393353687666e-10, -2.486062507231536e-09, 4.283573814179344e+03, 4.131925580415004e+03, -6.224069521438481e+01, 7.497291311495989e+03, 8.175521794901786e+02, -4.595474759117114e+02, 3.672693831574971e+03
9314, 8.769279433248214e-01, 1.205729551372430e+00, 2.584590640940680e-03, -7.484815758820353e-10, 4.012448723578201e-10, -8.983455981072324e-10, 2.413403420085805e+03, 2.439240311449204e+03, -6.782483307870390e+01, 4.590088583976130e+03, 8.536407228748972e+02, -5.986993161117589e+02, 2.820924982710365e+03
9315, 4.427857410911050e-01, 5.349668397928584e-01, 1.991155941316734e-02, -1.443859580043912e-09, 1.063098186598138e-09, -4.247037655837057e-09, 5.450133115149467e+03, 5.466397485259735e+03, 2.533121471683147e+01, 1.161421757179858e+04, 8.526431442135553e+02, -5.820180047788799e+02, 6.410546594990557e+03
9316, 4.816573256537073e-01, 4.471325501752679e-01, -1.322096783733182e-02, -1.524015334974072e-09, 1.053507631394234e-09, -4.237154452436089e-09, 2.871443505869982e+03, 3.258106758316011e+03, -4.457061871907381e+02, 4.267489701776408e+03, 5.466390963944272e+02, -8.748057962544524e+01, 1.753287530805696e+03
9317, 4.916147097662469e-01, 4.605239091022919e-01, 1.786609939525355e-02, -1.311220615840373e-09, 8.016495215710820e-10, -2.934145067740057e-09, 4.497022595559454e+03, 4.149083819006985e+03, -6.294620846644388e+01, 6.884669937968441e+03, 4.785453028799848e+02, -2.826156580395749e+02, 2.755212268739358e+03
9318, 2.983304533627612e-01, 2.149945223091864e-01, 1.258037526220601e-02, -1.609128325757992e-09, 1.104471544065753e-09, -4.979688751073440e-09, 5.640861808025411e+03, 5.444496115184813e+03, 1.402659878844571e+02, 9.788903877691009e+03, 8.454304119492391e+02, -2.321655500166063e+02, 4.519328441952785e+03
9319, 4.048558154919870e-01, 5.060207837337484e-01, 1.069746542475327e-02, -1.235312485236086e-09, 1.066299409103266e-09, -4.436124268918970e-09, 4.682931746657731e+03, 5.288008613125017e+03, 3.570200046422468e+02, 1.038872577796309e+04, 1.378883148006053e+02, -7.097695694029155e+02, 5.605399852554222e+03
9320, 1.010380766064042e+00, 1.433321521089336e+00, 8.017871773866307e-03, -3.297164240421221e-10, 3.137462243765433e-10, -3.250054471983928e-10, 1.398721329463092e+03, 1.300918116548033e+03, -4.708184888642000e+01, 1.935694228933827e+03, 3.984102937460725e+02, -4.632210403715159e+02, 1.215313384580234e+03
9321, 1.714571597995524e-01, 9.437893726067803e-02, -1.724214400125186e-02, -1.061684702795220e-09, 3.364616582863786e-10, -1.076094822633150e-08, 7.455103860545145e+03, 6.851803900475486e+03, 6.092028973241861e+02, 1.614008134848133e+04, 8.112795815657172e+02, 3.444716467895765e+03, 1.094159833848574e+04
9322, 9.668672181183110e-01, 1.087875121050190e+00, 9.808039485810077e-03, -3.510479950586449e-10, 9.029854958187000e-11, 6.060669569039280e-11, 1.601206653176176e+02, 2.408199524158592e+01, -5.402387862291847e+01, -8.895324672955152e+01, 3.389154348413594e+02, -5.168699133851552e+01, 6.387660285264104e+02
9323, 8.149490653912612e-01, 4.114074116062923e-01, 1.936918852394173e-02, -4.367620222901942e-10, 8.147576890918688e-11, 1.056367094353431e-10, -1.165410689351492e+01, -1.485412148565073e+02, -3.171292351921207e+01, -3.897231253281585e+02, 4.996875069389072e+02, -7.695177672724368e+01, 9.379585058167485e+02
9324, 8.644176162140844e-01, 6.801090224769919e-01, 4.120444752657937e-03, -5.737218317410222e-10, 1.298949321801529e-10, 1.036506516769259e-10, 1.822554586559003e+02, 1.420092945324060e+02, -8.936331555548227e+01, 2.300410129122570e+02, 4.108019886766034e+02, -3.666112476791145e+01, 7.349086613943829e+02
9325, 5.511293930998944e-01, 2.058530390249857e-01, 4.663470936326219e-02, -6.054872896205885e-10, 2.592875693337394e-10, -8.327479555497592e-10, 2.677223903354432e+03, 2.566729087639147e+03, -7.059995663763281e+01, 4.567033615390155e+03, 8.060497913095367e+02, -3.267963995443270e+02, 2.465135604379686e+03
9326, 3.389886029681547e-01, 1.356881065618428e-01, 3.472744608241822e-02, -1.163274070320690e-09, 8.311036896373536e-10, -3.005368845704018e-09, 4.463717312656562e+03, 4.202802542210304e+03, -1.159374608815956e+02, 8.316545541513962e+03, 6.644392623705019e+02, -2.711995553351301e+02, 4.183662552418152e+03
9327, 3.323526645946663e-01, 5.046073823015910e-01, -7.720654475163489e-03, -1.730731711922328e-09, -4.778778772201175e-11, -5.708639317884551e-09, 6.480159661496614e+03, 5.204569542729566e+03, 5.419928987621539e+02, 1.125601728774918e+04, 2.506956428354887e+03, 2.968802197917613e+03, 8.758144951588423e+03
9328, 5.191378684504302e-01, 5.343537478712387e-01, -1.253920001632188e-02, -1.147319118304213e-09, 3.672686532844657e-10, -5.605893330178177e-09, 4.766510205001252e+03, 4.575860998694817e+03, -1.678492261898404e+02, 8.583647408337607e+03, -3.181694750123258e+02, 1.209778715512402e+03, 4.484810685117664e+03
9329, 8.337003042358356e-01, 1.083510944566164e+00, 2.171113581607005e-02, -4.457039269204931e-10, 2.946851849220383e-10, -6.792069560590207e-10, 2.474690313997298e+03, 2.140775494568644e+03, -2.181717021920325e+01, 3.795637084532269e+03, 4.996687954963114e+02, -3.273832016292180e+02, 1.835608112869739e+03
9330, 6.712661612967848e-01, 8.355854718071554e-01, 3.177318320114968e-02, -7.744545634029437e-10, 4.364760494628505e-10, -1.168173434176154e-09, 3.549795641889378e+03, 3.315529561606542e+03, -2.499737452643021e+01, 5.950623220479549e+03, 8.212831507086086e+02, -4.688015239375827e+02, 3.010980467956128e+03
9331, 1.007626898524313e+00, 1.589908075668846e+00, 6.885417211515775e-03, -5.901234622037525e-10, 8.966731113879237e-10, 2.980388994976638e-10, 1.134466397207512e+03, 2.578926892721780e+03, -2.232499779002701e+02, -1.402810513906943e+02, 6.337685685100029e+02, -6.126909610036429e+02, 2.834334067527052e+03
9332, 1.578324879027213e-01, 1.967913337702611e-01, 2.140074894459132e-02, 3.740132194125893e-10, 2.980644457078608e-11, -1.413896862175476e-09, 3.977200300177426e+03, 3.951512935572497e+03, 2.083914959695707e+02, 7.494607537273846e+03, -1.264527060219554e+03, 1.378415887743302e+02, 4.177024592947622e+03
9333, 3.818636710688671e-01, 2.176313597286137e-02, 5.645541422916298e-02, -2.044544043889603e-10, 4.369396992201380e-10, -5.058505175786588e-10, 2.020637582523757e+03, 2.741634887051599e+03, -2.109392920381415e+02, 2.935413253234865e+03, 2.017136829031531e+02, -8.369579437931078e+02, 1.747612094102662e+03
9334, 3.388895409863494e-01, 3.134546801718266e-01, 4.331926747551529e-02, -8.750176612515939e-10, 4.307617670914697e-10, -2.059352505684998e-09, 5.179481871252893e+03, 5.311663720031358e+03, 9.699063226183912e+01, 1.049022717616292e+04, 8.638931850105184e+02, -3.342621179949766e+02, 5.488337903784516e+03
9335, 4.303925177053108e-01, 3.377253096706541e-01, 4.912195328468245e-02, -8.221163367551402e-10, 3.498900796625824e-10, -1.410485802706045e-09, 4.313442406554212e+03, 4.286820951323699e+03, 1.355602964713422e+01, 7.953014802538329e+03, 1.061851285304744e+03, -3.757284016938932e+02, 4.141344937424773e+03
9336, 7.559570149556066e-01, 4.148121278122861e-01, 2.714387626523860e-02, -4.852270282898838e-10, 1.406324009875360e-10, -1.287073833916815e-10, 7.057539157139180e+02, 5.562757715560824e+02, -5.230882785818329e+01, 8.407089714875314e+02, 5.885245967692848e+02, -1.354643568482702e+02, 1.078458823179389e+03
9337, 8.396488979898135e-01, 7.138485265521404e-01, 2.485868385268413e-03, -5.565659253266839e-10, 2.283501388903567e-10, -1.937778651415713e-10, 5.643580640725233e+02, 5.559620014125624e+02, -3.988423357912509e+01, 8.336370678673221e+02, 2.050156001108847e+02, -2.782164171265924e+02, 6.617568500205477e+02
9338, 8.803804301378149e-01, 1.045559064681109e+00, 2.832436565597535e-03, -5.759401278550224e-10, 2.185578080164577e-10, -4.793648888831433e-10, 1.332747208910890e+03, 1.398106663903788e+03, -8.323190952008407e+01, 2.518208096499437e+03, 3.958577302838283e+02, -7.994414537760679e+00, 1.350256534509603e+03
9339, 5.468210409539688e-01, 3.193949164534370e-01, -1.061346526331899e-02, -9.334756188656598e-10, 3.326790201103101e-10, -4.475842731299150e-09, 3.933828527169784e+03, 3.571303887544635e+03, -1.226111865033792e+00, 6.724739974955766e+03, 2.031730323192722e+02, 3.261981962363068e+02, 3.061934541016889e+03
9340, 8.705305272872074e-01, 1.964690548234209e-01, 8.460931857028474e-03, -3.290591486166619e-10, 3.280785719814697e-11, 2.969876396557173e-10, -9.081612076976884e+02, -8.234754261346675e+02, -9.285029580136797e+00, -1.616553379396803e+03, 6.159552461892213e+01, -5.150983598910263e+01, 7.671912057173355e+02
9341, 2.584501205987118e-01, 6.896233874270691e-02, -3.311665042768502e-04, -1.055982858545292e-09, 1.157203803789847e-09, -5.697700626575574e-09, 4.934132921650323e+03, 4.974331065663309e+03, -3.524003176182145e+02, 9.528124125498269e+03, 8.138024298721733e+01, -3.782638480850029e+02, 4.662979514380281e+03
9342, 6.562070594994390e-01, 7.932193006722406e-01, -6.718645576464427e-03, -1.113551088757004e-09, 1.027051894519593e-09, -2.473345480207755e-09, 3.311441213153088e+03, 2.669827659490014e+03, -1.466895663754077e+02, 4.564299793441221e+03, -1.278492057187153e+02, -5.660259331941115e+02, 1.964667767431793e+03
9343, 8.050667744452470e-01, 6.637852592677141e-01, 2.496415844738674e-02, -4.551054038491847e-10, 1.352592512927027e-10, -1.941099545033968e-10, 1.092347071437463e+03, 9.434197570735005e+02, -3.833541368857788e+01, 1.366699669400670e+03, 6.195652506927739e+02, -1.492417025226241e+02, 1.166669900750781e+03
9344, 4.955121022129702e-01, 7.756281972899827e-02, -1.283530308386727e-02, -6.943869172954790e-10, 1.337435032667972e-10, -4.305426455754992e-09, 3.376118036781982e+03, 3.742048075210846e+03, -6.655799130945815e+01, 7.160726437109157e+03, 4.405908549043380e+02, 2.111885122524521e+02, 3.715066110515574e+03
9345, 4.918368668375658e-01, 5.570489229721023e-01, 1.349863546547929e-02, -1.688963880133933e-09, 7.572125009715834e-10, -3.747836798119690e-09, 5.305791493807554e+03, 5.011459775171550e+03, -1.394210728146770e+02, 8.903608252642674e+03, 9.732726526318465e+02, 3.778205496803307e+01, 4.122407586285681e+03
9346, 3.871696600922336e-01, 4.634271443429157e-02, -1.878073430219073e-02, 6.300494710933267e-11, 7.903925744317989e-10, -4.458515453628715e-09, 4.583303981381774e+03, 4.909109426287701e+03, -3.169151950156200e+02, 7.647783310043238e+03, -1.782237238603301e+03, -1.583776498024399e+03, 5.084704231930881e+03
9347, 6.546644997344584e-01, 1.028845166432668e-01, 3.679034271310110e-02, -4.358141520723636e-10, 1.428803995487427e-10, -4.144061233471755e-10, 1.320453395761432e+03, 1.183496332702719e+03, -7.048471752091136e+01, 2.244304293281129e+03, 6.156826537517419e+02, -1.514567609481803e+02, 1.489866689174969e+03
9348, 7.402610845820217e-01, 6.150829968469278e-01, -3.292487134868689e-03, -9.888971920535901e-10, 3.206490088073764e-10, -1.434866363591627e-09, 1.433982924512716e+03, 1.633054704253844e+03, -2.197471161468195e+01, 3.177837108977878e+03, 7.510906534488905e+02, 5.175845462000659e+01, 2.106039368073613e+03
9349, 8.991269206269272e-01, 1.334221745493453e+00, 2.203969769975490e-03, -4.652859496193577e-10, -6.811146731805545e-12, -1.422921453189674e-09, 3.235554707372190e+03, 3.193476238315090e+03, -2.397576159081241e+02, 5.500295040878617e+03, -4.907980512925291e+02, 9.020400842872436e+02, 2.926131310692173e+03
9350, 5.060014031073601e-01, 8.347461647543740e-01, -6.034855417126922e-03, -1.614704065500047e-09, 5.601624983831260e-10, -6.034838662304775e-09, 6.134470834401836e+03, 7.275796044208417e+03, 6.999184298034805e+01, 1.220856895331800e+04, 5.261315359240011e+02, 5.297247121802804e+02, 5.740360132293024e+03
9351, 6.787906592165199e-01, 7.064881367208931e-01, 3.432291706744300e-02, -7.086242426861443e-10, 2.464344843133974e-10, -9.246107632449006e-10, 2.896943365936830e+03, 2.616564734434950e+03, -3.323864258626852e+01, 4.899099626410662e+03, 8.694779409455784e+02, -2.349831166620215e+02, 2.661868702157643e+03
9352, 5.295345892175787e-01, 9.907823490147332e-01, 3.081743994258500e-03, -1.549114058258726e-10, -2.014073283669383e-10, -1.794007904316242e-09, 3.574246609602534e+03, 3.369738523222803e+03, 2.524113977884791e+02, 7.713465588663300e+03, 1.412651906427826e+02, 4.561014965841158e+02, 4.347016091015465e+03
9353, 6.088045670460793e-01, 5.948795359445916e-01, -7.902813872620092e-03, -1.317613758637368e-09, 5.631708130192644e-10, -2.768989190750133e-09, 2.699477165312380e+03, 2.631856213307223e+03, -2.164848902670592e+02, 3.071854440931547e+03, 5.997228946993539e+02, -2.149330712763688e+02, 1.235559138299947e+03
9354, 8.791915408165835e-01, 3.174350749910426e-01, 8.342515474495256e-03, -5.505270828221333e-10, 1.383235273868833e-10, 4.157235351254127e-10, -1.134979570784301e+03, -1.278337433754353e+03, 1.197638707053751e+02, -2.666843234589450e+03, 8.364484736485429e+02, -3.912934022460377e+01, 2.072224572130749e+03
9355, 6.476872208212061e-01, 3.573184477851267e-01, 2.325215309395169e-02, -8.151211698883253e-10, 3.212938416309567e-10, -9.681807109637356e-10, 1.769867566545476e+03, 1.834318064479905e+03, -2.700625194215447e+01, 3.084294867716282e+03, 4.620424532785233e+02, -2.232131140275504e+02, 1.561815445030726e+03
9356, 6.731530876928734e-01, 3.829300945981292e-01, 3.593804805691006e-02, -5.878365638337423e-10, 1.809569219303811e-10, -5.093234944247782e-10, 1.662911922220508e+03, 1.523332111794389e+03, -4.619592455554628e+01, 2.788425694419918e+03, 7.731694692665235e+02, -2.163824552456648e+02, 1.839457025758797e+03
9357, 3.026814124394274e-01, 2.839993307639899e-01, -1.580929416521843e-02, -1.409258576450501e-09, 1.943769602611819e-09, -9.793256418683814e-09, 7.614233475099507e+03, 7.725493423931635e+03, 4.807558943265701e+01, 1.424509482621327e+04, -5.836136943967695e+02, -1.826933374439864e+03, 7.367819013993047e+03
9358, 5.834610029285374e-01, 1.903083006068233e-01, 2.318819769551239e-02, -8.895769846386296e-10, 3.505391693912462e-10, -1.220227662506099e-09, 2.090529058784266e+03, 2.011753084916415e+03, -8.176113955064652e+01, 3.413244097343919e+03, 5.526222746026366e+02, -2.225303214965043e+02, 1.716032316578488e+03
9359, 5.596282570813544e-01, 1.045596136409048e+00, 3.300666091132720e-03, 3.920809628104664e-10, -1.878529350264212e-10, -6.002436977397309e-10, 1.682585420201334e+03, 1.509613775200830e+03, 4.107939636482991e+01, 2.662068173676443e+03, -5.517291360495600e+02, 6.826118332310671e+02, 1.864103755471751e+03
9360, 8.112904863780533e-01, 4.948537414061072e-01, 2.033462895227933e-03, -6.404128711309079e-10, 1.476424234026753e-10, 3.272782043073668e-11, 1.701930797424090e+02, 1.067959260081473e+02, -3.879034853394972e+01, 3.164220639571300e+01, 3.044440952160452e+02, -1.357162487699763e+02, 5.935159710434492e+02
9361, 8.054290235038802e-01, 5.473786381228909e-01, 2.370247541197020e-02, -4.901456759760423e-10, 1.261121227726619e-10, -4.858860883082506e-11, 4.656856973028410e+02, 3.827345102147230e+02, -4.845140282006419e+01, 4.602070627569813e+02, 5.254685393024560e+02, -1.494823160497708e+02, 9.533548745179263e+02
9362, 6.717551633633893e-01, 1.753707629063724e-01, 3.658180097822714e-02, -4.601521080507017e-10, 7.643551176108530e-11, -3.451499443694702e-10, 1.270895766285137e+03, 1.170994487437498e+03, -3.729453870973954e+01, 2.038099030409940e+03, 5.990006728286361e+02, -7.322558182897015e+01, 1.331123482147342e+03
9363, 9.045547018391272e-01, 1.375531147145266e+00, 2.147904663477791e-03, -9.953618358560701e-10, 4.711563694227925e-10, -2.119854852324193e-09, 3.698375695552462e+03, 3.875502555152745e+03, -2.340499793143054e+02, 7.024404144684783e+03, 1.621089000859624e+03, -7.496071716361130e+02, 4.498729793460986e+03
9364, 7.448456925978586e-01, 3.498268520566135e-01, 2.900716457722823e-04, -6.975928081366858e-10, 1.922491276601713e-10, -1.705111572003178e-10, 5.971794253161642e+02, 4.831181070059061e+02, -8.327374310724542e+01, 4.882747553098824e+02, 1.055043482149685e+02, -5.748200858253774e+01, 2.766911573124634e+02
9365, 4.455426085967664e-01, 4.715719320450460e-02, 2.250292966440284e-02, -4.631881330145599e-10, 8.677582439200247e-10, -1.782970771200398e-09, 2.501914739386252e+03, 2.614167165030828e+03, -2.679873915101168e+02, 3.931634540422536e+03, 7.219369812672521e+01, -7.040487913149948e+02, 1.901144765321426e+03
9366, 3.862585492682771e-01, 5.384272347280586e-01, -1.262792004599354e-02, -2.166450144645418e-09, 1.707932597755057e-09, -6.299722123014426e-09, 5.130245205434681e+03, 6.287660845552547e+03, -3.686443757317928e+02, 8.844970139960622e+03, 2.099017067810462e+03, -2.768237244237360e+03, 6.888689125408808e+03
9367, 1.003482759730682e+00, 1.359158762248412e+00, 8.428947521234204e-03, -3.203152643149157e-10, 1.099881364547234e-10, -5.950402145348025e-11, 7.679065002939408e+02, 5.953954103448798e+02, -1.236559893967607e+01, 7.786676312508374e+02, 3.619880204979975e+02, -1.312490153048617e+02, 6.906344254701017e+02
9368, 4.805005206632796e-01, 7.799536531318914e-01, -7.047942988286180e-03, -9.852544643680626e-10, 7.102301455356198e-10, -4.634445968123461e-09, 4.682500544040974e+03, 5.540418734703986e+03, 8.968452896353848e+02, 7.623443188165004e+03, -1.888777683447342e+02, 3.810290859413266e+02, 3.133312530462800e+03
9369, 9.207504099098205e-01, 1.413881002000978e+00, 3.246558495484187e-03, -7.367109891694954e-10, 1.022154618783231e-10, -1.495793370709081e-09, 2.965096091634835e+03, 2.904309842046413e+03, -7.246167556782422e+01, 4.956160844460790e+03, 7.406296038398395e+02, 5.439068433971806e+02, 2.576415310758325e+03
9370, 7.929778371972773e-01, 2.032555386623314e-01, 3.508375079053638e-03, -5.425672999598587e-10, 7.675533738931279e-11, 1.400098293291781e-10, -1.097982685613124e+02, -1.290483938417179e+02, -5.885315263214181e+01, -2.631655758212024e+02, 1.902533801544314e+02, 3.544267952392095e+00, 3.741090356988599e+02
9371, 7.142056755911789e-01, 1.047831354959253e+00, 2.760027458139288e-02, -9.364628148983800e-10, 2.915309309363527e-10, -1.315110232723764e-09, 4.208325827870979e+03, 4.000774994289070e+03, 1.555049245797750e+01, 7.253001931416319e+03, 1.113619084784567e+03, -4.553488378239443e+02, 3.779980228924153e+03
9372, 1.834939365922382e-01, 1.990993982443497e-01, 2.733048120931637e-02, 1.877225945228244e-10, 2.588112440721074e-10, -2.122199386182263e-09, 4.676146381003247e+03, 4.994523690780601e+03, 2.466700486585455e+02, 1.021457829531710e+04, -1.054338977672303e+03, -1.177362129522493e+01, 5.703518857715389e+03
9373, 8.854372395729286e-01, 3.389584621511240e-01, 9.599955200930602e-03, -2.337901241923198e-10, 1.031366165204508e-10, 4.441728918394624e-10, -6.508591580787745e+02, -1.181063529002616e+03, 2.848699719979877e+01, -2.059565892026301e+03, 1.539368035016179e+02, -9.672884427206202e+01, 1.272895291418318e+03
9374, 5.337279462410836e-01, 1.702689797787132e-01, 4.860663849112425e-02, -5.880794099145839e-10, 2.444375161122115e-10, -7.980849231131352e-10, 2.694146032680820e+03, 2.557310536404524e+03, -8.406132979987406e+01, 4.518145155641987e+03, 7.666486607897491e+02, -2.718257808078300e+02, 2.366728073292934e+03
9375, 8.674400480222452e-02, 5.196546313623576e-02, -1.060928528106973e-02, 1.116098997337794e-09, 8.254240628579174e-10, -2.770343722296698e-09, 3.196856168955463e+03, 3.268445297421647e+03, 2.149585988377315e+02, 9.866210039610000e+03, -3.006771395825190e+03, 1.461190632821826e+02, 8.445865819687189e+03
9376, 7.672607742080464e-01, 4.893832760489986e-01, -5.474734317115898e-05, -7.575610897981333e-10, 1.035560903012022e-10, -4.617091504044117e-10, 7.372207406760048e+02, 7.290055788555261e+02, -5.002650050890728e+01, 1.271944030407499e+03, 2.988183521365028e+02, 9.888319462500554e+01, 7.714325358301261e+02
9377, 7.804489789786169e-01, 7.368285254543449e-01, 2.622126504150992e-02, -5.197344203563568e-10, 2.188832185097651e-10, -4.719351764523505e-10, 1.537663867926224e+03, 1.423775169084854e+03, -9.401807866380796e+00, 2.531557068294649e+03, 6.428099738210186e+02, -3.095455367401897e+02, 1.625214453569662e+03
9378, 8.217339091517759e-01, 5.745330912451778e-01, 1.852362672425400e-03, -6.334972420359545e-10, 1.754716093687685e-10, -4.037503631014555e-11, 2.742238821925656e+02, 2.074267161530872e+02, 2.136463719972854e+01, 2.357807754367016e+02, 2.786297134918199e+02, -8.413634736398879e+01, 5.088040025351549e+02
9379, 3.437792201392993e-01, 1.624116499934744e-01, -1.885099634113593e-02, -1.455035367326331e-09, 1.098948050184658e-09, -6.385138590198706e-09, 4.035530124905665e+03, 4.659958398669243e+03, -2.640177861302866e+02, 5.626454844838145e+03, 1.886582557926290e+02, -2.868353583772450e+01, 1.498630701444617e+03
9380, 5.416471739963321e-01, 4.144524927297143e-01, 1.904031154072688e-02, -1.168698009986439e-09, 5.425681681156809e-10, -2.295227706691055e-09, 3.055619151377276e+03, 3.354973722719673e+03, -1.249911849268102e+02, 5.453997681535467e+03, 5.060901671537322e+02, -3.018398007145441e+02, 2.492476502031369e+03
9381, 4.491614842369556e-01, 3.011931712029136e-01, 4.994851007768697e-02, -8.026768166839384e-10, 3.323168016760003e-10, -1.269524048926789e-09, 3.999865989984238e+03, 3.846364559386173e+03, -2.416581283045116e+01, 7.012499471885274e+03, 9.997506495491491e+02, -3.746345564858208e+02, 3.603231317983532e+03
9382, 3.114469188606805e-01, 1.458735601874556e-01, -2.021702004198450e-02, -1.695899398903401e-09, 9.584707205122674e-10, -6.681443979273889e-09, 4.504827749070024e+03, 4.059785876826334e+03, -3.789684836981781e+02, 7.357022237587753e+03, 1.532310649907827e+03, 8.910189329886306e+01, 4.135337737609202e+03
9383, 9.910975917909512e-01, 1.243645238870122e+00, 7.864851066812626e-03, -3.335514508155813e-10, 5.640288879030054e-11, -1.444855881420675e-12, 4.302990395869775e+02, 3.206047710752509e+02, -1.342139398061803e+01, 5.812290522562795e+02, 3.247563379071605e+02, 6.155162501939259e+01, 6.161778190703112e+02
9384, 6.240020347683654e-01, 2.775480155969697e-01, 1.275880781003004e-02, -9.597762540555189e-10, 2.362562454979216e-10, -1.300936429139534e-09, 2.118146682198563e+03, 1.977362783663907e+03, -1.367577600073454e+01, 3.097359103096727e+03, 3.941467277743762e+02, -4.905750532543000e+01, 1.261098861911760e+03
9385, 7.992207448396165e-01, 8.839532775476603e-01, 1.068760696462195e-03, -8.621624647616068e-10, 2.860303299920557e-10, -1.027238141737850e-09, 1.576911353578589e+03, 1.632292277761679e+03, 5.732015057660364e+01, 2.906011097392183e+03, 4.353658469715744e+02, -6.960169711546850e+01, 1.512939738873657e+03
9386, 6.764484654489143e-01, 5.618155659391927e-01, -7.060238386519004e-03, -8.023372203680807e-10, 3.435967379177991e-10, -2.699722754322967e-09, 2.998028268409403e+03, 2.896804819550137e+03, -1.347132162077147e+02, 6.121304671233336e+03, -1.290216500715832e+02, 8.557869722293152e+01, 3.194934167545578e+03
9387, 3.384652337421084e-01, 2.733843976006452e-01, 4.634381826892827e-02, -7.891611704331903e-10, 4.947775962059353e-10, -1.945633689375038e-09, 5.097042351329113e+03, 5.123257629456516e+03, 3.931280407388740e+01, 1.012468902748508e+04, 7.874697401200983e+02, -5.089938028415801e+02, 5.271461232298685e+03
9388, 4.469965828182928e-01, 1.492255543463144e-01, 3.435249731992944e-02, -9.872346672110036e-10, 6.067377538233707e-10, -2.177042488351295e-09, 3.551056492932300e+03, 3.304363002911737e+03, -1.398974909653421e+02, 6.199308689327002e+03, 6.705464326201890e+02, -3.523637740160997e+02, 3.083422792460013e+03
9389, 8.709050252424362e-01, 1.511084722972728e-01, 8.593004725130454e-03, -3.527317705912686e-10, 1.494958479581210e-11, 1.919415697784803e-10, -7.870664494256991e+02, -8.578552425428036e+02, 4.363422571167492e+01, -1.338891816476800e+03, 2.762574725700587e+02, 9.162684972816324e+01, 7.282252991988074e+02
9390, 9.074821156970528e-01, 4.229872578667917e-01, 8.124159431840920e-03, -2.923298732961589e-10, 2.981053896368079e-12, 2.186745427941533e-10, -7.145025656407458e+02, -7.281036492749101e+02, -4.151365150872119e+01, -1.144041301227593e+03, 2.504336835823860e+02, -5.914087774037317e+01, 6.185955805218276e+02
9391, 9.036079099213919e-01, 1.222199227101409e+00, 1.755222904320936e-02, -3.964285477249453e-10, 2.101234386219487e-10, -5.103871961431642e-10, 1.980092385056133e+03, 1.753524221018807e+03, -5.150582629646808e+01, 3.023417722778495e+03, 5.799278546725915e+02, -2.084511493940271e+02, 1.588555427079611e+03
9392, 7.290384352059591e-01, 5.301267522071148e-01, 1.465524943392115e-02, -8.128243622263686e-10, 2.761897134109063e-10, -5.783358151576195e-10, 1.312810542274758e+03, 1.203069026508341e+03, -1.026566528174339e+02, 1.772280982936227e+03, 5.284427671866488e+02, -1.835364079288600e+02, 1.115350414675756e+03
9393, 3.927018442152316e-01, 3.421397064035892e-01, 4.629179898211569e-02, -8.533150130982361e-10, 3.789460041235529e-10, -1.718078403454565e-09, 4.785041833066557e+03, 4.871350419718191e+03, 6.104648065235389e+01, 9.168332684113633e+03, 1.009001835808748e+03, -4.083247719094946e+02, 4.733708240822104e+03
9394, 6.682552027716878e-01, 1.151493809548021e+00, 1.715113308454107e-02, 2.514217572028146e-10, 1.326533304291404e-10, -1.558772127492703e-09, 5.004039823751892e+03, 5.146697952207542e+03, 6.277013063469715e+02, 8.985046523534016e+03, -1.251623043939737e+03, -3.079666520027272e+02, 4.633258099732155e+03
9395, 5.849445337014992e-01, 9.452913745496927e-02, -9.235020290501272e-03, -1.508414157122951e-10, 2.630455664802472e-10, -2.602739330350335e-09, 2.556722185403722e+03, 2.251537405913544e+03, -1.848802104357499e+02, 3.907624022137328e+03, -1.041847793046173e+03, 1.140192356925235e+01, 2.385292594446267e+03
9396, 3.789172625392362e-01, 2.071172877183777e-01, 2.626678053911870e-02, -1.307342293392998e-09, 8.739186292568177e-10, -3.429277384254520e-09, 4.312046115588643e+03, 4.466553685750519e+03, -7.734277214996372e+01, 8.266128444308362e+03, 5.015216962136141e+02, -4.581413966239733e+02, 4.055847921844771e+03
9397, 8.643826935703890e-01, 1.443503492073543e+00, 1.681056535841382e-02, -9.660453427160344e-10, 4.598655584850440e-10, -1.460789517621925e-09, 4.825952822304834e+03, 5.278114140386659e+03, -1.282071362318472e+01, 8.227852590211425e+03, 1.349649937442244e+03, -3.904453036693571e+02, 4.020157333226259e+03
9398, 6.019951908428168e-01, 1.364412177586866e-01, 4.372437711060756e-02, -4.490664740233476e-10, 1.359553904323920e-10, -5.718435674269510e-10, 1.929713490415741e+03, 1.763150601286027e+03, -7.480236289307980e+01, 3.275282926783527e+03, 6.233312643789790e+02, -1.175509300741436e+02, 1.812812366570893e+03
9399, 5.288195630722533e-01, 3.893754913383352e-01, -1.260435988804608e-02, -1.385306392590251e-09, 1.066047416553249e-09, -4.645245574043270e-09, 3.894032519995503e+03, 3.944884485711602e+03, -5.475458042612789e+01, 7.463572295460082e+03, 2.889111045719761e+02, -7.410537244334017e+02, 3.803888399455813e+03
9400, 1.924072886127468e-01, 7.845626437038664e-02, -1.967148400925121e-02, -2.657994736804231e-09, 1.196640415159167e-09, -9.698737948108114e-09, 8.030331160029193e+03, 8.098161002736882e+03, -2.358514563870884e+02, 1.343019963307383e+04, 3.902170432604097e+03, -1.079865176033139e+03, 8.839848107490887e+03
9401, 6.595747409730265e-01, 9.264607938908385e-02, -5.147266458103397e-03, -5.534350214942635e-10, 1.988867249867542e-10, -9.466614456888018e-10, 9.624004357106538e+02, 8.063687157298742e+02, -8.149610674140895e+01, 1.154720282052211e+03, 2.416217084718834e+02, 1.315119659780613e+01, 5.356563035385774e+02
9402, 2.227973865796930e-01, 1.866725508618802e-01, -1.796227359750120e-02, -1.627453067437367e-09, 1.129308031195520e-09, -7.380908364134387e-09, 4.096707133276684e+03, 4.851416507534911e+03, 3.334095828348288e+02, 6.468801248663967e+03, 5.901115826700667e+02, -4.300778401133698e+00, 2.405080340905399e+03
9403, 4.485876516166346e-01, 7.494832779826401e-01, -7.497828952870177e-03, -1.015234850455619e-09, 1.055718179727214e-09, -8.206695848251765e-09, 6.583047206649893e+03, 7.723062402054899e+03, -5.182040597666664e+01, 1.750484346636254e+04, -8.735896306795422e+02, 4.762147689260088e+02, 1.054097379740536e+04
9404, 9.001576284850341e-01, 9.758317237140163e-01, 4.191199297861811e-03, -5.494954048967108e-10, 1.178582637953772e-10, -2.962939225816055e-10, 9.268494087854211e+02, 8.033455139107929e+02, -3.103038952782662e+01, 1.272814403285425e+03, 4.106654141459480e+02, 1.100269176476261e+01, 8.287720397115040e+02
9405, 3.966839982523440e-01, 6.401191510200290e-01, 2.049591846828391e-02, -1.322368444553032e-10, -2.852369584697963e-10, -2.694759262510062e-09, 5.150668933534758e+03, 5.832810875876939e+03, 3.031527356967445e+02, 1.398540983103973e+04, -8.856729294466189e+02, 9.439079238500718e+02, 8.820048633828563e+03
9406, 3.827818085398556e-01, 2.506321881033730e-01, -1.668074354772504e-02, -1.769851649648370e-09, 1.713751721565557e-09, -6.709986747451955e-09, 4.562383403967116e+03, 4.395034425383596e+03, -1.324586130748163e+02, 8.093562253555623e+03, 5.622820757175001e+02, -1.844338304419685e+03, 4.928898407970103e+03
9407, 8.064417803344519e-01, 5.855651375638274e-01, 2.274176020426842e-02, -4.587850217273046e-10, 1.563813454660101e-10, -9.271394830414077e-11, 5.697150072418924e+02, 4.496699919794280e+02, -2.231327164424057e+01, 6.177729814633644e+02, 5.334028337415682e+02, -1.698795382402132e+02, 9.818941199374171e+02
9408, 6.703408912696042e-01, 3.701868772372131e-01, -5.861846825365804e-03, -1.050035908002458e-09, 5.546990878325518e-10, -1.745330531393097e-09, 1.913261784491907e+03, 1.791500872801990e+03, -3.586605057017019e+01, 3.421131446590522e+03, 7.849680641643479e+02, -7.783688215388247e+02, 2.478316766540375e+03
9409, 8.161125257956653e-01, 9.447913224768998e-01, 2.528924373552797e-02, -5.221860603486611e-10, 1.862129970615565e-10, -5.287159491834010e-10, 1.898426699049765e+03, 1.583483285180831e+03, -1.043471117014172e+02, 3.020601364152383e+03, 7.699821068537296e+02, -2.426810951103151e+02, 1.923499802048358e+03
9410, 7.909282051454521e-01, 4.739154890739070e-01, 2.525998308073571e-02, -4.412441251419595e-10, 9.664604693834221e-11, -4.216994713083340e-11, 4.174858121839259e+02, 2.905231939126464e+02, -2.599329390517364e+01, 3.941069478280381e+02, 5.586352299164845e+02, -1.268633103732284e+02, 1.000113817901869e+03
9411, 7.937644779072204e-01, 5.278215010640599e-01, 2.459516806476615e-02, -4.600912106109438e-10, 1.187283799179660e-10, -6.414803420197369e-11, 5.849970667601356e+02, 4.584709666791445e+02, -5.092360186469507e+01, 5.930041068414313e+02, 5.310950641345348e+02, -1.241379100029555e+02, 9.577485418792197e+02
9412, 7.141338516751328e-01, 4.074188640555645e-01, 3.259762600313672e-02, -5.349533549912359e-10, 1.720786809754712e-10, -2.988169288922344e-10, 1.255752213154420e+03, 1.089562990756472e+03, -3.855954199429326e+01, 1.805492459247874e+03, 7.058635879322140e+02, -2.228313295747278e+02, 1.438522239417042e+03
9413, 2.219373459489906e-01, 2.015237927129251e-01, 1.106508026424834e-02, -9.851275292108269e-10, 9.197006729911454e-10, -5.306762572568848e-09, 5.709884570302244e+03, 6.342915197941653e+03, 2.056660536744018e+02, 1.236013249693875e+04, 6.489747323395180e+02, -4.495810988508264e+02, 6.512563575289344e+03
9414, 7.101665885281288e-01, 7.847695575765608e-01, 3.181054756277959e-02, -6.045104114377499e-10, 2.825713976299251e-10, -8.290334098416860e-10, 2.761622576278169e+03, 2.683582834660350e+03, 1.175760138170575e+01, 4.430989206065984e+03, 6.620522200488442e+02, -3.347023454794137e+02, 2.138827533105177e+03
9415, 6.561816455539590e-01, 6.859460258748191e-01, -7.372162766809666e-03, -7.424780486111015e-10, 4.357416771596096e-10, -2.973243664178670e-09, 3.737324455650550e+03, 3.308157934768887e+03, -2.223496541279664e+02, 5.380693617862353e+03, -5.021926028678597e+02, 9.171127116122403e+01, 2.126092270057237e+03
9416, 8.621646349924358e-01, 7.767203350461339e-01, 1.912494537383745e-02, -3.597738469071389e-10, 1.325866676440359e-10, -8.477000766717525e-11, 5.894726351963233e+02, 4.607886047552716e+02, -3.846440541940810e+01, 7.057934810246899e+02, 5.140529992027332e+02, -1.838460342529243e+02, 9.714148632189289e+02
9417, 7.944982768532056e-01, 1.142390526054478e+00, 2.434394257135806e-02, -7.590603018750958e-10, 3.188005578038491e-10, -1.112077640339089e-09, 4.024830970200993e+03, 3.473429238401725e+03, -2.282651183911340e+02, 6.214203689148804e+03, 1.117407300567036e+03, -3.468012035273016e+02, 3.250776218735134e+03
9418, 6.550912479673615e-01, 6.347508071545274e-01, 3.752333421815503e-02, -5.886040798083168e-10, 2.906651568999097e-10, -7.673439300927247e-10, 2.750410195938065e+03, 2.675107668252811e+03, -5.564460453151382e+01, 4.504999966610259e+03, 7.795870609681963e+02, -3.566893240166527e+02, 2.330368967210014e+03
9419, 2.411198358899337e-01, 1.253090856701854e-01, 1.777806431386062e-02, -1.096745324093818e-09, 1.060777811486771e-09, -5.158241472730586e-09, 5.158535948414476e+03, 4.997850325921961e+03, 2.555369431988870e+02, 1.132433857653060e+04, 4.646095257749194e+02, 9.848316705479832e+00, 6.314861213201029e+03
9420, 3.090987298980787e-01, 3.314131183576029e-01, 9.552702275243453e-03, -1.637248668257108e-09, 7.890259920436749e-10, -5.444499378195581e-09, 5.188302457030934e+03, 5.479005088890900e+03, 2.404521120832503e+02, 1.172703631413882e+04, 6.257726840715277e+02, -7.567959506120823e+01, 6.504162478543891e+03
9421, 8.361337473904314e-01, 1.395535991889649e+00, 1.672328572904683e-02, -7.766335528698415e-10, 5.886989420067454e-10, -1.933943824425404e-09, 5.392233491365478e+03, 5.590791659766153e+03, 1.191906476501093e+02, 1.153548242287135e+04, 4.967810527226039e+02, -6.342942606479542e+02, 6.208793894677500e+03
9422, 5.930204640782749e-01, 4.201936794912289e-01, -9.814326760781974e-03, -1.168101632541522e-09, 4.620612571764330e-10, -3.480543566420382e-09, 3.537283416169507e+03, 3.186878298226825e+03, -1.469894327289960e+02, 6.980186219502764e+03, 2.898488926174999e+02, -2.232137222639177e+02, 3.694469128552179e+03
9423, 3.344684121423728e-01, 9.999806336514437e-02, 2.563373750137831e-03, -1.231751877459014e-09, 1.083194550663648e-09, -5.448040651913034e-09, 4.381572804402363e+03, 3.895071692969613e+03, -4.806306076332068e+02, 8.269462525662853e+03, 4.097482894131957e+02, -1.985390183990524e+02, 4.307990719247520e+03
9424, 7.381746097505021e-01, 1.263008012849348e+00, 1.826802769577218e-02, -4.135647851909453e-10, 1.040912037642984e-10, -1.650424953449136e-09, 4.369545780049743e+03, 4.544860488435890e+03, 6.141538499524731e+02, 9.139539889575406e+03, 3.366769958209608e+02, -1.534454632784949e+02, 4.846604430831197e+03
9425, 2.959803376478449e-01, 2.264129937513727e-01, 4.580072498953074e-02, -7.361185568869738e-10, 4.955316898593040e-10, -1.923082815297120e-09, 5.108211973385363e+03, 5.367062322455932e+03, 1.765154288112882e+02, 1.022233267103064e+04, 6.771691082694890e+02, -4.635689143164432e+02, 5.197237496391101e+03
9426, 5.783164793496746e-01, 5.513562370164132e-01, 2.012623931049120e-02, -1.255618000947498e-09, 5.381729950751179e-10, -2.505325456359275e-09, 3.582010621832939e+03, 3.505545124944453e+03, -9.794277114075334e+01, 6.821336499929105e+03, 6.941692218478125e+02, -1.643690058838715e+02, 3.507451834992833e+03
9427, 1.627909179885826e-01, 9.394036731114927e-02, 3.743208803714344e-02, 6.738354958725037e-12, 5.096616218415814e-10, -2.205202443728875e-09, 4.968178114698242e+03, 5.032944403081472e+03, 2.630019268416236e+02, 1.129260332516012e+04, -6.170469436429330e+02, -2.150368621158203e+02, 6.409478352919849e+03
9428, 6.409148090410075e-01, 1.387080979278148e-01, 3.980803880919516e-02, -4.281945556499134e-10, 1.038644663797577e-10, -4.372750374382283e-10, 1.521912550430480e+03, 1.404254807726277e+03, -3.175734741765624e+01, 2.505719658753526e+03, 5.683521810745053e+02, -9.998810840227333e+01, 1.448987009063192e+03
9429, 8.304830378334740e-01, 8.679226465189955e-01, 2.370721814424532e-02, -4.423954303427150e-10, 1.814207040505272e-10, -3.586813655920630e-10, 1.328530866821867e+03, 1.247680025511602e+03, -8.392173364855715e+00, 2.149994957731085e+03, 6.128401973518480e+02, -2.453788811227717e+02, 1.433638437035424e+03
9430, 6.213003432041512e-01, 2.478542767756100e-01, 1.537682849637576e-02, -9.728367941139374e-10, 2.159665541832466e-10, -1.290757760108580e-09, 1.863580537405982e+03, 1.614237759314397e+03, -6.105197796860720e+01, 3.225729952620167e+03, 6.130030812045821e+02, -7.985049806910006e+01, 1.847943083697745e+03
9431, 6.008834463985331e-01, 6.809886918432921e-01, 3.873059050685271e-02, -7.409014170690272e-10, 3.776612808417481e-10, -1.180154778331013e-09, 3.670202842552937e+03, 3.600623548725240e+03, 6.549963062642225e+01, 6.612574368471323e+03, 9.868268584526144e+02, -5.186995095911291e+02, 3.550861797070420e+03
9432, 6.666850336316918e-01, 7.633375901453064e-01, -7.894833044098944e-03, -6.724013123186175e-10, 4.667385326665598e-10, -3.017014725985055e-09, 3.805016322908752e+03, 3.736315229015310e+03, 6.486530898122421e+00, 6.094689215952811e+03, -1.110063931738089e+03, -1.817645443041565e+02, 3.033247748113932e+03
9433, 3.169778807533394e-01, 2.643793594289550e-01, -1.836110216857165e-02, -1.455937068350222e-09, 1.792995143023335e-09, -6.628196573926900e-09, 4.942072165458707e+03, 5.288728885110825e+03, -3.173980646526028e+02, 8.221521036241043e+03, 6.927525266028573e+02, -1.453935074755005e+03, 4.221591782495244e+03
9434, 6.245814556764091e-01, 8.222249486693611e-01, -8.525175361343708e-03, -1.740005348318672e-09, 1.536789926036315e-09, -4.840977292713217e-09, 5.000280839459360e+03, 4.452316543397012e+03, -5.489029702564846e+01, 8.718658189216665e+03, 1.176308996569387e+03, -2.186423741106142e+03, 5.887752265446625e+03
9435, 8.708159129365926e-01, 2.329634477781716e-01, 9.378717639547382e-03, -3.738279379113430e-10, 6.792497678253555e-11, 2.622485100819709e-10, -6.408061734512713e+02, -7.986636241560080e+02, 6.901897530015449e+01, -1.229137929069096e+03, 2.037705516047182e+02, 8.987016242427789e+01, 6.642806534452885e+02
9436, 4.231384179328203e-01, 5.992216023486573e-01, -1.170542087280811e-02, -2.570831153732358e-09, 3.318968750934133e-10, -9.070107737386879e-09, 8.624420271858791e+03, 7.648084172378650e+03, -1.102578234062115e+02, 1.656526040603172e+04, 2.860726961029117e+03, 1.583649855027829e+03, 1.019189336131250e+04
9437, 7.560107005857676e-01, 3.469313734439233e-01, 2.799109765055010e-02, -4.400808407798096e-10, 9.856221092797714e-11, -7.069785781710537e-11, 5.881890442149218e+02, 4.410147437023387e+02, -5.018237375330423e+01, 5.774589619818915e+02, 5.176153461238083e+02, -1.268960429796935e+02, 9.379956213948326e+02
9438, 5.584597600214313e-01, 5.728110673174914e-01, -1.069001777906151e-02, -7.512743984915959e-10, 3.061170784972935e-10, -4.919361661797985e-09, 4.110236897814701e+03, 4.021102834650322e+03, -1.855038165718388e+02, 7.150228043795574e+03, -1.043854001398858e+03, 1.256729831726062e+03, 4.198892228687388e+03
9439, 1.016376264899558e+00, 1.489992663831706e+00, 7.126164827306092e-03, -3.372469179851615e-10, 1.886878476416350e-10, -2.799041460859035e-10, 1.110929139097232e+03, 1.314374613766587e+03, -1.262897601857763e+02, 1.747419599731530e+03, 5.429188687158788e+02, 2.100685430202741e+01, 1.118245470433558e+03
9440, 7.841531361870459e-01, 1.452942098349648e+00, 5.055416521432730e-03, -1.757803864264481e-10, -4.692813174849743e-11, -1.048777733881828e-09, 5.647673893124107e+03, 5.621733050039647e+03, -5.700821627847079e+01, 8.846716357119662e+03, -2.453132312849302e+02, 1.056285036594589e+03, 3.722234713511055e+03
9441, 7.772503341106273e-01, 1.978947445663918e-01, 2.378229548022410e-02, -3.880616179598111e-10, 4.388511064266880e-11, 3.933517464619601e-11, 5.721965557035345e+01, -2.194650640628721e+01, -2.853745460186010e+01, -1.594523135806556e+02, 4.511805479733854e+02, -5.276189170156369e+01, 8.108928452108923e+02
9442, 3.662427861674262e-01, 4.847148048390406e-01, 9.550593976313334e-03, -1.250455041509835e-09, 3.301137495958801e-10, -4.205350197132451e-09, 4.194296003667405e+03, 4.357454065608368e+03, 7.672844116049465e+02, 1.072096368754909e+04, 5.153311923622728e+02, 5.859746634910122e+02, 6.719531746771322e+03
9443, 4.477663119214051e-01, 4.974367645374381e-01, 4.017460069598724e-02, -9.066259737987822e-10, 5.800801787860408e-10, -1.801393482396870e-09, 4.667210962478256e+03, 4.948778466541524e+03, 4.874336234521488e+01, 8.958056186773541e+03, 1.007430756641495e+03, -6.181254828430990e+02, 4.634715276054767e+03
9444, 1.788128306740440e-01, 2.456377078995894e-01, 1.960177956343181e-02, 1.557682589261175e-10, 1.369660291379083e-10, -1.684743313848220e-09, 4.204663307790010e+03, 4.204531021181063e+03, 2.840915509145092e+02, 8.220417251125116e+03, -1.295267374927302e+03, 1.726006777187824e+02, 4.635888340845356e+03
9445, 7.507678904449203e-01, 1.192323066905515e+00, 2.328296907292151e-02, -8.229500985996745e-10, 2.680292003304312e-10, -1.932143257670085e-09, 4.839809408323484e+03, 4.849389268276132e+03, 2.952358609925940e+02, 1.050008506988671e+04, 1.140564228427082e+03, -2.464115487735996e+02, 6.027511639385539e+03
9446, 9.969973411620483e-01, 1.329058863913208e+00, 8.621838309883660e-03, -3.676845717715657e-10, 6.316283532655870e-11, -1.106766688250338e-10, 8.344391752967182e+02, 6.633350176830725e+02, -5.510121542557516e+01, 1.036731696013743e+03, 4.163562767254737e+02, 5.764703006676557e+01, 8.024634618450431e+02
9447, 6.631336800556864e-01, 4.236434821435672e-02, 3.517239103974455e-02, -2.549337166785849e-10, 1.669743801877483e-10, -2.628647234079123e-10, 9.064143130020394e+02, 8.848419455131568e+02, -1.108069939907278e+02, 1.483505162817954e+03, 3.364299174123060e+02, -2.301906398057446e+02, 9.387765770253862e+02
9448, 4.754703558789999e-01, 7.486344462397700e-01, 2.591469468010664e-02, -5.340887630086476e-10, 1.471806272282897e-10, -2.335516889118230e-09, 5.113649476034326e+03, 5.188537637725476e+03, 5.396917914503287e+02, 1.145462305773759e+04, 5.367700530325212e+02, 1.555728129910350e+02, 6.445887604120498e+03
9449, 6.469993344113322e-01, 5.268268413041802e-01, -5.549787544349736e-03, -1.142690952020770e-09, 4.128729621146853e-10, -1.702223396528480e-09, 2.198523221231872e+03, 1.943110548426635e+03, -7.164437448728691e-01, 3.323390830641287e+03, 5.554949323089614e+02, 3.033837019260276e+01, 1.595730197826319e+03
9450, 6.774872642448362e-01, 4.314171755978722e-01, -6.634931427069658e-03, -7.468142902670688e-10, 4.108241383300225e-10, -1.476280135989278e-09, 1.675733720483837e+03, 1.411591128171969e+03, 6.625044093848446e+01, 2.139222419862856e+03, -1.888652683711664e+02, -3.722088949164065e+02, 9.709872326738208e+02
9451, 7.300506124028130e-01, 1.050708911109252e+00, -2.538933546420572e-03, -1.486629511151516e-09, 1.003950683013694e-09, -2.514236754678316e-09, 3.540412510386440e+03, 3.273398593791429e+03, -5.388015067650470e+01, 5.440544186428461e+03, 1.145566932358749e+03, -7.861908434906226e+02, 3.160557948754879e+03
9452, 8.523487770164258e-01, 1.205744501900780e+00, 2.070936307550092e-02, -5.183480370342542e-10, 3.094218593387925e-10, -9.810877232811210e-10, 2.864656154774230e+03, 2.818853940777580e+03, -4.829463094036220e+01, 5.054971725864608e+03, 5.929859033914920e+02, -4.604466277365929e+02, 2.568623891552305e+03
9453, 8.972750813993752e-01, 4.675280507085769e-01, 9.553322418251299e-03, -3.332713861518143e-10, 3.952066204216364e-11, 2.318011503476035e-10, -5.575938722798098e+02, -6.343615840320559e+02, 6.573307346154368e+00, -1.214939754115354e+03, 3.588585611608306e+02, -1.147821941742894e+02, 9.019572234411155e+02
9454, 5.616062562180598e-01, 6.358197962577535e-01, 1.659819037988707e-02, -1.411316324388005e-09, 6.461403250317702e-10, -2.898883113710320e-09, 4.148730187439171e+03, 4.100037313716832e+03, 6.501892189099634e+00, 7.398891487300868e+03, 7.789996684424411e+02, -3.227121235775249e+02, 3.585701714175285e+03
9455, 1.018375140316258e+00, 1.460125554568601e+00, 7.338044309277644e-03, -2.892495709601918e-10, 3.025083336125285e-10, -5.547661147229542e-10, 1.673266442507344e+03, 1.553580518562459e+03, -1.905755806059406e+02, 3.040095819373748e+03, 4.096855437105110e+02, -3.449187188057930e+02, 1.736527615788100e+03
9456, 6.837874169233241e-01, 9.656385599477268e-01, -4.711607391925471e-03, -1.410099802724240e-09, 5.337295259925879e-10, -2.357429830190580e-09, 3.485036387495532e+03, 3.277111162125256e+03, -2.129420803774973e+02, 4.729923675217822e+03, 6.874765952025811e+02, 2.630141866388364e+02, 1.900856467779313e+03
9457, 4.554964444859602e-01, 3.545593481471231e-01, 4.836959070526745e-02, -8.012361340278978e-10, 3.403448673489704e-10, -1.326678004323355e-09, 4.139960104740137e+03, 4.029777595352289e+03, -2.746387391240776e+01, 7.421932407654305e+03, 1.056881252981036e+03, -4.042503440577581e+02, 3.871512635957528e+03
9458, 9.931320843786272e-01, 1.291915741417484e+00, 7.685273416420970e-03, -3.794828959637431e-10, 2.097251095614443e-10, -2.740222253505335e-10, 7.304239237159932e+02, 6.958746301056684e+02, -4.753982036548202e+01, 1.226553872957920e+03, 4.778438245660557e+02, -2.925113481576576e+02, 1.101341205758201e+03
9459, 5.192302300799203e-01, 1.518205630270543e-01, 4.898411706935010e-02, -5.692469375087234e-10, 2.606684654864789e-10, -8.870603059109660e-10, 2.745247412415542e+03, 2.626542565096222e+03, -9.447619204926498e+01, 4.793746969456933e+03, 7.687929664775937e+02, -2.921708044312660e+02, 2.551392672350309e+03
9460, 5.921335739345378e-01, 6.653061627217437e-01, 2.040667893399364e-02, -1.379636613092085e-09, 7.029565978295369e-10, -2.213860219397047e-09, 3.953079769946133e+03, 3.890783628696278e+03, 6.193275022415926e+01, 7.203806715809793e+03, 9.760679295378635e+02, -3.790236029048461e+02, 3.751562835846925e+03
9461, 9.188314738013238e-01, 5.495598465806554e-01, 8.379682894500546e-03, -3.091571443174154e-10, 1.509883613379046e-10, 2.140832675066721e-10, -5.055980098488086e+02, -8.966934968979588e+02, 4.348143213938927e+01, -1.130309595860689e+03, 3.196087700161543e+02, -2.600666541124685e+02, 9.021771222278278e+02
9462, 1.003320026309443e+00, 1.521190011770685e+00, 6.074755744916321e-03, -5.401786699240352e-10, 5.384931832677452e-10, -5.742037912598447e-10, 2.234319765971511e+03, 2.341489642136487e+03, -1.816707501341095e+02, 3.839892338014743e+03, 6.543115050063357e+02, -6.806647229295052e+02, 2.278283667362543e+03
9463, 5.876080050338478e-01, 3.104606235930134e-01, 1.220442136959626e-02, -1.068090459855252e-09, 2.905271068843780e-10, -1.634939055673306e-09, 2.326525554857434e+03, 2.253943811763536e+03, -8.970694935716782e+01, 3.813512191780854e+03, 4.668703791291799e+02, -1.427479109337152e+01, 1.732911602442682e+03
9464, 7.821561721112110e-01, 6.918566469643485e-01, 2.657814423886379e-02, -5.375003137466720e-10, 1.842322254854740e-10, -3.087529969899431e-10, 1.324865898817509e+03, 1.091245916376512e+03, -2.644478950790508e+01, 1.855121450842448e+03, 6.265974108441561e+02, -2.179941970874750e+02, 1.334976732306561e+03
9465, 5.489049213439082e-01, 1.296301690942802e-01, 4.865516429896360e-02, -4.607367097774948e-10, 2.104966180621924e-10, -7.081609239168762e-10, 2.413028378007713e+03, 2.235046285623660e+03, -8.848524959333513e+01, 4.195295251565123e+03, 6.507812888102368e+02, -2.389939197268221e+02, 2.234000106963860e+03
9466, 8.485234899728937e-01, 1.372289699846553e+00, 1.870482430729316e-02, -7.712157935773900e-10, 5.169013446706589e-10, -1.253274718983500e-09, 4.253356287833470e+03, 4.427299377338711e+03, -3.009430636576547e+02, 7.340761500695934e+03, 1.095854163684648e+03, -7.983624807652235e+02, 3.848614234303534e+03
9467, 4.646850409024657e-01, 2.629012140223598e-01, 5.081482398441167e-02, -6.825470478188983e-10, 2.960569139723759e-10, -1.113043967644274e-09, 3.687185122160757e+03, 3.491176342930850e+03, -4.375064908379449e+01, 6.296585664449762e+03, 9.109009718923636e+02, -3.566255959858233e+02, 3.199275791996546e+03
9468, 6.783121974390072e-01, 5.170576001394435e-01, -4.606596282318697e-03, -9.057433970455335e-10, 1.813201363003144e-10, -1.699735544903927e-09, 1.880008457397871e+03, 2.069218721708618e+03, -1.254493733773992e+02, 3.309196517091201e+03, 5.915265380157394e+01, 2.687170865327687e+02, 1.443017098494616e+03
9469, 1.305764503607976e-01, 5.043998608376648e-02, 3.463348367954255e-02, 3.299101106200570e-10, 8.153923872210515e-10, -1.663456307504411e-09, 3.796037065996503e+03, 3.755796222472201e+03, 3.671019628691872e+02, 7.964024139103954e+03, -7.410876122811477e+02, -1.015668311421074e+03, 4.763205783905451e+03
9470, 6.299152449745414e-01, 1.085327648172707e+00, 1.771229378441788e-02, 7.907543269184240e-11, 9.643711343484514e-11, -2.839883122164237e-09, 5.248953132438977e+03, 5.754927652637156e+03, 1.695162730724842e+01, 1.332451805580565e+04, -9.691384387471045e+02, 2.103693038293974e+02, 8.020975296341949e+03
9471, 9.485006545139942e-01, 9.044308929225119e-01, 8.244077325321050e-03, -3.519451473189116e-10, 1.251929375161402e-10, 5.170029267526871e-11, -1.710545232437921e+02, -3.036675119931566e+02, -2.811968902493017e+01, -5.847132874979561e+02, 3.330026885693921e+02, -1.960077285402438e+02, 7.642937029948843e+02
9472, 6.071980359950817e-01, 1.212805648270107e-01, 1.647523805320652e-02, -7.178012695881786e-10, 2.064623351234509e-10, -1.393559064696372e-09, 1.812017569306734e+03, 1.683651310735910e+03, -2.050645288302427e+02, 3.405255853857372e+03, 3.179289648676441e+02, 1.512850167096102e+02, 1.804842513129032e+03
9473, 5.386812873415351e-01, 4.366113711732709e-01, 1.489939030860858e-02, -1.268716079392417e-09, 6.541503590471150e-10, -2.796976244244045e-09, 3.294355208442054e+03, 3.423630545635894e+03, -2.004434356022783e+02, 6.353389054038623e+03, 7.000666608753356e+02, -4.950450806167721e+02, 3.362285553994367e+03
9474, 5.144058516377170e-01, 6.885268520096354e-01, 7.150103334523706e-03, -1.617371134048773e-09, 7.887639753879576e-10, -4.211760179231326e-09, 5.856051124057832e+03, 5.908855423232943e+03, -4.316540655943846e+01, 9.568558693569523e+03, 8.585252918471324e+02, -5.042484039538291e+02, 4.070509861573425e+03
9475, 6.892488410875213e-01, 3.996078387162472e-01, 3.615011192441081e-02, -5.379669631874450e-10, 1.592814340878270e-10, -4.237314922577367e-10, 1.535961760604854e+03, 1.411727829399605e+03, 1.147836797542410e+00, 2.462590461796898e+03, 7.915324187564753e+02, -2.179034341678836e+02, 1.735284970295688e+03
9476, 4.883565178149582e-01, 2.461281222951166e-01, 2.491409275414772e-02, -1.083761424612857e-09, 5.511284730467236e-10, -2.313319737650892e-09, 3.541412142335887e+03, 3.350139893002512e+03, -1.457396087737980e+02, 5.825826852478394e+03, 4.123926695976396e+02, -2.453164788781523e+02, 2.539004637301295e+03
9477, 6.525481154533583e-01, 3.057069880952692e-01, -4.510145032558737e-03, -9.164366231181844e-10, 1.955732297165941e-10, -1.157213782841561e-09, 1.172122836610385e+03, 1.344751253813474e+03, -1.055716606989927e+02, 1.840408489637673e+03, 1.812912974667008e+02, 1.373696200125921e+02, 7.414095748595645e+02
9478, 1.615078543303551e-01, 2.133747453262782e-01, -7.489052624930487e-03, -5.112181664197086e-10, 8.262732695663473e-10, -3.025269025511223e-09, 3.482238249590086e+03, 3.754254194947215e+03, -2.668358880182994e+01, 7.177328456972361e+03, -3.932479235752872e+02, -2.081298908441649e+02, 3.649463363782575e+03
9479, 7.758777052219792e-01, 7.729348492759736e-01, 2.642071309639174e-02, -5.122760149042721e-10, 1.782682107310426e-10, -5.337420295297195e-10, 1.758389924561809e+03, 1.583026274499924e+03, -8.338920556204739e+01, 2.803699518185965e+03, 6.305162926265997e+02, -1.777903150593337e+02, 1.617119573522824e+03
9480, 5.940879926355658e-01, 6.318273276675995e-02, -7.009685086908140e-03, -2.661896376901333e-10, 4.504510482893925e-10, -1.345384828114999e-09, 1.429336538213431e+03, 1.598269852730172e+03, -1.446842533285279e+02, 2.224704393296878e+03, -3.251270694466870e+02, -6.338938436491726e+02, 1.453331349014386e+03
9481, 8.740468612716024e-01, 1.507365277821034e+00, 1.649447994326640e-03, -1.182932225742432e-09, 1.320517911617566e-09, -2.313002612801492e-09, 4.504090912164341e+03, 5.204977390894010e+03, -1.579012153150897e+02, 6.900650912668424e+03, 1.192109953700982e+03, -6.822889217349266e+02, 3.207765034562845e+03
9482, 5.748395031754485e-01, 6.059399950007440e-01, 1.398467692382314e-02, -1.401424756747044e-09, 5.613760851246562e-10, -2.890002467723226e-09, 3.905540977566156e+03, 3.705608459453906e+03, -2.069506366281878e+02, 7.087332895624918e+03, 6.243426743696981e+02, -2.393730843650994e+02, 3.502814858879155e+03
9483, 2.927228586198325e-01, 4.607429293846955e-01, 1.937495693832451e-02, 2.789028819507236e-10, 5.425107157697835e-12, -2.137825846937070e-09, 4.962335937402773e+03, 5.455275517292912e+03, 1.678319696601682e+02, 1.022232444528376e+04, -1.340028723761579e+03, 2.309630615229002e+02, 5.563198492428869e+03
9484, 7.290736128995486e-01, 2.168767720631517e-02, 1.319011533079711e-03, -1.998604811372134e-10, 7.234337343558867e-11, -1.070980658893605e-10, 2.593176608170936e+02, 3.786369600479667e+02, -2.363237745301991e+02, 3.546624486851086e+02, 5.561283236515643e+01, -1.518269772056478e+02, 5.078687665988671e+02
9485, 8.003045395228309e-01, 1.002013502834546e+00, -5.021923773487168e-04, -1.039449682090632e-09, 3.666687309911700e-10, -1.284097768181819e-09, 2.303227339751797e+03, 2.091892580062346e+03, -3.952637173284788e+01, 3.668968233527827e+03, 9.284749726958783e+02, -2.292534587946053e+02, 2.224206569820383e+03
9486, 5.677210985910420e-01, 2.392611847336003e-01, -1.026616010721553e-02, -1.187255321156756e-09, 5.773394025728487e-10, -2.735526649926278e-09, 2.369938346088813e+03, 2.408098444082161e+03, -2.099456565146794e+02, 4.858253129241836e+03, 7.339747678116095e+02, -5.283271918517765e+02, 2.946860973568948e+03
9487, 3.913793179653628e-01, 1.139569224011946e-01, 7.777969425845823e-03, -1.310821725260908e-09, 9.109517657090240e-10, -4.156941598504293e-09, 3.469104472204911e+03, 3.786165257701718e+03, -2.014603614201927e+02, 6.580810742160230e+03, 7.033514601906595e+02, 5.869631179395969e+00, 3.225308580125309e+03
9488, 2.329307860161668e-01, 4.555181644253935e-02, -2.104051766676223e-02, -9.750905015758774e-10, 5.999121142524677e-10, -4.631834786161451e-09, 4.730674057493158e+03, 4.544221131050348e+03, -3.746678929822355e+02, 7.552450483560852e+03, 3.568975368030195e+00, -7.926404141645530e+02, 3.290792935790666e+03
9489, 8.053352036189957e-01, 7.342487033322996e-02, 1.809000377560841e-02, -2.864784902220091e-10, -2.110012404675349e-11, 2.069599999299944e-10, -2.767040151661951e+02, -3.873412998373178e+02, -3.284172624641941e+01, -1.026111342675672e+03, 2.550034353066986e+02, 8.495588629056311e+01, 8.431536397984869e+02
9490, 5.624762650440257e-01, 9.657336320920106e-01, -4.756617624113602e-03, -1.508651300885928e-10, 4.278439133892251e-10, -6.181774287532580e-09, 6.177195594612228e+03, 7.732202074829552e+03, 4.501837765361230e+02, 1.619375890068727e+04, -1.199902220521793e+03, -2.200972258119990e+02, 9.604498188271573e+03
9491, 7.422507707719648e-01, 1.958334005632595e-01, 2.843460594904578e-02, -4.273560502053948e-10, 4.657773587114409e-11, -4.297184257167578e-11, 5.097405298718436e+02, 3.722022646417472e+02, -1.978350877809362e+01, 5.357769754852625e+02, 5.066419984777541e+02, -2.833886609034007e+01, 8.926463230094478e+02
9492, 5.036376568509966e-01, 1.712456151152291e-01, -1.369091484281016e-02, -8.356433955037609e-10, 3.407851997806689e-10, -3.738781132442544e-09, 2.290556815162187e+03, 2.662428047208469e+03, -1.067976481126067e+02, 4.616862953910334e+03, 2.459729336910182e+01, 6.361056052436152e+02, 2.436149718507727e+03
9493, 5.947334536620185e-01, 2.373005527078583e-01, -7.516498957153166e-03, -9.451442212532000e-10, 2.716883383036118e-10, -2.498875255177355e-09, 2.232293217549106e+03, 2.067615082567873e+03, -1.775405327264929e+02, 4.169028597891556e+03, -8.041490654935851e+01, 1.554133502603606e+02, 2.069643040281094e+03
9494, 6.498788375386548e-01, 8.368975137179078e-01, -7.413977464308375e-03, -1.329752615544433e-09, 8.049771345104947e-10, -3.114986565975837e-09, 3.462634084732889e+03, 2.960170502286351e+03, -2.253746403076587e+02, 4.334583537995213e+03, 6.207204319374683e+02, -4.995382412945901e+02, 1.872903216834861e+03
9495, 1.676158739618197e-01, 1.997462885121190e-02, -2.095702602686747e-02, -3.172310617876334e-10, 7.524896721339461e-10, -1.889786428791584e-09, 2.171410492135533e+03, 4.024470140901354e+03, -4.205642410033440e+02, 3.088923661500762e+03, 1.796102463726889e+01, -2.906102142035440e+03, 5.333229177895876e+03
9496, 6.675180613306448e-01, 1.124109845814730e+00, -4.589489842982894e-03, -6.433749445632047e-10, -4.725312067610420e-11, -2.825275875534661e-09, 2.857205602269321e+03, 3.600244862231644e+03, 1.021347614613022e+03, 3.935174717858854e+03, 1.033254790497420e+03, 1.527276208588642e+03, 3.774012250900596e+03
9497, 6.707698321267461e-01, 6.265399673310684e-01, -7.000068261414506e-03, -6.854376081139988e-10, 6.550599984208963e-10, -2.666705341632203e-09, 3.255601649398324e+03, 2.839810076510122e+03, 2.845782975199011e+00, 5.464770899143461e+03, -2.747515513406649e+02, -5.724849172979521e+02, 2.679845489047378e+03
9498, 6.167005378066234e-01, 3.790346917663657e-01, 4.154265932097301e-02, -5.798829235465151e-10, 2.161536945856525e-10, -6.908225356214464e-10, 2.301545393150436e+03, 2.133717448584019e+03, -3.236456668866603e+01, 3.875306998807170e+03, 7.511084850521092e+02, -2.855070213891368e+02, 2.170066825745630e+03
9499, 6.848128925636839e-01, 4.697359237965166e-01, -5.189050923456510e-03, -8.684455421462162e-10, 1.434758170110586e-10, -1.424785612284921e-09, 1.698062900656913e+03, 1.667941519110422e+03, -1.721477998600838e+02, 2.689420613620322e+03, 2.611963446261911e+01, 4.851895070116424e+02, 1.345636039442139e+03
9500, 2.442436242570559e-01, 4.334247692775064e-01, 2.378281011905323e-03, 7.787332309940429e-11, -2.027582687047967e-10, -7.844867150247588e-10, 1.893876093843737e+03, 2.055139235005234e+03, 2.631947176074015e+02, 3.795746017053738e+03, -2.610724813328982e+02, 6.495920698896106e+02, 2.239333373809792e+03
9501, 2.604123812038868e-01, 3.353163777884173e-01, -1.220825301925561e-02, -2.634434964001940e-09, 1.190861415491813e-09, -8.735218701218421e-09, 7.620835839623818e+03, 7.526301359614629e+03, 1.334882370008073e+02, 1.488250030826472e+04, 2.207861000035777e+03, 5.841488233025750e+02, 8.314341991737141e+03
9502, 6.455623045964877e-01, 1.019511022719852e-01, 1.640570821216741e-02, -6.613593115160695e-10, 1.854811269349655e-10, -9.914336172290208e-10, 1.508396625616174e+03, 1.278073267708945e+03, -6.415443922089105e+01, 2.519435039914650e+03, 5.601141020592377e+02, -7.763472794494776e+00, 1.503936467960291e+03
9503, 2.890475118564575e-01, 4.703555060716200e-02, 8.705587304996326e-03, -9.200285660551805e-10, 1.442294663097122e-09, -3.493988766645262e-09, 3.738541604387785e+03, 4.109280132378659e+03, -3.714787266000092e+02, 6.770676428519248e+03, 4.540995621528517e+02, -1.356801985928648e+03, 3.842200268534984e+03
9504, 8.433349182216279e-01, 1.155314047696392e+00, 2.131333620907273e-02, -5.213146970956326e-10, 1.583023582478917e-10, -6.678009060108551e-10, 2.535289398549979e+03, 2.221865343930943e+03, -6.774682585280733e+01, 3.773700088266447e+03, 4.603283167706820e+02, -1.564053967645810e+02, 1.656172301841141e+03
9505, 6.286915944016217e-01, 2.080776812688044e-02, 3.880355168259265e-02, -1.530838847914700e-10, 1.548124829636441e-10, -2.177678773870280e-10, 7.597062169503757e+02, 1.011030511565287e+03, -1.615019362634470e+02, 1.163755162084316e+03, 1.741042289243912e+02, -3.279100087426312e+02, 7.852595305637631e+02
9506, 3.793124707551541e-01, 2.132778266716972e-01, -1.733114664066913e-02, -1.750946234700065e-09, 1.332813295312599e-09, -6.951857800731299e-09, 5.055823649910653e+03, 5.397004787502406e+03, -3.709324781235610e+02, 1.047987475445201e+04, 4.948688101270213e+02, -1.193778834261660e+03, 5.754036224269460e+03
9507, 5.463437996672342e-01, 7.043231333391079e-01, 3.627766308794275e-02, -7.913389121503168e-10, 3.258679187562697e-10, -1.525782983755509e-09, 4.455110076901867e+03, 4.495615562825294e+03, 8.038810154254423e+01, 8.135476547541261e+03, 8.575181460753270e+02, -2.613662677198187e+02, 3.978441761693469e+03
9508, 9.561502310736131e-01, 9.262964673043459e-01, 8.792986452322567e-03, -3.492759873049263e-10, 8.562574577034304e-11, 1.214561464569168e-10, -2.265527643127835e+02, -2.476096495188575e+02, -1.474554655363526e+01, -5.215792729855659e+02, 3.026691428792435e+02, -4.812856235245467e+01, 6.030745335644409e+02
9509, 8.836522428434402e-01, 1.187727434709696e+00, 1.980871232524957e-02, -4.303014405770512e-10, 1.647973583990284e-10, -5.287863921572394e-10, 2.217559744027317e+03, 2.037110247745890e+03, -1.390331111374434e+01, 3.234547356855059e+03, 5.458772180148223e+02, -2.494323547250629e+02, 1.526930235533425e+03
9510, 3.982724389582522e-01, 6.383997455594058e-01, -8.791836501148467e-03, -2.831472877673051e-10, 1.426514078981413e-09, -1.015450140443282e-08, 8.415026227512226e+03, 1.012744375752202e+04, 6.840415812723698e+01, 2.546568446630809e+04, -1.398707622458199e+03, -6.015593263856945e+02, 1.647508061899493e+04
9511, 4.970747730120487e-01, 6.501720723572324e-01, 7.175558272122467e-03, -1.730125423438483e-09, 7.364337636156871e-10, -4.601559229836181e-09, 5.610710102872344e+03, 5.158312887673881e+03, -6.786481170253734e+01, 1.039108152643805e+04, 5.334796923342918e+02, -3.279883456168669e+02, 5.139026037702215e+03
9512, 7.548382679587099e-01, 1.147968108747199e-01, 2.630681751353314e-02, -3.452146705200424e-10, 4.244451174720010e-11, -2.155120168449593e-12, 2.537797520381617e+02, 1.805331898621028e+02, -3.874671780720987e+01, 1.888120919392042e+02, 4.575841975351260e+02, -4.129647350305274e+01, 8.016216140236794e+02
9513, 5.800466362322970e-01, 4.686621492651369e-01, 1.651565031523765e-02, -1.286118885382156e-09, 4.811985635264601e-10, -1.990111452019946e-09, 2.982785932361054e+03, 2.983742935804512e+03, -2.963677765769109e+01, 4.846880453886032e+03, 6.403011584954386e+02, -1.997634502395903e+02, 2.196673257631974e+03
9514, 3.239505713312821e-01, 2.033489132915582e-01, 2.992409284284950e-02, -1.251826123536307e-09, 8.286030042092385e-10, -3.232270801223059e-09, 4.869953294932682e+03, 4.844187743383363e+03, 4.186678018685439e+01, 8.901078784691948e+03, 6.630625726258046e+02, -3.488547051182462e+02, 4.247801075002477e+03
9515, 9.438637066569175e-01, 7.189193255008700e-01, 8.276417111042648e-03, -2.858013791981162e-10, 7.245327868378629e-11, 2.207297755187574e-10, -5.279826208660222e+02, -5.934337503421254e+02, -3.331867238705532e+01, -1.030322231984567e+03, 2.944301915366180e+02, -4.962748130732094e+01, 7.032330452109280e+02
9516, 4.592680279312560e-01, 1.520137441580888e-01, -1.441028665794595e-02, -8.960579423233290e-10, 7.195075776865331e-10, -3.995742464875306e-09, 3.321503479603059e+03, 2.938838603908733e+03, -1.817359845053945e+02, 4.322833965624628e+03, -3.544456203072650e+02, -4.468036271264386e+02, 1.614666713717166e+03
9517, 8.228988197417811e-01, 1.332943226828887e+00, 1.958195189527102e-02, -7.289911691919124e-10, 4.628942171768310e-10, -1.331967880849737e-09, 4.173198886859454e+03, 4.725886049966384e+03, -4.151232503074466e+01, 7.478205904697751e+03, 1.017314799218863e+03, -2.913481216093206e+02, 3.573025152570213e+03
9518, 4.421051574037426e-01, 9.808973987120846e-02, 5.557508041622415e-02, -4.811468215269515e-10, 4.652627031019648e-10, -9.605371517979244e-10, 3.091033009732470e+03, 2.868360882246661e+03, -1.263762402772146e+02, 5.557246144755395e+03, 6.230907946330973e+02, -5.400359200057102e+02, 2.961165765607564e+03
9519, 5.311482771505437e-01, 1.709714849868129e-01, -1.219518536963358e-02, -1.084141167846064e-09, 3.916007061642931e-10, -2.809639086419706e-09, 2.388349249848409e+03, 2.285557233316599e+03, 4.499147168598434e+00, 3.708780266744813e+03, 5.129039676944586e+02, 3.963668987965888e+02, 1.774944043780942e+03
9520, 7.069444400353680e-01, 8.475166217909451e-01, 3.304848868703683e-02, -5.729385952333137e-10, 3.490190197451787e-10, -1.021962236361972e-09, 3.168124187623721e+03, 3.016280202568992e+03, -9.046569080290904e+01, 5.736517242647295e+03, 7.225275200196073e+02, -4.562262770376597e+02, 3.037237550855320e+03
9521, 7.872425044091315e-01, 5.566113303873943e-01, 2.398740122491420e-04, -6.194210196802617e-10, 2.649309838465825e-10, -3.090014133738209e-10, 6.502681977692051e+02, 5.893046153532143e+02, -2.588383789708808e+01, 9.315263651819836e+02, 1.242127896709835e+02, -2.477890016977201e+02, 5.765967041356338e+02
9522, 7.115623506926715e-01, 1.027367453566683e+00, -4.822380074668786e-03, -1.543235756435247e-09, 6.622957444928684e-10, -2.338661319840331e-09, 3.581650355616162e+03, 3.042186337590612e+03, -8.455470700536478e+01, 3.737231533046194e+03, 1.883433888320521e+02, -5.964471544062632e+02, 1.262645315359320e+03
9523, 2.697264320928289e-01, 3.066316327663728e-01, 3.500501903058233e-02, -4.613684553594162e-10, 3.817462487229264e-10, -2.335658460651003e-09, 5.386113402773858e+03, 5.833925921363045e+03, 2.415243943583559e+02, 1.204212664545264e+04, 3.319911383708053e+01, -2.292285432985521e+02, 6.469802786981305e+03
9524, 6.425867306396009e-01, 8.733392286759486e-01, 3.359243754270361e-02, -7.389062400864020e-10, 3.134198988656825e-10, -1.407866372960210e-09, 4.503434056526682e+03, 4.286873807717589e+03, 6.346277347812087e+01, 7.964434184194314e+03, 9.745366193482774e+02, -3.446562572055748e+02, 3.999068206339247e+03
9525, 8.168869225335649e-01, 1.243423282098165e+00, -1.037708695939516e-03, -7.964878937413505e-10, 3.403745295659192e-10, -3.474530902028667e-09, 4.606768738320363e+03, 4.435972076762671e+03, -1.637359088176638e+02, 9.315425467672056e+03, 4.944473319521994e+02, -7.510559985745940e+01, 4.882174508698506e+03
9526, 5.926952261801579e-01, 4.216543783474154e-01, 1.317122245908994e-02, -1.153179908693475e-09, 4.536044547582587e-10, -2.116583259876024e-09, 2.753670950215180e+03, 2.547938092241324e+03, -2.064107362276105e+02, 5.049624088855218e+03, 4.501656562649969e+02, -5.012420282410474e+01, 2.555265282143012e+03
9527, 6.650404161826403e-01, 2.007163367285369e-02, 2.301961246421398e-02, -2.273251221945749e-10, 1.612163116394843e-10, -2.655550477908994e-10, 7.489325297367257e+02, 9.869278747858652e+02, -2.448712711805708e+02, 9.847214812319202e+02, 1.549952777909522e+02, -3.169198445720747e+02, 7.806359788367442e+02
9528, 3.004907858569603e-01, 1.346120981738228e-01, 5.188493902266580e-02, -6.744112850590787e-10, 5.433535577822472e-10, -1.779850906508655e-09, 4.736629556436693e+03, 4.661358331957836e+03, -9.755885166209568e-01, 9.346708332965411e+03, 7.889899967330848e+02, -5.780956965166118e+02, 4.947282158987390e+03
9529, 6.525577002516297e-01, 7.663759354252963e-01, 3.445304141663385e-02, -7.860456689983776e-10, 2.990810683776348e-10, -1.126267463774606e-09, 3.367992294954360e+03, 3.311267712397287e+03, -4.941177235390174e+01, 5.883067176220502e+03, 9.264381977300974e+02, -3.204232420316810e+02, 3.059687376819025e+03
9530, 1.695087699476273e-01, 1.235613434276824e-01, 8.686423757123958e-03, -3.718530658533533e-10, 8.055123600658596e-10, -6.175027147761632e-09, 5.096240230675456e+03, 5.681797643810023e+03, 5.015761306748725e+02, 1.415343876156722e+04, -1.353773226415209e+02, -2.457857381542071e+02, 8.835335973258439e+03
9531, 7.267080740686773e-01, 7.847602926388823e-01, -3.399711630901243e-03, -1.063439432742547e-09, 6.616740108569801e-10, -2.362811129944093e-09, 2.688500848537230e+03, 2.632930511219891e+03, -2.492884576305216e+01, 4.720431749126177e+03, 3.110138663266098e+02, -6.497512920896534e+02, 2.409010123395305e+03
9532, 3.274431342348897e-01, 3.059050302017191e-01, -1.694329804284388e-02, -1.781539746845671e-09, 1.823075358865472e-09, -9.484362741483702e-09, 6.653451472428779e+03, 6.718655220304971e+03, -8.072270812509739e+02, 1.476957715530734e+04, 5.513643108022349e+02, -1.372337253227669e+03, 8.594377750474068e+03
9533, 4.961611546186764e-01, 4.010689326637904e-01, 4.784097933989216e-02, -7.337061781849104e-10, 2.953932522726700e-10, -1.106915578536908e-09, 3.778988597049827e+03, 3.708706499554576e+03, -6.809597308847706e+00, 6.541287361160770e+03, 9.161621178830945e+02, -2.850133515902114e+02, 3.254423176051346e+03
9534, 8.169218339754151e-01, 3.371298294149472e-01, 2.044709438332826e-02, -3.775366070712273e-10, 6.321275440000483e-11, 1.614628631477026e-10, -1.473552057457358e+02, -3.258299980890908e+02, -2.215803813251531e+01, -7.358325819998496e+02, 4.440799000262343e+02, -8.664851801962328e+01, 9.427344282181392e+02
9535, 6.731041215491085e-01, 2.442843769064726e-01, -5.355730778996971e-03, -8.587431991326336e-10, 3.747429666997034e-10, -1.220049934451948e-09, 1.476687112112872e+03, 1.337741057309385e+03, -3.262021271812496e+01, 2.732753329390111e+03, 3.532946711227174e+02, -3.755596304392128e+02, 1.603843044254825e+03
9536, 9.869928088453538e-01, 1.221690485893039e+00, 8.040577762678164e-03, -3.731588449745892e-10, 1.561241036287468e-10, -1.889370302689121e-10, 5.934273452476469e+02, 4.552889378935002e+02, 7.771906848256025e+00, 9.949306810434690e+02, 4.655239833773852e+02, -2.121302181440579e+02, 1.010478506872897e+03
9537, 5.364598932477075e-01, 7.929854045897592e-01, -1.008657454630476e-02, -7.889346413530384e-10, 1.407127558417983e-09, -7.247664048256308e-09, 6.681108218848125e+03, 6.766239180128900e+03, 1.607956777351588e+02, 1.349276929957103e+04, -1.510835990808944e+03, -6.489096137520507e+02, 7.349475062019624e+03
9538, 5.690727249129361e-01, 6.410495844019706e-01, 3.869643117915598e-02, -8.716114994338637e-10, 3.886705653700737e-10, -1.427131692312554e-09, 3.994766160053157e+03, 3.956473893856872e+03, 3.013338589007332e+01, 7.352056543565815e+03, 1.043570769985858e+03, -4.501629245237071e+02, 3.908862643855646e+03
9539, 4.572137056305944e-01, 4.509242849574426e-01, 4.325693596578207e-02, -8.730852337258966e-10, 4.410811073830772e-10, -1.584067342337430e-09, 4.447690096669581e+03, 4.461700645635251e+03, 3.852431071709638e+01, 8.235552952585187e+03, 9.843066038590116e+02, -4.254678494938204e+02, 4.212971728400056e+03
9540, 3.476645130207880e-01, 4.344636804668886e-02, 5.620772415993608e-02, -3.625971492320277e-10, 7.736486935869867e-10, -9.874354697349489e-10, 2.711829372709109e+03, 3.031775057153897e+03, -1.543812379287347e+02, 4.816961892268065e+03, 3.801819221463380e+02, -1.021435105924809e+03, 2.737795593097295e+03
9541, 5.984911662230926e-01, 9.010255388601507e-01, -9.007156942583944e-03, -1.721771527540062e-09, 1.343289578453721e-09, -4.918225324348534e-09, 5.436738221771846e+03, 5.036808133096887e+03, -2.382395513765272e+01, 8.925323929076138e+03, 7.145272758113770e+02, -1.564821486872938e+03, 4.754441501143529e+03
9542, 3.656049697890077e-01, 4.258649393285784e-02, -1.859666368876441e-02, -7.256949990502749e-10, 7.317799401210232e-10, -3.404247685328531e-09, 3.333466058695807e+03, 3.261604707066708e+03, -1.838901556899139e+02, 4.454106123493661e+03, 7.474028828824145e+02, -1.529124411861405e+03, 3.183311686810997e+03
9543, 8.869301139981739e-01, 2.692065322414314e-01, 8.780949655238660e-03, -4.933536852169283e-10, -1.045886891085762e-10, 7.814061366330402e-10, -1.674497411579035e+03, -1.781626804142097e+03, 4.079416129773365e+01, -3.647967080128707e+03, 5.470243727624561e+02, 1.651564846556429e+02, 2.163139410637001e+03
9544, 9.431869799108303e-01, 7.504823018345103e-01, 7.907653815638380e-03, -4.134896877130644e-10, 8.086582352791234e-11, 3.763338246695734e-10, -8.035234033741283e+02, -8.078891969943262e+02, -4.509511585747020e+01, -1.789199360748024e+03, 5.565616255111420e+02, -8.721466812287308e+01, 1.387614978190043e+03
9545, 5.189656920174810e-01, 2.771727096939960e-01, -1.200037120908095e-02, -6.642250189903431e-10, 3.516138847445577e-10, -3.773460661242937e-09, 2.987628633366407e+03, 2.575665287783920e+03, -3.871332274018592e+02, 4.604311225099367e+03, -9.746873907050381e+02, 4.811612863562104e+02, 2.728296511797977e+03
9546, 5.724030326720640e-01, 9.590034944481407e-01, 2.080446528758913e-02, -5.973743775204598e-10, -2.201029090185358e-11, -2.307427844787234e-09, 5.405889147861571e+03, 5.900525230708484e+03, 5.405477837072305e+02, 1.216752293346356e+04, 1.728217147989947e+02, 3.005699138332313e+02, 6.622462746571594e+03
9547, 2.948734115161579e-01, 1.833436136909462e-01, 4.777709216864001e-02, -7.957577311702463e-10, 4.654181935484040e-10, -1.958720432585179e-09, 4.946018211254664e+03, 5.102591010032111e+03, 1.046453804209400e+02, 9.923111836836477e+03, 8.471323474141632e+02, -3.907943576977887e+02, 5.163391406764674e+03
9548, 8.193909241608449e-01, 7.346942577524280e-01, -2.165247017887374e-04, -4.799306676208726e-10, 2.491166288359156e-10, -5.393710098386606e-10, 9.984523418753995e+02, 9.582011093206276e+02, -3.490680352237399e+01, 1.455981559659901e+03, -5.887719574377460e+01, -1.070986562042847e+02, 5.271002329813700e+02
9549, 6.185668220739197e-01, 9.377906094050386e-01, -5.952240174098997e-03, -1.391976913102524e-09, 1.484588419066369e-09, -4.561268942659574e-09, 4.780971837380940e+03, 5.596120060065766e+03, 2.450250870793098e+02, 9.469228283313878e+03, 8.837151042693529e+02, -1.929638118243998e+03, 5.702286388542917e+03
9550, 3.462278860230477e-01, 9.827895254859742e-02, -1.880901967236373e-02, -9.212859730326078e-10, 1.089126071718737e-09, -6.551103176704016e-09, 4.047803032611151e+03, 3.549886541140815e+03, -6.403805285724304e+02, 5.805422284877785e+03, 2.265379306000053e+02, 1.734789506713312e+02, 2.384700963422786e+03
9551, 9.779228122437212e-01, 1.138099037159082e+00, 8.910969621698874e-03, -3.372658826415550e-10, 7.284879110337052e-11, 6.937979853078528e-13, 2.028789184391099e+02, 8.194507466569972e+01, -1.195337736914426e+01, 1.630480680570845e+02, 3.337563368721388e+02, -8.758610211066959e+01, 6.074677737311174e+02
9552, 8.013221366701851e-01, 1.366126600785134e+00, 1.751166467590753e-02, -7.440241976669904e-10, 7.518359035655864e-10, -2.412626570489075e-09, 5.776397554160947e+03, 5.998593296305105e+03, -4.706260504777005e+01, 1.254873516310939e+04, 1.216772028329357e+03, -1.057140977391764e+03, 7.225650930382102e+03
9553, 6.260464933931543e-01, 4.400685283929195e-01, -7.255796845646856e-03, -1.053316747611956e-09, 2.849866878937626e-10, -1.799302370168447e-09, 1.821816213285344e+03, 1.603060094322085e+03, 7.985875997123429e+01, 1.949726190401596e+03, 3.480117367627855e+02, 1.224047648709088e+02, 7.208424535195369e+02
9554, 2.091389697424168e-01, 2.167382589648708e-01, -1.544261566017535e-02, -2.516836755004345e-09, 1.914615877830778e-09, -8.965077997412847e-09, 7.329161697771438e+03, 7.512858087568653e+03, 1.537635711895669e+02, 1.277554752701296e+04, 3.176952420061110e+03, -1.412281143066410e+03, 8.064118388079833e+03
9555, 5.140852169992578e-01, 4.830553597419698e-02, -1.258302543642592e-02, -3.566863226800608e-10, 4.869828412434271e-10, -2.928216227452333e-09, 2.747680657469915e+03, 2.447749865302179e+03, -2.663284527679624e+02, 4.681645103002257e+03, -2.614902013130545e+02, -1.017799484078199e+03, 2.817073610082888e+03
9556, 5.240846960423936e-01, 1.201688116152860e-01, 1.684581483848207e-02, -8.881934226712354e-10, 4.928208674163914e-10, -2.140984228763950e-09, 2.596005801109372e+03, 2.392173081905712e+03, -1.210754358818419e+02, 4.346473109477447e+03, 3.502920561422738e+02, 1.586730396363416e+01, 1.968586487239362e+03
9557, 5.357070180602181e-01, 5.635519964487260e-01, 1.417785174782172e-02, -1.327672737720526e-09, 6.731913152812863e-10, -3.059789235098085e-09, 4.441578721603980e+03, 4.142881139741754e+03, -6.922480646518029e+01, 7.078286094199535e+03, 4.089044763809530e+02, -3.445156258941730e+02, 2.949759653555188e+03
9558, 7.870874769385812e-02, 5.018788263328146e-02, 2.040077646617807e-02, 6.684391841544970e-10, 3.586851157576851e-10, -8.739653976721760e-10, 3.014828082243780e+03, 2.304566118057709e+03, 1.715642610689385e+02, 4.631108324612780e+03, -1.556821404631912e+03, -3.024412174624738e+02, 3.449436167565821e+03
9559, 2.264602241584017e-01, 2.079067399712325e-02, -2.085431714745292e-02, -6.094442456989808e-10, 9.996097775935394e-10, -2.185860635174512e-09, 2.937201238428715e+03, 3.832204936927461e+03, -4.893458920121389e+02, 4.700004026898991e+03, 8.410993778258978e+02, -3.089677283219708e+03, 5.814622095675417e+03
9560, 2.264343604044186e-01, 1.540499756708215e-01, 4.321646433529160e-02, -3.853759194076213e-10, 3.953572092312863e-10, -2.060740728624116e-09, 5.203686518768845e+03, 5.475761277713832e+03, 2.121915688383509e+02, 1.105267389236116e+04, 7.867333290492226e+01, -2.233688488808010e+02, 5.744270304807671e+03
9561, 9.009271202415807e-01, 3.636200183797972e-01, 7.906575425587209e-03, -1.500552915064139e-10, 6.612647364277909e-11, 5.441487008933080e-10, -1.076388143165186e+03, -1.210863458055134e+03, -8.645942678761132e+01, -2.551585789793309e+03, -2.589069676351446e+02, -9.866412614876989e+00, 1.489875910363592e+03
9562, 9.270985058376807e-01, 1.321173185129407e+00, 1.648898807087175e-02, -3.241603323551160e-10, 2.624020099622830e-10, -4.654636790038716e-10, 2.147910330246987e+03, 1.983164305838257e+03, -1.212650299650867e+02, 2.995359737777185e+03, 5.617146357121164e+02, -2.593059436165482e+02, 1.441294559498991e+03
9563, 8.784423787071388e-01, 1.113107936514546e+00, 2.032784293072924e-02, -4.501337856560578e-10, 5.777868234816972e-11, -5.466205817654452e-10, 1.814323641617748e+03, 1.736185882075447e+03, -7.594260453814104e+01, 3.346484128520056e+03, 7.012113542963781e+02, 6.894262922098235e-01, 1.991415629259052e+03
9564, 1.005337810448339e+00, 1.392199577174051e+00, 7.318282318449531e-03, -2.213344169418679e-10, 1.337997070310773e-10, -2.482683979294005e-10, 1.047095658735602e+03, 9.550484651739424e+02, -6.248798425689584e+01, 1.470437522055243e+03, 7.198569611573595e+01, -1.105981276058465e+02, 5.390865912562547e+02
9565, 5.428585412019246e-01, 2.977984895272384e-01, -1.177649334889723e-02, -1.088365917824377e-09, 5.514311672719183e-10, -3.356982693815031e-09, 2.799068907724733e+03, 3.043420842309837e+03, -1.124293674992924e+02, 4.480673254732447e+03, -2.631820571176829e+01, -7.017188640688728e+02, 1.998455627945622e+03
9566, 9.223674794003521e-01, 5.916146004244870e-01, 7.482001599178219e-03, -2.353070992735559e-10, 1.538657997055651e-10, 5.351342630872796e-10, -1.011965412079712e+03, -1.175826665323705e+03, 1.616133556551047e+01, -2.287024962556662e+03, -4.395653628850795e+00, -4.099793945144655e+02, 1.395989023978663e+03
9567, 3.671378085497576e-01, 7.723133018733157e-02, 5.564575305251626e-02, -5.130425461029522e-10, 7.089631530957553e-10, -1.227279181471309e-09, 3.422827909499114e+03, 3.275814261769571e+03, -1.027299144951998e+02, 6.532402599550814e+03, 6.452899291606014e+02, -8.642599986578728e+02, 3.697284314678276e+03
9568, 8.552560870881841e-01, 4.728600510250929e-01, 1.704934998792014e-02, -4.259940259408657e-10, 1.761480158163675e-11, 3.161644359429384e-10, -4.479433136088571e+02, -5.688546196474474e+02, -5.771922421503592e+00, -1.564388100164314e+03, 5.612460138984618e+02, -4.344642583724621e+00, 1.439175300464130e+03
9569, 4.370394946474446e-01, 4.417449496508283e-01, -1.617985566148372e-02, -2.302085580335763e-09, 5.535394899622510e-10, -6.414878860540378e-09, 6.020840884440401e+03, 5.461549445328394e+03, -2.652920842722199e+02, 1.009915928012609e+04, 1.376346958219928e+03, 5.941945915921264e+02, 5.116619056691687e+03
9570, 5.653757398213182e-01, 5.244727604775001e-01, -9.531504474896396e-03, -1.230370901199013e-09, 1.009530780553725e-09, -3.785132001690320e-09, 3.525882777903231e+03, 3.077328449924966e+03, 2.672925507271248e+02, 5.575592231184617e+03, -3.877822670667251e+02, -8.616596781797035e+02, 2.866138388209047e+03
9571, 8.588010705386609e-01, 1.334728712560172e+00, 2.031602872704116e-02, -6.490169793847458e-10, 2.669354834488895e-10, -9.724515080971833e-10, 3.002595739880736e+03, 2.710931431658692e+03, -8.282113991861681e+01, 5.650071430585704e+03, 8.827964876512938e+02, -6.982957316840855e+02, 3.418740629760293e+03
9572, 4.663706640382951e-01, 5.118906354050799e-02, 1.745489665139551e-02, -4.798625868936318e-10, 9.371490122713860e-10, -2.186617864861094e-09, 2.657185470538144e+03, 2.891507779220668e+03, -2.182021803645099e+02, 4.799487300031903e+03, -7.752774905204689e+01, -6.800282154665156e+02, 2.385489114222757e+03
9573, 9.511405103609308e-01, 8.062856851534452e-01, 8.361934719611636e-03, -2.449025133248641e-10, 6.416865252146309e-11, 2.883821105801932e-10, -4.717303248851750e+02, -5.901541756547261e+02, -1.372839790153739e+01, -1.183425917662055e+03, 2.255981497559618e+02, -7.481407503558404e+01, 7.786485165039652e+02
9574, 6.369226551580285e-01, 5.667316969191287e-01, 4.034605488818673e-02, -6.332319210836463e-10, 2.349443323703142e-10, -7.301005650829255e-10, 2.776372715958145e+03, 2.504710540481190e+03, -9.264185361149318e+00, 4.435057075826382e+03, 8.255807142501508e+02, -3.042164712578450e+02, 2.366069938031860e+03
9575, 6.682724366924910e-01, 1.317147722830139e-01, -4.877292382596852e-03, -7.056631661095871e-10, 1.356320385481819e-10, -1.282439478808508e-09, 1.354381671898680e+03, 1.269465108880606e+03, -1.095138613294143e+02, 2.536870454947206e+03, 3.902254613552233e+02, -7.453977090220023e+01, 1.419640641096286e+03
9576, 7.472439927157830e-01, 1.380062694231286e-01, 6.515290806591301e-05, -5.495774026532339e-10, 9.632818311776750e-11, -1.479041224832553e-10, 3.413663510515323e+02, 2.741178338056481e+02, -7.400538312884069e+01, 5.746445433097165e+02, 6.372593649557246e+01, -9.160777683981635e+01, 3.583546010108325e+02
9577, 4.069865150378260e-01, 3.584138459113136e-01, -1.569896012215568e-02, -1.782878715632035e-09, 1.079390069587599e-09, -5.812028210096320e-09, 3.880140896396454e+03, 4.208785711440768e+03, -2.646402873082985e+02, 4.794379575857463e+03, 2.078175198745024e+02, -4.230148392474832e+02, 1.232831070394986e+03
9578, 3.773155349685809e-01, 4.118822525286376e-01, -1.422916377792811e-02, -2.165756563819194e-09, 1.669319135187694e-09, -8.229897482405498e-09, 6.352818880661473e+03, 5.761354022936044e+03, -1.704428426862147e+02, 1.237857561473891e+04, 2.178115321323403e+03, -1.669381631334416e+03, 7.931192513458697e+03
9579, 3.251285555918973e-01, 5.271709941806033e-01, 1.748575048300477e-02, -1.145844246255739e-10, -1.353275510963091e-11, -1.726466217312357e-09, 4.584971185615278e+03, 4.865291877487359e+03, 5.943324862079099e+02, 8.530647312669780e+03, -4.658845498296717e+02, 7.526870823562394e+02, 4.236901841404218e+03
9580, 4.240251681630370e-01, 6.050375612000478e-01, 3.082120136457964e-02, -8.498827997683331e-10, 3.765226945273051e-10, -2.589766969287014e-09, 5.914450926055943e+03, 6.142427818126684e+03, 3.924325586392750e+02, 1.322589593505281e+04, 6.720414868046197e+02, -1.443068939076379e+02, 7.329513198793912e+03
9581, 2.635427893492019e-01, 9.747557067180387e-02, 2.634557349064933e-02, -1.109982594973522e-09, 1.340892824804195e-09, -4.029303083384793e-09, 4.792001186494759e+03, 4.530562180584804e+03, -1.301785969310554e+02, 9.720686979929245e+03, 6.912835657208150e+02, -6.255800755493299e+02, 5.320465610946934e+03
9582, 2.666461205553795e-01, 1.946615457320599e-02, 3.718671624931874e-03, -3.911477456824962e-10, 8.257263703295687e-10, -1.696712316958995e-09, 3.061587814511295e+03, 5.047761291333571e+03, -5.006441119394336e+02, 3.749993248538593e+03, 4.031573139709747e+01, -2.247608418989934e+03, 4.354714109750680e+03
9583, 7.330669534108453e-01, 1.165842360649419e+00, -4.384513050444037e-03, -9.735491756737220e-10, 7.556949731006574e-10, -3.390347574921280e-09, 4.057653624493852e+03, 4.590385498842978e+03, -1.831866553202938e+02, 6.871696438591853e+03, 6.148709623618856e+02, -3.095541976837627e+02, 2.868074661460494e+03
9584, 6.068944847907333e-01, 8.537849203975594e-01, -8.056661282565818e-03, -1.445103195316389e-09, 1.117893111868699e-09, -5.590379358409758e-09, 6.685531920221710e+03, 5.696478926732050e+03, -7.740338405347661e+01, 1.237650577106019e+04, 5.144719559631717e+02, -2.638798723138261e+02, 6.325741040458814e+03
9585, 5.621188614411673e-01, 3.906320398203507e-01, 4.566097825084381e-02, -6.392833547624215e-10, 2.373570520850100e-10, -8.975276109081778e-10, 2.954964459434131e+03, 2.870725823856069e+03, 2.963848482932669e+00, 5.160197217109412e+03, 8.302847618134597e+02, -2.839674316248774e+02, 2.714032180879598e+03
9586, 4.885436155202572e-01, 5.291032088285031e-01, -1.293026435583441e-02, -1.903365315074896e-09, 1.190112386194879e-09, -5.058842805017106e-09, 4.785836983406941e+03, 4.576831362037352e+03, -7.676861557945991e+02, 7.773367701889579e+03, 6.276127927679011e+02, -1.609037066077949e+03, 4.506678849462287e+03
9587, 8.414275289870059e-01, 6.724159972697079e-01, 2.542515895794281e-03, -5.176171626442699e-10, 2.233855022142175e-10, -1.490210716263403e-10, 3.856560556907499e+02, 3.098226513641218e+02, -1.012500380561916e+01, 5.769738698716359e+02, 2.176382836947101e+02, -2.505393256792323e+02, 6.225577629607760e+02
9588, 2.231920933753737e-01, 1.920736776241583e-01, 3.918546086602455e-02, -3.130351746023724e-10, 3.939267271219810e-10, -2.112856199020687e-09, 5.103080005159491e+03, 5.631026310092348e+03, 1.798233779089996e+02, 1.127352410126215e+04, -2.882153449764526e+01, -2.524932837177545e+02, 5.948630467841838e+03
9589, 7.228267147130863e-01, 2.121176972757485e-02, 2.979566534625282e-02, -1.498612103895188e-10, 7.276734865930438e-11, -6.738636613854162e-11, 3.370016307748681e+02, 3.948312734004938e+02, -1.550759170456633e+02, 4.370466451238025e+02, 1.729021341444990e+02, -1.130913869078286e+02, 4.558154829885087e+02
9590, 6.491656931694123e-01, 8.599440731323054e-01, -7.444255987276941e-03, -8.281821845202802e-10, 1.164232894807124e-09, -4.720479038967338e-09, 5.543277377719032e+03, 4.803436019980275e+03, -1.104611285128817e+02, 9.937232533413931e+03, -1.118583655814114e+03, -1.688012797816307e+03, 5.953443682255370e+03
9591, 5.512550481849191e-01, 6.955225352074024e-01, -1.067527529326365e-02, -8.035007873132521e-10, 9.231890921608142e-10, -4.483594954039984e-09, 5.111330570008547e+03, 4.486485361496213e+03, -1.240560451625516e+02, 8.891008178902319e+03, -1.960882961166366e+03, 7.147362888625752e+01, 5.351148373339386e+03
9592, 2.942239233753786e-01, 8.189307174103222e-02, 5.471788323370601e-02, -5.101231384882176e-10, 8.129566826969005e-10, -1.472826351036112e-09, 4.097960272181311e+03, 3.932944280551433e+03, -7.237607912217392e+01, 7.985744217327025e+03, 5.344108187664093e+02, -9.296717101922573e+02, 4.387369249436812e+03
9593, 4.042134580972538e-01, 2.283840555079914e-01, -1.630074593741208e-02, -1.793129249350825e-09, 6.325940606498355e-10, -6.550616232335554e-09, 4.891157336700484e+03, 4.422822506405619e+03, -3.124605467362356e+02, 7.525613922916970e+03, 1.232414239222488e+03, 1.096962602478984e+03, 4.105230444296541e+03
9594, 3.549700667978075e-01, 5.863540358730212e-01, 1.829537484400584e-02, 5.241687780695859e-10, -1.062589850187598e-10, -2.131460106133511e-09, 5.387211978750508e+03, 5.968650767307278e+03, 1.766715739620620e+02, 1.126778912446750e+04, -1.988434499562679e+03, 9.626230909934346e+02, 6.799650464412140e+03
9595, 4.512081233795460e-01, 6.636193208471395e-01, -1.151033517180168e-02, -1.756882431590793e-09, 2.231358787764369e-09, -7.826268262806526e-09, 7.069806004934753e+03, 7.023075069246366e+03, 8.365769272850102e+02, 1.275656178839520e+04, -6.153185606793363e+02, -2.769471124364068e+03, 7.671536164619778e+03
9596, 6.349415622729628e-01, 4.444383624744379e-01, 4.033761841843869e-02, -5.847930029537026e-10, 1.739105829818990e-10, -6.690568295417353e-10, 2.426461360146195e+03, 2.242527832664289e+03, -1.398056514861097e+01, 3.923180305650246e+03, 8.044508782898574e+02, -2.051822538221901e+02, 2.148861379163046e+03
9597, 2.092860664677910e-01, 9.203263839291395e-02, 4.583788743617818e-02, -4.076805754777888e-10, 7.640642603109275e-10, -2.043131228116246e-09, 4.753172244913084e+03, 4.620984820977947e+03, 1.660199872308690e+02, 1.040881413414158e+04, 1.728124246939306e+02, -7.602286205984132e+02, 5.887060930878541e+03
9598, 5.257847696001087e-01, 6.810269509062954e-01, -9.970357832364787e-03, -1.524494389826486e-09, 4.266532071350913e-10, -4.386844287625164e-09, 3.656566002010955e+03, 3.860827310061676e+03, 1.390384932278388e+02, 5.965951675688201e+03, 4.170388098110905e+02, 1.198374040791321e+03, 3.129109613395495e+03
9599, 6.161372227385843e-01, 4.780540414005421e-01, -9.246914984870114e-03, -1.203367222663650e-09, 4.404250931396573e-10, -2.090813064099237e-09, 2.285614940410319e+03, 1.924632717017972e+03, -5.227018275682920e+01, 3.233225912877781e+03, 5.332126761988814e+02, -2.601128686305381e+02, 1.560277327904799e+03
9600, 1.088732764657535e-01, 5.128653654466084e-02, 2.845713166502011e-02, 5.382841030415126e-10, 5.211786377050750e-10, -1.657054810123552e-09, 3.649491960779380e+03, 3.356482398168741e+03, 3.222676537248695e+02, 7.458853424977189e+03, -1.246427891775083e+03, -4.374634274653753e+02, 4.610825115568023e+03
9601, 7.787567589173189e-01, 4.557393410705685e-01, 2.668842231139955e-02, -4.576184113258245e-10, 1.096863920510783e-10, -6.963769530190028e-11, 5.789153330111997e+02, 4.210180168394293e+02, -4.408061577993477e+01, 6.030373635078909e+02, 5.794808829557238e+02, -1.419599756968040e+02, 1.050239842122329e+03
9602, 3.988733158894211e-01, 2.607990726801171e-01, 2.881010573850338e-03, -1.835271335273216e-09, 1.073091382379319e-09, -5.117304618038007e-09, 4.254664226742188e+03, 4.176755893450842e+03, -3.504296745769425e+02, 8.418136662288729e+03, 1.223053620153746e+03, -7.957588284712754e+02, 4.941722504468028e+03
9603, 6.818269701291855e-01, 3.203995749598049e-01, -5.603997670249414e-03, -8.874492248890636e-10, 3.579022992438054e-10, -1.089893357865923e-09, 1.221023235514416e+03, 1.209253329277076e+03, -5.477202482237722e+01, 1.974990142957329e+03, 3.755755400742264e+02, -4.733851758877184e+02, 1.296892518786670e+03
9604, 3.733469343437781e-01, 3.363790474309630e-01, -1.755077289864043e-02, -2.186672904088803e-09, 1.799283158222826e-09, -7.178722135013852e-09, 5.483799637720240e+03, 5.289196710326265e+03, 1.884406012495138e+02, 9.732621856801197e+03, 6.932037032973238e+02, -1.781612245028640e+03, 5.476106652432660e+03
9605, 9.814166461596165e-01, 1.446673644799863e+00, 5.375918561609556e-03, -3.993648446593920e-10, 2.915627914400251e-10, -4.233444676793657e-10, 1.591074192228215e+03, 1.610075700903440e+03, 6.568440062133398e+01, 2.323587834820644e+03, 3.484147134534336e+02, -3.453491886305620e+02, 1.121578519298739e+03
9606, 8.168748306455970e-01, 4.567650042330090e-01, 2.978548696430350e-03, -5.902321410440349e-10, 1.070532361566447e-10, 1.483579573758676e-10, 5.941701980223223e+01, -6.956745058965026e+01, -4.567313831477012e+01, -2.875516628611899e+02, 2.095208916137785e+02, -4.188945896466758e+01, 4.852731062515937e+02
9607, 3.793553165031587e-01, 7.004860462527350e-01, 2.509653609834265e-03, 2.030501103313215e-10, -1.003175844203469e-10, -8.362596809490158e-10, 1.960487382889018e+03, 2.298541149369039e+03, 1.256212924326328e+02, 3.409560601966483e+03, -8.292607930940011e+02, 1.137932457564426e+02, 1.968105207612072e+03
9608, 7.056546166020687e-01, 7.486162630259936e-01, -6.706482825323018e-03, -6.331887507445067e-10, 3.889642825691570e-10, -1.692983423664805e-09, 2.157844723049692e+03, 1.454055453896146e+03, -3.654369891547481e+02, 3.337001879536191e+03, -4.131564923336187e+02, 1.762273291375034e+02, 1.929120199379590e+03
9609, 8.941980375708114e-01, 7.358155829724057e-01, 4.556443544090226e-03, -4.626222862327860e-10, 1.550912723874231e-10, 1.353855082700860e-10, 1.729102746477043e+01, -1.455520015897924e+02, -1.152554064148947e+01, -2.432335044197989e+02, 2.764540173744508e+02, -1.440862856735188e+02, 5.864536115469507e+02
9610, 7.431905397042980e-01, 6.098605136034112e-01, 3.191740560435249e-02, -5.214797450092617e-10, 1.862247054997549e-10, -4.289445112501584e-10, 1.622545270379708e+03, 1.469565375829742e+03, -3.200510605062398e+01, 2.641271064004319e+03, 7.201970086559246e+02, -1.940496384683267e+02, 1.699746927061926e+03
9611, 7.826014190342234e-01, 3.607261376208772e-01, 2.960948625518569e-03, -6.219970849602260e-10, 1.225534896233860e-10, 5.205751064693541e-12, 2.216573270158217e+02, 1.599965105316117e+02, -2.170448108555166e+01, 1.971354143514638e+02, 2.334650944436892e+02, -2.100446074500145e+01, 4.112736387315935e+02
9612, 4.740138148555065e-01, 3.753386322384539e-01, -1.283277261583940e-02, -1.413589670980110e-09, 4.344350931111785e-10, -4.676594547239576e-09, 3.791276885597521e+03, 3.730668252419262e+03, -5.229310610724464e+01, 5.739299156287384e+03, -3.654161473141671e+02, 7.332951603892417e+02, 2.436901127762556e+03
9613, 9.523622023868676e-01, 1.359856844593941e+00, 4.804525256373503e-03, -6.380717451511556e-10, 2.681615084541202e-10, -1.465700149678581e-09, 2.568375231203438e+03, 2.720999642615373e+03, -3.728646471043008e+00, 5.230582772178740e+03, 6.426576877603668e+02, -1.530246320200211e+02, 2.830837928339848e+03
9614, 6.123185119684241e-01, 3.072644262900167e-01, -8.898224483696877e-03, -1.264438207723762e-09, 1.749392859665069e-10, -2.178196190154404e-09, 2.318919607339709e+03, 2.184659990232552e+03, -3.356581145642315e+01, 4.367698105379211e+03, 9.433201249439992e+02, 3.367169076218719e+02, 2.739281034980438e+03
9615, 6.881271598220858e-01, 9.078856256606657e-01, -6.192554219319375e-03, -1.366978597490369e-09, 3.144006027987320e-10, -2.777861537987664e-09, 3.514005886308623e+03, 3.240253451703820e+03, 1.697377512056989e+02, 5.629272331056897e+03, 8.742743835589271e+02, 6.660802942944739e+02, 2.973018760108169e+03
9616, 9.780033055098254e-01, 1.106714861927479e+00, 8.037312801222680e-03, -3.441130309552645e-10, 1.087061043446813e-10, 9.270087886420782e-11, 4.032225894577117e+01, -6.742514234288512e+01, -3.813633245502065e+01, -2.709430809716138e+02, 2.815423288943440e+02, -1.480940805475215e+02, 6.188008899054487e+02
9617, 5.093881754789449e-01, 1.836447968436018e-01, 5.078304189195763e-02, -6.047749193889552e-10, 2.642650459928652e-10, -8.990291275869420e-10, 2.932457199595894e+03, 2.846627381404490e+03, -2.607637812781056e+01, 5.160791416812808e+03, 8.256373936089662e+02, -3.126232514847699e+02, 2.739410302202947e+03
9618, 8.697560947102603e-01, 1.283875599170863e+00, 2.071575987498235e-02, -4.762158861565810e-10, 2.278755480415362e-10, -8.657649449797598e-10, 2.764410630905123e+03, 2.679738521153501e+03, -8.379604832822585e+00, 4.889612196865711e+03, 8.537335461262181e+02, -4.366381343212066e+02, 2.731729946402861e+03
9619, 3.673884485438402e-01, 1.690932616783721e-01, -1.984811134205781e-02, -6.958783339914987e-10, 9.542151669577772e-10, -7.316556521905391e-09, 5.445836847987620e+03, 5.271046098914512e+03, -3.076185919736794e+02, 9.292359120284780e+03, -2.376193935412464e+03, 7.923486816449795e+02, 5.882588856694899e+03
9620, 4.840478433429754e-01, 1.041826872899920e-01, 1.938923647239583e-02, -8.869811134202709e-10, 5.228410544973663e-10, -2.584831624239343e-09, 2.923894248541861e+03, 3.006908962434919e+03, -2.660747931126213e+02, 5.622084283946971e+03, 3.229977350399001e+02, 2.332675060607766e+02, 2.784195147852940e+03
9621, 9.064217107929998e-01, 1.294440759088133e+00, 1.666927141396851e-03, -3.241004421182057e-10, 5.326192756242099e-11, -8.270559669388721e-10, 2.135319860934941e+03, 2.224205074971800e+03, -1.344933893018781e+02, 3.466387805242366e+03, -1.426608289245862e+02, 3.233428887906849e+02, 1.445788303082575e+03
9622, 6.420707176703112e-01, 8.997037876164649e-01, 3.280831775390635e-02, -7.210729720160771e-10, 3.148389982935174e-10, -1.252428256535488e-09, 4.285466675255918e+03, 4.258207806039887e+03, -2.355747813189019e+01, 7.615312333247644e+03, 9.875128043642363e+02, -3.461191346911007e+02, 3.803417913689444e+03
9623, 8.323284350232851e-01, 5.228897994822901e-01, 2.435794762890917e-03, -6.335251043950251e-10, 1.340461488741361e-10, 1.611280563645856e-10, 5.283623221127947e+01, -1.493774948543234e+02, 2.329012921169015e+00, -2.494064584505967e+02, 3.564219833667381e+02, -3.767322840670055e+01, 6.756533094093211e+02
9624, 3.085006424685401e-01, 3.540094740985624e-01, 1.033992443445958e-02, -1.349522066058812e-09, 5.467821354488637e-10, -5.400169086743166e-09, 5.323015801499205e+03, 5.224025223419319e+03, 3.483133646509584e+02, 1.222341231528485e+04, 1.633682903939480e+02, -4.115240578077199e+02, 7.018577902058185e+03
9625, 9.340449053760638e-01, 1.569952975900581e+00, 9.362828434169922e-03, -8.050834994208352e-10, 1.444809625821928e-09, -1.286030017230794e-09, 4.924875130854153e+03, 4.980942987194817e+03, -1.756167375090112e+02, 6.449294178976084e+03, 7.171100472677415e+02, -1.298532794653798e+03, 2.989206008646729e+03
9626, 5.888875067343203e-01, 1.085678617516177e+00, 1.731336850175937e-04, 5.257181632999932e-11, 1.595207159470994e-10, -1.608912006394867e-09, 3.156680157474678e+03, 2.876636788034511e+03, 1.125109010055018e+02, 5.289492370092871e+03, -3.515353232956296e+02, -2.735508840852545e+02, 2.420287123282240e+03
9627, 6.787635810716519e-01, 4.304561636648163e-01, 3.726660716236903e-02, -5.232898998547228e-10, 1.347037185937016e-10, -4.862545138555792e-10, 1.708083013625291e+03, 1.586820888270799e+03, 1.258419049781993e+01, 2.859679068725652e+03, 7.063099934577316e+02, -1.618609398443392e+02, 1.748203752434949e+03
9628, 8.650518918241683e-01, 9.722076572088151e-01, 3.390473464268046e-03, -5.253915379320260e-10, 2.190287184858726e-10, -5.539945505989962e-10, 1.444290119995324e+03, 1.069369691962081e+03, -1.025008318434754e+02, 1.800291881353180e+03, 7.483985012048686e+00, -1.244864817282955e+02, 6.920642009781059e+02
9629, 6.992151743673487e-01, 1.208548190121248e+00, -2.775949355635510e-03, -3.290266973298501e-10, 1.381529818089363e-11, -7.345122509820065e-09, 8.503641948486673e+03, 8.753815306656166e+03, 6.598028473272573e+02, 1.787063861358854e+04, -7.458202180028379e+02, 9.957083239788234e+02, 9.560800604844098e+03
9630, 8.765484663624897e-01, 1.393056810880180e+00, 1.830425836593780e-02, -9.524485572083305e-10, 4.862700804324100e-10, -1.176121564075250e-09, 4.883755392968965e+03, 4.233941316032626e+03, -3.805963030779320e+02, 6.742843461667591e+03, 1.269732239560949e+03, -7.028312035196142e+02, 3.440881282357852e+03
9631, 4.212578809360646e-01, 6.889753659218703e-02, 2.023178084483969e-03, -9.611158045434721e-10, 8.519517838961606e-10, -3.379754699944659e-09, 3.554088750439853e+03, 3.302691461962381e+03, -4.685794144216379e+02, 5.379462582264504e+03, 6.805296556937050e+02, -5.613805030666576e+02, 2.616790075972385e+03
9632, 9.006713894089931e-01, 9.246398575767213e-01, 3.546986271434256e-03, -4.947745161622271e-10, 1.232745837135478e-10, -1.038992359267910e-10, 5.267381253811615e+02, 4.898549986447532e+02, -1.433234984671725e+01, 6.063272746342440e+02, 3.168423960615326e+02, -1.079471014091521e+02, 5.893823759544956e+02
9633, 1.116871759406779e-01, 8.561259671425113e-02, 2.536080848662632e-02, 4.891751211509613e-10, 1.962721297042599e-10, -1.459479506868557e-09, 4.038719690313641e+03, 3.385689935464569e+03, 1.681249400868732e+02, 7.533413311478075e+03, -1.478321205715571e+03, 3.503531867409241e+02, 4.683034390205616e+03
9634, 8.190293443295988e-01, 1.525296465859098e+00, 4.569445508027657e-03, 6.628999966565692e-11, 3.895299876237557e-10, -1.408323771675845e-09, 4.897251170067494e+03, 5.585629327007799e+03, 3.738216685221292e+02, 8.798172162849585e+03, -1.451190225518117e+03, -1.323311668834933e+02, 4.449197907508013e+03
9635, 6.032868032259988e-01, 5.572880366396219e-01, -8.345034520969664e-03, -1.532166605470409e-09, 6.112181082520372e-10, -4.164896782255409e-09, 4.269139080417346e+03, 3.696496879549120e+03, -2.224816830035298e+00, 7.999820223753612e+03, 1.053966144175266e+03, 5.041332800592365e+01, 4.440993087550620e+03
9636, 3.074736022551081e-01, 4.275680964530815e-01, 7.060615368148690e-03, -3.679136457869527e-10, 2.345359275605419e-10, -4.658133167170919e-09, 5.161790729327612e+03, 6.096140285712620e+03, 1.619871528508365e+03, 1.279413177161165e+04, -8.469216445961665e+01, 1.126502941402140e+02, 7.741182356287785e+03
9637, 4.399726497300518e-01, 2.380507930556520e-01, -1.570785479947455e-02, -1.458923409379291e-09, 1.107143706787710e-09, -5.088800773656864e-09, 4.150023025854851e+03, 4.082184824423204e+03, -4.895257649640698e+01, 7.892440639290113e+03, 4.142493623815093e+02, -1.296932308269083e+03, 4.453343395524245e+03
9638, 4.407852401541238e-01, 1.013689107350217e-01, -1.463112368613492e-02, -9.535226804574040e-10, 1.057681541090723e-09, -4.181065388854127e-09, 3.060658901268866e+03, 2.954577830228837e+03, -1.954909233465330e+02, 4.684325670634184e+03, 3.155602775194336e+02, -1.128690668464537e+03, 2.656125020832871e+03
9639, 2.684051239317900e-01, 2.520893075219564e-01, 4.148028379843421e-02, -6.065848644933320e-10, 4.512787755050325e-10, -1.978533383295873e-09, 5.332863092997255e+03, 5.630502190856073e+03, 2.221791454761559e+02, 1.103068331515517e+04, 4.628395672680931e+02, -3.670989201733592e+02, 5.661526932784012e+03
9640, 5.896495427580647e-01, 1.663794917172346e-01, -8.240968716035160e-03, -6.413921839220183e-10, 2.716319623705656e-10, -2.118936218259547e-09, 2.058535256353957e+03, 2.039022750415701e+03, -7.015703284895054e+01, 3.061695738641087e+03, -5.848106836108635e+02, 2.925314303272440e+02, 1.524397065707233e+03
9641, 8.653040301231509e-01, 6.724434749210104e-02, 8.317123786081950e-03, -3.755889822929138e-10, -1.450695681838729e-10, 3.010976565693013e-10, -9.376796573011097e+02, -7.697544349697152e+02, 7.757822410386476e+01, -1.828743598564440e+03, 3.083260707754570e+02, 1.679593179306192e+02, 1.166064739166270e+03
9642, 6.132124730330460e-01, 7.819399182608431e-01, 3.486173740967684e-02, -9.047222461843818e-10, 4.490946016925495e-10, -1.292947850275974e-09, 3.951835833420369e+03, 4.006047067711623e+03, -8.712832983538249e+01, 7.061334080041496e+03, 1.138172619044385e+03, -5.665873472420302e+02, 3.791503250909655e+03
9643, 7.059659340983830e-01, 5.479130364517628e-01, 3.522352341531031e-02, -5.354332345952755e-10, 1.982921908465560e-10, -5.381992818387735e-10, 1.853657322494583e+03, 1.706017530085596e+03, -3.826283631469196e+01, 3.168654925484033e+03, 8.048454556358823e+02, -2.749217747940226e+02, 2.029686892198809e+03
9644, 4.409501523136024e-01, 3.531776421839527e-01, 5.876706589027643e-03, -1.742455554760199e-09, 8.095918109885859e-10, -4.064844230059736e-09, 4.106680167757236e+03, 4.017121454708983e+03, -2.649501581509404e+02, 7.253544868667206e+03, 6.312746573126647e+02, -4.424122555719472e+02, 3.490832567041220e+03
9645, 7.201377029291433e-01, 4.789844016351111e-01, 3.142048150666059e-02, -5.823292399949939e-10, 1.626976764130578e-10, -3.753633616560969e-10, 1.396335327727038e+03, 1.280631368332109e+03, -4.477489993878567e+01, 2.147632331778695e+03, 7.022223063691048e+02, -1.980313299216430e+02, 1.505913255516135e+03
9646, 3.166460758258650e-01, 2.190499455246429e-01, 4.703881666470120e-02, -8.097810663067951e-10, 5.461709108082604e-10, -1.871020930148130e-09, 4.916671815744107e+03, 5.032358427446384e+03, 9.747223234829715e+01, 9.400090243656592e+03, 7.866198082426498e+02, -5.081187977407087e+02, 4.717533414757339e+03
9647, 8.539160299767247e-01, 1.142700753047465e+00, -1.949395490099797e-04, -4.344635241080135e-10, 4.229730201757181e-10, -1.223711121348058e-09, 2.316595720328930e+03, 2.042828914296108e+03, 1.945226239723317e+01, 3.643196397305479e+03, -2.542567626611058e+02, -5.146181141988333e+02, 1.785375852994383e+03
9648, 4.525362861454402e-01, 1.376522623256012e-01, 5.228090490052163e-02, -6.037474807634362e-10, 3.948831859700680e-10, -1.147039934051962e-09, 3.357647252661739e+03, 3.151266637439137e+03, -1.086798765176313e+02, 5.942358051617291e+03, 7.525219191473387e+02, -4.089621831614454e+02, 3.081040237042974e+03
9649, 6.006632760125878e-01, 1.031744374900186e+00, -4.802380287007434e-03, -1.234044625420595e-09, 6.283012210883612e-10, -4.939111091401156e-09, 6.363553562074871e+03, 5.439180153510100e+03, -1.488167356595226e+02, 1.108786143795511e+04, 1.566233194224929e+03, 7.145626846802788e+02, 6.041363562013802e+03
9650, 6.856646696521714e-01, 8.685172240547621e-01, 3.255131874351630e-02, -7.059119866065255e-10, 3.631930685169337e-10, -1.286857642555008e-09, 3.653440568186848e+03, 3.488939591883953e+03, -9.388089854418318e+01, 6.813460508616588e+03, 9.124563609445513e+02, -4.096204907722399e+02, 3.682410963085987e+03
9651, 3.307933052682569e-01, 5.275236076309855e-01, -8.029766902980736e-03, -1.092851582836540e-09, 5.083981826298373e-10, -3.210509042280217e-09, 2.553859006674091e+03, 3.729073317883807e+03, 8.574051330816799e+02, 4.438893822702203e+03, -5.214079912676086e+02, 1.966798024602957e+02, 2.419967653265333e+03
9652, 7.945737389827883e-01, 1.314084152861726e+00, 1.988649652893673e-02, -3.896612891894783e-10, 2.266589573595847e-10, -1.692687888336641e-09, 4.261553051199256e+03, 4.909431966439243e+03, -1.959918358667734e+01, 9.298523047445431e+03, 4.241036538916301e+02, -1.742481627728495e+02, 4.812410887803122e+03
9653, 3.457413858677536e-01, 1.310071800611231e-01, -1.986235237760214e-03, -1.521851368717242e-09, 8.153014062402872e-10, -5.676616997615660e-09, 4.720064670542361e+03, 4.445703863353989e+03, 4.531543629495696e+01, 8.541128725776553e+03, 5.486236296106310e+02, 1.705686901411797e+02, 4.089078104733024e+03
9654, 9.312743068827167e-01, 6.358066954027977e-01, 8.305082718954322e-03, -4.158148948595970e-10, 1.538159287052315e-10, 1.667539111157367e-10, -8.175648980205755e+02, -8.660318255285245e+02, 3.534611429485376e+01, -1.330809202444550e+03, 3.082100583104566e+02, -1.077934746612595e+02, 7.513188721484431e+02
9655, 7.036385838856191e-01, 8.060055324321682e-01, 3.382382430890928e-02, -5.328965285046158e-10, 3.357250290740793e-10, -7.728819683511155e-10, 2.748890502797814e+03, 2.690626851190274e+03, -4.288179935899556e+01, 4.700438373216953e+03, 6.494590028015341e+02, -4.409800912648941e+02, 2.404149726335348e+03
9656, 8.541235759428986e-01, 5.505379071469360e-01, 3.243077514516036e-03, -6.049886216280889e-10, 1.400940635393736e-10, 3.580283993715662e-10, -3.929188013674676e+02, -4.129642671300296e+02, 1.016257887481250e+01, -1.116692420409451e+03, 5.069052057900123e+02, -8.682683987043519e+01, 1.141721021258380e+03
9657, 8.468351969369732e-01, 1.232035483633025e+00, -1.097788996303473e-03, -8.395925574427725e-10, 2.475074323016207e-10, -1.565294699154867e-09, 3.220790981629802e+03, 2.403656911353411e+03, -3.853527170062800e+02, 4.004980329629930e+03, 3.106350514732675e+02, 2.963232951420904e+02, 1.709340193459870e+03
9658, 5.866182749746108e-01, 8.986200838598589e-01, 2.785506996595124e-02, -9.082891958069572e-10, 4.495539275066581e-10, -1.912681868214558e-09, 5.277271665171273e+03, 5.415759763464214e+03, 2.170744579128284e+02, 1.005818259490779e+04, 9.176908545529079e+02, -5.112504210688491e+02, 5.066177401377641e+03
9659, 7.898416986669121e-01, 1.213566300460939e+00, 2.373071799758206e-02, -7.056304229578168e-10, 4.543590208315057e-10, -1.312423969805715e-09, 4.409790969449705e+03, 4.208342798027437e+03, 2.306759441182651e+02, 7.698685832002707e+03, 8.741526319656851e+02, -5.885540024540828e+02, 3.874429341938580e+03
9660, 3.808192611952966e-01, 4.370470354653354e-02, 1.704761578564483e-02, -6.892620241144591e-10, 1.116832885576096e-09, -2.233873621103296e-09, 2.993705729648831e+03, 3.445905274762024e+03, -3.906372566416434e+02, 4.892122928952569e+03, 2.579466187600868e+02, -1.198672511664327e+03, 2.813868874189135e+03
9661, 6.241881819164579e-01, 5.588809961379498e-01, 1.377006218889982e-02, -1.259408267472163e-09, 4.753307410089954e-10, -1.716163746620878e-09, 3.129083368385776e+03, 2.584983647626790e+03, -5.135822297136279e+01, 4.499762562484603e+03, 8.756441341752853e+02, -1.350852567181889e+02, 2.298588078825713e+03
9662, 3.150883698617132e-01, 3.497868715113954e-01, 3.702923728501425e-02, -7.716738134895617e-10, 3.739258682716254e-10, -2.342166968716011e-09, 5.332747994939252e+03, 5.654963026468195e+03, 2.880690068480807e+02, 1.146218231593730e+04, 5.825582254436481e+02, -2.173005792451122e+02, 6.091594527741752e+03
9663, 5.074213944101942e-01, 4.617119108841253e-01, 4.483925255081074e-02, -7.372138683841835e-10, 4.062822936492377e-10, -1.289089151384155e-09, 3.949363133473036e+03, 3.915130852273461e+03, -4.842547602375099e+00, 7.071836782770852e+03, 8.130763611283115e+02, -4.658028158698112e+02, 3.534426344307081e+03
9664, 8.864270402047846e-01, 1.123380908427732e+00, 2.858102696378713e-03, -6.054280682735299e-10, 5.106038789347434e-11, -7.149136415256685e-10, 1.637994172836877e+03, 1.595787341178344e+03, -1.726436778348557e+01, 2.562226035898741e+03, 4.623354486069867e+02, 3.649872814038347e+02, 1.391689036766335e+03
9665, 4.295514665052827e-01, 2.472232098393192e-01, 5.168905127534002e-02, -8.071141480817175e-10, 3.618817859001275e-10, -1.288307785634244e-09, 3.985921425385648e+03, 3.882011580447447e+03, -2.909100635662644e+01, 7.206763529189972e+03, 1.054521527484201e+03, -4.146638208629720e+02, 3.817554503320664e+03
9666, 5.872103587595785e-01, 9.236403371199302e-02, 1.240872666405434e-02, -5.745978929367503e-10, 4.892662705086093e-10, -1.594833304865375e-09, 1.779177812176619e+03, 1.529094016201184e+03, -1.849202328164720e+02, 3.424502623635598e+03, 1.197537933710759e+02, -2.546789878524304e+02, 1.876512261039035e+03
9667, 3.225694762811742e-01, 7.369314260747575e-02, 8.467423732882819e-03, -8.827920126998170e-10, 1.428751346328207e-09, -4.560351372853792e-09, 4.396885998554058e+03, 4.132451380285628e+03, -3.241581938394877e+02, 7.616796532774863e+03, 8.663943003785980e+01, -8.242942028863938e+02, 3.696666458290239e+03
9668, 9.148422456316018e-01, 5.711911244283026e-01, 8.268349951464717e-03, -3.050666181764677e-10, -4.454616483254306e-11, 4.556479825191083e-10, -8.930147874355587e+02, -1.047998628205364e+03, -7.026673530954008e+01, -2.123158214806335e+03, 3.125027868277284e+02, 3.147338197907914e+02, 1.396989205144552e+03
9669, 4.435072703547283e-01, 1.814806661017037e-01, -1.544622009047837e-02, -1.534168505184500e-09, 8.461401777573630e-10, -5.445690285534463e-09, 4.398496805042596e+03, 3.774882806333128e+03, -1.845271828171920e+02, 7.707015933256864e+03, 7.180125749311524e+02, 9.959710067196119e+01, 3.882907138827621e+03
9670, 3.414888393679154e-01, 1.673905616075686e-01, 2.289473387432437e-03, -1.682038525808053e-09, 1.139671492223676e-09, -5.274245536476672e-09, 4.840736801032467e+03, 4.824010050136638e+03, -2.102775915280725e+02, 8.187310106593420e+03, 3.654755897571641e+02, -2.072860019301152e+02, 3.452257181632843e+03
9671, 6.065816564003763e-01, 1.225313759206262e-01, -8.631607238762280e-03, -4.909398179365129e-10, 4.118954605108050e-11, -2.516471004911427e-09, 2.298524663256053e+03, 2.136654924771517e+03, -1.084594471439596e+02, 3.994169257160513e+03, -4.701592403480397e+02, 5.429744682664211e+02, 2.181464933593563e+03
9672, 4.320597505297684e-01, 6.277604028733202e-01, 3.137741851927174e-03, -1.914025339625363e-09, 8.213698232519338e-10, -5.823712621749963e-09, 6.527669317534793e+03, 6.276930152374481e+03, -1.373090840566061e+02, 1.238525457951666e+04, 8.613454912231980e+02, -4.975906886127449e+02, 6.234420604066148e+03
9673, 8.267393055009844e-01, 4.840125655324255e-01, 2.128472691254086e-02, -3.972013150480552e-10, 6.092831858080590e-11, 1.196937448800420e-10, 1.322603406921414e+01, -1.149919641408928e+02, -3.821964201165360e+01, -4.948947301870095e+02, 5.656003812134819e+02, -1.021957603285993e+02, 1.097680215714868e+03
9674, 3.452394697625045e-01, 1.791851055684462e-01, 3.207413157321432e-02, -1.227968935317537e-09, 7.737308157002104e-10, -3.059607082429057e-09, 4.668683572343525e+03, 4.620297470149884e+03, -1.593532623009931e+01, 8.446650582734554e+03, 6.383287658134012e+02, -3.228671392418300e+02, 3.999257338157270e+03
9675, 5.479840324921037e-01, 5.904141093716976e-01, 1.234647980657170e-02, -1.449481941073463e-09, 7.077736950998428e-10, -3.167829432871400e-09, 4.428017424562096e+03, 4.339777126082260e+03, -2.575811273323009e+02, 7.287940874725585e+03, 4.303287458320729e+02, -1.630237847712093e+02, 3.045263839651286e+03
9676, 5.619353979902851e-01, 1.468013638856831e-01, 4.647756964234358e-02, -5.049113095645519e-10, 1.782414022703553e-10, -6.937436315052320e-10, 2.297768826297864e+03, 2.137420267812039e+03, -8.523703884854721e+01, 3.961470931323614e+03, 6.614454414254287e+02, -1.717255796494777e+02, 2.117353037924144e+03
9677, 5.082902429864827e-01, 3.482191403768402e-01, 4.893752204688036e-02, -6.499356069156083e-10, 2.630374612814859e-10, -1.040642917243833e-09, 3.450938309751214e+03, 3.314331046907068e+03, -6.251614420144658e+01, 6.159620374729873e+03, 8.907550971403645e+02, -3.203223658235252e+02, 3.228857956685768e+03
9678, 3.255005077594246e-01, 2.167166242624564e-01, -1.924770049318715e-02, -1.911370888200243e-09, 1.733583325708882e-09, -7.007700405633611e-09, 4.902486904031198e+03, 4.885384576244825e+03, -2.351261823201128e+02, 7.834650832257527e+03, 8.030678749054863e+02, -1.289408367186024e+03, 3.966907288088820e+03
9679, 6.515362401557755e-01, 1.212400055210334e+00, 4.805059470212165e-03, -1.916692417925873e-11, -2.124885931812733e-10, -1.394798550377638e-09, 3.510337248654765e+03, 3.863014365210705e+03, 4.998472312552972e+02, 8.326687523052598e+03, 2.258555101050703e+01, 1.553388635345958e+03, 5.441793401951814e+03
9680, 5.544614314789253e-01, 1.401197849029847e-01, 8.458615850321972e-03, -9.639782324653667e-10, 3.837141458186045e-10, -2.154389822327435e-09, 2.386434887770746e+03, 2.420636585633591e+03, -2.169667393840063e+02, 4.346850620959880e+03, 1.570830907324425e+02, 2.311466178360739e+02, 2.037862930491206e+03
9681, 8.066031377798535e-01, 1.737284932684477e-01, 2.918516702524786e-03, -5.212182531025622e-10, 6.921761649451403e-11, 2.492443009841879e-10, -3.250818624539040e+02, -3.543418502628383e+02, -4.900309697287843e+01, -7.191842660329460e+02, 4.451787788728115e+02, -6.989874481538052e+01, 8.723848173050253e+02
9682, 7.685973050827432e-01, 4.364917614348581e-01, 2.727710625220212e-02, -4.767209327035505e-10, 1.194059890836321e-10, -9.054806055469842e-11, 6.461380430677335e+02, 4.907932852727743e+02, -6.896898124465987e+01, 6.817913579193374e+02, 5.832130770617308e+02, -1.495531143803198e+02, 1.064294485162009e+03
9683, 6.682499092788458e-01, 1.146527098677831e+00, -4.164971614233286e-03, -3.764685961031891e-11, 8.427732418106975e-10, -2.735049475610076e-09, 3.522684601075673e+03, 3.675972095532698e+03, 1.072446335467646e+03, 4.169052337849138e+03, -1.809377767664077e+03, -1.011723235824044e+03, 4.084718727118746e+03
9684, 8.727706407082129e-01, 1.262320610992269e-01, 7.918016513764552e-03, -6.585472268800259e-10, 1.127587608457504e-10, 5.498642413711100e-10, -1.364978069891812e+03, -1.385707770513016e+03, -1.802215627898276e+01, -2.303502451245995e+03, 8.529226465878303e+02, -2.705397790340417e+02, 1.806871118561113e+03
9685, 3.984827778971845e-01, 2.529212725536236e-01, 2.399746276540651e-02, -1.587611595898772e-09, 8.347156503062145e-10, -3.563664623899964e-09, 4.471294403973505e+03, 4.533131051798137e+03, -1.089972486617927e+02, 8.494683197745104e+03, 8.929752962130842e+02, -4.448976137081685e+02, 4.354807203608074e+03
9686, 8.429197848434800e-01, 8.164242195440172e-01, 3.140100138849612e-03, -5.469816742735501e-10, 1.438715010270840e-10, -6.662818089739529e-10, 1.172782156448072e+03, 1.109074024348140e+03, -4.696682969094545e+01, 2.025471890098897e+03, 1.834765878428013e+02, 4.648154100458662e+01, 9.484471536444765e+02
9687, 7.152759600337232e-01, 8.781707986933370e-01, -6.062991919760268e-03, -4.588159993741480e-10, 2.039552447724401e-10, -2.915837919256193e-09, 3.631770550409446e+03, 3.506425532151452e+03, -2.233469740077323e+02, 6.200826554882739e+03, -7.480999691711149e+02, 5.037989162409001e+02, 3.086718459390508e+03
9688, 6.207145438365709e-01, 4.141885124712295e-01, 1.863470259725141e-02, -1.011841751961670e-09, 2.927644977655750e-10, -1.450613309071396e-09, 2.365817426675696e+03, 2.080814875617742e+03, -1.837965829952480e+02, 3.842783787785781e+03, 5.148987322959987e+02, -9.502557698423739e+01, 1.899313168718970e+03
9689, 5.059873792537805e-01, 1.462555527380710e-01, -1.401817537723824e-02, -8.016191387386200e-10, 9.656582998234536e-10, -3.874945867327222e-09, 3.355318188131309e+03, 3.077205948141724e+03, -3.037289417611738e+02, 6.772280101508277e+03, 7.863043225275450e+01, -1.063108063579640e+03, 4.048354280019498e+03
9690, 3.268412763049383e-01, 1.999326728451135e-02, 3.504898881106246e-02, -3.462255748842033e-10, 6.785916762416005e-10, -9.705580171464511e-10, 2.727494226477035e+03, 4.286643071619406e+03, -3.925340672047086e+02, 3.411071181859280e+03, 1.194750041755479e+02, -1.267819064729932e+03, 2.675741338205802e+03
9691, 7.501603288508056e-01, 8.535037296447774e-01, -3.716122642609284e-03, -1.175575433961587e-09, 2.376564174482884e-10, -2.408777651726288e-09, 3.136957891993884e+03, 2.717524336107134e+03, 5.588288950499659e+01, 5.305331024172448e+03, 1.306062034108859e+03, 4.354403705736913e+02, 3.388634349305436e+03
9692, 5.725438028092362e-01, 8.140317363377003e-01, 9.514323024741136e-03, -1.741386829502877e-09, 8.544752382143131e-10, -4.163452287371143e-09, 4.591692026396359e+03, 5.029294156769939e+03, 5.061156588635082e+01, 1.074307388804873e+04, 1.084670299768711e+03, -2.886029331467252e+02, 6.255095934791163e+03
9693, 1.015704197818315e+00, 1.568962774852953e+00, 8.344464551326921e-03, -4.927869968520828e-10, 2.812693750131382e-10, -1.875199688274462e-10, 1.880334763966651e+03, 2.121162930672201e+03, -3.005574320196550e+02, 1.913460401662757e+03, 6.488166938194870e+02, 1.579671092584797e+01, 1.259269689838419e+03
9694, 3.357534030521464e-01, 4.059390035437950e-01, -1.510028393208028e-02, -1.070266733341670e-09, 1.163476476569683e-09, -7.923205483612363e-09, 6.620795863167772e+03, 6.316069044142227e+03, 5.219630400497524e+02, 1.074741773796284e+04, -2.297806920525247e+03, -6.003403876849202e+02, 6.009797900913994e+03
9695, 4.106235610310314e-01, 4.690879187311468e-02, 3.518449120967321e-02, -5.602933098296120e-10, 9.237078291190405e-10, -1.534530326219167e-09, 2.639645959535515e+03, 2.863736422524984e+03, -3.119570297043427e+02, 4.201796585934779e+03, 3.049441865034771e+02, -8.465584807165860e+02, 2.204852892518124e+03
9696, 3.666037213684453e-01, 4.531769629985238e-01, -1.399970647896983e-02, -1.636209658984341e-09, 1.052177629031490e-09, -6.738178914291485e-09, 4.415827877252118e+03, 4.947580718526940e+03, -2.111850273570877e+02, 7.567010209224432e+03, 6.347358359164468e+02, -5.673084368579696e+02, 3.293181394071212e+03
9697, 9.015686085653808e-01, 3.936465673208563e-01, 8.979992192613678e-03, -2.977799282766825e-10, 9.323765547937683e-12, 2.298022261615367e-10, -7.400514729136856e+02, -7.733066437587555e+02, -4.186185526719577e+01, -1.198507496426246e+03, 2.661019877658784e+02, -1.100296329149721e+02, 6.708572182754864e+02
9698, 6.248667190414163e-01, 1.645592872897795e-01, 1.358469544307410e-02, -8.136319595268518e-10, 2.479661904839452e-10, -1.076929697136633e-09, 1.811746202117706e+03, 1.575280048866464e+03, -1.237319903435616e+02, 2.613678788272071e+03, 3.948601905270632e+02, -7.435915744467641e+01, 1.191176900197616e+03
9699, 6.251527911259668e-01, 1.965672900405616e-02, -6.841885825350686e-03, -1.510819309119366e-10, 3.101419518153655e-10, -5.440222251766778e-10, 1.041316182954436e+03, 1.374415471507906e+03, -1.702272032461675e+02, 1.984684218604726e+03, 1.410088735250112e+02, -1.087070628563827e+03, 2.092465825067209e+03
9700, 5.648685074687376e-01, 5.271999983134263e-01, 4.258237253765607e-02, -7.467113692129114e-10, 3.672651032744916e-10, -1.185655107930634e-09, 3.545430061712371e+03, 3.433583717333206e+03, -1.198025989258927e+01, 6.457564823701136e+03, 9.425172208187674e+02, -4.266631422658684e+02, 3.468475332131961e+03
9701, 7.110378276181564e-01, 1.243994709775479e+00, -1.920488343496606e-03, -1.769441598505499e-09, -4.492278140769825e-10, -6.668310433154786e-09, 8.757026614424642e+03, 9.150795565802953e+03, 1.482874440459451e+01, 1.987355152532378e+04, 2.666783297026044e+03, 2.185188013479000e+03, 1.245053560382866e+04
9702, 2.417181973335412e-01, 2.473687934984309e-01, 8.615658215567156e-03, -1.280726993467490e-09, 9.194924472561375e-10, -5.215287331418284e-09, 5.335098761358166e+03, 5.623773059352465e+03, 1.801722678402480e+02, 1.121158060301495e+04, 7.342788676740788e+02, -5.239584800599984e+02, 5.954700864581067e+03
9703, 6.805663179240968e-01, 2.396670318698113e-01, 3.742481117031018e-02, -4.525634691908132e-10, 8.624756515686984e-11, -2.836773849289640e-10, 1.251514645046642e+03, 1.173370751546014e+03, -3.825934685931630e+01, 1.909387542152233e+03, 6.818847212475168e+02, -1.290294057685623e+02, 1.392677055596016e+03
9704, 8.203758853638542e-01, 3.687728371345838e-01, 2.101424114691982e-02, -3.630377968783601e-10, 5.696663358274369e-11, 1.225454420699964e-10, -3.356195014405733e+01, -1.649021699099686e+02, -6.388397594474098e+01, -5.631213139214187e+02, 4.939365938447000e+02, -5.214655501591294e+01, 9.901779046409523e+02
9705, 9.640731060081287e-01, 9.685922301501817e-01, 8.381488976532198e-03, -4.861144453966803e-10, 6.605255874923145e-11, 1.874394591234103e-10, -4.706373169307312e+02, -4.408219565087638e+02, -1.364368411486022e+01, -1.012310442603372e+03, 6.011652480892535e+02, 1.280260737359613e+00, 1.181190604579917e+03
9706, 3.722011675474691e-01, 6.364383824887573e-01, 1.421454448259917e-02, 2.989103558797495e-10, -8.657834736428094e-11, -2.165467657076105e-09, 4.644863279322562e+03, 4.437353062270115e+03, 2.162932126437093e+02, 9.818294056111765e+03, -1.953348794978096e+03, 9.580434513183570e+02, 6.497814309880250e+03
9707, 4.534865203974377e-01, 8.337602101147690e-02, 3.419595606964471e-02, -6.753521741380728e-10, 7.359844192836770e-10, -1.897337444993917e-09, 3.010572839581055e+03, 2.718192211207807e+03, -2.149221779253891e+02, 5.346125651307556e+03, 3.774221184130762e+02, -3.924198459409691e+02, 2.692779375935359e+03
9708, 4.367734228984576e-01, 6.663660097504995e-02, 3.414797947190943e-02, -6.108647088292668e-10, 8.441573889733590e-10, -1.784590493067513e-09, 2.954889205444890e+03, 2.657236454323028e+03, -2.900239224971423e+02, 4.949448972794747e+03, 3.413418568228766e+02, -6.087853117272971e+02, 2.524736642038978e+03
9709, 7.559679526418064e-01, 4.762724964193512e-01, 2.801974542454378e-02, -5.290015074986597e-10, 1.301023930098030e-10, -2.259186165952584e-10, 9.525282617707586e+02, 7.721625992324315e+02, -2.781844327899783e+01, 1.324525677671428e+03, 5.723167191106475e+02, -1.133536751987276e+02, 1.123172940986578e+03
9710, 8.596521744166369e-01, 8.517852790284884e-01, 2.164473360632407e-02, -3.688587390267049e-10, 1.286008441386771e-10, -1.763007402625344e-10, 1.038862264194395e+03, 8.469228115862745e+02, -5.590297415897855e+01, 1.312859318233675e+03, 5.440150327386156e+02, -1.913641134636457e+02, 1.082404337814514e+03
9711, 7.837133842758652e-01, 3.882567878658381e-01, 1.793912651169849e-06, -6.212578267953725e-10, 1.392042748017083e-10, -7.709845640267108e-12, 2.371386952464399e+02, 1.402236221403793e+02, -4.168605811873711e+01, 1.317442339594273e+02, 1.985384446175494e+02, -4.616741008224204e+01, 3.743610897296046e+02
9712, 2.669052457421688e-01, 1.995679253376509e-02, 3.576480230669901e-02, -2.698468276037710e-10, 7.705363353563921e-10, -1.251639972903187e-09, 3.000404622949824e+03, 4.669465504080996e+03, -3.685041187876144e+02, 4.129838042142749e+03, 1.845609641145836e+02, -1.546875669828237e+03, 3.140754376631471e+03
9713, 9.363869458761466e-01, 6.871732874678189e-01, 7.969198843337003e-03, -3.962906573200006e-10, 1.204987054041973e-10, 2.676440444432330e-10, -8.927388722979516e+02, -8.608146729073984e+02, 8.517519491068607e+01, -1.734306485429212e+03, 4.616886698432057e+02, -1.535911538145235e+02, 1.211662505370049e+03
9714, 8.127811745399774e-01, 1.034535972452018e+00, 2.334759615900054e-02, -6.098361715254277e-10, 2.326308052837161e-10, -7.508671855571930e-10, 2.286877828376129e+03, 2.304499374352917e+03, -7.800006306845751e+01, 3.898915370844039e+03, 7.417753503532745e+02, -3.325922970845164e+02, 2.138075282226696e+03
9715, 5.989112503039200e-01, 1.033157842016902e+00, 1.824678040453503e-02, 2.508810662432641e-10, -2.267930244998083e-10, -2.130790598399465e-09, 5.163177812013155e+03, 5.307339676239115e+03, 5.308652536769354e+02, 1.145904624205055e+04, -6.260913436113160e+02, 6.493469690434113e+02, 6.483633018962451e+03
9716, 8.290478308202990e-01, 1.302641786651266e+00, 2.136620574856987e-02, -6.500041048685756e-10, 2.789494432293111e-10, -8.994004365657755e-10, 3.498118942532958e+03, 3.539396327429731e+03, 5.914988755831256e+01, 6.247425036358884e+03, 1.181010538882252e+03, -4.806649737814779e+02, 3.512103915280236e+03
9717, 5.446744979945226e-01, 4.454309420728964e-01, 4.649795232120577e-02, -6.626703339549254e-10, 2.872608069816272e-10, -9.935513450720526e-10, 3.259711932009230e+03, 3.251490882737017e+03, -6.110911662174437e+01, 5.915819846553501e+03, 9.678926627427786e+02, -3.860531154142363e+02, 3.216453862459950e+03
9718, 5.641904913088347e-01, 6.733183185629139e-01, 1.961280502797721e-02, -1.243582518405511e-09, 4.927776471677292e-10, -2.831070934290367e-09, 4.387270847639839e+03, 4.221076977321019e+03, 2.183887038818454e+02, 8.270089259783032e+03, 5.192874217286184e+02, -7.646417980615507e+01, 4.088862838650316e+03
9719, 9.585763875875418e-01, 1.425705671195221e+00, 4.123196702143866e-03, -5.245316895225084e-10, 3.431952588880476e-10, -1.541343191822979e-09, 3.004738131887824e+03, 2.920702733289993e+03, -7.935322874816708e+01, 5.538473188322355e+03, 3.905591854550798e+02, -6.412874294415989e+02, 2.889644901727423e+03
9720, 8.493116006902025e-01, 5.100784508553702e-01, 1.840168389688072e-02, -3.713981523828170e-10, 9.444315925874469e-11, 1.648223859340153e-10, -8.921599725879980e+01, -2.910577237562071e+02, -2.162521740465010e+01, -7.648418120058635e+02, 5.041042310762216e+02, -1.295027727833472e+02, 1.083937233016419e+03
9721, 7.380659126315866e-01, 6.470550401619517e-01, 3.179822263503559e-02, -5.321827962522639e-10, 2.006769577503690e-10, -5.044487244362260e-10, 1.755496841470742e+03, 1.658316374297360e+03, -6.746812846750018e+01, 2.901683170681858e+03, 6.929348298478910e+02, -2.795585296042534e+02, 1.767247821376545e+03
9722, 5.937459712223546e-01, 6.569380315541969e-01, 4.035262093734688e-02, -7.967590130468900e-10, 3.039158003707171e-10, -1.068988891684776e-09, 3.680543658765259e+03, 3.668417186668335e+03, 3.583601272085551e+01, 6.637590975687747e+03, 1.122867189570020e+03, -4.502922011340630e+02, 3.629706389295178e+03
9723, 6.274184010889902e-01, 4.725988124387412e-01, 1.442725200544924e-02, -1.045811580382297e-09, 3.522123850616818e-10, -1.449600761554994e-09, 2.518631277496914e+03, 2.258480654783824e+03, -1.430959765143292e+02, 3.717292710035771e+03, 4.688249237453078e+02, -1.251776458165420e+02, 1.607522387510023e+03
9724, 9.793116505726688e-01, 1.045617996041515e+00, 7.504077830470546e-03, -4.531895036701093e-10, 4.978001638624559e-11, 3.592591193736325e-10, -5.153467843112414e+02, -6.437878600678949e+02, -4.359384587530844e+00, -1.429863585168615e+03, 6.059998846817845e+02, -1.203746601779656e+01, 1.355572153174304e+03
9725, 8.067202030015282e-01, 1.144168280501109e+00, -1.897048888199582e-03, -8.756086580185980e-10, 3.627036269504060e-10, -1.740462739255812e-09, 3.077055779691869e+03, 2.373677716034991e+03, -2.437842511581765e+02, 2.937998484256198e+03, 3.303669494037492e+02, 2.476021253155632e+02, 1.051621350649703e+03
9726, 5.641993721993287e-01, 3.003204627347746e-01, 2.177394429223795e-02, -1.170788690921678e-09, 3.376201143792264e-10, -1.839242874648389e-09, 2.718911833281514e+03, 2.666672352001425e+03, -1.198611796520564e+02, 4.674147313668521e+03, 7.666227075386876e+02, -1.074628865903155e+02, 2.401810001796984e+03
9727, 5.033007702334000e-01, 7.617424855524783e-01, 2.790134670522513e-02, -6.794757855688443e-10, 5.332674812847126e-10, -2.092616507994718e-09, 4.998962708779931e+03, 5.562932071291446e+03, 5.059521727210967e+02, 1.110835421658932e+04, 5.202075242746059e+02, -4.115219660260690e+02, 6.023709637532156e+03
9728, 6.307653083028599e-01, 6.654982748795688e-01, 1.958182326228377e-02, -1.051794801706083e-09, 5.438605700308175e-10, -1.898463899247112e-09, 3.563451317663459e+03, 3.398087441736440e+03, -1.024411773877652e+02, 5.859293280931505e+03, 5.815414395662457e+02, -4.185528887588179e+02, 2.692489246341229e+03
9729, 9.979987996047546e-01, 1.264282038272196e+00, 8.192395786318901e-03, -2.989542049026267e-10, 8.828854930140166e-11, -2.116681334530547e-11, 3.755202487665354e+02, 3.306463657681164e+02, -6.546013518421172e+01, 3.533233491865051e+02, 2.848450316435712e+02, -1.419011008883353e+02, 5.640773333530532e+02
9730, 6.500501435480790e-01, 9.074810687319123e-01, -7.866196416510783e-03, -1.952273440120989e-09, 8.097022658545528e-10, -3.599995507306564e-09, 4.344465161423380e+03, 4.104378353469480e+03, -1.120801057071418e+02, 7.234862153760499e+03, 1.466203311195596e+03, -1.746762643879289e+02, 3.960361136041138e+03
9731, 4.464407455892733e-01, 4.924400863164698e-01, -1.494420772428694e-02, -1.686248281292027e-09, 1.685207234911826e-09, -5.858513313145802e-09, 5.425007005819330e+03, 5.385941885053979e+03, -1.672100894474110e+02, 8.836056906051121e+03, 3.750357740276330e+02, -1.226537264146131e+03, 4.097444898992382e+03
9732, 8.498706465989523e-01, 1.090684164557414e+00, 2.932836523437676e-04, -3.567724857323598e-10, 7.810072374313297e-11, -1.512688776096589e-09, 2.594273947836766e+03, 2.146287531395105e+03, -2.119975669187809e+02, 4.455133501080016e+03, -5.212586515435607e+02, 3.828578410626761e+02, 2.426279237624265e+03
9733, 3.420439636958740e-01, 1.056878345296013e-01, 3.334737502313439e-02, -1.013443321131539e-09, 9.689708003304697e-10, -3.121651085217826e-09, 4.097359459068696e+03, 3.754862089823385e+03, -2.164049678094915e+02, 8.012385110790645e+03, 5.577699133955816e+02, -3.787023849610466e+02, 4.276643302415445e+03
9734, 4.822699853422433e-01, 5.818608291637445e-01, 1.318800185610409e-02, -1.841606385163992e-09, 8.157431525894387e-10, -3.957253307674501e-09, 5.345742775004694e+03, 5.345380668890453e+03, -1.574839566457322e+01, 9.228621660174667e+03, 1.141889875230650e+03, -3.571092839976075e+02, 4.401501698479454e+03
9735, 7.436762410598504e-01, 1.988267982019652e-01, 3.927072290361641e-04, -6.481722375499315e-10, 5.382223523347432e-11, -9.246606484670389e-11, 3.198065285569792e+02, 2.633806531840037e+02, -2.198109062814505e+01, 4.078487434387415e+02, 2.539089446493434e+02, 5.451048356721653e+01, 4.686961809829535e+02
9736, 6.853052663728313e-01, 8.862327660831564e-01, -6.833575876635786e-03, -1.647750811410380e-09, 1.082143356149487e-09, -4.022068903672702e-09, 5.177916366201248e+03, 4.153605998482206e+03, 3.159065111180841e+01, 8.633152129924396e+03, 1.123381673066040e+03, -1.115976077205373e+03, 4.904310410298526e+03
9737, 3.008739819580613e-01, 4.852209179588478e-01, 1.714322186002426e-02, 1.944140453743884e-10, 5.007064756315864e-11, -2.013656764171246e-09, 4.656579301020249e+03, 4.576509548751332e+03, -1.033092974371718e+02, 9.898369736580064e+03, -1.339389624293565e+03, 2.275608918902753e+02, 5.785477595284245e+03
9738, 7.922666083578470e-01, 2.777592680475536e-01, 2.113493772054612e-03, -5.711638281472346e-10, 9.801516780094018e-11, 8.137825350233389e-11, 3.432090214109421e+01, -3.356918365403684e+01, -1.570294577116310e+01, -5.673630771342634e+01, 2.840913111818566e+02, -5.281213287838360e+01, 5.078871216606300e+02
9739, 9.800090667213297e-01, 1.013857968740071e+00, 8.122306608231215e-03, -2.952575869826310e-10, 6.854312733822476e-11, 9.025367348709177e-11, -1.911047613953971e+02, -3.006477069848360e+02, 4.281051701187360e+00, -4.528951412927605e+02, 3.498540137270625e+02, -6.977379826829808e+01, 6.585667728806611e+02
9740, 5.982505053897271e-01, 1.612077605261209e-01, 4.262867318148773e-02, -5.085398908769223e-10, 1.394420188260538e-10, -5.993715941007692e-10, 1.986804725052702e+03, 1.872160585571848e+03, -5.401063619749220e+01, 3.286825797670601e+03, 6.672864991271528e+02, -1.443179511535414e+02, 1.805349312581948e+03
9741, 5.114825076893212e-01, 1.503101372854906e-01, 2.586489163620300e-02, -9.931760548970197e-10, 5.046390888076021e-10, -1.926387404317291e-09, 2.810787020768392e+03, 2.667718910643600e+03, -1.396834669667522e+02, 4.879998691434984e+03, 5.841082981616852e+02, -1.765414825094144e+02, 2.402857930724033e+03
9742, 1.655270691235262e-01, 2.172744341441198e-01, 1.977044202453597e-02, 3.672288257650694e-10, 1.226145568031523e-10, -1.484879230262245e-09, 3.697540788022053e+03, 3.655400942647637e+03, 8.101365531393132e+01, 7.356452996615727e+03, -1.194941811187842e+03, 1.351360990353210e+02, 4.231043965817040e+03
9743, 8.061547514092696e-01, 5.895161410472260e-01, 6.865975683831987e-04, -6.022194258950897e-10, 2.014359971580522e-10, -1.523809036565406e-10, 4.469351990779861e+02, 3.267283685816887e+02, -3.339820033389606e+01, 4.461280734882515e+02, 2.569610755142966e+02, -1.108125183053589e+02, 5.026180025877272e+02
9744, 6.888301256724140e-01, 9.640905360142328e-01, 3.149456010000798e-02, -7.321171031853852e-10, 3.784113389872503e-10, -1.132707748162065e-09, 3.980950550091561e+03, 3.954043991498578e+03, -1.120860562651477e+02, 6.966262193711629e+03, 1.057598819264727e+03, -4.876744717605608e+02, 3.619371332961669e+03
9745, 8.289589641294348e-01, 1.354572576590911e+00, 1.802381579839625e-02, -7.688134118840603e-10, 6.564535521966511e-10, -1.414705494448576e-09, 4.668267927737401e+03, 4.568821403723991e+03, -1.735886193536167e+02, 8.216971652346632e+03, 9.768917246088757e+02, -6.697595229938991e+02, 4.153935338136337e+03
9746, 4.980736619876960e-01, 6.045551408023032e-01, 8.715578122516134e-03, -1.632515012081188e-09, 9.750631851301107e-10, -4.042905318662931e-09, 5.209260105736937e+03, 5.142977348045154e+03, 2.476916891107226e+01, 8.843957281214258e+03, 5.328073155859383e+02, -5.983095451968168e+02, 3.922212270006226e+03
9747, 8.161343630614333e-01, 5.130850256591847e-01, 2.291472194130165e-02, -4.246550433549134e-10, 9.797096586266936e-11, 1.742267398243668e-12, 2.574246542356030e+02, 1.442193315845886e+02, -2.000671177382405e+01, 1.292583821278603e+02, 5.189770589842037e+02, -1.086092754027026e+02, 9.270022799916759e+02
9748, 6.161855153991324e-01, 5.920048835633599e-01, 1.368104971184896e-02, -1.209393837319349e-09, 4.093337452972263e-10, -2.059783751438133e-09, 3.374723505799725e+03, 2.948365772677154e+03, -3.686059758649824e+01, 4.999612116117381e+03, 5.718315236103764e+02, -1.449154615346607e+02, 2.136089697350649e+03
9749, 5.467045140305731e-01, 6.598183738591007e-01, 1.079784542723060e-02, -1.530209696888848e-09, 6.382901985905020e-10, -3.689547634805531e-09, 5.299772889495275e+03, 4.737961856956694e+03, 1.889003731967432e+02, 8.991602431435338e+03, 7.493916616219535e+02, -1.952010283759041e+02, 4.233848312691587e+03
9750, 4.948259080740945e-01, 1.943566362319495e-01, -1.427055460376708e-02, -5.778127831763593e-10, 7.376296320890952e-10, -4.055609753633231e-09, 3.268828599852655e+03, 3.344847334528620e+03, -2.805978029530621e+02, 5.381190866245321e+03, -9.677039377363366e+02, -5.045695493122511e+02, 2.848965336838949e+03
9751, 2.500827543826252e-01, 2.729190283963528e-01, 9.278339676463253e-03, -1.152180784808897e-09, 8.074553720582663e-10, -5.461008954755885e-09, 5.555828528108770e+03, 5.894729261575019e+03, 3.459626049604081e+02, 1.255768092254054e+04, 4.687488562290757e+02, -4.228820306547032e+02, 6.951445333651966e+03
9752, 4.953863569567838e-01, 3.985903935661027e-01, -1.296365206579739e-02, -1.472351488634689e-09, 9.762095225009785e-10, -3.694603448038739e-09, 3.299935455836201e+03, 3.060300733304097e+03, -5.441804803261947e+01, 5.360835464170573e+03, 1.689953921860294e+02, -5.704055283718847e+02, 2.422652791104468e+03
9753, 5.005866713172982e-01, 6.974811498881849e-02, 2.105953063302212e-02, -7.364054722601674e-10, 7.031867437104493e-10, -2.080999138244558e-09, 2.288317925782438e+03, 2.269478097005292e+03, -2.366506249301148e+02, 4.993268569053034e+03, 4.336856974842261e+02, -2.792156109831129e+02, 2.886904606727561e+03
9754, 2.698721290813295e-01, 3.382037385744019e-01, 8.887026753019188e-03, -1.035267391523373e-09, 9.664888020495266e-10, -6.039099484441152e-09, 6.718005922948850e+03, 7.806564224948355e+03, -2.413429463867322e+02, 1.488313536045442e+04, 4.669913813210749e+02, -4.933807543045509e+02, 7.779802971934803e+03
9755, 8.113894639580083e-01, 1.366667220343720e+00, -1.662397183008028e-03, -1.306375335169969e-09, 1.818003649018437e-10, -4.504225321520093e-09, 5.927158194095815e+03, 5.584432797495408e+03, -3.292819318855117e+02, 1.182426910608814e+04, 2.281914995376894e+03, 3.699797529750294e+02, 7.298754033746715e+03
9756, 8.764917059928817e-01, 1.146091799494544e+00, 2.109231335848407e-02, -4.078936790577494e-10, 1.220710999733701e-10, -5.798494470204672e-10, 2.042680789438879e+03, 2.012969206150922e+03, -2.869063268172191e+01, 3.377419159863337e+03, 6.773255608393486e+02, -2.188165113960267e+02, 1.828794052432899e+03
9757, 8.581354717164850e-01, 8.854210510460196e-01, 2.199371180321601e-02, -3.606769707861636e-10, 1.339258479991538e-10, -2.532822493668587e-10, 1.162797787612689e+03, 9.922527305346823e+02, -3.108977210029979e+01, 1.691615590055733e+03, 5.347568367329088e+02, -1.759279306213584e+02, 1.162999313146656e+03
9758, 5.926192389487965e-01, 6.454905882718990e-01, -9.578894551125993e-03, -1.566013502334410e-09, 7.964313847590623e-10, -2.947689258115790e-09, 2.867828905258063e+03, 3.349309821912798e+03, -4.539833827376989e+01, 5.341090302602262e+03, 5.961185691260732e+02, -7.256689075317430e+02, 2.794648244551604e+03
9759, 8.288023850921191e-01, 1.002820595969388e+00, 2.286922324150110e-02, -4.867854444050557e-10, 2.042729033891303e-10, -6.470492497465118e-10, 2.006330640283305e+03, 1.833023742170727e+03, 2.866663067774659e+00, 3.407706857611134e+03, 6.180979538484348e+02, -1.835545226442656e+02, 1.866546391605382e+03
9760, 9.154410782173462e-01, 5.136080117131427e-01, 8.342469841770069e-03, -5.174986133894989e-10, 1.488347180709645e-10, 5.758133442859671e-10, -1.621052289432246e+03, -1.393282293358923e+03, -8.992187896490137e+01, -3.767048852403514e+03, 7.514767522089794e+02, -2.112121290662234e+02, 2.645414050539637e+03
9761, 3.924884706570516e-01, 3.079809716237251e-01, 4.961898851547260e-02, -8.260240982525108e-10, 3.620022995150836e-10, -1.549653242462817e-09, 4.561451161821997e+03, 4.633372961511344e+03, 5.023221320738285e+01, 8.882459188299292e+03, 1.011120844214380e+03, -3.146125068610033e+02, 4.662308166067643e+03
9762, 8.316742596805713e-01, 8.344531289435009e-01, 2.473485383978866e-02, -3.848672891959014e-10, 1.184625417358906e-10, -2.356503713805496e-10, 1.179406673491005e+03, 1.020519864799568e+03, -5.325129053168014e+01, 1.682346635863679e+03, 5.510367879310968e+02, -1.749168398014313e+02, 1.170181001657799e+03
9763, 7.334636051615342e-01, 1.080083450319292e+00, 2.703011628626020e-02, -7.734052272698438e-10, 4.233322636395133e-10, -1.208794188293598e-09, 3.920867011323062e+03, 3.848778982867192e+03, 6.194317754296555e+01, 6.817748092074132e+03, 9.142182392248210e+02, -4.999093887927922e+02, 3.445949964114177e+03
9764, 7.950870167699962e-01, 3.142088513861119e-01, 2.423789372083388e-02, -4.024538709100206e-10, 5.254086095452662e-11, 6.555822952016551e-11, 1.249091697190684e+02, -3.891820753101867e-01, -1.310016387065214e+01, -2.121237428124859e+02, 5.154992010092226e+02, -5.989413733139970e+01, 9.463383313144403e+02
9765, 7.743314538466953e-01, 9.999096535100411e-01, -3.434668730276896e-03, -7.221777680186074e-10, 5.189670187825275e-10, -2.629733124297185e-09, 3.193245132359943e+03, 3.073070920278982e+03, -2.581084496243961e+02, 6.034089135673966e+03, 1.025206959623587e+02, -9.674763665684719e+02, 3.386097405032474e+03
9766, 4.385401652176902e-01, 4.027260249084291e-01, -1.444116977162924e-02, -1.725425671231019e-09, 6.720075637092895e-10, -5.444769396035099e-09, 3.822515010442693e+03, 3.826579638346994e+03, -3.574146207604663e+02, 5.459242512784643e+03, 3.624712292251847e+02, 9.965568917590551e+02, 2.535549146601237e+03
9767, 3.331749534111985e-01, 7.947309494710537e-02, 5.639116638081584e-02, -4.979983397322712e-10, 7.498861228242692e-10, -1.284381017135265e-09, 3.674054577174503e+03, 3.522452380863584e+03, -5.549709756722783e+01, 7.006009766026588e+03, 6.151529617796743e+02, -9.576267325866465e+02, 3.940262236279709e+03
9768, 6.845966276038447e-01, 7.001855822864552e-01, -6.857331658060795e-03, -9.079222168526024e-10, 4.928391894006728e-10, -2.971072969182631e-09, 3.320518853493755e+03, 3.085651569264089e+03, -1.920625900519695e+02, 6.285144318777222e+03, 2.070139636730806e+02, -3.569595928988812e+02, 3.187781240023350e+03
9769, 4.881532093867827e-01, 2.887729255823516e-01, 1.636215081654753e-02, -1.291646901582246e-09, 5.843380068776517e-10, -2.835215924978940e-09, 3.575372655739812e+03, 3.281954894815543e+03, -7.567063948758076e+01, 6.131044157339758e+03, 5.289264924178142e+02, -2.225679083540886e+02, 2.893528551413708e+03
9770, 5.077381965669797e-01, 8.745082402732833e-01, -3.591800163525199e-03, -5.568098931927522e-10, 1.103291694391837e-09, -6.435510073756024e-09, 6.734739233597500e+03, 7.027494890541076e+03, -1.883455450729864e+02, 1.742708716692665e+04, -3.398852882360470e+03, 6.101324238378364e+02, 1.213101704158563e+04
9771, 2.941793822610676e-01, 4.609814243001881e-01, -8.093287597749164e-03, -4.198200414501079e-10, 1.270462524296325e-09, -5.204383005062779e-09, 5.398263230719253e+03, 6.454501076332911e+03, 1.000220285365127e+02, 1.252273770541859e+04, -5.051131280570577e+02, -1.221649140284829e+03, 7.044242064106222e+03
9772, 6.162621905414262e-01, 1.065826485539348e+00, 1.849617673142534e-02, 2.229520591715555e-10, 2.546149252352045e-10, -2.013708742365025e-09, 5.094591854309836e+03, 5.607424140863948e+03, 1.954537372179916e+02, 1.074303972186286e+04, -1.318652846318201e+03, -1.493026348982144e+02, 5.888061662300007e+03
9773, 5.193298192179366e-01, 5.832542927631642e-01, -1.098703085069548e-02, -1.623076429198459e-09, 5.545295511580255e-10, -6.426335009211429e-09, 6.694968322190614e+03, 6.126831232245578e+03, -8.178161661218982e+01, 1.215695573451293e+04, 2.771830080974541e+02, -7.970365130081127e+01, 5.790410853606582e+03
9774, 4.717496430732457e-01, 1.679355352245621e-01, 5.192639354769971e-02, -6.107107575006653e-10, 3.122389616177001e-10, -1.064483084125596e-09, 3.230482595307085e+03, 3.121234721043499e+03, -8.031699372923062e+01, 5.811041918291684e+03, 8.101687463085648e+02, -3.761208256374005e+02, 3.060394650251197e+03
9775, 6.840989065034851e-01, 6.068713269726854e-01, 3.719590029433969e-02, -5.747416421794419e-10, 2.041778582094032e-10, -6.275459733183798e-10, 2.212686012506178e+03, 2.180063459616653e+03, -6.716503505294338e+01, 3.723266075546088e+03, 6.762220387725256e+02, -1.879561263650664e+02, 1.955387433500470e+03
9776, 7.660032305136444e-01, 1.130213384631212e+00, -2.486970458884095e-03, -1.049946321175629e-09, 9.862232308790765e-10, -2.857008100943123e-09, 4.282454984644882e+03, 3.909939202480778e+03, -3.495960682712416e+02, 8.252735111458525e+03, -6.567869420369141e+01, -1.768772694395833e+03, 5.210196554735070e+03
9777, 9.574406296111038e-01, 8.456728316772898e-01, 8.715486174216448e-03, -2.885862821289196e-10, 9.698677819515739e-11, 1.286286015212796e-10, -3.358771387046617e+02, -4.208155901159394e+02, -2.203947067196140e+00, -8.082552984958887e+02, 3.346238438239253e+02, -1.407797827446687e+02, 7.652603226393916e+02
9778, 6.547855727653629e-01, 7.387950370953600e-02, 9.325496776036422e-03, -6.147127403791573e-10, 2.476923886817259e-10, -8.584981438143033e-10, 1.400920005130621e+03, 1.125395051286748e+03, -2.304191289124553e+02, 1.928644336907358e+03, 3.485654069242383e+02, -1.626013185609183e+02, 1.050189607979100e+03
9779, 7.729281007259969e-01, 5.200347614872247e-02, 2.049964233760984e-03, -3.839725740107127e-10, 6.839321819657233e-11, 1.705972101520125e-10, -1.783995504652699e+02, -1.327891604626955e+02, -1.320891991043826e+02, -3.776402790171534e+02, 1.574711357256640e+02, -1.974984233955965e+02, 5.427850863603962e+02
9780, 9.149718875566946e-01, 8.787053606429506e-01, 1.427442823327674e-02, -3.733938825164530e-10, 1.128144362613002e-10, -2.912446749372157e-11, 2.394196668984696e+02, 1.195810689693064e+02, -4.162664303873400e+01, 1.615274442204103e+02, 4.023503080656800e+02, -1.346418661864033e+02, 7.458786315320801e+02
9781, 7.020850171439562e-01, 9.226884251298697e-01, 3.029563195884562e-02, -8.002149657052140e-10, 3.306942327555956e-10, -1.160723458017429e-09, 3.507998048650767e+03, 3.408765097236093e+03, -1.673435983663841e+01, 6.146715428267538e+03, 8.700689514884049e+02, -3.161649908399850e+02, 3.131502077820642e+03
9782, 8.367874558390165e-01, 4.418917898535365e-01, 3.500492611550868e-03, -4.948457192454385e-10, 1.028246725913514e-10, 3.290303465149055e-10, -2.985783511663647e+02, -4.310315312535399e+02, -1.737882404505189e+01, -8.954659737472904e+02, 1.313251494031321e+02, -9.783722054217365e+01, 6.132865035879098e+02
9783, 4.597290534868017e-01, 4.428261676597509e-02, 5.456026734367857e-02, -2.795958529033126e-10, 4.958881053149800e-10, -6.947512717520659e-10, 2.239314108228605e+03, 2.278835386480451e+03, -1.221337449421508e+02, 4.012532803532089e+03, 3.696925508119371e+02, -6.666977457292528e+02, 2.205450511158590e+03
9784, 2.279093365112385e-01, 8.064328541547200e-02, 1.369769085623949e-02, -1.040483366857608e-09, 1.648622627543033e-09, -5.091481716801327e-09, 4.862666711255692e+03, 4.574254280351684e+03, -2.094307302449626e+02, 1.019187228092181e+04, 6.339003372597576e+02, -1.081143095264976e+03, 5.904600464854435e+03
9785, 3.605768302960963e-01, 4.639024249427184e-01, 8.155345546935601e-03, -1.630586787604327e-09, 7.528726050826546e-10, -5.435188749152457e-09, 5.625522584276000e+03, 6.407366232142059e+03, 4.655361435876496e+02, 1.247036856952322e+04, 8.179616461547826e+02, -3.642918262327109e+02, 6.720645636243325e+03
9786, 7.197342939781026e-01, 3.646616622453314e-01, 3.312845790216844e-02, -5.122005342356617e-10, 1.285613257486409e-10, -2.191008081664540e-10, 1.072406223323732e+03, 9.036067073754448e+02, -2.761392965430364e+01, 1.405758043278871e+03, 6.473477797474749e+02, -1.456449557995176e+02, 1.232472607774725e+03
9787, 5.257044661145273e-01, 1.961863054166788e-02, -1.094066307599748e-02, -2.882590149521799e-10, 3.645432717092156e-10, -7.347056436743336e-10, 1.030583102720312e+03, 1.670754016183454e+03, -3.146287144020242e+02, 1.349654829498170e+03, 7.070539989358197e+01, -1.083730119079571e+03, 2.035374531623947e+03
9788, 9.920569711976467e-01, 1.186310807996952e+00, 8.721438332946356e-03, -2.692276745302637e-10, 1.210602795868414e-10, 1.194911735955109e-10, 3.362113421642646e+01, -8.220416365041482e+00, -3.458239809569386e+01, -3.294862436435902e+02, 2.715960877477266e+02, -2.010934171060881e+02, 6.816168470028989e+02
9789, 5.102755192589226e-01, 1.288044970486519e-01, 5.214101338279871e-02, -4.754784512993732e-10, 2.615554699717173e-10, -8.091306254671320e-10, 2.754180581629342e+03, 2.647018052715022e+03, -9.208887394975881e+01, 4.910645277510349e+03, 7.144337219788209e+02, -3.044559069791515e+02, 2.593777922608365e+03
9790, 8.431937659343585e-01, 1.485745080667272e+00, 1.426093202536947e-02, -9.253445560676489e-10, 5.790507734002090e-10, -2.133775573502437e-09, 5.482404241770162e+03, 6.693689957491968e+03, 2.990113812799766e+02, 1.127571008747745e+04, 1.213196621900095e+03, 8.554755695107271e+00, 5.718062450639578e+03
9791, 7.110390016391457e-01, 4.372628326791754e-01, 3.568820970944935e-02, -4.872696987180773e-10, 1.433382759941517e-10, -3.542792712002378e-10, 1.410174823834289e+03, 1.232473946994704e+03, -3.150878026723231e+01, 2.216844703839120e+03, 7.397542944793871e+02, -2.319832957075070e+02, 1.622275022522177e+03
9792, 6.375423346642114e-01, 1.931170406259496e-01, 1.768920474769141e-02, -7.392955123446640e-10, 2.601036198087332e-10, -1.026625122511249e-09, 1.868910871363227e+03, 1.728814612793687e+03, -1.038811541513959e+02, 2.833158068523637e+03, 3.219911660388275e+02, -1.612115396013511e+02, 1.227136235567083e+03
9793, 4.509325834891433e-01, 1.249284298155229e-01, -1.692057516648720e-02, -1.337623979960130e-09, 3.778257318320458e-10, -5.067314868741215e-09, 3.503214497010370e+03, 3.464142652758386e+03, -4.067960840817046e+02, 6.810167684892486e+03, 1.019792674849140e+03, 7.547754426271397e+02, 4.048717466462926e+03
9794, 6.634123932824452e-01, 8.320795774194462e-02, 3.627743441821717e-02, -3.836787311454564e-10, 1.341312821458385e-10, -3.255469570184629e-10, 1.122520984021369e+03, 9.908961509472232e+02, -1.212512770043422e+02, 1.852408002629274e+03, 5.295171812497625e+02, -1.408386247310450e+02, 1.261312380218086e+03
9795, 6.350630520276652e-01, 2.956045963110419e-01, 1.695429742312951e-02, -8.957434391054852e-10, 2.166925411118737e-10, -1.051817129741982e-09, 1.896735412226490e+03, 1.756716058063291e+03, -1.048385295077155e+02, 2.780503944793662e+03, 3.785534017305191e+02, -4.996686760461889e+01, 1.181003127482709e+03
9796, 5.028643457622244e-01, 5.071511254604242e-02, 4.999532212056580e-02, -3.691395678899263e-10, 4.924937301369191e-10, -7.304538889304717e-10, 2.067579073093303e+03, 2.078724627277965e+03, -1.715614403882307e+02, 3.749528335117899e+03, 5.158545050118054e+02, -6.224896025720383e+02, 2.204411213273394e+03
9797, 8.043080250756093e-01, 9.169714953682502e-01, -1.940105090251748e-03, -5.099455380880596e-10, 3.564022093961340e-10, -1.265602406334645e-09, 2.085195363174949e+03, 1.684299199619981e+03, -4.760841886247509e+01, 3.355782847829109e+03, -3.001687289310339e+02, -2.035041465234881e+02, 1.638849972771277e+03
9798, 3.304259017725604e-01, 6.931711436179638e-02, -1.886855670536624e-02, -1.003204101925163e-09, 8.649319927219954e-10, -6.497234120431391e-09, 4.825477265071046e+03, 5.536450205153997e+03, -2.082865487832106e+02, 8.090926498121135e+03, -3.008314920295923e+02, -7.560205225983090e+02, 3.311094212494737e+03
9799, 4.605926254016542e-01, 5.536410827680267e-01, 8.022907616769919e-03, -1.831765878244396e-09, 8.801453237766871e-10, -4.830057093910899e-09, 5.008765965884621e+03, 4.509982804818952e+03, -1.894315469929053e+02, 1.027924751310928e+04, 1.193553144994928e+03, -6.101408381937787e+00, 5.919211076839908e+03
9800, 7.632679864424926e-01, 1.292000238259400e+00, -2.676055015502849e-03, -6.569192120180749e-10, 5.545449407895425e-10, -2.694021470322803e-09, 5.110306986191512e+03, 4.815851580115054e+03, 3.038221535953298e+02, 9.634604588021639e+03, 9.560600947060843e+02, -1.319164253929050e+02, 4.995944246149128e+03
9801, 3.910145945829928e-01, 1.476237424227665e-01, 3.290230884639808e-02, -1.139299993117260e-09, 7.439882332054538e-10, -2.712816652683629e-09, 3.977300685272351e+03, 3.763623813682842e+03, -1.128928367928429e+02, 7.314026426390230e+03, 6.562721643445178e+02, -3.036051901828253e+02, 3.674128436513994e+03
9802, 5.511666535852295e-01, 8.363880034176849e-01, 2.937029476490218e-02, -8.126858762343549e-10, 6.213018404658633e-10, -2.229970153517765e-09, 5.616531105909695e+03, 5.838115887642085e+03, -3.604075775931611e+01, 1.185104701110144e+04, 8.827123641354112e+02, -5.999318364426372e+02, 6.399844476915800e+03
9803, 7.762949202828179e-01, 3.024656364250995e-01, 2.689294860548398e-02, -3.962399006639824e-10, 3.587966714783893e-11, 6.080809379719909e-12, 2.466059767204839e+02, 1.522964433902159e+02, -2.307582360054042e+01, 1.316824218572540e+02, 4.901109731228075e+02, -4.883735382789590e+01, 8.606058127441316e+02
9804, 5.605890171455015e-01, 1.456394520610925e-01, -1.235316239367005e-02, -7.775070476698576e-10, 7.410048165339859e-11, -2.781935287881328e-09, 2.353073860952757e+03, 2.536973456991495e+03, -3.034270686955635e+02, 4.287791278470869e+03, 1.150383563142691e+01, 1.067343419291901e+03, 2.667475153101132e+03
9805, 8.360250886725034e-01, 1.061377557027441e+00, 2.410003241080063e-02, -4.365004089978992e-10, 2.460300707998562e-10, -5.749025840857139e-10, 2.284783859381507e+03, 2.030923552601179e+03, 9.548353048474569e+01, 3.443674714742113e+03, 5.748216955457111e+02, -3.034539083333906e+02, 1.731049837614117e+03
9806, 4.747826536991832e-01, 2.174818887473394e-01, -1.534247144576343e-02, -1.013611778071353e-09, 1.046172093829480e-09, -3.984089479379396e-09, 3.170342700569663e+03, 2.536865301930713e+03, -2.935739922402945e+00, 4.908035190301505e+03, -7.903075691923107e+02, -6.781927599433135e+02, 2.788418547829545e+03
9807, 6.516530426209600e-01, 3.089347151861895e-01, 3.924740887790100e-02, -5.452810026459057e-10, 1.474070513720334e-10, -4.692923343408735e-10, 1.726660815193114e+03, 1.646346013479388e+03, -4.038625944757386e+01, 2.783955964017899e+03, 7.189771826700502e+02, -1.867667777771147e+02, 1.693978498870105e+03
9808, 6.969029254211150e-01, 5.901332762753914e-01, -6.615949711731732e-03, -9.463474303705607e-10, 5.642585008902558e-11, -2.255219415737277e-09, 2.416655258958195e+03, 2.489397108081650e+03, -7.377218740049048e+01, 4.456949094506660e+03, 4.610217099252689e+02, 6.241029459493004e+02, 2.417051734041823e+03
9809, 5.561666051569308e-01, 8.294969746867666e-01, -1.025198230158810e-02, -1.062779675647894e-09, 4.768061641901440e-10, -7.144237498405355e-09, 6.526650192178194e+03, 7.724286710645661e+03, -4.531728378988355e+02, 1.416401873715980e+04, -1.648461263949535e+03, 1.271709467178398e+03, 8.014801646563951e+03
9810, 6.916323230885245e-01, 6.626241524398442e-01, 3.635568493898742e-02, -5.464896872858975e-10, 2.682965251889955e-10, -6.107609334309224e-10, 2.287470922629582e+03, 2.109371324641519e+03, -6.144677601983357e+01, 3.788834882012777e+03, 7.568057617252929e+02, -4.135370569554626e+02, 2.189939774778261e+03
9811, 3.111225145675538e-01, 3.805682282633071e-01, 1.002207946702743e-02, -1.216750433388894e-09, 2.877837128169037e-10, -5.379155068232844e-09, 5.764621678811822e+03, 6.748025197517361e+03, 1.730685971666817e+02, 1.244384067848529e+04, 2.284758906938575e+02, 5.940814998556488e+02, 6.349483590103269e+03
9812, 8.083111289792181e-01, 7.676007762433986e-01, -4.981870780234321e-04, -6.905603591143232e-10, 3.698507340725369e-10, -7.384399129058042e-10, 1.097125443469184e+03, 8.979900929488823e+02, -2.288221453495259e+01, 1.877463378444857e+03, 5.331711535909616e+02, -3.968301865036540e+02, 1.459720132027645e+03
9813, 1.828015879776986e-01, 2.426456678845166e-01, -9.212194509751945e-03, -5.687691614983678e-10, 9.411228637203845e-10, -3.828501565844082e-09, 3.652378757292129e+03, 4.502985917180060e+03, -2.150646755940983e+02, 7.525305533482912e+03, -1.605663230831616e+03, -7.197348196454125e+02, 4.675043466863990e+03
9814, 8.082346337349587e-01, 7.160817359653756e-01, -7.366945767608261e-04, -5.943212939304202e-10, 2.182459506802212e-10, -3.633277901001698e-10, 7.168882312348217e+02, 5.685017148313090e+02, 9.897279652853351e+01, 6.987670493558054e+02, 2.001485667764354e+02, -3.255316180889687e+01, 4.152135729575906e+02
9815, 3.209294898600154e-01, 5.568889386091148e-02, 3.304171156973976e-02, -6.826996372007494e-10, 1.350524249124720e-09, -2.379699731089725e-09, 3.655429909938343e+03, 3.788896843704337e+03, -1.820346078271376e+02, 6.308424703646238e+03, 3.469861004886417e+02, -1.110779820597393e+03, 3.296090260310413e+03
9816, 3.616466195091898e-01, 3.741372835930559e-01, 4.102036062725005e-02, -8.689978361980765e-10, 4.462015246645616e-10, -2.156782538649732e-09, 5.251249434575120e+03, 5.490489640258366e+03, 1.485469555583004e+02, 1.076851272105601e+04, 8.257471221581440e+02, -4.176636941194470e+02, 5.640264289227041e+03
9817, 1.241029297695850e-01, 5.095077158576506e-02, 5.869958987830976e-03, 1.189543368454230e-10, 9.946466297312682e-10, -4.246256293444962e-09, 3.977875651896089e+03, 3.663487889325573e+03, 5.412107901133119e+02, 9.500617815978163e+03, -1.810910528263346e+01, -1.275265189633079e+03, 6.172067588512052e+03
9818, 2.378488191752915e-01, 2.242439127736764e-01, -1.845476805804028e-02, -1.361613341921507e-09, 9.408014953742798e-10, -7.745715806961189e-09, 6.467002226160813e+03, 6.414427413376924e+03, -4.111812098955452e+02, 1.103062229375982e+04, 8.570229022075162e+01, 1.098975150924591e+03, 5.022131764481333e+03
9819, 6.878790089423622e-01, 3.279418772558390e-01, 3.716176447991403e-02, -4.952880137992613e-10, 1.168388265043079e-10, -3.051523994150609e-10, 1.378427793296102e+03, 1.243585235323514e+03, -6.025167827737876e+01, 2.046499608510682e+03, 7.169456641146367e+02, -1.544036900546953e+02, 1.476154641895351e+03
9820, 4.803786573060632e-01, 1.326116042643377e-01, 8.815848907085642e-03, -9.934041072089752e-10, 6.979516180907147e-10, -3.155986965177203e-09, 3.175590247203053e+03, 3.402926859038255e+03, -1.949290907577760e+02, 5.412853280896075e+03, 2.742442771685892e+02, -2.130040535798366e+02, 2.241461581562475e+03
9821, 3.072532150759610e-01, 5.507435797486465e-01, 4.888000708747312e-03, 5.389901957707043e-11, -1.244375949560530e-10, -1.317197895476873e-09, 3.099909385390831e+03, 2.745889576744777e+03, 5.022140402376839e+02, 5.671997287062186e+03, -3.474088636359940e+02, 7.319547673362464e+02, 3.221419747893990e+03
9822, 5.941001493611706e-01, 2.713467811833321e-01, -1.133456232260796e-02, -1.022992638398310e-09, 3.257134644925856e-10, -2.115266992238866e-09, 1.837781634527260e+03, 1.909591654763687e+03, -3.514944872063805e+01, 2.602381289399644e+03, 4.596087276237083e+02, 8.815296549582612e+01, 1.093436431295869e+03
9823, 2.421050809808550e-01, 1.113846304578991e-01, -2.108187798011507e-02, -1.979039969392861e-09, 1.085988824695391e-09, -8.111846407060757e-09, 5.805726300120183e+03, 5.302970608553073e+03, 4.300777109369095e+02, 8.476786183238703e+03, 2.299448944560595e+03, -7.200798960486933e+02, 5.167500050478940e+03
9824, 7.977986248633169e-01, 5.249009729928344e-01, -2.361454032142676e-04, -6.184303846729152e-10, 1.217993594070612e-10, -1.259893461813777e-10, 4.091737594886844e+02, 3.724922077293467e+02, -3.396789343688315e+01, 5.359369006155749e+02, 1.142770570035714e+02, 1.450378504539606e+01, 2.556062770707935e+02
9825, 4.473298553143624e-01, 3.158869836620797e-01, -1.526170138951772e-02, -1.820774980318390e-09, 7.751274737020476e-10, -4.720010121377940e-09, 3.252239241860845e+03, 3.069720310488612e+03, 1.924719202672140e+00, 5.531141670672017e+03, 1.143719524393668e+03, 4.292669778299236e+02, 3.181156528087623e+03
9826, 5.574070847769663e-01, 3.319217395410508e-01, 4.682636749544399e-02, -6.719127758141906e-10, 1.821439063399790e-10, -8.570888606471641e-10, 2.854702933314597e+03, 2.742775057172295e+03, -2.231655661081541e+01, 4.972846878958179e+03, 9.514860307312036e+02, -1.973364733228360e+02, 2.751442733251246e+03
9827, 7.225474709758032e-01, 6.178197735826984e-01, 3.421841834101223e-02, -5.142244364881861e-10, 2.029414827040270e-10, -4.809179950619656e-10, 1.819416574421045e+03, 1.708814381832005e+03, -3.222507625089543e+01, 2.972807699367229e+03, 6.988794591958986e+02, -2.315293376566176e+02, 1.760494783890322e+03
9828, 8.151541518390599e-01, 8.000942788190566e-01, 2.600518925501237e-02, -4.584968475385989e-10, 1.541287248954241e-10, -2.959507039054946e-10, 1.318685172111711e+03, 1.155660022768215e+03, -1.943040100805958e+00, 1.863444915795616e+03, 5.976917604557527e+02, -1.914475004594596e+02, 1.262467425436605e+03
9829, 2.200934288216139e-01, 4.650869477918693e-02, 4.966011586602682e-02, -2.550925740434198e-10, 9.150605417143835e-10, -1.277036795337047e-09, 3.474989819255100e+03, 3.753235893245473e+03, 8.665986392614593e+00, 6.792662453323061e+03, 1.781888411167729e+02, -1.221643208233445e+03, 3.838483902694472e+03
9830, 9.138372982593879e-01, 1.172170693004351e+00, 2.865110238215725e-03, -5.602846433131373e-10, 3.426802044583054e-10, -5.804998521480270e-10, 1.197748075531812e+03, 1.239667828918698e+03, -7.896305150611472e+01, 2.097993539741107e+03, 3.292041627970682e+02, -6.602041856116934e+02, 1.557530554025165e+03
9831, 7.126266486134749e-01, 8.401409812390473e-01, -6.364060452334539e-03, -1.090656243321708e-09, 1.075674883057706e-09, -3.572215603237655e-09, 3.970354051604532e+03, 3.789153475962559e+03, 1.742660402024311e+02, 7.507074487897031e+03, 9.150908805628475e+01, -1.999049940356557e+03, 5.028609207530027e+03
9832, 8.233899966704278e-01, 2.031723590449558e-01, 5.349855200775369e-03, -5.736513628657170e-10, 6.611665069347494e-12, 3.669572874235510e-10, -5.474658727530841e+02, -7.057163876766385e+02, -2.785231333003653e+01, -1.257863824966368e+03, 5.187927977780740e+02, 9.398613957412441e+01, 1.119621798953939e+03
9833, 5.755099121359227e-01, 9.334567225691670e-01, -7.860499294896652e-03, -2.492892147319123e-09, 8.597741922621885e-10, -6.497461635189418e-09, 6.949161459538536e+03, 6.817771770137019e+03, 3.752797068689910e+02, 1.260600098229077e+04, 4.033898758269599e+03, -9.624009876098730e+02, 9.207524974631828e+03
9834, 5.235239131180597e-01, 9.104196811097983e-01, -5.600514687615073e-03, -1.210699085134929e-09, -3.516490527738355e-10, -6.022322204274900e-09, 7.482232777450326e+03, 8.413619552194341e+03, 6.419635140433458e+02, 1.731119455839879e+04, 3.068886843455687e+02, 1.166200936818908e+03, 9.691252412986285e+03
9835, 4.928749666108549e-01, 6.088928478032305e-01, -1.261011692425624e-02, -1.903961971050426e-09, 1.123578328862844e-09, -5.236190538170477e-09, 4.449220946816476e+03, 3.871610705128967e+03, 1.049295936001440e+02, 6.380511333516654e+03, 8.602302513927405e+02, 1.258404212728273e+01, 2.726269107317763e+03
9836, 5.922703564942332e-01, 8.570943216446614e-01, 3.272387722873923e-02, -8.834025479706890e-10, 3.005308969937844e-10, -1.670578403763422e-09, 4.962274150452628e+03, 4.927663010716497e+03, 6.546383653234281e+01, 9.714292724903675e+03, 1.134130035101710e+03, -1.037804927026895e+02, 5.162486974808505e+03
9837, 4.728302165657425e-01, 5.940388310631999e-01, 3.911914514596865e-02, -8.986058657776595e-10, 4.164370460391304e-10, -1.764392738797533e-09, 5.159795814834220e+03, 5.249401524816186e+03, 9.594326381685542e+01, 1.003856894178259e+04, 1.110190529605009e+03, -4.150794033683848e+02, 5.255030692261010e+03
9838, 7.487359128902483e-01, 5.623960316710012e-01, -2.599778567649518e-03, -8.025880631464729e-10, 3.766666181475097e-10, -7.110776751466955e-10, 1.108972963566140e+03, 1.087709300482373e+03, -6.528513462740625e+01, 1.962571718574747e+03, 2.475594086385797e+02, -3.483385852024057e+02, 1.143632962494548e+03
9839, 5.592634375918479e-01, 4.887719251996852e-01, 4.435229971656583e-02, -7.417494888028034e-10, 3.332178221275234e-10, -1.044319261499850e-09, 3.384361142726255e+03, 3.324919964009282e+03, -3.342821908644268e+01, 6.060457369722663e+03, 1.030902800514285e+03, -4.182371077051534e+02, 3.322724109607591e+03
9840, 7.486296748713648e-01, 9.158128790712025e-02, -1.472781533258805e-04, -4.738833062223468e-10, 6.257081808378024e-11, -6.471568931297751e-11, 2.153244966046923e+02, 1.872778271373610e+02, -7.804057727675793e+01, 2.768833468955009e+02, 1.148293696397784e+02, -1.763609887648274e+00, 2.532593668641182e+02
9841, 8.882137307069564e-01, 2.979873604374601e-01, 7.662575554042789e-03, -5.474276016426208e-10, 6.225286221260553e-12, 6.167098475883395e-10, -1.515683836247933e+03, -1.710171440135828e+03, -1.789577401600392e+01, -3.714093951279835e+03, 7.320601235844298e+02, -9.269823799580756e+00, 2.460126741656869e+03
9842, 6.795549235303771e-01, 3.878444743863532e-01, 1.602971082510167e-02, -9.157908040526726e-10, 2.169129657475427e-10, -9.289696356932163e-10, 1.472759205699302e+03, 1.321201973001263e+03, -2.177618887818908e+01, 2.682286455160764e+03, 7.515558615623740e+02, -1.924629141974430e+02, 1.864482644368332e+03
9843, 5.878153546689381e-01, 7.639140216820761e-01, 3.657829502907503e-02, -8.063334173137378e-10, 4.255987710505273e-10, -1.302207912263997e-09, 4.152881906891762e+03, 4.262510779884838e+03, -1.153530786220009e+02, 7.616640500525763e+03, 1.052438319141064e+03, -5.051129003706400e+02, 3.969651055851332e+03
9844, 8.826501781233403e-01, 1.217953984677722e+00, 1.925716284496393e-02, -4.048104054109804e-10, 1.625727115842075e-10, -5.837800831180424e-10, 2.103711517017457e+03, 1.891839404075271e+03, -1.130212139479835e+02, 3.379349509335874e+03, 6.883918491574670e+02, -3.134604070239887e+02, 1.922799489065787e+03
9845, 5.507512095950902e-01, 9.412849111041501e-02, 4.901931807420853e-02, -3.962693340869334e-10, 2.788645129848117e-10, -6.295463714185942e-10, 2.207196536150279e+03, 1.954677963179098e+03, -8.147245005150747e+01, 3.837345880357575e+03, 5.633149387795706e+02, -3.641324077499964e+02, 2.121899425626559e+03
9846, 4.810610947796865e-01, 6.869080311025607e-01, 1.567197651172222e-02, -1.382705378018221e-09, 4.508820665164174e-10, -3.667602263628337e-09, 4.840432161049040e+03, 5.437676061967543e+03, 2.424559334456764e+02, 1.089190628535093e+04, 8.538113976534960e+02, 1.960137890293298e+02, 5.986771576210444e+03
9847, 3.595200238749332e-01, 4.844384511175224e-02, 1.163790989269609e-03, -7.450787313995849e-10, 1.195543213664082e-09, -3.298493418122540e-09, 3.392203295103832e+03, 3.542437825855695e+03, -2.587238246362886e+02, 5.825528700289507e+03, 2.410242154429432e+02, -1.398534029569957e+03, 3.438147438159988e+03
9848, 3.672216040090984e-01, 2.371707992557914e-01, 4.943226289279784e-02, -8.122559758490383e-10, 5.181500003292946e-10, -1.743167613896455e-09, 4.625410252494441e+03, 4.707835340129673e+03, -1.960446769003845e+01, 8.977484028999248e+03, 8.947283053473583e+02, -5.550882960230887e+02, 4.681426947477023e+03
9849, 9.838513104398494e-01, 1.158733678392835e+00, 9.300484365293531e-03, -3.183613301362945e-10, 3.462833256180685e-11, 6.283045814725945e-11, 8.491677042541940e+01, -1.087420277037439e+01, -4.436554469052149e+00, -1.820696056052608e+02, 3.532396286919634e+02, 2.354595141376717e+01, 6.564600072416549e+02
9850, 6.912566724427602e-01, 4.699554943296805e-01, 3.735534943850237e-02, -4.932369878645819e-10, 1.491323568874840e-10, -4.283617255940775e-10, 1.613998276880909e+03, 1.540139605379819e+03, -4.272418629928384e+01, 2.630438056353013e+03, 6.948876606566093e+02, -1.542317850418092e+02, 1.624537719493357e+03
9851, 7.336985590722422e-01, 1.157377579268705e+00, 2.502709861414992e-02, -8.142210855040005e-10, 4.253713654621818e-10, -1.591105756198923e-09, 4.446225989859704e+03, 4.641167634054744e+03, -7.799740325865312e+01, 9.189614444625293e+03, 9.623116984434133e+02, -3.367568805428239e+02, 4.974902021389405e+03
9852, 2.937798869991985e-01, 2.498116836707598e-01, 4.294113911529855e-02, -7.469780782332590e-10, 5.524940654047387e-10, -2.087399448165511e-09, 5.248529924568731e+03, 5.508428326788188e+03, 2.106595323266810e+02, 1.062098643376352e+04, 6.283879463642667e+02, -5.430098512744715e+02, 5.453152198936296e+03
9853, 7.744293273522957e-01, 2.895067847015253e-01, 4.259424969064694e-04, -6.075672657816531e-10, 9.467640764992015e-11, -4.880445406524417e-11, 2.455651095495994e+02, 1.900894484098117e+02, -1.111813776172456e+01, 2.463987978539719e+02, 2.214094818763234e+02, 1.497075265471548e+01, 3.888883884692277e+02
9854, 6.049403156716033e-01, 4.627006681779964e-01, 4.344522397995495e-02, -6.309770300222293e-10, 2.283142467776139e-10, -7.377692470878247e-10, 2.797744641429339e+03, 2.724388808964483e+03, -9.094791486037582e+01, 4.622561829266378e+03, 8.649013782707566e+02, -2.566370417388695e+02, 2.436342606598219e+03
9855, 9.464819478185600e-01, 1.392673890758327e+00, 1.465431085979129e-02, -4.564879521601380e-10, 1.850903789490390e-10, -4.737717028609608e-10, 1.901745807526300e+03, 1.921568455451963e+03, 3.408034041640290e+01, 2.975158458432989e+03, 4.689508893649246e+02, -2.646171595527370e+02, 1.415848055952991e+03
9856, 5.942407207875982e-01, 2.164858413790285e-01, 1.320478330661073e-02, -8.967751916960262e-10, 3.994674377303083e-10, -1.553886430209022e-09, 1.836043616051707e+03, 1.845249566727845e+03, -3.004394855970520e+01, 3.594067435263112e+03, 3.384446452317091e+02, -3.261389428594793e+02, 1.933905452243489e+03
9857, 6.490829783856343e-01, 9.366306102792412e-01, 2.936907376995464e-02, -8.656843831767997e-10, 5.123179077448080e-10, -1.476956055128571e-09, 4.349382042186469e+03, 4.387875242491344e+03, -4.983107483723725e+01, 7.897594977166856e+03, 1.008325973634841e+03, -5.347124005794816e+02, 4.045995545793392e+03
9858, 9.116702990342859e-01, 4.443986767085109e-01, 8.413253403935707e-03, -3.705590799102213e-10, -1.131193080866712e-10, 6.286948441246761e-10, -1.323857772560873e+03, -1.389228143330653e+03, -9.076973315969286e+01, -3.037119793381080e+03, 6.217926177054917e+02, 3.502518225961094e+02, 2.092885112279505e+03
9859, 7.752118390160612e-01, 1.204861223289361e-01, 2.345538813815035e-02, -3.704463628654689e-10, 4.717082146469856e-11, 8.477133883119437e-11, 1.633554125966667e+01, -8.427021140909805e+01, -3.847313143299478e+01, -3.363862236632714e+02, 4.853293129701624e+02, -3.160967825871575e+01, 9.017316724877659e+02
9860, 9.150201934222949e-01, 1.136624114703730e+00, 1.755653174849587e-02, -3.804223227480069e-10, 1.978815389636060e-10, -4.912568228760417e-10, 1.529966057374765e+03, 1.369832591179179e+03, 2.517977076830985e+01, 2.668425460919269e+03, 3.119182468972460e+02, -3.556050749591229e+02, 1.475528359519904e+03
9861, 8.180701972646265e-01, 6.468021787233869e-01, 2.406986316024279e-02, -4.316582950799434e-10, 1.090119616340234e-10, -1.083655095803308e-10, 6.662314498668050e+02, 5.483488489803470e+02, -4.865931117423322e+00, 7.628829670506445e+02, 5.922227126397222e+02, -1.196342803795971e+02, 1.062931180591082e+03
9862, 3.464515751440970e-01, 5.316288029360358e-01, 2.396503591979938e-02, -2.701196486089290e-11, 3.047726425078386e-10, -2.252125000261272e-09, 5.129254670615680e+03, 5.512166454913709e+03, 7.042096055208285e+02, 1.111875387478219e+04, -9.062436560460366e+02, -2.982569018879371e+02, 6.160008933468553e+03
9863, 5.370620570169877e-01, 2.258995207724972e-01, 9.883083236116407e-03, -1.161717564093987e-09, 6.668815271705393e-10, -2.634431664833750e-09, 3.098770020020856e+03, 3.078991075778087e+03, -8.499096380231212e+00, 5.243626316052226e+03, 4.341574998457589e+02, -6.282860607544192e+02, 2.528467472738861e+03
9864, 4.059668430423362e-01, 4.066623748964330e-01, 4.468913375221086e-02, -8.786786903936997e-10, 3.865739518081971e-10, -1.699749494083340e-09, 4.870424888831756e+03, 4.931317413300630e+03, 7.848105125132109e+01, 9.427718705857556e+03, 1.045304593444672e+03, -3.939772070691851e+02, 4.925164640241880e+03
9865, 4.805248232509922e-01, 1.351025939405830e-01, 3.222933031044630e-02, -8.755280916327977e-10, 5.498756801126927e-10, -1.961919367593483e-09, 3.009817432893948e+03, 2.882201116240841e+03, -2.181145569107200e+02, 5.543840576766414e+03, 4.965749426281306e+02, -2.482663471779799e+02, 2.797915716397279e+03
9866, 3.032684108880782e-01, 4.851501546269200e-01, -5.867206216784271e-03, -1.148583513930575e-12, 6.592607027164875e-10, -5.052566568229498e-09, 4.593710566283376e+03, 5.830055243439719e+03, 4.832008475167783e+02, 1.440858352344881e+04, -1.930469328778998e+03, -7.015382592449655e+02, 9.954032642161596e+03
9867, 5.406083167812425e-01, 2.998128515291802e-01, 4.859931862716654e-02, -5.929308360069403e-10, 2.275209957833492e-10, -9.122246167667430e-10, 2.921944486810456e+03, 2.883772202257828e+03, -5.258060057198303e+01, 5.274711756935659e+03, 8.816867317698667e+02, -2.760976734133262e+02, 2.862844715628332e+03
9868, 7.568968206894013e-01, 2.583331211837608e-01, 2.216637485230356e-04, -6.329080918101070e-10, 1.309582904945504e-10, -1.649026368641836e-10, 4.464949820917316e+02, 3.476049308778457e+02, 1.472233079137646e+00, 6.250116341296957e+02, 2.387843641121606e+02, -1.503779961711398e+02, 5.460787520018526e+02
9869, 2.153724207422378e-01, 2.494420724389615e-01, 7.657608971199189e-03, -7.754772582850619e-10, 7.769875319671394e-10, -5.602036581306869e-09, 5.602698031346707e+03, 6.510322348027070e+03, 2.430442060182481e+02, 1.467037525372706e+04, 1.706793537130702e+02, -8.083940433339592e+01, 8.666067076715470e+03
9870, 4.940685033516230e-01, 3.481993924462889e-01, 1.501985303469224e-02, -1.428219406686344e-09, 7.034959171746597e-10, -3.172665956258187e-09, 3.950903822398853e+03, 3.644601920417973e+03, -1.999761088044620e+02, 6.792834724477954e+03, 6.019798160381337e+02, -2.507948267277786e+02, 3.230585939473549e+03
9871, 8.827691140417513e-01, 1.007245908677302e+00, 2.012738106692297e-03, -4.674624910120663e-10, 2.020043080911366e-10, -4.020826933786063e-10, 8.817122198221971e+02, 8.909703044731981e+02, 3.368907679111755e+01, 1.130639642804076e+03, 2.149514718864000e+02, -3.764793102600964e+02, 7.918164329787172e+02
9872, 4.140912629321134e-01, 9.716591501694664e-02, 3.460307687138391e-02, -8.751513822618507e-10, 8.240503040934352e-10, -2.231310312684189e-09, 3.530445704574855e+03, 3.215248059670043e+03, -2.437045311183113e+02, 6.133879861302104e+03, 5.965006875623963e+02, -3.541900771928244e+02, 3.052831802970553e+03
9873, 2.024554815632031e-01, 1.190571306350366e-01, -2.024935980113672e-02, -8.276529629415929e-10, 1.288594129109731e-09, -1.022034857137801e-08, 8.283276948071329e+03, 7.219431369927909e+03, -1.655050147077463e+02, 1.523032421042293e+04, -1.109081700940246e+03, 3.860729076883742e+02, 7.810463356844001e+03
9874, 9.257486606180032e-01, 1.530764471083826e+00, 1.729433995993276e-03, -1.081543731299572e-09, 1.061592096977620e-09, -1.616720259295142e-09, 3.904813042623467e+03, 4.458055121792116e+03, -5.601031430326578e+02, 5.676559181560638e+03, 6.812292629833993e+01, 4.675150517553348e+02, 2.018845319472968e+03
9875, 2.494599549438093e-01, 3.404768513845991e-01, 2.759495459151783e-02, -1.132072037939520e-10, 1.847465913817898e-10, -2.165727737844608e-09, 5.354467193322474e+03, 5.704579505216255e+03, 1.709683420093253e+02, 1.194667844234744e+04, -8.396611455891478e+02, 4.980990758970049e+01, 6.594091262838981e+03
9876, 2.987264450896044e-01, 2.013145429320736e-02, 3.013616952587487e-02, -3.831088295741190e-10, 7.849634555076893e-10, -1.063202501625415e-09, 2.921526998823382e+03, 4.546779631392204e+03, -4.471317865527578e+02, 4.014691488790353e+03, 2.276939892211760e+02, -1.486343311078205e+03, 3.072905747599130e+03
9877, 6.402114100761673e-01, 6.640853506271131e-02, -5.998834328851815e-03, -6.133979261875052e-10, 2.686301662799461e-10, -1.098817981195003e-09, 1.012109139591656e+03, 1.184108180697289e+03, -1.485977116852132e+02, 1.802695072343906e+03, 3.561337965913929e+02, -3.924835856128762e+02, 1.194779286214268e+03
9878, 5.664465943932173e-01, 5.278498003342989e-02, 1.554231735638730e-02, -4.818467682095753e-10, 4.681098983323942e-10, -9.605865349776362e-10, 1.889440334572835e+03, 1.671141976195971e+03, -2.096904054641252e+02, 2.243304263560804e+03, 1.655112280927584e+02, -3.519321205002887e+02, 9.142114191589566e+02
9879, 6.496213341061923e-01, 4.185802761126707e-01, 1.663896639744665e-02, -9.423065878095698e-10, 2.333609665809385e-10, -1.285706918210790e-09, 1.980159696335595e+03, 1.993697770041729e+03, -7.940532664144456e+01, 3.631676450328783e+03, 3.449323216985822e+02, 1.183760264483158e+02, 1.767263902444877e+03
9880, 4.111400913940503e-01, 3.799356137305680e-01, -1.581368412862057e-02, -2.120835732746609e-09, 1.632943710170298e-09, -8.181524658074614e-09, 7.107635798098255e+03, 6.768691014702508e+03, 4.665520579786232e+01, 1.368409272119241e+04, 7.817800932569656e+02, -1.373306089762963e+03, 7.286405445120155e+03
9881, 1.981975734635148e-01, 4.387140740668079e-02, -3.686534673538022e-03, -3.714125323880657e-10, 1.646680991776483e-09, -4.671225025530056e-09, 4.517441032680599e+03, 5.092229717139133e+03, -8.652403297152334e+02, 9.281459504986789e+03, -5.276972749243502e+02, -1.543885433129199e+03, 5.524492062089843e+03
9882, 8.423931441400757e-01, 9.323897775628129e-01, -2.905364792652812e-04, -6.570805255853644e-10, 4.382068493128995e-10, -9.868860742657801e-10, 1.651314778231641e+03, 1.336058003582671e+03, 6.183878362403014e+01, 2.870854975574967e+03, 6.315082619647397e+02, -3.409778471429445e+02, 1.878246861587604e+03
9883, 8.749489324856990e-01, 1.173754055929727e+00, 1.468712544885979e-03, -7.455824040139148e-10, 1.873786209856299e-11, -1.057793407959805e-09, 1.929705321243375e+03, 2.213736147216081e+03, -6.651317693121193e+01, 4.013970159030845e+03, 7.581284795704241e+02, 5.358560958976298e+02, 2.536101656080255e+03
9884, 4.351692176223196e-01, 7.206551620107950e-01, 2.020585395908865e-02, 1.502335604896386e-10, 2.843000403253855e-10, -2.178685618092435e-09, 4.821813724296248e+03, 5.102579285819133e+03, 3.520428019127058e+02, 1.071815932838573e+04, -1.005011380162025e+03, -3.206185492783827e+02, 6.074583507308361e+03
9885, 7.002013750683620e-01, 8.907556625411713e-01, 3.093064424435855e-02, -7.789069586649144e-10, 2.491520995466521e-10, -1.162252724429529e-09, 3.456204802420424e+03, 3.394755429668562e+03, -3.528406835618647e+01, 6.219023055782834e+03, 9.497829744138514e+02, -1.942631625122667e+02, 3.260356835692528e+03
9886, 8.751348533287403e-01, 9.162825672966032e-01, 1.952556930740545e-02, -3.888052233525835e-10, 1.344257040944685e-10, -1.866030125950801e-10, 9.271438389654974e+02, 7.846321951826463e+02, -4.482635956175449e+01, 1.303851465951640e+03, 4.957874093572223e+02, -4.929948640380808e+01, 9.831777150829384e+02
9887, 4.674913508918520e-01, 1.875595047663445e-02, -1.125500944718246e-02, -2.758476740614422e-10, 3.961346469536820e-10, -1.014070784175191e-09, 1.618117594434807e+03, 2.002122975686132e+03, -2.098106450274619e+02, 2.051278200543709e+03, 2.259175553640518e+02, -1.412032599105699e+03, 2.536816542125152e+03
9888, 3.562202840336378e-01, 5.850519657305098e-01, -7.343613594484389e-03, 6.391191112184246e-11, 3.363435401740811e-10, -4.787570077244173e-09, 3.365972014498315e+03, 3.686721621163325e+03, 2.462045333235743e+02, 9.434929923276068e+03, -2.427490405388967e+03, 1.801628380369265e+03, 7.911136961960303e+03
9889, 7.981284132327330e-01, 1.082023216384387e+00, 2.441240810926429e-02, -6.129204962993236e-10, 3.753107886022691e-10, -8.906108297419271e-10, 3.068393487006137e+03, 2.870156244993403e+03, 9.912146903228907e-01, 5.043375639715689e+03, 5.760053616636405e+02, -5.234264072224858e+02, 2.479645662482561e+03
9890, 5.409596929410005e-01, 3.563969087520981e-01, -1.256341693640310e-02, -1.179289492559116e-09, 1.101172559189012e-09, -4.206041481855954e-09, 3.555537205272079e+03, 3.323504613675602e+03, -3.594994242451116e+01, 6.276968534502774e+03, 6.809857621078430e+01, -1.663256093361450e+03, 4.050745648284193e+03
9891, 6.339362072686640e-01, 1.084160415921993e+00, -4.435836544796252e-03, -9.426165866650531e-10, 1.153227182601302e-10, -7.347265952966136e-09, 7.821114801742170e+03, 8.364347572261298e+03, 9.106478356935354e+01, 1.962296587768596e+04, -1.330107834870116e+02, -6.675865249010881e+02, 1.160097442886424e+04
9892, 3.675706029180351e-01, 3.190104699537611e-01, 4.606323523882875e-02, -8.783496137085243e-10, 3.819641105129830e-10, -1.810678175044009e-09, 4.950165146693300e+03, 5.057570993381130e+03, 6.818732234668241e+01, 9.643247038604573e+03, 9.361549653524412e+02, -3.204812406754369e+02, 4.948102746814712e+03
9893, 5.584156337924667e-01, 8.666119384154183e-01, -1.007667663591060e-02, -2.639342607094939e-09, 1.807778868871878e-09, -6.972532806953080e-09, 8.121069528074644e+03, 7.498128506557224e+03, -2.342506301991822e+02, 1.462567600587050e+04, 2.611585789562424e+03, -1.898317917522239e+03, 8.842315363130696e+03
9894, 8.681227289526167e-01, 6.129786492569947e-01, 1.798053784201420e-02, -3.909474688801630e-10, 7.856222420973401e-11, 1.093673943611580e-10, 8.250281272789518e+01, -1.318041897503514e+02, -3.366138857398081e+01, -3.865586075416876e+02, 4.199888309868650e+02, -1.269034254768233e+02, 8.638909191772691e+02
9895, 2.024494894545343e-01, 1.731505615852012e-01, -1.674595266851816e-02, -1.252484997697466e-09, 7.501646119242424e-10, -9.884889260286003e-09, 7.506586592663340e+03, 7.589719639741942e+03, 6.249053797679119e+01, 1.617118782088203e+04, 1.811295852957349e+02, 4.534818350203938e+02, 8.665390190397720e+03
9896, 8.971432700085250e-01, 1.445696618479116e+00, 3.216621429495102e-04, -5.849603525146269e-10, 1.067626547688440e-09, -2.099518806739767e-09, 4.246153103925300e+03, 4.441030037366954e+03, -1.272917899409351e+02, 7.602949680530560e+03, -5.757888568573776e+02, -1.594779574094729e+03, 4.396029088292285e+03
9897, 6.838490529868859e-01, 1.760255661694435e-01, -4.886606055111528e-03, -7.040167561815326e-10, 2.297353534743508e-10, -7.068926423001215e-10, 9.042125854894842e+02, 8.175562871201819e+02, -7.882049402207764e+01, 1.322316605734816e+03, 2.537487166530745e+02, -2.755580929515613e+02, 8.112654711845970e+02
9898, 6.171084066187922e-01, 3.196406550150732e-01, 1.897373065864623e-02, -9.684546578319559e-10, 2.969152697651537e-10, -1.238669537677244e-09, 2.220280946614876e+03, 2.092026743151758e+03, 2.594842419222602e+01, 3.285525835907000e+03, 5.546998847929386e+02, -1.257596586040142e+02, 1.503449458264873e+03
9899, 5.269093949935569e-01, 5.630553929769632e-01, -1.297904621279145e-02, -1.686553521045243e-09, 9.622565749992885e-10, -4.106081211826323e-09, 4.309502617286614e+03, 3.881539877471625e+03, -2.912129456514371e+02, 6.748783908395421e+03, 4.116997835644526e+02, -8.613101945959319e+02, 3.188359712578935e+03
9900, 3.927664825222981e-01, 4.831584873036647e-01, 1.148035748388746e-02, -1.408660862879891e-09, 9.726273376642189e-10, -4.413799254836965e-09, 5.443776506898646e+03, 5.668712260623546e+03, 4.940325090043480e+02, 1.024582157902185e+04, 5.443982999076860e+02, -1.165713351670742e+02, 4.867459384064958e+03
9901, 4.496037709727233e-01, 5.993183946672710e-01, 3.648320761657251e-02, -8.976685829332451e-10, 4.567516859212787e-10, -2.057854809911144e-09, 5.680757907480252e+03, 5.751785061503127e+03, 2.063979676332236e+02, 1.159337066010090e+04, 1.008998781620292e+03, -3.678566137925792e+02, 6.175116987911954e+03
9902, 8.434816638677710e-01, 2.487193153009131e-02, 9.567324159150452e-03, -1.635642169191691e-10, -1.276762999259045e-10, 6.408058602759641e-11, -4.069950224389835e+02, -4.770622239993194e+02, -1.639641673359751e+02, -5.574811824848830e+02, 1.033921096882315e+02, 2.541575427506225e+02, 5.687899894960108e+02
9903, 6.921234039029051e-01, 2.793480258140380e-01, 3.616454979108889e-02, -4.836703778268593e-10, 1.071382905562383e-10, -2.664955358396559e-10, 1.222122378908989e+03, 1.058896896072936e+03, -2.947699217114327e+01, 1.808139551458110e+03, 6.657139139998649e+02, -1.334599180189088e+02, 1.360616770050756e+03
9904, 6.613503282388212e-01, 9.877448141373484e-01, 2.806259185976452e-02, -8.557720460595409e-10, 6.010632326484541e-10, -1.860629034824598e-09, 4.814973176475703e+03, 5.101071829839031e+03, 1.178530301968086e+02, 9.845308302098938e+03, 1.012392090857399e+03, -8.821567746991866e+02, 5.421995461326278e+03
9905, 3.928741176390846e-01, 3.855587959061414e-01, 4.452947928440308e-02, -8.933296535078121e-10, 4.153385322695920e-10, -1.816979778596286e-09, 4.967023942279708e+03, 5.080204440727809e+03, 5.171829016596195e+01, 9.793064944585427e+03, 1.021183152280062e+03, -4.028444845582800e+02, 5.136203688262869e+03
9906, 5.698744428350934e-01, 5.778934819723125e-01, 1.941729134879850e-02, -1.319576902154080e-09, 5.530888087602603e-10, -2.452375648908122e-09, 3.320157163127190e+03, 3.567139738729336e+03, -1.253885525589462e+02, 6.705808323323681e+03, 5.762082820342953e+02, -3.798439317798397e+01, 3.425635793560622e+03
9907, 5.332181360224563e-01, 1.277759715388229e-01, -1.328799371447846e-02, -6.944511421956304e-10, 2.715216785262469e-10, -2.918176883777314e-09, 2.587932574308391e+03, 2.460966065198658e+03, -3.229646661104193e+02, 3.808019285716576e+03, -3.264684033229686e+02, 5.161005657550695e+02, 1.758233486212602e+03
9908, 6.141943893971826e-01, 3.551542720173560e-01, 1.726477425830140e-02, -1.002677926567822e-09, 3.676097638240558e-10, -1.343936399890504e-09, 2.399351479023850e+03, 2.231024829617355e+03, 1.207051952981609e+01, 3.611662933825313e+03, 4.829426650690618e+02, -2.038812888685351e+02, 1.589634528744380e+03
9909, 2.048045600087605e-01, 1.938181457742807e-02, 3.151388206340546e-02, -1.702812144485368e-10, 8.003609926777143e-10, -1.282373274103028e-09, 3.070042866305081e+03, 5.114874306008989e+03, -2.314515593086970e+02, 4.498582903029468e+03, 1.155862794504527e+02, -1.767692690142815e+03, 3.588306153412800e+03
9910, 1.026534619261087e+00, 1.535939778374643e+00, 7.467311235583644e-03, -5.519620260205277e-10, 3.019511280363801e-10, -3.616757647114871e-10, 1.931334748947425e+03, 1.780069576893157e+03, -1.201148411628031e+02, 2.693864885239707e+03, 7.868290653846603e+02, -3.421762941486646e+02, 1.723808029256820e+03
9911, 7.716842968445372e-01, 1.773767276242778e-01, 2.402174006232340e-02, -3.835635748810279e-10, 3.993717952177405e-11, 6.343491406446637e-11, 1.329790756367697e+02, -3.751154501183257e+00, -8.948654873478516e+00, -1.287722861790946e+02, 4.816770267382146e+02, -5.575966946508395e+01, 8.700721458918401e+02
9912, 8.551619790116592e-01, 4.188675811905148e-01, 3.829975680363203e-03, -6.100127629846861e-10, 9.706283291885125e-11, 3.397137796517889e-10, -6.094856277194217e+02, -6.527677042115413e+02, 1.303013948830893e+01, -1.403243792047302e+03, 6.021231193887960e+02, -1.721371081145810e+01, 1.298701236555348e+03
9913, 5.883520555368008e-01, 5.256136232113741e-01, -1.105424471698484e-02, -1.660041564752049e-09, 9.566423019520116e-10, -4.162882608954993e-09, 3.621205012853700e+03, 4.055585942063779e+03, -5.218888785573030e+01, 7.551554680307482e+03, 1.635895807585868e+03, -1.398444594211589e+03, 5.275665316200709e+03
9914, 4.263430253455366e-01, 7.193780505183403e-01, -7.294616262838997e-03, -8.146908768184058e-10, 1.054574990013179e-09, -4.204221719069389e-09, 5.036289499200848e+03, 5.187296804963928e+03, 1.471632970045732e+00, 9.088626117603453e+03, -3.932184725954495e+02, -1.951731623348031e+03, 5.265352849321910e+03
9915, 8.131143336470557e-01, 2.366886447389317e-01, 2.861198679621951e-03, -5.465098310587711e-10, 1.202752475075821e-10, 3.970159464256009e-10, -4.391398203849470e+02, -5.186785959600463e+02, -1.634510225634214e+01, -1.142436937650238e+03, 1.846830481810601e+02, -1.575207208245567e+02, 7.890355916102859e+02
9916, 8.111155446049816e-01, 1.402898091570977e+00, 1.660890354578156e-02, -8.317378836695484e-10, 7.315737815260739e-10, -2.390771356300786e-09, 6.935942436028785e+03, 7.172089983356124e+03, 3.095359987171989e+02, 1.311444585575163e+04, 9.400774860180620e+02, -5.989613440069709e+02, 6.386358153158812e+03
9917, 4.839137510559678e-01, 9.033952925411635e-01, 2.716844376592675e-03, 1.417061056873202e-10, -3.284918735071292e-10, -1.447670625527741e-09, 3.024328783020805e+03, 2.799306366768593e+03, 3.649711046997636e+02, 7.264520669545629e+03, -8.962425933538663e+02, 1.533080474561583e+03, 5.370695657986400e+03
9918, 7.374667629689787e-01, 2.904133086169037e-01, -1.200510495618499e-03, -7.073811713711328e-10, 1.189974701842384e-10, -2.730737339787872e-10, 5.593170533496045e+02, 4.197203393926438e+02, -7.567687965264250e+01, 5.338551559790799e+02, 2.629794384275842e+02, -3.339615748294548e+01, 4.945529183151945e+02
9919, 5.640152634868705e-01, 6.133003446024961e-01, 4.223333447042258e-02, -7.770704908360223e-10, 3.261380348033801e-10, -1.181569054090394e-09, 3.850220406915831e+03, 3.829046015103308e+03, -3.450822433523905e+01, 7.033417640697290e+03, 1.035662380289371e+03, -3.834130142422193e+02, 3.723301494429152e+03
9920, 5.581408035185700e-01, 3.938464933742180e-01, -1.097752066720033e-02, -1.094195789929607e-09, 6.713551988335893e-10, -2.958045304910448e-09, 2.664828781871558e+03, 2.054052919906964e+03, 1.842066325144751e+01, 3.697847371600599e+03, -1.047866533807191e+02, -3.536444082886819e+02, 1.574887035020986e+03
9921, 4.213169738227794e-01, 7.826781515656152e-01, 2.536765506447082e-03, 3.130080225240792e-10, -2.999405465922748e-10, -1.103941748777049e-09, 2.332512368489008e+03, 2.268200092943682e+03, 2.328097583977174e+02, 4.807029119677449e+03, -7.376397222600923e+02, 1.073033885474219e+03, 3.396417879524413e+03
9922, 2.676323994686615e-01, 2.439943138351965e-01, -1.760417904651824e-02, -1.485535287412590e-09, 2.175045326062775e-09, -9.959944068178492e-09, 7.174066098136266e+03, 8.361897460605394e+03, -4.676398879006518e+02, 1.600493059109300e+04, -7.743723344881184e+02, -2.422166276183317e+03, 9.431925592165602e+03
9923, 5.547906392833922e-01, 1.149877768612928e-01, 2.083768529594394e-02, -7.845179398031657e-10, 4.367676036800104e-10, -1.629994426132223e-09, 2.164201764121813e+03, 1.897918126732040e+03, -1.240600823964796e+02, 3.977953644104159e+03, 4.048432766909508e+02, -1.866116398598915e+02, 2.117997631296389e+03
9924, 8.614108903577482e-01, 7.886375830952176e-01, 1.494951337516658e-03, -5.543287809548985e-10, 1.335268860645525e-10, -2.708813977726515e-10, 6.810958290646406e+02, 5.343683347817785e+02, -5.462854541581314e+01, 9.951227981182182e+02, 3.530750758944465e+02, -7.599808772316904e+01, 7.526514962232274e+02
9925, 7.233590088726116e-01, 9.892071360209479e-01, 3.048477365005327e-02, -7.386815823903687e-10, 2.744520943211675e-10, -1.027461946445031e-09, 3.754536080793097e+03, 3.492559839211998e+03, -6.243379323581941e+01, 6.144126818275739e+03, 9.106847384354544e+02, -1.970470140114353e+02, 3.003499298385495e+03
9926, 6.381674564556590e-01, 4.506252203518681e-01, 2.017373090185295e-02, -8.965584909180942e-10, 3.568351448109150e-10, -1.321426257473594e-09, 2.550108481280910e+03, 2.325297751859417e+03, -1.822682279439701e+01, 3.753246604932867e+03, 4.288872428908169e+02, -2.048030463763784e+02, 1.564359895863771e+03
9927, 2.092737156540886e-01, 4.319199840255184e-02, 1.901477353944385e-02, -5.025459677179141e-10, 1.530280849884800e-09, -3.123896456783544e-09, 3.814586518260396e+03, 4.735867336579107e+03, -2.219213878201393e+02, 7.452147642387523e+03, 4.102173192054168e+02, -1.612978085024215e+03, 4.380304892492333e+03
9928, 6.167045912362803e-01, 3.333117257131750e-01, 4.320584909216721e-02, -5.667901433860253e-10, 1.788146480579458e-10, -5.865148962559752e-10, 2.233045230931780e+03, 2.085970646540146e+03, -2.615885261451757e+01, 3.584471155827563e+03, 7.365204895692303e+02, -2.215273459628562e+02, 1.955353322675669e+03
9929, 5.830109821702608e-01, 7.017790019285475e-01, 1.725610168727604e-02, -1.135072620267704e-09, 6.501240972595348e-10, -2.719346543759956e-09, 4.101229071459942e+03, 3.896249379928975e+03, 1.953103316125010e+02, 7.717898586795208e+03, 4.498818865885327e+02, -1.936443032095077e+02, 3.833767431621283e+03
9930, 6.980338189462995e-01, 1.091787201354911e+00, 2.531031224691694e-02, -7.762140163321716e-10, 4.015361552516710e-10, -1.831695487564136e-09, 4.947797845878434e+03, 4.866770980200151e+03, 3.661181916612175e+02, 9.316194545247510e+03, 9.111521261468065e+02, -5.375406624410231e+02, 4.816947647803898e+03
9931, 9.683189419089304e-01, 8.967200899741552e-01, 7.690487164840441e-03, -2.473571463855387e-10, 9.620759796894435e-11, 1.813267273514815e-10, -3.938706522644299e+02, -4.564253452756427e+02, -9.388185812944803e+01, -9.196954010833828e+02, 1.524439773961832e+02, -1.692678843982329e+02, 6.554583960899060e+02
9932, 1.015121973365275e+00, 1.341349728394997e+00, 7.177036712562528e-03, -2.297280211670674e-10, 8.425609591221164e-11, -6.293248903151613e-11, 5.220764213125289e+02, 4.223559654198008e+02, -2.381929499890905e+01, 5.046220203006174e+02, 2.182891659141792e+02, -9.705553060098673e+01, 4.259344421174136e+02
9933, 2.450606872601932e-01, 3.066836853027212e-01, 3.043140754921021e-02, -1.353764203730120e-10, 2.762379974779739e-10, -2.239913388456838e-09, 5.206888525920349e+03, 5.633221642720699e+03, 2.922718939672779e+02, 1.161194488795859e+04, -5.758382628055383e+02, 3.679006697117284e+01, 6.303246584664376e+03
9934, 4.522228522667214e-01, 3.878916950424182e-01, 4.787286124302938e-02, -8.137110046045801e-10, 3.363563831358402e-10, -1.356880817165889e-09, 4.265573967123983e+03, 4.193892762495081e+03, -8.503803964186776e-01, 7.810216639878868e+03, 1.085054762670374e+03, -3.695305216488459e+02, 4.094558124155239e+03
9935, 4.726941333630963e-01, 7.871136222861496e-01, 2.143001470254396e-02, -3.397651133903555e-11, 2.778561527198081e-12, -1.806819709876865e-09, 4.676136997605051e+03, 5.302315170130210e+03, 4.609686965583552e+02, 9.616993993397022e+03, -6.854019939873607e+02, 3.462903986558752e+02, 4.910892522809846e+03
9936, 3.116218702068721e-01, 1.893322094275878e-01, -1.909442688196462e-02, -1.085015691713813e-09, 8.402010081080174e-10, -7.083743467616945e-09, 5.402914894381839e+03, 4.522172844053549e+03, -1.112575042610276e+02, 7.759170691777231e+03, -1.152215047862901e+03, 1.040213656701945e+03, 3.958404742464798e+03
9937, 6.247616771000074e-01, 8.239893708601766e-02, 1.709032249754378e-02, -6.170739913480609e-10, 3.535649954879413e-10, -1.156228256024442e-09, 1.214734711444920e+03, 1.261207280898420e+03, -2.781002306699772e+02, 2.801710450561797e+03, 3.910549067947757e+02, -2.790489888585566e+02, 1.836109175901554e+03
9938, 5.050119799633109e-01, 4.261756759175629e-01, -1.377288486600194e-02, -1.291099498065865e-09, 8.614257324190649e-10, -3.748052790514784e-09, 3.068938970830410e+03, 3.224837652153113e+03, 7.797854983491405e+01, 4.744124890514817e+03, 8.331979343442823e+01, -5.287254653351501e+02, 1.856640344336091e+03
9939, 6.467258534300576e-01, 9.491627130130973e-01, -7.163048795524408e-03, -9.876361594010093e-10, 7.926806931565940e-10, -4.459499595488449e-09, 4.898771647099798e+03, 4.526321145851902e+03, -1.730732875405730e+02, 8.101534073441659e+03, -3.713310708719452e+02, -5.948909652036735e+02, 3.626911381484784e+03
9940, 8.710744656554223e-01, 1.280394018314261e+00, -2.936126711612433e-04, -8.217113483962765e-10, 8.868982646627892e-10, -1.968543582874205e-09, 3.353757873041905e+03, 3.129313242219680e+03, -1.426903544968415e+01, 5.552616657758595e+03, 8.875790415491460e+02, -1.278083714381061e+03, 3.555751934486544e+03
9941, 6.698674562408486e-01, 8.298722291491391e-01, -5.924065527191536e-03, -1.132538577191124e-09, 2.985959958928716e-10, -2.716297212223848e-09, 3.034344799268874e+03, 3.061184841348319e+03, -1.340992691641845e+02, 4.678269513729988e+03, 8.440979555260263e+01, 9.675435030399914e+02, 2.354321562513244e+03
9942, 6.610640694267097e-01, 7.233471097667191e-01, 3.799483464096459e-02, -6.368551072007421e-10, 2.250437564108635e-10, -9.063616255762058e-10, 3.295143767526562e+03, 3.083143543003026e+03, -1.746690977739032e+01, 5.680348447789754e+03, 9.871379152430267e+02, -2.561933867879472e+02, 3.059567553420261e+03
9943, 1.895327058136828e-01, 2.983414524082572e-01, -5.004755320668918e-03, -1.347451328388988e-10, 9.687284864522028e-11, -1.911616475427129e-09, 1.336701014273877e+03, 1.775299427581322e+03, 3.433939212936139e+02, 3.210329177423204e+03, -4.255418384828569e+02, 5.525642936930515e+02, 2.166582180036686e+03
9944, 3.519744123006049e-01, 5.206034285819789e-01, -1.204361184834045e-02, -1.230877402128742e-09, 9.524085480523238e-10, -4.437198072634343e-09, 3.489327564060900e+03, 4.027983028359550e+03, 1.448541639546658e+02, 3.729434851456154e+03, -2.343087392632160e+02, -7.038931972953866e+02, 1.390148538190166e+03
9945, 7.132472390347656e-01, 3.133648126660645e-01, 3.408097239819491e-02, -4.817484345288334e-10, 9.483353774361716e-11, -1.936888836168051e-10, 1.016205512356694e+03, 8.733264569995820e+02, -3.927056793330785e+01, 1.407858021501656e+03, 6.153897858535593e+02, -8.360694266659650e+01, 1.179608288211137e+03
9946, 3.653637582705407e-01, 2.117602219317040e-02, 2.866745312841966e-02, -3.514393684010330e-10, 7.080818579616238e-10, -9.722615829072285e-10, 2.483318737235679e+03, 3.798377361751585e+03, -4.296793478522032e+02, 3.164717032291555e+03, 1.566168627959616e+02, -1.217111642771886e+03, 2.523716688088408e+03
9947, 7.113388072987888e-01, 1.338171135180951e+00, 3.404733602971742e-03, 1.969408871206274e-10, 1.896742508014750e-10, -1.594706313676040e-09, 3.836109013915087e+03, 3.959486599134621e+03, -1.574933944753098e+02, 8.137727781752577e+03, -1.175563258547860e+03, 8.221259242445591e+01, 4.714759684198974e+03
9948, 7.154115982107057e-01, 5.629468788119167e-01, 1.181468147625259e-02, -9.464819460546715e-10, 3.131027575997963e-10, -1.037943613783352e-09, 1.815574687672229e+03, 1.471539067008258e+03, 1.876374828475890e+01, 2.949499171148607e+03, 7.271165896630375e+02, -6.650490246150490e+01, 1.842464708417675e+03
9949, 7.425314168433765e-01, 6.875089946686676e-02, 3.874927032968094e-04, -4.690227655115705e-10, 4.083783992008886e-11, -1.244296148649022e-10, 2.975705666798746e+02, 3.035023300718733e+02, -5.876192072411196e+01, 5.412634078132269e+02, 2.163849215589473e+02, 1.026012923574234e+02, 4.902888197365642e+02
9950, 8.321585638964689e-01, 6.105217536777198e-01, 2.317169765590694e-02, -3.796389448644034e-10, 1.043632155395697e-10, -2.522226532347379e-11, 3.078887535241964e+02, 1.792129457305719e+02, -3.235377762928901e+01, 3.066782199794882e+02, 5.802240497739214e+02, -1.399548571207592e+02, 1.043209179984993e+03
9951, 7.065733288917728e-01, 5.995231138766673e-01, 3.362032852454865e-02, -5.677814213593975e-10, 1.794168663596464e-10, -6.219364810300741e-10, 2.008998017154103e+03, 1.934649309251676e+03, -1.615199247360551e+01, 3.375457088032243e+03, 7.388381181875822e+02, -1.616381997668699e+02, 1.921234308247794e+03
9952, 2.457870180295962e-01, 3.042777404808303e-01, -1.447267992856268e-02, -1.272786633714764e-09, 7.250447425649058e-10, -6.535227133447904e-09, 3.552392578693081e+03, 5.200095894220091e+03, 3.243970304885234e+02, 7.214027367665952e+03, -3.432161002895868e+02, 1.616282213595568e+03, 4.312238921766154e+03
9953, 2.642449507124958e-01, 1.206878815365170e-01, 1.646678289142215e-02, -1.307759005583587e-09, 1.207559034707357e-09, -5.163767847212535e-09, 4.862996261994685e+03, 4.757021526548769e+03, 4.881175480633574e+01, 1.030217765002611e+04, 5.849877279573034e+02, -4.236940034044393e+02, 5.634240866209540e+03
9954, 6.936577942785079e-01, 2.013070895746814e-01, -3.445943997542656e-03, -8.153757081136454e-10, 9.880106226355643e-11, -7.309648176344404e-10, 8.740314932144182e+02, 8.214948569167195e+02, -1.217354475240543e+02, 1.303751348943471e+03, 4.735322352151770e+02, 9.193236302709674e+01, 9.759645779238812e+02
9955, 7.371640308341345e-01, 2.308486579432560e-01, -1.231414681355517e-03, -6.921906899153832e-10, 1.200359797237466e-10, -1.904012175978934e-10, 4.570556948036217e+02, 4.179908421442847e+02, -4.292197056652047e+01, 7.885691731473661e+02, 3.189212098565586e+02, -7.332992672888687e+01, 6.716909331278720e+02
9956, 8.631979588862961e-01, 1.023544988605594e+00, 1.819649107102094e-03, -4.350598314108826e-10, 3.376085933006686e-10, -1.109480708330806e-09, 1.822332251366491e+03, 1.792210491763788e+03, 1.526446394367583e+01, 3.202461490467223e+03, -2.017911120294534e+01, -1.314721115664443e+02, 1.414571068454210e+03
9957, 3.626189233861736e-01, 4.539571121398944e-01, 3.600738639387403e-02, -6.865884446219635e-10, 2.739307956353443e-10, -2.220166992808479e-09, 5.357733226471059e+03, 5.894237738749055e+03, 1.847689431984917e+02, 1.180289918598574e+04, 6.032251575391289e+02, -4.360772894683838e+01, 6.290461515578120e+03
9958, 6.209276855363501e-01, 5.258300612103188e-01, 1.317001419561677e-02, -1.211393881182030e-09, 4.393645346921611e-10, -1.878823569051105e-09, 3.104766091082977e+03, 2.675278488670067e+03, -1.497376884981625e+02, 4.481229351583726e+03, 7.139948673642511e+02, -1.626527934966290e+02, 2.084773979435479e+03
9959, 7.208993612071727e-01, 9.338930514136806e-01, 3.137991861251808e-02, -6.511344910911441e-10, 2.979202387984142e-10, -9.670707768261837e-10, 3.359352069037142e+03, 3.133111764567017e+03, 6.538082843287650e+00, 5.506856133594339e+03, 8.879303368786576e+02, -3.527699283251748e+02, 2.808476332835021e+03
9960, 2.941895817439237e-01, 8.169440722203578e-02, -2.021079993652648e-02, -1.573652689185347e-09, 6.178093933879296e-10, -6.706245769962114e-09, 4.202469553302554e+03, 4.627420263659328e+03, -1.464895290897577e+01, 7.325861781295565e+03, 8.102927752547724e+02, 2.126959604671442e+02, 3.273371351567489e+03
9961, 7.247939693043610e-01, 1.644775659717523e-01, 3.122120488441104e-02, -3.929706399725697e-10, 4.716859830591478e-11, -1.289792792389388e-10, 6.763399177991346e+02, 5.195218662618430e+02, -2.926954315872472e+01, 8.690451068744203e+02, 5.317161421347356e+02, -5.260746212794129e+01, 9.751849899178795e+02
9962, 9.000027423245023e-01, 3.236069650588426e-01, 7.916576634145233e-03, -1.446381579227917e-10, 3.581289637178126e-10, 1.045325561339022e-09, -1.795003930783830e+03, -2.141883688033275e+03, 2.359625556470050e+02, -4.589138300673296e+03, 6.844378164059547e+01, -6.167295961107459e+02, 2.877575127070084e+03
9963, 8.011012875635770e-01, 7.417585915414131e-01, 2.556866614790671e-02, -5.109927181457676e-10, 1.885506023225177e-10, -3.521215734644802e-10, 1.419649259812594e+03, 1.242270215829418e+03, -5.204147970711625e+01, 2.190199577068822e+03, 6.399101418110041e+02, -2.493670070387508e+02, 1.478182067098080e+03
9964, 7.997094966083527e-01, 1.378927433213756e-01, 3.181806448212011e-03, -4.507019268850768e-10, 5.599926146525094e-11, 4.599813100669748e-10, -5.315958665898037e+02, -5.596931144247305e+02, 2.337970246339460e+01, -1.406049473915338e+03, 3.533133526299683e+01, -2.032308649196061e+02, 9.328354204035720e+02
9965, 5.877532663750019e-01, 2.281573762277969e-01, 3.299715921578453e-02, -8.094331272904097e-10, 2.926638463838240e-10, -1.052516569570965e-09, 2.249920889257280e+03, 2.061921029776659e+03, -1.068425013917439e+02, 3.804043054589788e+03, 6.906173587141805e+02, -2.578051995837382e+02, 2.099358933632119e+03
9966, 4.730723587591071e-01, 8.231399778797638e-01, -5.184797980710282e-03, 5.015988774499642e-10, 5.306486129072768e-10, -3.187867944558270e-09, 3.768045811760841e+03, 4.937542040776834e+03, 4.002249477931394e+02, 1.000522520412229e+04, -2.956283471040961e+03, 7.494986201593119e+02, 7.833287360868239e+03
9967, 6.012905089512723e-01, 4.519935564026895e-01, 1.277065085664958e-02, -1.233467016883715e-09, 3.649867472827794e-10, -1.936154181319924e-09, 2.904104411606045e+03, 2.976474465393248e+03, -1.574886521750024e+02, 4.681506160784194e+03, 6.258438673376436e+02, -1.879371155581710e+01, 2.070331620490654e+03
9968, 7.454164154441515e-01, 8.021627232745657e-01, 3.200772661544865e-02, -5.318816572884743e-10, 2.335859486757195e-10, -6.565386036549644e-10, 2.283077223398986e+03, 2.272609681601649e+03, -1.333375309600569e+02, 4.104147414549975e+03, 7.903669800784863e+02, -2.911515177270673e+02, 2.348861966735975e+03
9969, 8.096101377435990e-01, 1.273882875513328e+00, -1.351753465393058e-03, -7.721866814684070e-10, -1.418955341694242e-10, -2.297679164192501e-09, 3.660392797529282e+03, 4.304958773742544e+03, 5.356522849583305e+01, 7.109693852091226e+03, 1.036442057398236e+03, 1.482272345042921e+03, 4.462340080270325e+03
9970, 8.002582987191135e-01, 4.295713342672634e-01, 2.453097703835244e-02, -4.099111336647503e-10, 8.581077734560296e-11, 1.689581769536606e-11, 3.025156435034314e+02, 1.628937905644719e+02, -4.944363273017814e+01, 1.372381227845639e+02, 5.444283709837621e+02, -1.124405813571004e+02, 9.788789464676905e+02
9971, 6.877766187767838e-01, 1.054011584450196e+00, -6.752485827887192e-03, -1.741164299416073e-09, 6.812960433422291e-10, -3.637031608101323e-09, 3.592825215601604e+03, 3.737699431138426e+03, 1.591158417557042e+02, 4.974958294229099e+03, 8.520116832237086e+02, -1.879021894855877e+02, 2.022545899754188e+03
9972, 3.977992559825771e-01, 7.228703362117377e-02, 5.694233085155150e-02, -4.511017321630910e-10, 6.105714573080477e-10, -1.008601625898036e-09, 3.141770562446593e+03, 2.976394795247279e+03, -1.419183723673172e+02, 5.741881244101986e+03, 6.380935872389981e+02, -8.314790560837973e+02, 3.251754144090217e+03
9973, 7.555195384758296e-01, 9.989964373356206e-01, 2.747718561608107e-02, -6.549115640145710e-10, 2.965971915655313e-10, -9.603986893585190e-10, 3.152689593065086e+03, 3.044320001410566e+03, -1.116323034784125e+02, 5.410825550876326e+03, 6.632985036234346e+02, -3.758693628851699e+02, 2.671469372113016e+03
9974, 5.774478179597221e-01, 4.655257917036806e-01, 4.372718169905508e-02, -7.242627827336516e-10, 2.804198902773676e-10, -8.977278401946632e-10, 3.023234870671775e+03, 2.931795473528923e+03, -5.477955713908204e+01, 5.166420428539915e+03, 9.631073239283919e+02, -3.198324509245086e+02, 2.810015130925253e+03
9975, 7.264724673151212e-01, 9.372865301050759e-01, -5.259871497922376e-03, -1.217251221004053e-09, 3.002209802196585e-10, -2.724622609211205e-09, 3.666982869787050e+03, 3.435726157423987e+03, -1.814685680528924e+02, 6.732289621251556e+03, 1.290155461291394e+03, 5.315776005306595e+02, 4.012290868312786e+03
9976, 3.945652920710008e-01, 9.311397253216019e-02, 9.256431618306079e-03, -1.170837270595181e-09, 8.623774549841392e-10, -3.808700508989837e-09, 3.247218467491390e+03, 2.950659577383580e+03, -2.736223397812935e+02, 6.512724291116770e+03, 7.478962674673405e+02, 2.755723291047818e+01, 3.691181718710437e+03
9977, 6.604884072870918e-01, 2.287133204303513e-01, 1.981865695286788e-02, -7.584371225692295e-10, 1.858248411039225e-10, -6.912533482001913e-10, 1.420413991833312e+03, 1.363079268541353e+03, -5.103541975632542e+01, 2.165800319498490e+03, 4.776130624225865e+02, -1.378012597815590e+02, 1.162217140984743e+03
9978, 2.706459193668709e-01, 3.368149647719989e-01, 3.174652371772609e-02, -4.949357879239694e-10, 2.739462578937683e-10, -2.554462221467780e-09, 5.649235817195570e+03, 6.173043483674367e+03, 2.001595235094522e+02, 1.297361061682612e+04, 4.660149373221999e+01, -6.718809598765826e+01, 7.086926437296392e+03
9979, 7.953893120857035e-01, 3.148804413898331e-01, 1.820839337257593e-03, -6.125156272667006e-10, 1.000585360028679e-10, 1.286997198699473e-10, 2.720395516519537e+01, 1.418309853448499e+01, -3.076747324251613e+01, -8.086026761047243e+01, 2.718865388340494e+02, 1.165876215451128e+01, 4.852369448335791e+02
9980, 8.220188370715787e-01, 1.164365950537161e+00, 2.411119822282443e-02, -6.682282419977039e-10, 2.287275266328979e-10, -6.257591086684033e-10, 2.708886813569272e+03, 2.675969160891509e+03, -9.058439781801739e+01, 4.451187616292882e+03, 8.097529442940731e+02, -3.611037995627042e+02, 2.340288885084954e+03
9981, 6.861156095638707e-01, 1.185867293726022e+00, 1.789315796358367e-02, -1.459121726275730e-11, 3.114259990694767e-10, -1.852165955568565e-09, 4.571099444775084e+03, 4.801063289823711e+03, 7.155410788522974e+01, 1.083153038081877e+04, -8.817570321374511e+02, 7.149241912174108e+01, 6.337932309949466e+03
9982, 3.471944860766085e-01, 2.496259750907670e-01, 1.258164514731163e-03, -1.680832460926253e-09, 1.356699184045829e-09, -5.647380551372353e-09, 4.821591279760491e+03, 5.267614401654524e+03, 3.158628238139756e+02, 8.773299251514178e+03, 3.135636241659654e+02, -6.350459139311432e+02, 3.982022569111838e+03
9983, 7.933671846403315e-01, 1.314118007666317e+00, -1.346790792839239e-03, -7.093288913532123e-10, 2.764601716554359e-10, -4.581128566309630e-09, 6.188879740283549e+03, 5.999932068711531e+03, 7.144193421746444e+01, 1.267297462503716e+04, 1.612247182710859e+02, 1.262323287430726e+03, 6.941038441977927e+03
9984, 5.920296648612476e-01, 6.284839266113340e-01, 4.077621062983072e-02, -7.720812909126047e-10, 3.018878822081943e-10, -1.096597796200693e-09, 3.608377440169469e+03, 3.571687635616372e+03, -2.146115398582411e+01, 6.321702947809225e+03, 1.099997086624843e+03, -3.758301133458528e+02, 3.393838560121007e+03
9985, 6.301509295334906e-01, 2.024257610936406e-02, 1.461206380063192e-02, -2.454940306858532e-10, 2.531616893592390e-10, -3.998006089544785e-10, 8.531049586572756e+02, 1.272280046050867e+03, -2.716480881596215e+02, 1.319921927226813e+03, 9.080171353124555e+01, -5.790537631498911e+02, 1.204147199986797e+03
9986, 1.023597686637067e+00, 1.514837747864086e+00, 7.627911302647152e-03, -4.337343262118715e-10, 3.435102788718606e-10, -2.814379278298640e-10, 1.526367263499415e+03, 1.386765473472721e+03, -2.372157875478939e+02, 1.937159251321558e+03, 6.237163272693379e+02, -4.614410879401275e+02, 1.490050269983259e+03
9987, 8.291093360974604e-01, 1.086659393584553e+00, -3.019542768766224e-04, -8.029233222371216e-10, 4.659636512176239e-10, -1.278332996312471e-09, 2.335408132389998e+03, 1.998618675686690e+03, -1.684719273418305e+02, 4.178108280293207e+03, 6.581690171874887e+02, -7.397656386628911e+02, 2.675077623511295e+03
9988, 6.863766139040611e-01, 1.184227247042592e+00, -3.950572362763128e-03, -3.798127069737826e-10, 6.817085574515117e-10, -4.207525737843423e-09, 3.111004295744621e+03, 4.468309112160078e+03, -1.001322727794700e+02, 1.139972678227525e+04, -2.835998862897759e+03, 5.834907601277758e+01, 9.135854408960704e+03
9989, 3.365823805258339e-01, 1.845086284894467e-02, -1.295594958904144e-03, -3.438235499220089e-10, 7.021081112800608e-10, -1.254093420408829e-09, 2.670252155007742e+03, 4.392382588584895e+03, -4.044868393090991e+02, 3.113228868115834e+03, 3.297950261537698e+01, -1.817432776632201e+03, 3.578040715899054e+03
9990, 8.657436929167375e-01, 8.259918388510211e-01, 2.397600803618522e-03, -4.721936035924742e-10, 1.964056060120639e-10, -1.277412557886471e-10, 4.775381945237334e+02, 4.308135579452826e+02, 2.184622288158150e+01, 5.881797356977395e+02, 1.437729762451752e+02, -1.288147541176410e+02, 3.644419421410083e+02
9991, 9.091730123838877e-01, 3.426657529253541e-01, 7.471889218044340e-03, -1.310722573949895e-10, 1.594313442456278e-10, 1.598077963857270e-10, -7.015066880708546e+02, -8.886913381258325e+02, 1.594157337143725e+01, -1.101320596382088e+03, -5.720486849325615e+01, -1.259146101156248e+02, 4.221294674922957e+02
9992, 8.470335044543162e-01, 1.052461553827400e+00, -1.265483017619792e-03, -5.517561740580049e-10, 3.530238491993574e-10, -9.000019548879444e-10, 1.543591809170020e+03, 1.580109482548226e+03, -6.321314972591995e+01, 2.362452734565005e+03, 1.431446320261729e+02, -3.801017808615829e+02, 1.071846451299308e+03
9993, 7.604773438232553e-01, 5.298294087591828e-01, -1.450460194744041e-03, -8.241113878579836e-10, 2.451330737875852e-10, -7.794915866707258e-10, 1.253792454829990e+03, 1.172123899316524e+03, -9.763154018122246e+01, 2.153628351995793e+03, 3.797912428758735e+02, -9.296019667960314e+01, 1.173502196256464e+03
9994, 6.083873406550485e-01, 8.928968269499573e-01, 3.186632641283027e-02, -8.086525302935107e-10, 4.303552387632606e-10, -1.530525485473107e-09, 4.784909140829071e+03, 4.921448934446073e+03, 1.377048242334621e+02, 9.156468921906895e+03, 9.940274031201482e+02, -5.998845514555302e+02, 4.757418404977986e+03
9995, 4.508114432614150e-01, 1.190884608463328e-01, 9.355488963011683e-03, -9.440395073138756e-10, 7.430404552918388e-10, -3.217497854521900e-09, 3.346051270588162e+03, 2.810225681162293e+03, -3.089985848123209e+02, 5.649327121463319e+03, 2.343805340908148e+02, -9.993527912437777e+01, 2.703247511509989e+03
9996, 8.958961980436023e-01, 2.437824888432871e-01, 7.549766937048633e-03, -3.953691574952565e-10, 1.858297089080278e-10, 2.618218781110677e-10, -9.742216361769607e+02, -1.160242336188152e+03, 2.309563630043512e+01, -1.887543145345722e+03, 4.108835699953176e+02, -2.814212218830315e+02, 1.201887280644562e+03
9997, 6.205899417302232e-01, 5.526492139159443e-01, 4.160725857217313e-02, -7.013334097954654e-10, 2.189106837035585e-10, -8.009780229082453e-10, 2.879298768309332e+03, 2.644128770588106e+03, -3.967554402977930e+01, 4.792244050518578e+03, 1.023409775660840e+03, -2.710509959225305e+02, 2.744405764190359e+03
9998, 1.418537200790544e-01, 1.123615224376772e-01, 8.368088803785501e-03, 5.303056840059141e-10, -1.293465111066141e-11, -4.111882484856724e-09, 4.208703704371401e+03, 4.329294646030919e+03, 2.369249513760567e+02, 9.614838971236511e+03, -1.964563476817868e+03, 1.256768326199596e+03, 6.713735092673258e+03
9999, 3.583009264784948e-01, 1.992507898539187e-01, 5.348153228394053e-02, -6.736194244984809e-10, 4.321145929391493e-10, -1.421649527007127e-09, 4.416776503060815e+03, 4.450858529499143e+03, 2.345984097594075e+01, 8.346235758872079e+03, 8.491007374218789e+02, -5.001156441628733e+02, 4.268817394227397e+03
10000, 4.340423436539097e-01, 2.130572581335755e-01, -1.552701154070696e-02, -1.176209206431957e-09, 6.201142886066991e-10, -4.700401933281273e-09, 3.806646991913927e+03, 3.231453016329625e+03, -3.560181920411198e+01, 5.435548797263086e+03, -3.654684422090308e+02, 4.722808028661175e+02, 2.234894895042060e+03
10001, 4.985945780900188e-01, 6.522684895083094e-01, -1.378602068554677e-02, -9.759363130126393e-10, 6.703924848806160e-10, -6.333598778865247e-09, 5.124310225369628e+03, 5.571123684232251e+03, -3.892976868542667e+02, 8.452894715210909e+03, -1.409343263302114e+03, 1.262931639917610e+03, 4.581512083771101e+03
10002, 4.575454003107155e-01, 2.770742527220092e-01, 2.010853375215707e-03, -1.481700232124483e-09, 8.088077828207720e-10, -3.722611877559614e-09, 4.234243410782622e+03, 3.920955218753608e+03, -1.198115685710299e+02, 6.233981991676888e+03, 2.982467626082307e+02, -1.547076336679091e+02, 2.259495420127123e+03
10003, 6.610848109623321e-01, 5.153993089415100e-01, 1.796673048265883e-02, -8.453647325092798e-10, 3.523254657758957e-10, -1.083704371169089e-09, 2.185742527669771e+03, 2.048861098244468e+03, -4.138421283643360e+01, 3.134410882802632e+03, 3.839941089518041e+02, -1.846455379051594e+02, 1.264253757994549e+03
10004, 4.953063841064880e-01, 1.597107641860158e-01, 1.907102963075384e-03, -1.082254905082989e-09, 5.353208082552049e-10, -3.312401844945180e-09, 2.778742002344354e+03, 2.476388466577611e+03, -1.558394625562221e+02, 5.321269282082585e+03, 3.646355907434908e+02, -1.616823681958566e+01, 2.792333098618708e+03
10005, 4.981721253204643e-01, 3.327002609177399e-01, -1.353680762965521e-02, -1.338535582421464e-09, 4.252535336204306e-10, -4.140274287721117e-09, 3.249592332140485e+03, 2.939841969552817e+03, -2.714390888231071e+02, 5.421167141654741e+03, 4.027294915135531e+01, -1.780937166885471e+02, 2.409436429742146e+03
10006, 5.426396462438426e-01, 2.398016856869904e-01, 2.506705926215650e-02, -1.068409172729987e-09, 4.522978020497515e-10, -1.901651846223439e-09, 2.712362482289720e+03, 2.612649705520170e+03, -5.590030917108311e+01, 5.231262108222728e+03, 6.135028239666482e+02, -3.556107777038612e+02, 2.850240901025904e+03
10007, 3.757811248565444e-01, 4.173642596969049e-02, 5.893427636420905e-02, -3.398056508628914e-10, 5.693487984885068e-10, -7.492223673656859e-10, 2.679727050329292e+03, 2.930935605923478e+03, -1.699251556880060e+02, 4.600539326194507e+03, 4.571770658403208e+02, -9.773094395923166e+02, 2.617089713112097e+03
10008, 6.101131092918587e-01, 9.316772543765327e-01, 2.788686968447958e-02, -9.025535930389866e-10, 3.710792109637778e-10, -1.758324192659391e-09, 4.677690290567483e+03, 4.866617371898806e+03, 2.099550501753995e+02, 9.720158902922463e+03, 8.465725074238985e+02, -3.137338576509019e+02, 5.204527785647654e+03
10009, 2.546434173212395e-01, 4.011813792058356e-01, -8.901715642224830e-03, -1.632430703846353e-09, 1.195243950132740e-10, -4.637576629838363e-09, 7.349603675928178e+03, 5.125865108915008e+03, -1.605159661818783e+01, 1.133971852713539e+04, 2.473604567261672e+03, 1.197322397211941e+03, 7.238554856950322e+03
10010, 5.268362942373317e-01, 7.928206332093578e-02, -1.100569835408899e-02, -9.195088497758469e-10, 3.156641263552890e-10, -2.853160020703587e-09, 2.268274601875425e+03, 2.414966804544531e+03, -1.552604337482153e+02, 3.590231946776933e+03, 7.317441642880551e+02, 2.593970243301780e+02, 1.858950082915281e+03
10011, 4.481391696223774e-01, 2.801327941603940e-01, 5.116776566202215e-02, -7.586858670829909e-10, 3.256987973011774e-10, -1.197588583898631e-09, 3.930780435393940e+03, 3.773251199491162e+03, -3.225044982762336e+01, 6.930312123919417e+03, 1.026651450630913e+03, -3.881357191087042e+02, 3.620998154200886e+03
10012, 9.720588382749410e-01, 1.326595701765149e+00, 1.244100428873679e-02, -4.492334465840697e-10, 5.527606351537622e-11, -2.446310165339749e-10, 1.326078990175959e+03, 1.222654207141194e+03, -9.037990063227048e+01, 2.261066172638336e+03, 6.009428028020882e+02, 1.719711372101365e+02, 1.475880454418652e+03
10013, 7.221012941418437e-01, 6.926132857563435e-01, 3.440494745781675e-02, -5.350929468632158e-10, 1.996703821270031e-10, -5.464920738188996e-10, 2.018215770078709e+03, 1.946022879157070e+03, -2.406953935970299e+01, 3.508002383575218e+03, 7.587132823942485e+02, -2.427704781968225e+02, 2.058571360873546e+03
10014, 3.488104263117108e-01, 1.998827052069475e-01, 1.281476107511911e-03, -1.616391770711906e-09, 1.097076386752174e-09, -5.403912067876590e-09, 5.655081501456552e+03, 5.501825499194068e+03, -7.019056562422932e+01, 8.764638819409647e+03, 2.543916834059320e+02, -2.004301776766529e+02, 3.240190540671553e+03
10015, 8.324342487854205e-01, 2.707427612254026e-01, 3.827597935822016e-03, -5.901563858977657e-10, 1.040001878076768e-10, 3.350621537489703e-10, -3.370986760280440e+02, -3.544176102942620e+02, -3.032655376158822e+00, -6.626887414596999e+02, 3.262138834280538e+02, -1.139967377279175e+01, 6.483316320810428e+02
10016, 8.141194208756736e-01, 1.210994023855110e+00, 2.594213511565834e-02, -4.779936270693490e-10, 3.122748102195977e-10, -9.340720513449883e-10, 3.745898717557593e+03, 3.557611592348224e+03, -3.653995014313210e+01, 6.244329238458126e+03, 7.579470926422282e+02, -5.853286293016349e+02, 3.082744736764111e+03
10017, 6.194666922083291e-01, 3.311805653072121e-01, -8.092507225858150e-03, -9.379498556410537e-10, 3.922741688146297e-10, -1.654314523746979e-09, 1.779810578946440e+03, 1.557303001898777e+03, 7.617341021020538e+01, 2.284485390623712e+03, -2.866426425547343e+02, -9.168000472640222e+01, 8.400089913743465e+02
10018, 2.946681012456197e-01, 6.968326655339221e-02, 3.234583009719468e-02, -8.365472871832447e-10, 1.335779071253247e-09, -2.867957891119289e-09, 4.006209320052199e+03, 3.817947850521836e+03, -1.885029823394682e+02, 7.322554405582170e+03, 4.043069475556159e+02, -8.737695572988138e+02, 3.813835244326179e+03
10019, 6.603215979944796e-01, 5.481734255101492e-01, -8.338813335352236e-03, -5.964826954810107e-10, 6.641335885026782e-10, -2.544691556706759e-09, 3.140501355779479e+03, 2.695681126946822e+03, 8.949272883530378e+01, 5.384360870245569e+03, -7.084242574126736e+02, -8.055780846568103e+02, 3.115665970829534e+03
10020, 7.243113574534777e-01, 4.985632137165254e-01, -4.596072471413130e-03, -8.839114437614526e-10, 1.658255061977662e-10, -1.221995685399792e-09, 1.580837995217748e+03, 1.444214006363182e+03, -1.423164570932409e+02, 2.561661150025303e+03, 5.716334695339029e+02, 5.109867935984829e+01, 1.470909162578603e+03
10021, 4.423951934188355e-01, 6.755830919368740e-01, 2.849648561108414e-02, -3.862388994457217e-10, 3.857388191467290e-11, -2.092974175623473e-09, 5.249960854198908e+03, 5.949798476226763e+03, 3.033151911558136e+02, 1.156079669961921e+04, -1.041783064015784e+02, 2.704085602701301e+02, 6.035543343934673e+03
10022, 7.810240843678907e-01, 1.409974255819577e+00, -8.735599668296332e-04, 2.510650801503204e-10, 1.243813685563629e-10, -3.010654982570334e-09, 6.048531329482287e+03, 5.201333465193013e+03, -1.507034341070940e+02, 1.154638101886832e+04, -1.456962050926804e+03, 6.695228975318403e+02, 6.586576842564392e+03
10023, 3.329802701714007e-01, 2.786225926990497e-01, 2.198312472444405e-02, -1.475554323193143e-09, 9.949344049217895e-10, -4.290864489267512e-09, 5.422174570537280e+03, 5.293078432434561e+03, -1.629930859226326e+02, 1.034667870918272e+04, 7.214515029223387e+02, -5.772781850024560e+02, 5.248244339853164e+03
10024, 1.843802142638687e-01, 1.993576024927240e-01, -1.538811672674872e-02, -1.740145272148992e-09, 1.014687095645846e-09, -7.385163477384630e-09, 6.742246916038360e+03, 6.961916670380215e+03, -1.668739835872362e+02, 1.484578166574656e+04, 3.480636609915690e+02, -3.176329236707904e+02, 8.042703929092142e+03
10025, 8.083410382018824e-01, 2.633008127371911e-01, 2.776187626860029e-03, -5.399647896250585e-10, 1.262244386680593e-10, 3.123291028653462e-10, -3.450053673126160e+02, -3.473192343304527e+02, -1.245050556954898e+01, -8.052616125399283e+02, 1.687899368375791e+02, -1.625912883783738e+02, 6.132040021681753e+02
10026, 6.921409379721316e-01, 1.300308328132399e+00, 3.022003060294931e-03, 4.398616515745330e-11, -5.330506802464928e-10, -1.724550782348591e-09, 2.969794531496351e+03, 3.153077046430059e+03, 4.808514570594367e+02, 7.111040996337620e+03, -4.974544063208277e+02, 1.391889207282168e+03, 4.865449662900914e+03
10027, 5.033305682132392e-01, 2.987472248482873e-01, -1.398303357421315e-02, -1.349148174009762e-09, 6.768458883940644e-10, -3.755531404291618e-09, 3.361841150838978e+03, 3.068170173368410e+03, -3.546999791492929e+02, 5.759851980686507e+03, 2.253521497534845e+02, -4.469806623002850e+01, 2.660207796142263e+03
10028, 3.516501121262011e-01, 2.344693168052496e-01, 3.422754131612085e-02, -1.170779629876708e-09, 8.233745952567847e-10, -3.027670352153190e-09, 4.774015001828924e+03, 4.907997194682147e+03, -4.897986185790793e+01, 9.202923836051446e+03, 5.916429630001578e+02, -5.494884630017962e+02, 4.582894691439225e+03
10029, 2.483374512597224e-01, 1.880998641370587e-01, 4.359256368667633e-02, -5.452433684795284e-10, 4.151472050505733e-10, -2.025916126273252e-09, 5.119359405304667e+03, 5.499343778152473e+03, 1.366758648650232e+02, 1.093351156365291e+04, 3.334975682434397e+02, -2.866572280159337e+02, 5.689963650306247e+03
10030, 9.228029058402922e-01, 4.812237885698363e-01, 7.981753992856647e-03, -3.793059884683846e-10, -2.566145164525022e-11, 2.607909601976326e-10, -6.572896971871514e+02, -8.624995847128553e+02, -1.970191427548220e+02, -1.281860042158580e+03, 3.250279290752839e+02, 2.487086588609660e+02, 9.607175892853546e+02
10031, 4.814927669595322e-01, 1.878051523450863e-01, 5.142587160200381e-02, -6.364625438442729e-10, 2.884662032540584e-10, -1.054286437316279e-09, 3.272614848123644e+03, 3.135123515449186e+03, -3.900804901776381e+01, 5.826867351895351e+03, 8.358276202387149e+02, -3.242456419765691e+02, 3.051244225764946e+03
10032, 2.658780342959141e-01, 7.366118581243158e-02, -2.111937976005359e-02, -5.884334932319980e-10, 4.398162284337397e-10, -7.202423485167830e-09, 5.140652535031852e+03, 5.758237908064289e+03, -3.937472362631863e+02, 8.237894018326419e+03, -6.323391056745111e+02, 7.931040783417695e+02, 3.407816983221045e+03
10033, 4.412029942059514e-01, 4.250964903061129e-01, 4.524268586429579e-02, -8.513223300535642e-10, 3.784141231829326e-10, -1.501901439526551e-09, 4.455549814648038e+03, 4.486065722894954e+03, 6.547972125396250e+01, 8.341051536730221e+03, 1.030332971748096e+03, -4.077310271735388e+02, 4.321555262885770e+03
10034, 3.798864699185628e-01, 5.114925900788672e-01, 3.266947622625660e-02, -5.990144880104010e-10, 5.815899560273600e-10, -2.111456680990172e-09, 5.382993059509045e+03, 5.994162312357513e+03, 3.398030325870432e+02, 1.085478915477482e+04, 2.269770275740886e+02, -5.319798952099876e+02, 5.321639660409040e+03
10035, 2.177456275732453e-01, 2.550030258321338e-01, 3.037921616611518e-02, -1.690945609979115e-10, 2.081340459672030e-10, -2.245822233291653e-09, 5.146234481361767e+03, 5.483614247034059e+03, 3.249701282358234e+02, 1.172325093805321e+04, -4.281562855511393e+02, 1.919582592586884e+02, 6.490711239463229e+03
10036, 8.143102808424170e-01, 6.886885460852715e-01, 2.427113273500394e-02, -4.619492645969939e-10, 1.498757849861043e-10, -1.687711111078549e-10, 9.965497538170409e+02, 7.843531455027670e+02, -5.682804076905055e+01, 1.247800932188125e+03, 6.053571884274311e+02, -2.134241874792900e+02, 1.186245805007155e+03
10037, 7.089981611799054e-01, 2.471180167200950e-01, 3.504485290069841e-02, -4.228046030019979e-10, 7.547319387978807e-11, -1.829217387235550e-10, 9.826105493894499e+02, 8.390507580768054e+02, -2.394952236483643e+01, 1.308289465064552e+03, 6.312442943250488e+02, -1.104584315307991e+02, 1.186238837027905e+03
10038, 7.011952461431195e-01, 2.981322422272964e-01, -5.701415278021281e-03, -7.604869105299137e-10, 5.605311587141322e-11, -8.226635243964945e-10, 1.203454245718930e+03, 9.953176103656334e+02, -7.394790841023810e+01, 1.658797463109953e+03, -6.202722251983283e+01, 3.183460157725439e+02, 8.230501051266510e+02
10039, 9.387300063025686e-01, 6.596953025758792e-01, 7.333300852237469e-03, -4.648357901536468e-10, -2.844444899062561e-11, 4.161403645516935e-10, -1.012129602720498e+03, -1.055261618113130e+03, 4.526496180753727e+00, -1.980134321073145e+03, 5.803452315573815e+02, 1.961638434564039e+02, 1.422338040835811e+03
10040, 5.271626265149644e-01, 1.995073354787593e-02, 4.696855809640088e-02, -2.214507399836918e-10, 2.776702205983652e-10, -3.973911992580952e-10, 1.448019875168584e+03, 1.913323877873276e+03, -2.354402595478249e+02, 2.173080223684908e+03, 2.404737368711563e+02, -5.776893209531606e+02, 1.321287590953863e+03
10041, 2.999328528387795e-01, 1.401935231232382e-01, 9.156029326099123e-03, -1.750745634453168e-09, 1.242378860147250e-09, -5.658037117062156e-09, 4.884894673648587e+03, 4.603283207843980e+03, -5.136794254671862e+01, 9.451151440682486e+03, 1.205539324219886e+03, -5.617302752189474e+02, 5.246944828291875e+03
10042, 3.938615308185089e-01, 3.863097797080484e-01, 1.408791446489798e-02, -1.815292823354206e-09, 9.218065265672114e-10, -4.465798232604435e-09, 4.961853142445494e+03, 4.806727606442802e+03, -1.012215802948053e+02, 9.626930648693318e+03, 9.343754463652755e+02, -2.691149476316145e+02, 5.037644601820348e+03
10043, 6.601344542766092e-01, 9.876635885227127e-01, -7.202708713044011e-03, -1.746470597796873e-09, 1.660171834489817e-09, -5.725034430992404e-09, 6.380213864234295e+03, 6.657172458201130e+03, -5.125416031214721e+01, 1.259600154171433e+04, 1.382945879646656e+03, -3.179914085274838e+03, 8.548231767615123e+03
10044, 8.292485923965613e-01, 5.771902041343623e-01, 2.293448683196530e-02, -3.933897405547245e-10, 1.168282776516462e-10, 2.252152871891088e-12, 2.219435761400796e+02, 1.398170901479387e+02, -1.155264420986413e+01, 1.688950458392528e+02, 5.140009317550755e+02, -1.614903059477247e+02, 9.361788493301299e+02
10045, 2.826161891772727e-01, 1.191913047485515e-01, -4.500062239442845e-03, -1.545949861116021e-09, 1.299858162017431e-09, -6.747980950556421e-09, 4.607386080495554e+03, 4.013018103617786e+03, -4.911171925835623e+02, 9.124566045091313e+03, 7.841451111261881e+02, -8.063056665401778e+02, 5.287880547192785e+03
10046, 7.678184611520725e-01, 2.554789841939910e-01, 2.696000379861701e-02, -3.752952460351099e-10, 6.204177493486871e-11, -1.770411861185478e-11, 3.111257368114727e+02, 1.935051249489034e+02, -2.276614912879836e+01, 2.156353497990058e+02, 5.093657831965319e+02, -1.075646079563140e+02, 9.090364212540748e+02
10047, 6.910874169159682e-01, 1.008886443471122e+00, 2.859487516988612e-02, -9.469137056349939e-10, 3.483713439028791e-10, -1.509458883537552e-09, 4.337603178718274e+03, 4.265345139029409e+03, -1.675431184960874e+02, 8.471227820294829e+03, 1.471116464752703e+03, -4.235335058023127e+02, 4.950319833610324e+03
10048, 3.738221351151368e-01, 2.455617894538097e-01, 3.110314927488408e-02, -1.348038198739004e-09, 8.132638027988109e-10, -3.245886709649453e-09, 4.561759111307703e+03, 4.790380962038654e+03, -7.976344116907035e+01, 9.167945058298574e+03, 7.074096449106669e+02, -5.103052671401598e+02, 4.745286967789003e+03
10049, 8.538465041434028e-01, 1.249360748149961e+00, 2.251349418919977e-02, -4.870880523988365e-10, 2.276506367581954e-10, -8.987573163484895e-10, 3.466621868877976e+03, 3.051940197978566e+03, -5.740812256197189e+01, 5.314141029997306e+03, 6.682739058085826e+02, -1.042241554012601e+02, 2.394507342336666e+03
10050, 8.476321060875281e-01, 6.436446875475161e-01, 1.960147814863526e-03, -5.863209766389395e-10, 1.366923162221769e-10, 9.850743226017879e-11, 1.690258438074901e+02, 6.991077242871533e+01, -1.878861606208752e+01, -1.325633554721608e+02, 2.560872380434612e+02, -2.987875885052882e+01, 5.209290593938923e+02
10051, 8.536572516164265e-01, 1.174768242117931e+00, 2.214867237540258e-02, -4.310738092546095e-10, 1.604911895476435e-10, -5.799920596984940e-10, 2.234465114443668e+03, 2.170882164616192e+03, -5.879997389887493e+01, 3.641921040397810e+03, 5.112887671691332e+02, -7.200471064989733e+01, 1.698422836249963e+03
10052, 7.302816602009191e-01, 1.275887856476601e+00, -3.665857722707378e-03, 2.840866838450272e-10, 3.007328377430723e-10, -3.682331465972280e-09, 4.966101434099646e+03, 5.419304757260632e+03, 4.717401307772824e+02, 1.014626021453100e+04, -2.496226730537281e+03, 9.532323387800515e+01, 6.639284038905541e+03
10053, 5.076301474642062e-01, 2.205462273117664e-01, 1.609516479561402e-02, -1.183743728434093e-09, 6.367804078306783e-10, -2.716121173601240e-09, 3.280365879631962e+03, 3.229853259182088e+03, -3.922480264920317e+01, 6.026371612229588e+03, 5.597077826194520e+02, -2.567357447690886e+02, 2.970518615113697e+03
10054, 7.634535365429762e-01, 8.010863099094054e-01, -2.585976228542307e-03, -1.019344090568604e-09, 1.945950850387047e-10, -1.563773454390205e-09, 1.876539734161773e+03, 1.835157377245908e+03, -6.186634968558090e+01, 3.195540351242240e+03, 8.212123401824723e+02, 3.783447775054686e+02, 2.064011688993547e+03
10055, 4.389645235007688e-01, 5.655165133077409e-01, 7.991063663481512e-03, -1.616104987178388e-09, 8.836794922738718e-10, -4.896453047423794e-09, 5.143878275071329e+03, 5.053135807382017e+03, -3.392878800461937e+02, 1.082374673852261e+04, 6.074844950912543e+02, 2.625400124438972e+02, 5.868883032097731e+03
10056, 5.666091388027743e-01, 2.536035559311227e-01, 1.526048118268462e-02, -1.150679113091695e-09, 4.480251817383056e-10, -2.179020704091692e-09, 2.646557111993412e+03, 2.404889714347238e+03, -1.385656484526205e+02, 4.818407827888655e+03, 6.969501647420783e+02, -3.194129814316516e+02, 2.668538559796845e+03
10057, 2.975237469494513e-01, 4.087529251190973e-01, -1.259166356713728e-02, -3.159184190985460e-09, 1.204911287425978e-09, -9.130390041036316e-09, 8.189401522447071e+03, 8.745429034239301e+03, 6.906117813868467e+02, 1.881624512325147e+04, 4.338743815537972e+03, -1.023567470567245e+03, 1.297606075791321e+04
10058, 4.723522886314341e-01, 7.368395446953283e-01, -1.125383049426331e-02, -2.230279972029390e-09, 2.158615068720200e-10, -7.698118246121745e-09, 6.994509967726014e+03, 6.660377181978831e+03, -4.720248463885241e+02, 1.379754745489022e+04, 2.567288318627066e+03, 5.219937104681597e+02, 8.362107643316220e+03
10059, 4.206180316458740e-01, 1.067753391392935e-01, -1.702666866677146e-02, -1.026732131037501e-09, 1.061381919800594e-09, -4.357651511140936e-09, 3.332831267402234e+03, 2.777263789604765e+03, 1.052983017530849e+02, 4.494785510043864e+03, -3.175218590882431e+02, -2.434483506048379e+02, 1.678648790119322e+03
10060, 9.885964903608309e-01, 1.482327966982167e+00, 5.223700074082930e-03, -2.102261966714449e-10, 1.909122099425777e-10, -9.574905349941671e-10, 2.446964937675528e+03, 2.362929071734367e+03, -1.868979247333092e+02, 4.215742482110541e+03, -2.258668314159012e+01, 3.147941663306696e+02, 1.920386903753576e+03
10061, 5.070622505219857e-01, 2.425598411316451e-01, 1.162834301741149e-02, -1.200660697913052e-09, 4.781740034995969e-10, -2.923626740351080e-09, 3.477044308052614e+03, 3.202827594787255e+03, 4.232688621153174e+01, 5.879150972434098e+03, 3.273525420608439e+02, 1.016738532169829e+01, 2.613651260356385e+03
10062, 7.835581322454855e-01, 3.951866115449432e-01, 2.578654106179788e-02, -4.286900986165473e-10, 9.128012456198815e-11, -1.669425508471906e-11, 3.739042035792879e+02, 2.216262716253744e+02, -3.207163843807762e+01, 2.503641114757408e+02, 5.332136233507024e+02, -9.906164744884599e+01, 9.513747934019958e+02
10063, 6.892768828996332e-01, 1.153717349193651e+00, 2.261310213537900e-02, -1.840985375669651e-10, 7.266398757670830e-10, -2.323675267754883e-09, 5.414181845595117e+03, 6.200933918853428e+03, -1.741783095259031e-01, 1.313277385365773e+04, -4.172119397780133e+02, -1.283235763129250e+03, 7.719151683776006e+03
10064, 8.797119305861205e-01, 1.701034448482426e-01, 9.902132979025504e-03, -4.022561044751477e-10, 2.767146360504767e-11, 2.532351181876648e-10, -1.142463981436407e+03, -1.006363793020341e+03, -4.370959456365671e+01, -1.960654501771412e+03, 5.201422348473803e+02, 8.171041543440519e+01, 1.279343608335547e+03
10065, 8.854886295757599e-01, 1.353653125590450e+00, 1.737232883918412e-03, -7.294517172854073e-10, 6.940911161968089e-10, -1.074516595317746e-09, 2.804764442482889e+03, 2.896325672876589e+03, -4.107955926299176e+01, 4.423401206699892e+03, 1.832877699166752e+02, -9.991178215612596e+02, 2.362354574179895e+03
10066, 3.116163507936380e-01, 4.883757236734768e-02, 5.660261789283785e-02, -3.709154158869856e-10, 7.865277169986697e-10, -1.078074804177622e-09, 3.219332324267175e+03, 3.372183348062636e+03, -1.120494548483426e+02, 5.816304206323724e+03, 4.588166317699406e+02, -1.098126913516430e+03, 3.264586969442875e+03
10067, 5.297396829172953e-01, 4.783380903579086e-01, -1.373140447139733e-02, -1.164766113900240e-09, 1.340592627062327e-09, -4.350491875879633e-09, 3.197247871144817e+03, 3.731192124115526e+03, -1.031324678126830e+02, 5.556180880685831e+03, -3.053383330463751e+02, -1.310672309581779e+03, 3.171011164462003e+03
10068, 9.671881529036682e-01, 8.757400744213470e-01, 8.290938511147480e-03, -2.254025799806192e-10, 2.523235050805320e-11, 1.925301418979277e-10, -5.070372517199519e+02, -5.193046550562455e+02, 1.194248351481392e+01, -1.150011338017584e+03, 1.277079933081568e+02, 3.539233761341345e+01, 6.773420542610735e+02
10069, 5.988331835656474e-01, 1.010848595429942e+00, -7.107557423144555e-03, -8.246462995652084e-10, 6.818123946799085e-10, -6.995649873961987e-09, 8.152276100942427e+03, 8.296438683666518e+03, -9.200145480039865e+01, 1.738641952947949e+04, -5.008484451512286e+02, -6.730077057393675e+02, 9.278778376337608e+03
10070, 5.850774576685881e-01, 2.831960707941308e-01, 2.669381072761536e-02, -1.014369156530645e-09, 2.438387660625121e-10, -1.294569246882024e-09, 2.360399843207910e+03, 2.217147938509344e+03, -7.269862239061732e+01, 3.896191903181605e+03, 7.220052534410903e+02, -4.306055767401459e+01, 2.045599217699755e+03
10071, 6.562242519735415e-01, 1.364965598681521e-01, 1.635873218307574e-02, -6.396703719639560e-10, 1.790366136807630e-10, -8.259335473864851e-10, 1.173097302136133e+03, 1.089071741256144e+03, -9.572300378375449e+01, 2.325756910265778e+03, 2.804578775124921e+02, -8.045359295139218e+01, 1.309738226732556e+03
10072, 1.512196817933004e-01, 2.443999526182368e-01, 2.400860147837049e-03, -1.839391511787649e-10, 5.342937341789790e-11, -1.899687352676826e-09, 3.226926140487707e+03, 2.616199005061327e+03, 3.356306759228044e+02, 6.254264972234989e+03, -1.652885901735622e+02, 6.136628195697169e+02, 3.596706407698830e+03
10073, 2.155554070077982e-01, 3.810849412242930e-01, 2.103652252861287e-03, -1.022557642086047e-10, -9.438048549974700e-11, -1.565180249304311e-09, 2.524849660217957e+03, 2.565475032850271e+03, 5.752840336481398e+02, 6.560085667625792e+03, -4.925572191010190e+02, 9.508353067903248e+02, 4.533630270789197e+03
10074, 8.705616160104247e-01, 1.557101648533781e+00, 7.787564834594342e-04, -4.136523454142921e-10, 2.777006895713203e-09, -5.107994787411021e-09, 8.937450053544013e+03, 1.105256107172734e+04, -3.969823550633470e+02, 1.878678984059815e+04, -6.601618995593536e+02, -3.038794550063148e+03, 1.049446448746783e+04
10075, 5.869279018429044e-01, 2.529147742992884e-01, 2.061477538647211e-02, -1.023515605100693e-09, 2.843772901927150e-10, -1.548022966667331e-09, 2.360212905156581e+03, 2.042548556961942e+03, -1.437987720674390e+02, 3.992870027069629e+03, 6.786214877463357e+02, -2.925083321138133e+01, 2.175155015504252e+03
10076, 9.080410405585359e-01, 1.279826355127728e+00, 1.782982323587368e-02, -3.580922401118172e-10, 1.386315873234504e-10, -4.675582363473861e-10, 1.752663953171051e+03, 1.591380668721672e+03, -1.562784992484881e+02, 2.998560841756024e+03, 3.406290944646747e+02, -6.885384425227154e+01, 1.488216953498126e+03
10077, 3.389225776859506e-01, 3.258327334212734e-01, -1.811496325654384e-02, -2.712982411465401e-09, 7.361950262393620e-10, -8.152973739016298e-09, 6.661507524920769e+03, 6.393164843638655e+03, -3.830514989363124e+02, 1.169851398357267e+04, 2.362874976556871e+03, 1.563927701350840e+03, 7.163966433480418e+03
10078, 4.379167629059880e-01, 5.280204776384169e-01, 3.915168563333634e-02, -8.765561655369756e-10, 6.311706472522371e-10, -2.004549894265441e-09, 5.139457425487068e+03, 5.342654282158509e+03, 8.364829957683926e+01, 1.060787281807160e+04, 9.100176847879850e+02, -7.415795151030022e+02, 5.743596369460322e+03
10079, 1.989819719248245e-01, 3.387664524693033e-01, 2.502408594519638e-03, -1.104168572225710e-10, 1.740695745724985e-10, -1.572370399614287e-09, 2.827255070426076e+03, 2.719557862370474e+03, 3.654903143456287e+02, 5.577172199546347e+03, -5.257771708491426e+02, 9.553292439912720e+01, 3.021134775473466e+03
10080, 7.921874084744749e-01, 2.282061432321524e-01, 2.412871539305327e-03, -5.808702246465737e-10, 7.114022723697702e-11, 1.675421950580569e-10, -6.728561043055805e-01, -3.872469892455393e+01, -1.145317678044142e+01, -1.501213061745330e+02, 2.132824548963326e+02, 1.002094042749298e+01, 3.940291781767854e+02
10081, 9.879499140979481e-01, 1.088116656902920e+00, 8.284877048297350e-03, -2.545671215875150e-10, 6.627492679382956e-11, 1.089297943767654e-10, -1.092751369073705e+02, -2.565506923912369e+02, -3.835308685499380e+01, -5.188053760407669e+02, 2.758132192055361e+02, -4.867368586706426e+01, 6.073140613546398e+02
10082, 6.820303455456785e-01, 5.665465732263553e-01, 3.632655396651298e-02, -5.699572588640765e-10, 1.903675484499748e-10, -6.700790779250085e-10, 2.169639854083534e+03, 2.005656656260617e+03, -2.295939264650865e+01, 3.834112162700100e+03, 7.181470085082572e+02, -2.085120800621173e+02, 2.179339966225988e+03
10083, 4.557011725976666e-01, 4.218431805637334e-01, 2.038622196523599e-02, -1.572128007108083e-09, 7.419099679377680e-10, -3.127066523362283e-09, 4.431584389390167e+03, 4.349533789542062e+03, -4.318139776744260e+01, 7.761044409545441e+03, 7.984249199728221e+02, -4.449194584648661e+02, 3.725200860352915e+03
10084, 8.013503347892097e-01, 4.428544814890560e-01, 5.459148947188144e-04, -6.654146011603119e-10, 1.205789708691235e-10, -1.051024967129207e-11, 1.902079341181380e+02, 1.786633245032135e+02, -7.324043180509214e+01, 1.504303550306126e+02, 3.369271523412509e+02, 9.299184212717407e+00, 5.984713378062827e+02
10085, 5.817524734529983e-01, 3.656897267353472e-01, -1.022085740176078e-02, -1.040553982814591e-09, 3.359926892998188e-10, -2.557298123661142e-09, 2.947883242304713e+03, 2.529847376047609e+03, -2.727114255444932e+02, 3.796102311871983e+03, -5.822202982403039e+02, 7.111096337211198e+02, 2.001475029673568e+03
10086, 5.791094412019547e-01, 5.841585071696911e-01, 4.335983104577501e-02, -7.332432095676131e-10, 2.809673223122978e-10, -1.047633984067712e-09, 3.590462655420800e+03, 3.517734919964100e+03, -6.847377735817102e+01, 6.465225908584801e+03, 1.052458910653220e+03, -3.118868659912443e+02, 3.479586700824421e+03
10087, 8.702564958975672e-01, 9.488125779467911e-01, 1.960314159198039e-02, -4.134500716825222e-10, 1.494591642520251e-10, -2.150518323641656e-10, 1.128520912728426e+03, 9.354522597497886e+02, -2.723645600233100e+01, 1.484708432283117e+03, 5.261383412923058e+02, -1.770546345541404e+02, 1.076869938966259e+03
10088, 6.813543447883679e-01, 4.038927811414578e-02, -4.137998501031519e-03, -1.906309830146373e-10, 1.181176002822838e-10, -6.251621366038804e-10, 8.943394932220020e+02, 8.062093740976400e+02, -1.316464526737427e+02, 1.406758561614499e+03, -2.205253796280039e+02, -1.448511022254038e+02, 7.591653266718937e+02
10089, 7.037249711380900e-01, 6.133113834477605e-01, 8.101532079435200e-03, -9.125054285823766e-10, 3.431866930157864e-10, -1.221478801746089e-09, 1.995873487136931e+03, 1.880231266399052e+03, -1.120271483984113e+02, 2.909019747919111e+03, 2.746387686070192e+02, 4.017468602259222e+01, 1.105250695564054e+03
10090, 3.768167006016760e-01, 1.359968723420447e-01, 5.503769179326047e-02, -6.601988191887606e-10, 4.692687277689255e-10, -1.352741083149243e-09, 3.965061272055110e+03, 3.834748029018034e+03, -3.193710751599515e+01, 7.451028581116024e+03, 8.453054225847399e+02, -5.180069503409210e+02, 3.946504103251972e+03
10091, 2.422210664542649e-01, 1.944213885578367e-01, -1.992611747767256e-02, -1.662830104096583e-09, 2.359728322428193e-09, -1.030782669603964e-08, 7.812665446505234e+03, 7.723095291336183e+03, -2.205888271044556e+02, 1.494536112122753e+04, -1.709001315041190e+02, -1.728643511666090e+03, 7.792334123182076e+03
10092, 5.844032846507954e-01, 5.231455181653311e-01, 1.384749157175280e-02, -1.331351323984064e-09, 5.799516025666759e-10, -2.610798371112538e-09, 3.254899249784050e+03, 3.239575284639013e+03, -6.402815272712080e+01, 5.865363019988934e+03, 6.707998791380196e+02, -5.493732706023175e+02, 3.020332397803860e+03
10093, 8.870012564995065e-01, 8.571785477857574e-01, 2.090291224264334e-03, -5.228159405487048e-10, 1.107145692168125e-10, -2.650894812581244e-10, 6.189111093744929e+02, 5.148978618722721e+02, -9.509271311485398e+01, 9.213641103056323e+02, 3.794674410573276e+02, 5.629784074887587e+01, 7.761304797656309e+02
10094, 4.450871907002458e-01, 7.395833989510665e-01, 2.126363691510260e-02, -1.586058775420802e-11, 1.491234395747677e-10, -2.495336057168982e-09, 4.766519942220127e+03, 5.597660891821042e+03, 9.771305541239887e+01, 1.336157708196823e+04, -5.594578892564759e+02, -5.368017845491614e+01, 8.270330474561395e+03
10095, 3.121758841151280e-01, 2.546209902867891e-01, 2.178868538982103e-02, -1.397232993588408e-09, 1.118072652675784e-09, -4.138164981377769e-09, 5.373928182044960e+03, 5.559394137931539e+03, -4.878559011333299e+01, 1.033770429064311e+04, 5.299093763770676e+02, -6.715732351365041e+02, 5.094648483425995e+03
10096, 5.947364317355919e-01, 5.774127607509402e-01, 1.264984123855441e-02, -1.486067932428042e-09, 4.387740276049112e-10, -2.496040971137510e-09, 3.492421595534777e+03, 3.360197336754993e+03, 2.485172391081637e+01, 5.861023718457034e+03, 8.596314450372463e+02, 5.058190812045457e+01, 2.857861614580229e+03
10097, 1.183285460302462e-01, 1.369674941567796e-01, 1.825510420548643e-02, 2.549522704079107e-10, -6.451276332633733e-12, -1.142907188135438e-09, 4.093483878532240e+03, 3.757207344049325e+03, -1.936492072039472e+02, 6.496451494603905e+03, -8.621366348000446e+02, 3.500283927445910e+02, 3.066805389761063e+03
10098, 2.222445454073892e-01, 7.385024259813450e-02, -2.167131891627703e-02, -9.529998036750818e-10, 1.595818838608138e-09, -8.024322092603003e-09, 6.323611647393055e+03, 6.332581203039214e+03, -4.475855257547400e+02, 1.011348580918338e+04, -1.264108785515066e+03, -2.539572105300070e+03, 6.250793872417133e+03
10099, 5.016461825800589e-01, 2.184175665750775e-01, 5.198249201052593e-02, -5.563295050047186e-10, 2.494100633624857e-10, -9.031688929077437e-10, 3.140263255402822e+03, 3.023819572892835e+03, -1.991182108316251e-01, 5.522592274112667e+03, 8.020214943742208e+02, -3.373686483158274e+02, 2.870126515387567e+03
10100, 7.982724380205007e-01, 1.232207656371265e+00, -2.485226079848028e-03, -2.220675356967982e-10, 4.723006669558877e-10, -3.930353345574064e-09, 4.455138428579926e+03, 5.155307853732720e+03, 2.662935049160965e+02, 9.144484281032581e+03, -9.078378048933977e+02, -6.320550445307654e+02, 4.804226371455881e+03
10101, 6.663105505953935e-01, 1.173500825697536e+00, -4.520303727749767e-03, -1.659781023991079e-11, 6.761181658679258e-10, -3.073136028977035e-09, 4.855793523443906e+03, 3.760312390751047e+03, -2.208975638177623e+02, 6.954713580546392e+03, -1.734996964696604e+03, -4.385449491418938e+02, 4.202245502187406e+03
10102, 7.795003050313156e-01, 1.195287314541658e+00, 2.474457281667075e-02, -8.571682656661716e-10, 3.818951210772243e-10, -1.132655825994141e-09, 3.969990523341252e+03, 3.521127949255789e+03, 1.065340472946679e+02, 6.896511895459679e+03, 1.376636287879958e+03, -4.013564389490143e+02, 4.035133549012465e+03
10103, 6.182403628451340e-01, 1.065625291438071e+00, -4.593100953668629e-03, 6.047788542949912e-10, 7.164712028923229e-10, -4.783665737664752e-09, 5.724526910792507e+03, 6.914795232739508e+03, 4.817593783791986e+02, 1.308206370894057e+04, -2.207038604201864e+03, -1.546660826952602e+03, 8.323368132799866e+03
10104, 3.010858000457288e-01, 1.015484758315510e-01, 3.132446369203879e-02, -1.063377171004687e-09, 1.196111919724355e-09, -3.457759642229587e-09, 4.582205390336219e+03, 4.253723412948952e+03, -2.209888435754233e+02, 8.789521321789087e+03, 4.934117311820675e+02, -5.573110697280151e+02, 4.582586138291867e+03
10105, 4.384837557686204e-01, 5.244886552262685e-01, -1.432995707413699e-02, -1.830333507097554e-09, 1.076555088048833e-09, -7.584148718530285e-09, 6.565175686048612e+03, 6.771600677474610e+03, -5.098460851286461e+00, 1.208427546527155e+04, -4.528795919666675e+01, -2.958028254513148e+02, 5.443576254704925e+03
10106, 7.216644285957080e-01, 1.207059659321482e+00, -2.671032787489400e-03, -6.946084571566738e-10, -2.829295023924026e-10, -4.516147377689141e-09, 6.096434149147484e+03, 5.374796494001307e+03, -1.788769697286569e+02, 1.319630926856101e+04, 1.150734023545905e+03, 1.038473631347445e+03, 7.959671135690505e+03
10107, 1.000846620434522e+00, 1.205608163014730e+00, 7.702924779957612e-03, -3.491689863485341e-10, 1.186896729409112e-10, 3.038463132964835e-11, 5.533502755618216e+00, -1.098848042317919e+02, -7.258026685902843e+01, -3.553073175074633e+02, 5.826647761096426e+02, -1.896771023840077e+02, 1.115396999038604e+03
10108, 4.132838660152534e-01, 4.241867046874218e-02, 8.527139322858158e-03, -6.530355045580000e-10, 1.011404973799751e-09, -2.223043149362464e-09, 2.869815675277338e+03, 2.997912540612424e+03, -5.629539118877000e+02, 4.512704822767869e+03, 4.713917970830652e+02, -1.036529239533481e+03, 2.710277698131399e+03
10109, 2.527311144084904e-01, 1.299626598598910e-01, -1.938239895289267e-02, -1.032142929965690e-09, 9.933390893896427e-10, -8.951134659531580e-09, 5.564798965122582e+03, 5.352478288897601e+03, 3.174342760458966e+01, 9.725131636516842e+03, -2.095130219808951e+03, -7.224073837116805e+02, 5.742310056581436e+03
10110, 3.145589956759735e-01, 4.449167076003543e-02, 4.463028472338990e-03, -7.876217376345314e-10, 1.247522552905911e-09, -3.066669322605343e-09, 3.411918636996695e+03, 3.599110415614252e+03, -3.665432337016837e+02, 4.810546212670361e+03, 4.660059954796155e+02, -1.401252824709622e+03, 2.945244183452243e+03
10111, 7.235868285432776e-01, 8.819402451620489e-01, 3.326907054341129e-02, -6.272677562083972e-10, 2.036945304358698e-10, -8.304021656424672e-10, 3.125902339393063e+03, 2.967747145066043e+03, -1.613900502509778e+01, 5.338781586222449e+03, 9.977809085309987e+02, -2.037323058522155e+02, 2.895484097335946e+03
10112, 8.325947705935209e-01, 7.519885376863945e-01, 2.428902807005811e-02, -3.880026052096359e-10, 1.148512427527754e-10, -1.581281751130722e-10, 8.532153250234065e+02, 7.209055902377262e+02, -3.585813867867349e+01, 1.084121728521163e+03, 5.719949328127441e+02, -1.696732145084920e+02, 1.083113025074589e+03
10113, 8.688726525069208e-01, 1.316441454840026e+00, 2.124023054791802e-02, -4.918961353285330e-10, 2.848033584251057e-10, -7.318219258183171e-10, 2.515162405312658e+03, 2.625306804787810e+03, -1.554077817139890e+02, 4.599268990290438e+03, 8.507397127996460e+02, -4.092567838769128e+02, 2.621503697525864e+03
10114, 6.304584941284600e-01, 6.684106766470704e-01, 4.030932659927206e-02, -6.515305312743400e-10, 3.366895117524754e-10, -9.059975868230893e-10, 3.331949537139267e+03, 3.151340262818223e+03, -1.184444244188272e+01, 5.717548566069471e+03, 9.606285846844794e+02, -5.058305289326334e+02, 3.113037106079749e+03
10115, 7.035910416732014e-01, 3.384877825995442e-01, 8.456284095379896e-03, -8.581605936887408e-10, 1.990789562952634e-10, -4.991701761288123e-10, 1.164987811355026e+03, 1.000586745336106e+03, -5.730245341215896e+01, 1.352552557350882e+03, 3.386488078031190e+02, -1.289280264006152e+02, 7.048483206996997e+02
10116, 1.354715159165159e-01, 1.687648239785069e-01, -9.634578849983370e-03, -6.031457971329220e-10, 7.612979973962854e-10, -2.055151861084939e-09, 3.373263377707221e+03, 2.893208235689835e+03, -2.499135026450692e+02, 3.851882527481847e+03, 4.990188970052035e+02, -6.317764132323903e+02, 1.679627035354522e+03
10117, 8.756780626165356e-01, 8.576521070541357e-02, 7.344253425215830e-03, -3.052329510615642e-10, 4.225585378487301e-11, 4.331342412547198e-10, -1.195295272250954e+03, -1.136593059933462e+03, 3.778342494880919e+01, -2.458836511319099e+03, 1.517218919492407e+02, -5.282550306408599e+01, 1.325091709678616e+03
10118, 5.283935897213503e-01, 5.124066228684155e-01, -1.184007316885055e-02, -1.441299983403953e-09, 7.689285604764851e-10, -5.700260017420498e-09, 5.088208757835094e+03, 4.965850862585925e+03, -3.030759704269954e+01, 1.063342901807909e+04, 3.066511012087370e+02, -1.538796927031992e+02, 5.639045831814027e+03
10119, 2.891018626835816e-01, 1.757106582783997e-01, 2.891446929219698e-02, -1.350181376025964e-09, 8.164116756253650e-10, -3.846664099346109e-09, 5.000649957436707e+03, 5.410867845936708e+03, 6.206132801485205e+01, 1.001022641547783e+04, 7.509561211963468e+02, -9.097340432561585e+01, 4.993726636709682e+03
10120, 8.883633101683095e-01, 2.214570518257793e-01, 9.061029194217151e-03, -5.430110888937229e-10, 1.386610996826027e-11, 3.839608915357633e-10, -1.262187369533442e+03, -1.180060865882128e+03, 4.006252093325200e+01, -2.147373225661578e+03, 9.088191654236512e+02, 6.116833887552337e+01, 1.832182447807442e+03
10121, 7.201472235850255e-01, 5.021960661167677e-01, 3.510995931129495e-02, -4.881755970330834e-10, 1.549562096827544e-10, -3.615668702375226e-10, 1.529860300899449e+03, 1.425650841877566e+03, -5.453996880577036e+01, 2.366856338620743e+03, 7.412001576619122e+02, -2.048666608361065e+02, 1.606739796830127e+03
10122, 8.462535029675566e-01, 1.407281056287178e+00, 1.326311115535881e-03, -1.227936094329316e-09, 6.570777971004971e-10, -3.563231903573389e-09, 5.669273279254541e+03, 5.335991378019697e+03, -2.800823657643228e+02, 1.228238893502625e+04, 1.070771840391194e+03, -4.434540402295347e+02, 7.093190898029850e+03
10123, 9.216943201559024e-01, 1.362868479182494e+00, 1.123062254379519e-03, -2.475773480309858e-10, 2.822645032310379e-10, -9.858039583644473e-10, 2.919104059040130e+03, 2.458201716461434e+03, -1.770148184016185e+02, 3.643871312619562e+03, -4.009482314135453e+02, -1.029952592676067e+02, 1.296098270646064e+03
10124, 7.411987068169821e-01, 8.859501568789420e-01, -3.708642083429026e-03, -1.211101540057972e-09, 1.109227563358075e-10, -1.985228099914277e-09, 2.660431284476422e+03, 2.589517337250113e+03, 1.206821888965791e+01, 4.625967402394238e+03, 9.444578669743297e+02, 6.818644730423335e+02, 2.842358410769231e+03
10125, 7.057370751464691e-01, 3.643263250688200e-01, -5.236335318847252e-03, -6.774359632032982e-10, 2.307716476118495e-10, -8.975876826333487e-10, 1.184676017345147e+03, 1.162671946602991e+03, -2.769107973936673e+01, 2.031755901612692e+03, -1.914709252220414e+02, -5.994593202727337e+00, 9.214441132853206e+02
10126, 7.129187350211872e-01, 4.291255633967243e-01, -5.282741459442915e-03, -9.182995676481506e-10, 5.945155291327175e-11, -1.212700773739012e-09, 1.386258616050179e+03, 1.381714896727024e+03, -1.063636805904618e+02, 2.402835925232029e+03, 7.210131170776743e+02, 3.550878364539443e+02, 1.734892120659086e+03
10127, 9.611081831625007e-01, 7.772697034703968e-01, 7.888301376087176e-03, -2.648060781670875e-10, 7.734132792284281e-11, 1.788406215310011e-10, -4.612387147944732e+02, -5.152212907206560e+02, -6.333625530070603e+00, -9.673094439620318e+02, 2.705265853256776e+02, -1.582287939043962e+02, 7.255935488031868e+02
10128, 3.186936995975453e-01, 1.462301414575378e-01, 2.263122000761488e-02, -1.429407472107176e-09, 9.342215444181784e-10, -4.036955022986604e-09, 4.871328404702397e+03, 4.566328375800729e+03, -6.989119241235581e+01, 8.836856393915208e+03, 8.039791926048802e+02, -1.846040699158755e+02, 4.368519354749875e+03
10129, 7.424225210608871e-01, 3.953870243061382e-01, 3.198999720250446e-02, -4.585225328400445e-10, 1.296011969804485e-10, -1.386175130111374e-10, 8.666780592367412e+02, 6.903244973924614e+02, -2.531842654765015e+01, 1.084519572498135e+03, 6.128695705865408e+02, -1.680066023116944e+02, 1.153430399087293e+03
10130, 3.527308363470116e-01, 3.370191683882021e-01, 4.544712387932656e-02, -7.822596651329011e-10, 3.920663831581018e-10, -1.766886104331562e-09, 5.099024022851110e+03, 5.317044385556637e+03, 1.271619412778030e+02, 1.019166857826724e+04, 8.583761649828549e+02, -3.348023221467933e+02, 5.240942512350895e+03
10131, 9.233390641327548e-01, 1.268529869859167e+00, 2.518567368028257e-03, -6.296390589334836e-10, 1.675726269358901e-10, -1.285323451911110e-09, 2.153598600994286e+03, 2.140276595019306e+03, -2.254621170234931e+01, 4.232493979631517e+03, 5.960827284957073e+02, -2.966590782226833e+01, 2.328043723536522e+03
10132, 7.901112922202175e-01, 1.112569094335582e+00, 2.756200304148106e-02, -5.094596898698240e-10, 2.829564911051764e-10, -8.775947557089359e-10, 3.274395176386984e+03, 3.119422206297843e+03, -1.407874563749596e+02, 5.491821610791232e+03, 7.423419138641925e+02, -3.640632525007842e+02, 2.719364227952443e+03
10133, 9.500414661863037e-01, 1.240441489204837e+00, 1.448243930039356e-02, -4.890842077618905e-10, 1.532950127688631e-10, -2.584661597343317e-10, 1.239014947186248e+03, 1.047436597426673e+03, -4.741601610407016e+01, 1.962628516819459e+03, 7.487014424955208e+02, -2.522610212211458e+02, 1.605696362954297e+03
10134, 8.397361732879303e-01, 5.852274731244390e-01, 1.775302456013657e-03, -5.764371307126248e-10, 1.948714650259840e-10, -2.202236062624253e-11, 2.444831693149069e+02, 1.803167344270523e+02, -1.986004210653577e+01, 3.560582830431360e+02, 2.418941712131070e+02, -1.828108085426538e+02, 5.483673256293962e+02
10135, 4.964254039334792e-01, 1.276734311161766e-01, -1.365403716567508e-02, -7.996244086293503e-10, 3.887932130986495e-10, -3.258560720399524e-09, 2.486483469175530e+03, 3.062248542809526e+03, -6.347980011445452e+01, 4.203561477362733e+03, 4.193447317621934e+02, 1.186004013021183e+02, 1.695012092347006e+03
10136, 3.568505669571523e-01, 3.110633919134242e-01, 1.282530615435700e-02, -1.791833158681904e-09, 8.134821326828905e-10, -4.835207867593185e-09, 5.391810198482875e+03, 5.168417790307410e+03, -1.976834928259075e+02, 9.758337884933871e+03, 7.292194729610873e+02, 4.503985364147297e+01, 4.670173713504380e+03
10137, 4.197994928625616e-01, 1.396724921941692e-01, -1.867983608123226e-02, -1.141020469866234e-09, 6.727539192201811e-10, -4.698801276912882e-09, 3.098849882362628e+03, 2.585798006370372e+03, -1.300274346910025e+00, 3.514658531887139e+03, 4.801554225113780e+02, 2.745668765524670e+01, 1.159036167987562e+03
10138, 7.055416839535329e-02, 2.292046978032091e-02, -1.041916368168532e-02, 4.653356868775141e-10, 5.102447937026794e-10, -7.530825217261574e-10, 1.372755453010449e+03, 2.011551633883124e+03, 4.767687181613801e+02, 1.975451622698871e+03, -5.878650220140656e+02, -7.737860790062290e+02, 1.975150372654469e+03
10139, 8.912566168974435e-01, 1.048980531889674e+00, 2.033681513758742e-02, -4.093294296377725e-10, 1.613950399191300e-10, -2.301637702408207e-10, 1.112251865985569e+03, 1.135919542432451e+03, -1.230310976343017e+02, 1.701442476537148e+03, 6.521028447855036e+02, -2.690936403731215e+02, 1.368254156613303e+03
10140, 5.481221225425117e-01, 7.282143194645204e-01, 1.127251489434042e-02, -1.417385919100505e-09, 9.011336405459711e-10, -3.280884763693845e-09, 4.859520280420637e+03, 5.058307254658816e+03, 7.260893952006873e+01, 8.734154164555974e+03, 5.651517179638116e+02, -7.372377356817103e+02, 4.109335865452565e+03
10141, 4.811383679456486e-01, 1.614167328460852e-01, 3.163851184195734e-02, -1.003031052818638e-09, 5.143721039608095e-10, -2.039356215749489e-09, 3.101917744535192e+03, 2.970422583159890e+03, -1.268780904876176e+02, 5.620043157630847e+03, 5.734110533239854e+02, -2.387257149137779e+02, 2.809810071827729e+03
10142, 5.446360388845818e-01, 5.500839378446067e-01, 4.297261362322547e-02, -7.518816803361225e-10, 3.465235263314078e-10, -1.251985618398589e-09, 3.901633439871456e+03, 3.778641927943414e+03, -1.462631194784355e+01, 7.099905750423687e+03, 9.462091062637170e+02, -3.848871457538809e+02, 3.710582728051796e+03
10143, 6.133628205028522e-01, 4.987075927730314e-01, 1.098797660020612e-02, -1.289718828126060e-09, 5.796009069480332e-10, -2.084922267594369e-09, 3.181181919861124e+03, 2.983900152592894e+03, -7.922369257330217e+01, 4.872720929741290e+03, 6.444351249613998e+02, -2.678096644415393e+02, 2.171133170320725e+03
10144, 6.177894118267669e-01, 7.528956354324992e-01, 1.401366319333561e-02, -1.083178418993021e-09, 3.761627973600739e-10, -2.315336421722700e-09, 3.748833316996872e+03, 4.236954387389484e+03, -2.821557723168106e+02, 6.778522806015130e+03, 5.721889299079731e+02, 1.957760928990042e+02, 3.045397559043365e+03
10145, 7.915599281646253e-01, 1.347736180937478e+00, 1.958142584404352e-02, -5.222470715422649e-10, 6.781322343636088e-10, -1.748996767610468e-09, 4.461960503144785e+03, 5.483289114442659e+03, 9.391699050319656e+01, 9.952826652196871e+03, 4.954652986566816e+02, -1.112001376020158e+03, 5.482454237918856e+03
10146, 5.937271463805608e-01, 4.153055670240335e-02, 4.220921011270529e-02, -2.366084656807792e-10, 2.973973014570564e-10, -3.799649127370476e-10, 1.256080656631388e+03, 1.275714913758985e+03, -1.244250416828699e+02, 2.004364212209689e+03, 2.410365211259032e+02, -3.699392038007513e+02, 1.084862858584562e+03
10147, 6.495470425049620e-01, 4.930025896018491e-01, 1.018363511545289e-02, -1.048396291014895e-09, 3.184884853809641e-10, -1.267351215710564e-09, 2.466787602844647e+03, 2.179414618336481e+03, -3.926669711159364e+01, 3.498342245120729e+03, 4.192247930904990e+02, -1.207936811900369e+02, 1.420836510876038e+03
10148, 1.035574404540853e+00, 1.497884307851114e+00, 7.391277332486961e-03, -2.430051851503679e-10, 1.543385425078634e-10, -6.960963662990972e-11, 8.598828623562335e+02, 8.481683307557943e+02, -1.394917176911089e+01, 7.054592223915183e+02, 3.638551711414377e+02, -1.233033730156450e+02, 6.823060533878337e+02
10149, 7.097039919397091e-01, 5.399332359420773e-01, -6.270559976729942e-03, -1.007958310782907e-09, 4.704679307725213e-10, -1.818027091833820e-09, 2.072000330161085e+03, 1.915169491802266e+03, -1.534150335079359e+01, 3.575997653772057e+03, 8.131924457948903e+02, -1.057511334227881e+03, 2.803929320680309e+03
10150, 6.611040280932312e-01, 5.778531166514853e-01, 1.368135264649402e-02, -8.710893587621257e-10, 3.526807155831698e-10, -1.591031014769032e-09, 2.772426323516038e+03, 2.300917033090913e+03, -2.077856272999032e+02, 4.176393510621559e+03, 2.965457788014645e+02, -4.787898073742744e+01, 1.804341551231359e+03
10151, 6.016246212976111e-01, 7.200506518653427e-01, 1.725168450446178e-02, -1.089709990030948e-09, 5.667605500892481e-10, -2.882985461282607e-09, 4.292521364499074e+03, 4.078917840410400e+03, -4.813433173676793e+01, 8.178750086554031e+03, 4.149100516927929e+02, -2.239033671326762e+02, 4.080724475405808e+03
10152, 1.388271496477893e-01, 1.015036946275253e-01, -1.624636053809649e-02, -4.271039508729931e-10, -3.276464157466930e-10, -7.723988327456938e-09, 5.031779307171714e+03, 5.924761286543330e+03, 4.565049079170957e+02, 1.337050646789328e+04, -2.287580817731466e+03, 4.464516031537595e+03, 1.179005652083151e+04
10153, 5.252162127478107e-01, 5.846540598815609e-01, 1.222311585971535e-02, -1.574445583560525e-09, 7.844610669528343e-10, -3.760704164286214e-09, 5.200000156909967e+03, 4.876900363505775e+03, -1.223735844518502e+02, 8.712920938273544e+03, 7.378756517830872e+02, -5.513599111802318e+02, 4.021234939829496e+03
10154, 2.788249511861461e-01, 1.761002172530181e-01, -2.456864440121694e-03, -1.594906260039719e-09, 9.335185336382612e-10, -6.474877092801466e-09, 4.885526749195141e+03, 5.749407016359141e+03, -1.276912642319049e+02, 9.598341752098326e+03, 4.849505493918556e+02, 3.211975289425339e+02, 4.466492620001556e+03
10155, 4.723954869928055e-01, 8.237469291605947e-01, 1.616811889772941e-02, 1.611008722456391e-10, 4.399235889550804e-10, -1.671561247616361e-09, 4.333936781985667e+03, 5.056535129268383e+03, 2.994742621014703e+02, 8.692790657948050e+03, -1.254628307938285e+03, -4.680876753843661e+01, 4.622765312348231e+03
10156, 8.805175939612706e-01, 1.153640665036980e+00, 2.047616747664707e-03, -7.888033236318893e-10, 3.762840884262631e-10, -1.118592698984127e-09, 2.047634731194233e+03, 2.115825946238038e+03, -4.339200959619023e+01, 3.817755318634475e+03, 1.046010936008721e+03, -5.638065740362680e+02, 2.694247400532621e+03
10157, 5.344219575848652e-01, 5.103687100595846e-01, 4.542722545522931e-02, -7.024466027461768e-10, 3.629692479148295e-10, -1.171482210004236e-09, 3.791196207334858e+03, 3.738335774759603e+03, -1.742018681311934e+01, 7.021518866949971e+03, 9.816401517217300e+02, -4.514973951045426e+02, 3.756573865665490e+03
10158, 8.669573666488726e-01, 1.078714599027153e+00, -2.102830600728238e-04, -7.523421847957430e-10, 2.150431660527828e-10, -1.751566088298490e-09, 2.250525237189968e+03, 2.325500861441861e+03, -2.838835905420862e+01, 4.970648727355913e+03, 5.985524781366888e+02, -1.637303703955755e+02, 2.891087337988391e+03
10159, 6.974200897463904e-01, 1.065905859018554e-01, 3.405285027027576e-02, -3.822493098470827e-10, 8.039115081427092e-11, -1.791807737682208e-10, 8.776569781679175e+02, 7.520524964781996e+02, -6.246537623355903e+01, 1.205902016396817e+03, 5.000014897292650e+02, -1.028482925461084e+02, 9.788737873463564e+02
10160, 1.371151539153762e-01, 1.917078884815936e-02, 1.411597834963275e-02, 1.099371970263887e-10, 9.159950388724302e-10, -1.420539480356600e-09, 3.192013172618453e+03, 5.210658335575536e+03, 2.386839681798820e+02, 5.093177632163987e+03, 9.565909222010217e+01, -2.182902652103834e+03, 4.283121784093800e+03
10161, 8.012118186133484e-01, 1.096439995920161e+00, -1.560757446105246e-03, -2.354430301170841e-10, 7.239766270003339e-10, -3.062857297620277e-09, 3.786814003594100e+03, 3.469883482137973e+03, -2.407852713443014e+02, 7.216155000566402e+03, -1.059146362580300e+03, -8.292534055665722e+02, 4.306968398315491e+03
10162, 3.732640828202517e-01, 4.798746032199097e-02, 3.592809521537682e-02, -6.028432931444900e-10, 1.056180239139442e-09, -1.746316472609404e-09, 2.843969675296456e+03, 3.288362248401562e+03, -3.333064811525435e+02, 4.710295871355203e+03, 3.517350861802021e+02, -1.071829704790597e+03, 2.646160581012805e+03
10163, 4.493493361576060e-01, 1.794388972931448e-01, 2.862422477315537e-02, -1.123612964102251e-09, 5.865832617330867e-10, -2.532073981441045e-09, 3.627810481012159e+03, 3.369568652532530e+03, -1.097954362669140e+02, 6.402353961630663e+03, 5.520934951497576e+02, -2.371102559720272e+02, 3.098472876361323e+03
10164, 7.441248370683734e-01, 1.302169157452571e+00, -2.194709967324687e-03, -3.527123464425562e-10, 3.037890420606888e-10, -2.546411991582746e-09, 2.905760110233420e+03, 4.000277539931416e+03, -2.589715190780004e+02, 5.561972791396364e+03, 2.700462132042375e+02, 4.478651126399660e+02, 2.523467104442701e+03
10165, 8.597609964246856e-01, 8.500952273681728e-01, 8.218248006520053e-04, -4.930227902432449e-10, 1.784477863578915e-10, -2.800460754765857e-10, 8.210189428751099e+02, 5.363389417623381e+02, -6.891507230888114e+01, 9.097077268559221e+02, 7.143184216571994e+01, -4.720689244922190e+01, 3.878107585454897e+02
10166, 4.047342905312493e-01, 5.489992653024269e-01, 3.501056478686669e-02, -6.362535720850540e-10, 6.585233729082083e-10, -2.226051669367955e-09, 5.553218447709838e+03, 5.899944402277306e+03, 1.341523738217254e+02, 1.237230703499874e+04, 5.329035187862781e+02, -7.642703595219062e+02, 6.849387538729151e+03
10167, 8.652308645697113e-01, 1.078557263288829e+00, 2.165220838365804e-02, -3.509174733203357e-10, 2.472469737622531e-10, -6.370735172502136e-10, 1.734150311783564e+03, 1.618467510934260e+03, 2.327446884646152e+01, 3.765888797439278e+03, 5.069266758738736e+02, -3.063274489656048e+02, 2.330330355964166e+03
10168, 3.902451068502790e-01, 6.683992804822439e-02, -2.044074503900279e-02, -4.854973488211361e-10, 9.079870119300403e-10, -5.122497838805495e-09, 3.580703809006249e+03, 4.289270148472117e+03, -5.108342913443335e+02, 7.306291286388663e+03, -3.863995829761474e+02, -1.083447257620098e+03, 4.061352636842772e+03
10169, 1.777424824701707e-01, 1.424461732764229e-01, 5.515725549235967e-03, -3.605972690034876e-10, 7.082805987898970e-11, -5.984300371224835e-09, 5.415753575104632e+03, 5.957999596846131e+03, 5.277892332246782e+02, 1.342836183397127e+04, -3.004810598711333e+01, 1.578018169963070e+03, 8.274051850837868e+03
10170, 6.550687888397851e-01, 2.473366484510455e-01, 1.218767910084158e-02, -8.508986973527518e-10, 2.466624102350829e-10, -9.506025725524236e-10, 1.594558509562376e+03, 1.377713177235562e+03, -2.901811086387185e+01, 2.466749221956874e+03, 4.102972561133520e+02, -1.914887899422949e+02, 1.270602439490082e+03
10171, 7.717008939932969e-01, 1.566340800538101e-01, 2.540256948840375e-02, -3.634725185567868e-10, 4.250491181581382e-11, 4.106760567751267e-11, 1.714845266234467e+02, 3.379052314355187e+01, -1.953887314222620e+01, -5.810164343942195e+01, 5.052110665811538e+02, -2.794658805478858e+01, 8.995886907969680e+02
10172, 5.689340941016773e-01, 3.093370099915085e-01, 4.825062143095554e-02, -5.785508002503985e-10, 1.552413600085158e-10, -6.974255469038233e-10, 2.653800092818546e+03, 2.569810936712951e+03, -5.808703445125111e+01, 4.603093095994042e+03, 9.790269097691199e+02, -2.144919331078213e+02, 2.644643759353376e+03
10173, 8.036298750861236e-01, 4.904705774072536e-01, 2.514234698689276e-02, -4.160660307560650e-10, 9.711834614990577e-11, -2.076966869879417e-12, 3.939979840084633e+02, 2.386014936369380e+02, -3.075614236683628e+01, 2.327967429713190e+02, 5.564701087065158e+02, -1.144943946367326e+02, 9.981109497305818e+02
10174, 1.961242825891842e-01, 2.036763280813261e-01, 9.335242350571054e-03, -2.643161104129029e-10, 5.729655813838603e-10, -4.741585820706260e-09, 3.880381970481710e+03, 5.334866141003055e+03, 3.439400946087583e+02, 1.226258969949301e+04, -2.450787768578170e+02, -4.136344445820513e+02, 7.825183557373995e+03
10175, 5.016997580231889e-01, 9.441482981659309e-01, 3.256463009721332e-03, 3.560673745512166e-10, -5.801279534241315e-11, -1.244753872409288e-09, 1.972554156664786e+03, 2.639144366600197e+03, 3.973102698667251e+02, 6.023345374226755e+03, -9.741840139934052e+02, 5.875003460124420e+02, 4.302228960529599e+03
10176, 4.870983629185991e-01, 5.513419002744666e-01, -1.501961823649925e-02, -2.274805175011532e-09, 4.737533625727468e-10, -6.761713280040613e-09, 5.816918705701540e+03, 4.951050945074609e+03, -1.884099053917976e+02, 1.110405781535499e+04, 1.983685668715558e+03, 5.702946317518969e+02, 6.794759710238889e+03
10177, 4.781867919400906e-01, 6.226329806588220e-01, 1.587562295701476e-02, -1.654667501691279e-09, 9.325128027595953e-10, -3.845157315240951e-09, 5.877969539406270e+03, 5.694451352211144e+03, 3.140680959927461e+02, 1.101937295000078e+04, 1.144466917172945e+03, -5.024773409156723e+02, 5.691575291931747e+03
10178, 5.993583603491414e-01, 8.102387216841955e-01, 3.553242042041822e-02, -9.250489686041320e-10, 5.128242647703379e-10, -1.568960573004387e-09, 4.718908166787350e+03, 4.632206996234076e+03, -1.245299826510371e+01, 9.049678400309365e+03, 1.267437027794987e+03, -7.032850474464635e+02, 5.044011837896433e+03
10179, 5.217576033578097e-01, 9.125402080072326e-01, 1.569037489435288e-02, -3.167841124737459e-10, -2.478723588886275e-10, -2.438797957506870e-09, 5.245296722292886e+03, 6.038680715767890e+03, 1.889235448686662e+02, 1.264808732314615e+04, -3.759213767126436e+02, 7.848171165546732e+02, 7.206688001610518e+03
10180, 1.426348911062972e-01, 3.833567407492570e-02, -1.844030763863509e-02, 7.523976989081473e-11, 1.262254146982930e-09, -4.318792690397289e-09, 3.994500991034024e+03, 4.677875920608860e+03, -1.771482140849683e+02, 6.438568941435014e+03, -1.062285876501503e+02, -3.449890630557111e+03, 6.372086689087606e+03
10181, 8.358712366016100e-01, 7.160457671249479e-01, 2.286491377006184e-02, -4.003574885758540e-10, 1.325289033384392e-10, -1.117396704809626e-10, 6.400399303637990e+02, 5.135869574504665e+02, -4.237812108779581e+01, 7.900167566503767e+02, 5.368088616866426e+02, -1.914527028655447e+02, 1.018474254968651e+03
10182, 6.588628302014797e-01, 1.655702334477021e-01, 1.584244447887711e-02, -7.112558261193074e-10, 1.136763116063073e-10, -8.539632875829997e-10, 1.314318079951677e+03, 1.382160145927477e+03, -9.191598314872630e+01, 2.440501360490223e+03, 3.066821853357110e+02, 1.109347559238941e+02, 1.241336303891263e+03
10183, 8.371487569772047e-01, 6.926434398658737e-01, -1.393508755326185e-04, -5.267336260801378e-10, 1.359491236892522e-10, -2.431174862920522e-10, 5.543606648456594e+02, 4.461746731382590e+02, -3.067538855762244e+01, 8.032540394193255e+02, 6.583219698759764e+01, 9.802634695772679e+01, 3.810918055138280e+02
10184, 7.646463026653215e-01, 1.245895577171543e+00, -3.673196870081885e-03, -9.314657009250340e-10, 4.777749509895941e-10, -2.434157532982923e-09, 3.663417069887907e+03, 3.575689662230747e+03, 4.276421060465988e+02, 3.526490572276105e+03, 2.973637970696084e+02, 7.345646212326835e+01, 9.189827575233941e+02
10185, 1.015309759879675e+00, 1.308427962545259e+00, 7.788240866893659e-03, -2.662993058348976e-10, 7.564194951647958e-11, 1.452481876383438e-11, 3.061941242488355e+02, 1.701143731708695e+02, -3.656538089190757e+01, 1.789860197383107e+02, 3.866958091468562e+02, -1.240653429447579e+02, 7.184551544419785e+02
10186, 5.024417227738310e-01, 3.126276397513000e-01, 4.838234286464371e-02, -6.727558288939296e-10, 2.936061057555266e-10, -1.090733911172952e-09, 3.408500834691838e+03, 3.311402923355648e+03, -2.265133743073177e+01, 5.994449436113619e+03, 8.522447714769655e+02, -3.359653690817325e+02, 3.076811542824855e+03
10187, 7.027340082133782e-01, 8.056520816641944e-01, -5.056708040837002e-03, -6.987132615571179e-10, 2.951910463648088e-10, -2.416265391010739e-09, 3.028779764739242e+03, 2.813404060140090e+03, -1.205591777683423e+02, 4.313639662859837e+03, -6.028221325501777e+02, 3.299993155589016e+02, 1.853230967558163e+03
10188, 2.999833220000465e-01, 3.083725875373522e-01, 4.140191851126133e-02, -6.733835131629758e-10, 4.050275874869863e-10, -2.079367476121836e-09, 5.511976015731938e+03, 5.754575735373814e+03, 1.569301354933514e+02, 1.178503316045315e+04, 5.484444111696166e+02, -3.369847374854746e+02, 6.261404779991727e+03
10189, 8.263292838066347e-01, 3.338183830630458e-01, 2.118501049304940e-03, -5.014572604676458e-10, 1.040761027171275e-10, 3.965830074557066e-10, -4.699623999890781e+02, -5.643831782381006e+02, 2.776259326263213e+00, -1.202702717224431e+03, -6.581780661479598e+00, -6.278058348511055e+01, 6.990100372707673e+02
10190, 4.307627842027827e-01, 2.617398045233877e-01, 4.985113339434778e-03, -1.651577271824570e-09, 7.616736471855175e-10, -4.085721964206483e-09, 4.595943008210626e+03, 4.015154661310036e+03, -1.827986816701053e+02, 6.928333708614836e+03, 5.156418787879127e+02, -9.996603478035036e+01, 2.838991398773783e+03
10191, 3.473014866273295e-01, 1.883770675857353e-02, 3.877208582681436e-02, -2.863932305241951e-10, 6.488382218765136e-10, -8.534506763844860e-10, 2.458956677118685e+03, 3.822346232875799e+03, -3.915539314394146e+02, 3.152168447001248e+03, 1.831497379598243e+02, -1.156403784684929e+03, 2.442670672560595e+03
10192, 5.463537825400394e-01, 2.746828049598593e-01, 4.787811848534580e-02, -6.136877418741066e-10, 2.180365848244192e-10, -8.878333550490110e-10, 2.848862413817242e+03, 2.756021240128033e+03, -7.322499879511292e+01, 5.117070410261163e+03, 8.427077385682280e+02, -2.273662213046327e+02, 2.768683980932141e+03
10193, 3.888579444971050e-01, 4.267201333213325e-01, 1.767764564220596e-02, -1.627092855897482e-09, 7.750016771687784e-10, -4.212684579546413e-09, 4.864315873335936e+03, 4.890098545276190e+03, 2.856576418202317e+02, 1.000510221704349e+04, 1.016152890807360e+03, -1.753902786732590e+02, 5.452576636512897e+03
10194, 2.732066461180349e-01, 7.918888793885266e-02, 5.404392959648627e-02, -4.779525577566663e-10, 8.314498289224536e-10, -1.445432393594060e-09, 4.112222053017104e+03, 3.987707652371471e+03, 2.050406964900617e+01, 8.212142209079098e+03, 5.535940764501315e+02, -1.030469865206649e+03, 4.630508946901423e+03
10195, 6.432198967029638e-01, 1.938750276640853e-01, 4.184005940880804e-02, -4.144907354023788e-10, 1.029738516379556e-10, -4.035295983367714e-10, 1.598209558939985e+03, 1.469711426130085e+03, -5.980462078813731e+01, 2.638865941938749e+03, 6.403240665589329e+02, -1.456058709568086e+02, 1.592977588461797e+03
10196, 7.350777715938187e-01, 3.391685377561683e-01, 3.237414488688743e-02, -4.444087122328206e-10, 1.048908836639274e-10, -1.092920174947859e-10, 7.989808621041014e+02, 6.476823638737706e+02, -3.679876642953251e+01, 8.952790403158460e+02, 5.976469902603287e+02, -1.324693010046187e+02, 1.083968133341225e+03
10197, 7.279102797959429e-01, 6.957653326562819e-01, -6.608677024043788e-03, -8.156494649420315e-10, 4.761447266495681e-10, -1.425016374883479e-09, 1.855362645004141e+03, 1.646281163987825e+03, 1.166984108156686e+01, 2.736199297014157e+03, -4.000668391626698e+01, -3.972499920488136e+02, 1.217533462931832e+03
10198, 2.955476186911077e-01, 2.128866991323674e-01, -1.888218546893216e-02, -1.996148281417600e-09, 9.994146143473228e-10, -6.889979582688802e-09, 4.479949646081815e+03, 4.506064131265306e+03, 1.519040113412403e+02, 6.868329327238383e+03, 1.844246967009415e+03, 8.333248460850533e+02, 4.242513897580634e+03
10199, 7.345785525626297e-01, 6.639151810410150e-01, -4.777438225493643e-03, -8.215346744113412e-10, 4.550347620910528e-10, -1.971991550857937e-09, 2.336177937622689e+03, 2.264402430477576e+03, -7.012376451084101e+01, 4.152369078309435e+03, 5.750753232602663e+02, -3.735641807735623e+02, 2.204449483185655e+03
10200, 2.815347347405949e-01, 1.695948593288081e-01, -2.221901504423238e-02, -1.691620684040252e-09, 7.229918180540260e-10, -7.989484504644325e-09, 4.080410590068649e+03, 4.806289646362052e+03, -1.191624271971728e+02, 7.522152450109816e+03, 5.054942404494889e+02, 1.835174939559929e+03, 4.559273254814697e+03
10201, 2.105342469795353e-01, 9.129720043239091e-02, 1.865028349918502e-02, -8.774209456154447e-10, 1.329623569507831e-09, -5.143567276967415e-09, 4.740040684274614e+03, 4.533425525394850e+03, 1.490838354677707e+02, 1.120215126103894e+04, 3.753799927518564e+02, -6.021111183166137e+02, 6.686834431701965e+03
10202, 8.173333127474975e-01, 4.001900792240003e-01, 2.014818871973521e-03, -5.770167948886868e-10, 9.646449416453902e-11, 1.772894246558439e-10, -3.835866722633919e+01, -1.197556961819737e+02, -3.860010105458080e+01, -1.951998712057031e+02, 2.450194212533038e+02, -3.765898108454597e+01, 4.552870324464753e+02
10203, 9.746042905542625e-01, 9.165455396646466e-01, 8.162758154505217e-03, -4.695058172447492e-10, 3.180375123820883e-11, 2.862680981611816e-10, -7.537235359306302e+02, -7.567604354410882e+02, 2.836694487365884e+00, -1.420444283393587e+03, 7.317493465840720e+02, 5.117035982370934e+01, 1.434137960694010e+03
10204, 7.209740022299467e-01, 1.127116534199579e+00, -6.086215130866292e-03, -1.178467813586104e-09, 5.385454592222385e-10, -4.345286517957809e-09, 5.652148805310288e+03, 6.101852607165074e+03, -1.992596134516872e+02, 9.786256492248722e+03, 1.424986536570096e+03, -1.846601891225313e+01, 4.652510288323181e+03
10205, 8.719776900057342e-01, 1.237645311273210e+00, 2.226945611022018e-02, -5.153447458299610e-10, 1.761570759702334e-10, -7.351990178295584e-10, 2.641169974427112e+03, 2.610912771245929e+03, -7.829901832116877e+01, 4.821503048628922e+03, 7.589675859528950e+02, -2.112202939417876e+02, 2.588642159461534e+03
10206, 3.746114876519244e-01, 1.711870320141266e-01, 2.121631044272362e-03, -1.545394113307756e-09, 8.282931941264282e-10, -5.029480036413978e-09, 4.033223565862722e+03, 3.938406223990816e+03, -1.181432849459525e+02, 7.994915257697636e+03, 1.940803859858176e+02, 1.987830783020148e+02, 4.043890168844053e+03
10207, 5.064509784810399e-01, 7.324137374264009e-01, 1.179658291021376e-02, -1.252622156050715e-09, 5.975318314653949e-10, -3.317595769156670e-09, 4.461486951449211e+03, 4.767692953815087e+03, 2.005909288078555e+01, 8.589826081413752e+03, 6.889104335836663e+02, -2.149506286912281e+02, 4.175695755551568e+03
10208, 8.058846235525204e-01, 8.145271192410951e-01, 4.255008773311059e-04, -7.823145322687582e-10, 3.411735713316803e-10, -7.572473714206719e-10, 1.410527782410794e+03, 1.192663072648483e+03, -5.020476304532338e+01, 2.229276425370567e+03, 4.451237200940658e+02, -3.736911592336157e+02, 1.384591271210224e+03
10209, 7.867924134658197e-01, 5.788427665148237e-01, 2.158189329019938e-02, -5.491525671493023e-10, 1.713671606949769e-10, -2.185057055531569e-10, 8.307287188109599e+02, 6.767530231349485e+02, -3.363143831544159e+01, 1.077533000761070e+03, 5.008735282489228e+02, -1.659223880487068e+02, 9.804231437778966e+02
10210, 5.810282397764724e-01, 5.839482915383315e-01, -1.312305515139113e-02, -1.392192254146250e-09, 2.874094787338590e-10, -3.727038437655328e-09, 2.909466108894293e+03, 3.739237844692292e+03, -2.822958405055568e+02, 4.854236385696343e+03, 7.066723975309234e+02, 1.310230545004066e+03, 3.121582908547046e+03
10211, 1.029153903771857e+00, 1.441787128577878e+00, 7.244990874317164e-03, -2.111376329183260e-10, 1.638204696941088e-10, -1.450075690229345e-10, 7.351428097151760e+02, 7.464753311445506e+02, -1.412342384748877e+02, 9.546346687865065e+02, 3.592659715158518e+02, -2.555673501298680e+02, 8.299513013554923e+02
10212, 6.094608897636850e-01, 5.788977540831667e-02, 1.411652043829021e-02, -4.146912900065995e-10, 4.443505376895715e-10, -1.002129795060159e-09, 1.041896238653785e+03, 1.375437514945766e+03, -2.603555685195935e+02, 2.269976898064333e+03, 8.981805424244885e+01, -2.632518912883954e+02, 1.282683861308534e+03
10213, 6.700114339182532e-01, 2.573092075743942e-01, 4.001279925731666e-02, -4.540328487575432e-10, 9.989151896295501e-11, -3.105594742599960e-10, 1.420551653502189e+03, 1.262674425786313e+03, -4.010613183975260e+01, 2.190717856148345e+03, 6.875006786392876e+02, -1.432905365762089e+02, 1.491330443638387e+03
10214, 2.517401773353135e-01, 4.063985402306160e-01, 1.706026782130126e-02, -9.894343337941370e-12, -1.861175242489000e-10, -1.568275639435125e-09, 3.790862807055054e+03, 3.763820672494870e+03, 1.737863418652146e+02, 8.022678000129706e+03, -8.573330852478323e+02, 8.828841663396892e+02, 4.759994423297399e+03
10215, 5.593083892380294e-01, 9.755998318216850e-01, 1.730951379693784e-02, 1.015638696318461e-10, -1.706415024075065e-10, -2.038563869701430e-09, 4.570931075647427e+03, 5.336000190606858e+03, 3.257706121178303e+02, 1.073632152025699e+04, -7.216585350518511e+02, 8.174694271735201e+02, 6.145400041185244e+03
10216, 8.265687050760673e-01, 1.559596778376720e+00, 4.333970742006425e-03, -3.462955826950582e-10, 1.632104800062112e-09, -2.992482117444886e-09, 7.478397505364499e+03, 8.664511507901794e+03, 6.336724533061418e+02, 1.423569466104881e+04, 6.896718862295841e+02, -2.202059006095516e+03, 7.498784059216159e+03
10217, 4.052936114759882e-01, 1.939005650163293e-01, 5.523058021155228e-02, -6.369215977349727e-10, 3.510909800672072e-10, -1.205727828010255e-09, 3.958324057469263e+03, 3.914115517732923e+03, -3.975011154919034e+01, 7.361389194939682e+03, 9.299225890047874e+02, -4.474663425742577e+02, 3.864315971442600e+03
10218, 5.626160021362601e-01, 1.074232130731370e+00, 2.144001092610546e-03, 2.889651939329174e-10, 4.286919371302680e-11, -2.104475472458862e-10, 1.577477755239556e+03, 1.381631875477982e+03, -6.704492900476862e+01, 2.602473296132917e+03, -3.992352687475720e+02, -2.599225101371543e+02, 1.408560691524653e+03
10219, 9.246862660130600e-01, 4.605522915669382e-01, 7.614461773742044e-03, -1.919932377866342e-10, 8.253615874320098e-11, 5.320601251269932e-10, -1.231257957863865e+03, -1.327952380848025e+03, -8.218143492452917e+01, -2.791343437508122e+03, 9.047810479572497e+01, -3.311967237217253e+02, 1.632868331025494e+03
10220, 9.415124559589079e-01, 5.997149727718724e-01, 7.351329994925684e-03, -3.195282798994468e-10, 5.790933304091107e-13, 2.079747728336901e-10, -7.773590513789671e+02, -8.227584024072952e+02, -1.305554985004642e+02, -1.599234851749071e+03, 4.550692523258414e+02, 1.979467655898707e+02, 1.195899392997124e+03
10221, 5.243741268221173e-01, 8.877924404986667e-01, -6.357729615234241e-03, -2.242769553656758e-09, 8.276887067025948e-10, -7.722167856464353e-09, 9.232338461829670e+03, 9.347773949696484e+03, -5.418984509034118e+01, 2.166694485859190e+04, 2.339795923906934e+03, 5.304135072081923e+02, 1.305657408047115e+04
10222, 5.994097110759111e-01, 5.299586598341957e-01, 4.434697784476614e-02, -6.217878723328816e-10, 2.397572453976879e-10, -8.717907222697510e-10, 3.094137905495010e+03, 2.957183028283777e+03, -5.239427589873423e+01, 5.490666294626598e+03, 1.050248639866108e+03, -3.846483603727360e+02, 3.138707757986928e+03
10223, 7.489306975513162e-01, 1.122724832617255e-01, -1.172171461234790e-03, -5.465228714099693e-10, 7.679611813916508e-11, -5.064910626087984e-11, 2.043127095382751e+02, 1.874956228683619e+02, -6.587975876145329e+01, 1.870004644497855e+02, 1.621781826041316e+02, -1.528725235545656e+01, 3.048248735642167e+02
10224, 3.347289841191000e-01, 5.653974110334457e-01, 1.624284162863338e-02, 5.570449792770939e-10, -7.028757988486049e-11, -1.629017969054025e-09, 4.767711981757593e+03, 4.224186121671763e+03, 1.143942613693645e+02, 8.533806030796535e+03, -1.847250819878671e+03, 4.287975799062007e+02, 5.230078514065237e+03
10225, 5.316666742166076e-01, 6.239414841536597e-01, 4.012655511931716e-02, -8.963667457936017e-10, 4.042299156469097e-10, -1.550657462779119e-09, 4.545986729901101e+03, 4.468891034762059e+03, 2.819265870726226e+01, 8.525944812300653e+03, 1.102660995836671e+03, -4.596131938353872e+02, 4.520680134219799e+03
10226, 3.928044465690311e-01, 1.805592734142874e-02, 2.942438533274853e-03, -2.575832314361417e-10, 5.598195036246851e-10, -9.430373834778248e-10, 2.122087155868850e+03, 3.622308226889954e+03, -4.246549424074129e+02, 2.322167645756188e+03, -7.487813310918911e+00, -1.579022336330306e+03, 3.164115796839265e+03
10227, 9.073639798061512e-01, 8.605418624602583e-01, 4.167367278362294e-03, -4.672017281626241e-10, 1.401960847442523e-10, 5.587941460461004e-12, 2.200611375215405e+02, 1.281215447661825e+02, -2.820848003355572e+01, 1.595781680787100e+01, 3.959209072771861e+02, -1.752999934892738e+02, 7.721291282570141e+02
10228, 8.212047428074010e-01, 8.919125209507553e-01, 2.455090657587197e-02, -4.490894232033167e-10, 1.929769255950333e-10, -4.535098796013409e-10, 1.622073991933086e+03, 1.534552345392556e+03, -3.992959787799028e+01, 2.761249237476308e+03, 6.013719404173003e+02, -2.430628586985168e+02, 1.634640383148467e+03
10229, 6.948745985165373e-01, 2.104089187602578e-01, 3.602065271608606e-02, -4.231411130412735e-10, 6.504428408304683e-11, -2.323021752081465e-10, 1.086208018133452e+03, 9.491482622816859e+02, -3.240552648375652e+01, 1.584830466678018e+03, 6.496991740302020e+02, -7.901465484181466e+01, 1.274346163965040e+03
10230, 1.203122292866324e-01, 1.358874167659061e-01, -9.190290196375888e-03, -9.777249926407959e-10, 5.226518109011053e-10, -2.398449283775007e-09, 4.907132810896001e+03, 3.199233734561446e+03, -7.467241917583726e+02, 5.012492421801794e+03, 1.422749183445955e+03, -4.375094953712205e+02, 3.380479837683335e+03
10231, 6.880052539324558e-01, 1.152859441336096e+00, -5.555229808528118e-03, 2.589610916654888e-10, 1.958703352339919e-09, -7.273365518405415e-09, 6.652885876069715e+03, 7.688037156094889e+03, 7.390992787343789e+01, 1.809888238907732e+04, -2.399809302620245e+03, -3.474139156411117e+03, 1.318091829654467e+04
10232, 7.724196789661752e-01, 1.153997084191905e+00, -4.279982995854401e-03, -1.227977897955020e-09, -8.171143568358889e-11, -3.499012097207681e-09, 4.516957524452806e+03, 4.367758361038191e+03, -2.805489711588860e+01, 8.735669579818008e+03, 7.121345026079495e+02, 1.498996631736787e+03, 5.168554990791935e+03
10233, 3.409192400154494e-01, 2.580498906075543e-01, -1.809859133566609e-02, -1.253307656789429e-09, 1.621535925946786e-09, -7.194950418868324e-09, 4.917930648581456e+03, 5.021567702754202e+03, 2.465453509732714e+02, 9.225727441710625e+03, -1.427167385060111e+03, -1.004776270200944e+03, 5.238597770868762e+03
10234, 8.481579876412150e-01, 1.523712320275910e+00, 1.215046108655937e-02, -7.060072125283088e-10, 8.675033482985911e-10, -4.152103162689760e-09, 8.729840283084897e+03, 9.464430753675404e+03, 5.026226435941996e+02, 1.869957210869103e+04, 1.604270233020800e+03, -6.935668819986583e+02, 1.012588506784468e+04
10235, 1.550870036655969e-01, 3.049948030514680e-02, 1.742455947320904e-02, 7.346217306594865e-11, 1.384521623813951e-09, -2.338239400596647e-09, 3.074262822007786e+03, 4.912856377423429e+03, 1.141858293353866e+02, 5.599720064379407e+03, -1.738618623138243e+02, -2.124268918775126e+03, 4.333869576365656e+03
10236, 6.219734306226880e-01, 4.142086005923375e-01, 4.356834942335339e-02, -5.450043806005211e-10, 1.624512060070658e-10, -6.094574116187227e-10, 2.392263140114861e+03, 2.210116154862227e+03, -5.838252697253909e+01, 3.978136931254386e+03, 8.226609613417889e+02, -1.998980411621437e+02, 2.235498098098716e+03
10237, 2.873062411166711e-01, 5.228664919722428e-01, 2.168734368024335e-03, 1.110790637619395e-10, 1.571975272684192e-10, -1.291874279611086e-09, 2.386167410095109e+03, 2.897329131716635e+03, 6.519535513952383e+01, 6.707742103924491e+03, -1.031448032539893e+03, 1.707404444608109e+02, 4.474386428550213e+03
10238, 2.125577782704712e-01, 3.136009266938258e-01, -7.552739187248509e-03, -7.301746919747975e-10, 5.702953933455842e-10, -3.374907884149683e-09, 3.107920458886607e+03, 4.385897515074292e+03, 1.237040019665969e+02, 6.165616827604932e+03, -3.456740357895611e+02, 1.261888486228223e+02, 2.743577440007844e+03
10239, 4.243767877308499e-01, 4.767445060107956e-01, 4.351259957999312e-02, -7.770091220626936e-10, 3.912433307274787e-10, -1.567293851383070e-09, 4.729148463472326e+03, 5.048930146157945e+03, 1.812309829642218e+02, 9.522252559610850e+03, 8.620077490408349e+02, -3.942054954383236e+02, 4.933280887151048e+03
10240, 7.548085379072400e-01, 4.002591645073750e-02, 5.048929460321344e-04, -3.495864123625838e-10, 5.328391138203005e-11, -7.298829017665792e-11, 1.018450565972010e+02, 1.578526436529353e+02, -1.750616556073692e+02, 1.764285462987181e+02, 2.581920017526958e+02, -1.877203569390257e+01, 5.454434457603600e+02
10241, 2.359975343273273e-01, 1.973847122738441e-02, 3.097595392589428e-02, -2.825661479072397e-10, 8.358468773897653e-10, -1.191923441330904e-09, 3.346288538826923e+03, 5.231561168807959e+03, -3.460984750558235e+02, 4.519883342761549e+03, 1.002765842310119e+02, -1.805367723099453e+03, 3.589792191868908e+03
10242, 6.673996976887794e-01, 1.095168576215407e+00, 2.300517511706910e-02, -7.179400253795349e-10, 6.333905642421713e-11, -2.248798853757196e-09, 5.320778453683788e+03, 5.272586351791072e+03, 3.828567300092927e+02, 1.178050479861843e+04, 1.235145978397876e+03, 3.024389367594461e+02, 6.879868984417059e+03
10243, 7.658227896063822e-01, 1.471033707988421e-01, 8.188995561740457e-05, -6.098302658231773e-10, 3.674535809017045e-11, -7.393511291997015e-12, 1.094325590602612e+02, 1.375491270893879e+02, -4.602956779831295e+01, 2.243282095825966e+02, 3.950485253610586e+02, 7.584353254714586e+01, 7.089174707433542e+02
10244, 4.454664667802993e-01, 1.183949350937623e-01, 5.434878926861624e-02, -5.372705047605569e-10, 4.286846029583540e-10, -1.044413430360047e-09, 3.320174272591331e+03, 3.124567262730260e+03, -1.076281547626836e+02, 5.910676086358686e+03, 7.211564989538002e+02, -4.956845998259815e+02, 3.096408125203484e+03
10245, 5.071166605279879e-01, 2.119402104500275e-01, -1.550310751035644e-02, -1.225835317022700e-09, 2.285782606944251e-10, -4.625755510743079e-09, 3.555110743293737e+03, 3.568727535211123e+03, -4.146608259223203e+02, 6.727022759382380e+03, 1.052898804174790e+03, 5.172389424243614e+02, 3.829131342324127e+03
10246, 2.583180163260225e-01, 4.292236967061195e-02, 3.229337241152312e-02, -5.376318154006229e-10, 1.267432349425236e-09, -2.339588565514382e-09, 3.603704455079255e+03, 4.372507177293861e+03, -3.275745322799322e+02, 6.481332221142403e+03, 2.904613269017484e+02, -1.344020188876326e+03, 3.557198406024856e+03
10247, 8.723653494815330e-01, 1.493325424287596e+00, 1.663385202553004e-02, -9.121984124934016e-10, 6.249670596618386e-10, -1.453897671635040e-09, 5.463754462208285e+03, 5.594736623434856e+03, -1.113237565057152e+02, 9.359044201375576e+03, 1.124729027984152e+03, -8.917682096408957e+02, 4.571455099267441e+03
10248, 5.419343732806421e-01, 9.506609247210902e-01, -3.767724297834334e-03, 1.851938022426434e-10, -3.638448599122173e-11, -3.099347376134519e-09, 4.533254900173503e+03, 4.003177785014547e+03, 5.782498541988303e+02, 9.577953092550810e+03, -3.333446561774952e+03, 1.208977733091939e+03, 8.193145840546236e+03
10249, 8.983387903170023e-01, 1.388011709619384e+00, 1.736492739270814e-02, -5.485198349671722e-10, 2.592840944171828e-10, -9.675087366694051e-10, 3.349371496891724e+03, 3.276018555741354e+03, -1.017283838624249e+02, 5.946869949843731e+03, 7.855353239129545e+02, -2.378567240407262e+02, 2.999147163666711e+03
10250, 1.024892997314237e-01, 1.039208197277739e-01, 2.048984369280207e-02, 4.322745118121228e-10, -8.785654654421505e-11, -9.316359463085792e-10, 3.576484898071760e+03, 3.106789893015198e+03, -9.694349235059572e+01, 5.574616593662220e+03, -1.074765633280374e+03, 5.953772219520580e+02, 3.115868398759720e+03
10251, 6.005179594776496e-01, 2.067742550584410e-02, -4.522788020715027e-03, 9.290007595282898e-12, 3.936953095342030e-10, -7.920882972374040e-10, 1.248444423448140e+03, 1.568715548039377e+03, -8.004742945945789e+01, 1.972088751478076e+03, -4.532727094567487e+02, -1.135671168695075e+03, 2.213438626778325e+03
10252, 6.481845461449320e-01, 1.114033595529745e+00, -4.872219231513670e-03, -6.395703289621954e-10, -6.845835978946580e-10, -6.664946837036763e-09, 7.072525824234303e+03, 6.602562598962112e+03, 6.248621344800719e+02, 1.495173105554520e+04, 2.230955515553540e+02, 3.758196361420983e+03, 1.047370372996104e+04
10253, 6.724179765569005e-01, 4.523300310060570e-01, 2.129217837144243e-02, -7.806763338800137e-10, 2.421447862077702e-10, -8.605814879094945e-10, 1.743005495800952e+03, 1.749871982515441e+03, -3.954338899269891e+01, 2.866733714063621e+03, 3.649717268934228e+02, -1.227148849800030e+02, 1.305594555901236e+03
10254, 4.846762205331657e-01, 2.514785248881701e-01, -1.610361950966367e-02, -1.340094076201092e-09, 2.866551108161648e-10, -4.197157307211424e-09, 3.164083830494747e+03, 3.261573192262376e+03, -2.718481530275031e+02, 4.896325355594889e+03, 1.989448910820095e+02, 1.660958001859310e+03, 3.384977942620518e+03
10255, 6.726941316510342e-01, 1.103751048432502e+00, -6.044555107857296e-03, -1.890741922783459e-09, -3.771159453823053e-11, -4.544180389201615e-09, 5.350838546400651e+03, 4.691152702680384e+03, 6.064352238575891e+02, 9.954366294728978e+03, 2.834375454430915e+03, 1.158712272815264e+03, 7.341438640657876e+03
10256, 4.481505302946316e-01, 1.536454352630773e-01, 2.945828021111050e-03, -1.198194907663280e-09, 8.479319851590280e-10, -3.738290910261009e-09, 3.362621689263740e+03, 3.366139507094013e+03, -2.869981877387622e+02, 5.437655720571192e+03, 3.962259570725615e+02, -4.554783381229288e+02, 2.374647230723011e+03
10257, 5.914055570644375e-01, 9.944649032110642e-02, 4.635613230475101e-02, -3.656094846585512e-10, 2.086906544151999e-10, -5.218804501697457e-10, 1.992890240704950e+03, 1.755018732302261e+03, -1.002492443813665e+02, 3.435087283634109e+03, 5.436629928572668e+02, -2.900384494524879e+02, 1.910182645729437e+03
10258, 7.320506148253476e-01, 4.741552230256114e-01, -4.303333702617783e-03, -7.787398756747520e-10, 1.783464114803628e-10, -5.952251057974582e-10, 1.033114916722676e+03, 7.327317549923024e+02, -1.060780688775035e+02, 1.160499808392823e+03, -3.429790222284053e+01, 1.042700915243240e+02, 4.632760465791291e+02
10259, 5.637527102884470e-01, 8.717716629219417e-01, 3.024917716283863e-02, -8.559907241053540e-10, 3.242983280902970e-10, -1.904485013379661e-09, 5.674600876883412e+03, 5.666567681592690e+03, 1.230846348359236e+02, 1.144459949050902e+04, 1.216664207533703e+03, -3.012496463126521e+02, 6.172343069778917e+03
10260, 6.726230439781596e-01, 3.419831974252793e-01, 1.161437321605113e-02, -9.350993633775214e-10, 2.704738678358542e-10, -9.383134996049021e-10, 1.533834004755770e+03, 1.488634741854647e+03, -1.025796767585480e+02, 2.818596447858407e+03, 4.639551623432221e+02, -1.397981559921443e+02, 1.564189676959927e+03
10261, 7.770389036097811e-01, 8.219695675858654e-02, 2.357860713711385e-02, -3.129292806310044e-10, 2.934131173773274e-11, 6.920643310137523e-11, 7.948805082371085e+00, -4.718653156279281e+01, -4.091623453532490e+01, -2.626370153454046e+02, 4.559913551934116e+02, -2.323170055760810e+01, 8.317233012091648e+02
10262, 8.305566642237493e-01, 9.117088482433316e-02, 4.372589020927495e-03, -5.158441287386794e-10, 2.538196160271100e-11, 2.967576217470168e-10, -6.591436674950580e+02, -5.923018569511829e+02, -9.198208236698213e+01, -1.243828142256570e+03, 5.225870801284652e+02, -5.209668037350619e+01, 1.112753882605217e+03
10263, 7.050537285989901e-01, 1.207313153764712e+00, 2.003250873646602e-02, -2.543655884302001e-10, 8.789375435222242e-11, -2.647726964301066e-09, 5.583444848486720e+03, 5.956889586427350e+03, 1.862990786805766e+02, 1.382297190507262e+04, 5.277211542660274e+01, 1.784203935327943e+02, 8.072189127197275e+03
10264, 4.212994195018477e-01, 5.831553402136547e-01, 1.158957533524008e-02, -1.721516964570162e-09, 9.289791126289168e-10, -5.166460815501973e-09, 6.417976301223073e+03, 5.917532821803792e+03, -2.380213309352206e+01, 1.321330204170088e+04, 1.507950716617756e+03, -4.144690315835632e+02, 7.560844628937598e+03
10265, 3.639625918385930e-01, 2.745201643049899e-01, -1.857903588608598e-02, -2.012850700937532e-09, 6.578830131717870e-10, -9.817595414992188e-09, 7.468820223604636e+03, 6.112780224070046e+03, -2.978821513781157e+02, 1.612595200010877e+04, 4.184816720100171e+02, 5.135232826349629e+02, 9.492465042835580e+03
10266, 8.801024197188845e-01, 1.059636781712994e-01, 6.988624532075771e-03, -5.379960845604034e-10, 8.527694589219415e-12, 5.361276286646116e-10, -1.325736310242587e+03, -1.360110501928380e+03, -8.131944066408352e+01, -2.671010134752451e+03, 5.858503913329884e+02, 2.472679146261179e+02, 1.731365186731938e+03
10267, 1.090460832307604e-01, 1.676992744181867e-01, 1.762601523823055e-03, -2.565542680623446e-11, -4.446385372104026e-11, -9.580947982139068e-10, 1.563325657993778e+03, 1.924257971521143e+03, 3.766137247017361e+02, 3.477727364675467e+03, -3.235915290599185e+02, 4.136952786660776e+02, 2.087418517976590e+03
10268, 8.091299754099431e-01, 2.978471217257945e-01, 2.158490430389136e-02, -3.948273135175805e-10, 6.253172286153741e-11, 1.583867253076813e-10, -1.725693317470080e+02, -2.983281382948006e+02, -4.522343863003449e+00, -7.041812624569327e+02, 5.339268331238611e+02, -7.893621089767829e+01, 1.051455829166652e+03
10269, 3.989066704426650e-01, 1.593422954649875e-01, 3.963113067293645e-03, -1.556762786653661e-09, 8.549486473487021e-10, -4.598325176294054e-09, 4.567311407184455e+03, 4.369872371621230e+03, -4.009728725355581e+01, 8.096793888174349e+03, 6.401955289417659e+02, 1.999984479094200e+02, 3.814113112392914e+03
10270, 7.727093990427674e-01, 2.006853926719096e-01, 5.298373358864385e-04, -5.704233628988350e-10, 8.516848886179395e-11, 6.561433537326180e-11, 1.240370088299326e+02, 4.707549719224821e+01, -1.945656087694618e+01, -6.457007179648303e+00, 1.627041909495716e+02, -5.665524076477121e+01, 3.210791634715310e+02
10271, 7.268120800040625e-01, 1.216595694988469e+00, 2.143998807694465e-02, -5.236926198163278e-10, -9.955326841535397e-11, -2.021502873873550e-09, 5.590538844694373e+03, 6.049898259432796e+03, 8.151897339086462e+01, 1.154434094935947e+04, 6.679997385134708e+02, 3.615735033484088e+02, 5.888518378943659e+03
10272, 1.021861340282999e+00, 1.416256370895810e+00, 8.412428584674485e-03, -2.484494386579192e-10, 8.803156640983876e-11, -8.787898731854539e-11, 7.820812868320434e+02, 7.566368561752328e+02, -7.349417015300375e+01, 1.011051796681325e+03, 3.005243746486879e+02, -2.422475818310936e+01, 5.897544682602114e+02
10273, 6.119634613017447e-01, 2.140242505217654e-01, 2.360183055684413e-02, -8.279662397480058e-10, 2.580000458829553e-10, -1.045862426737345e-09, 1.884144217060471e+03, 1.728275355237901e+03, -1.265673374059919e+02, 3.170103488831764e+03, 5.411393574758696e+02, -2.140623211821830e+02, 1.715356719797262e+03
10274, 6.074220204666395e-01, 1.152537002198264e+00, 2.564354228611624e-03, 2.901604294037133e-10, -9.800759378496547e-11, -5.876420880614541e-10, 1.621321823866007e+03, 2.035730698349466e+03, 1.412966438371088e+02, 4.654346661787934e+03, -1.092971946450283e+03, 3.380924801911589e+02, 3.478597246115833e+03
10275, 7.216007217876748e-01, 5.340601383870127e-01, 3.354434636110245e-02, -5.541945228176547e-10, 1.911600634773818e-10, -3.742587969197252e-10, 1.557036947351270e+03, 1.417074112745708e+03, -5.857080455607225e+01, 2.388715081571658e+03, 7.725789400414543e+02, -2.468858349556432e+02, 1.676742753939042e+03
10276, 7.188210209104579e-01, 1.729471540729930e-01, -3.603733538783085e-03, -6.078482859110729e-10, 5.267050005770445e-11, -5.233502323511534e-10, 7.112355973854188e+02, 6.663791975717405e+02, -3.839438543900596e+01, 1.377315545890414e+03, 1.137921225109766e+02, 1.100133628662167e+02, 7.450702590000849e+02
10277, 4.776486155423170e-01, 3.243469647279931e-02, 1.674744952735801e-02, -4.131028862818262e-10, 8.099354526361207e-10, -1.396508794486173e-09, 1.844826792394889e+03, 2.650833792514322e+03, -2.005180349640181e+02, 2.833110279525330e+03, 5.125685049545212e+01, -1.185817962316333e+03, 2.275254949870116e+03
10278, 6.987186790945837e-01, 1.260110332837560e+00, 1.430965836376994e-02, -7.047145031532948e-11, -1.470591534618628e-10, -1.564484978479264e-09, 3.592232579865366e+03, 5.022466777732404e+03, -6.378487327920276e+01, 9.034168204816584e+03, -4.708482323761444e+02, 1.188057147013821e+03, 5.365513007266894e+03
10279, 1.023234099019855e+00, 1.382126899247955e+00, 7.908251481376256e-03, -2.818874105583036e-10, 1.600583509132517e-10, -1.995676519677284e-10, 7.032267457163551e+02, 6.667029567442119e+02, -1.227824706977215e+01, 1.196931395911141e+03, 4.589141594347536e+02, -2.809472407408372e+02, 1.064031565662046e+03
10280, 3.722277046413709e-01, 1.704845774812273e-01, 3.262132220491017e-02, -1.191421791803067e-09, 7.722494292844044e-10, -2.895111934301861e-09, 4.270165106959586e+03, 4.184657452173665e+03, -5.702534975474271e+01, 7.805359444850312e+03, 6.244628462049460e+02, -2.663133395722678e+02, 3.768233317835381e+03
10281, 8.057164329046537e-01, 1.330737509136675e+00, -1.578529482485868e-03, -8.403691344099718e-10, 5.450123390804700e-10, -2.467657165049529e-09, 3.383000272639280e+03, 4.650888614993602e+03, -1.447811159818597e+02, 6.621280247481903e+03, 3.058507925845007e+02, 6.273624808770519e+02, 3.084232562341483e+03
10282, 6.121177208503411e-01, 2.748388254644255e-01, 4.436218162068783e-02, -5.212570001027809e-10, 1.273986864382765e-10, -5.395963356881607e-10, 2.148999684862655e+03, 1.973666637266105e+03, -4.789063667652201e+01, 3.438664916607186e+03, 7.675162800452290e+02, -1.511082117152341e+02, 1.939774305841230e+03
10283, 9.116509509859162e-01, 7.932442385400122e-01, 1.541248295167473e-02, -3.076562084258280e-10, 1.017709839697153e-10, 7.734557982325039e-11, -3.722958742659964e+01, -1.603918418240292e+02, -5.677340881562702e+01, -3.074545682863304e+02, 3.552079497189175e+02, -1.436672896379380e+02, 7.106458725438683e+02
10284, 9.743167420018429e-01, 1.363305245899512e+00, 1.392566898406868e-02, -4.569247871059412e-10, 8.126222437299000e-11, -5.499849882305395e-10, 1.821806668477130e+03, 1.694120192437475e+03, -5.419179370062636e+01, 2.875140876645759e+03, 7.293205391335467e+02, 7.492731474853593e+01, 1.697554484781159e+03
10285, 7.589065631605156e-01, 1.130337980790573e+00, 2.702222071802337e-02, -7.305041419934539e-10, 3.890442870440372e-10, -1.312354038348946e-09, 4.022658493311872e+03, 4.098739810750789e+03, -1.880685449041442e+02, 7.488062748102217e+03, 1.014765641446433e+03, -6.321821058951921e+02, 4.018144147960510e+03
10286, 4.524546153823735e-01, 1.581074681897798e-01, 5.425584641699908e-02, -5.607490705686029e-10, 3.202729591470730e-10, -1.041932004078232e-09, 3.425485195078061e+03, 3.267348438625107e+03, -7.048545204193955e+01, 6.149787805097481e+03, 8.344288112022568e+02, -4.183345650062576e+02, 3.241353832524876e+03
10287, 4.528087508571098e-01, 3.660593157198008e-01, 1.675245993523196e-02, -1.623212583631269e-09, 7.274195335453366e-10, -3.372322980793804e-09, 4.290424552803985e+03, 3.929870418229398e+03, -2.287592692501879e+02, 7.153044800354383e+03, 7.336563103583337e+02, -3.277354353164986e+02, 3.383888626017602e+03
10288, 2.983079521758759e-01, 2.843028331800151e-01, 4.138407724229407e-02, -7.372197026892220e-10, 5.136930165443110e-10, -2.189733646835720e-09, 5.434157895726245e+03, 5.625108679876454e+03, 1.727931407412325e+02, 1.145642265511825e+04, 5.306799092012747e+02, -4.683633005126010e+02, 6.061906243614198e+03
10289, 2.514052904043206e-01, 1.578869327651518e-01, -2.024435649164326e-02, -1.446870614950179e-09, 9.908285183928573e-10, -1.052745681145364e-08, 8.253791908363219e+03, 8.110831899041732e+03, -3.919883771398657e+02, 1.569118732454288e+04, -1.297316187501416e+03, 7.190774717116515e+02, 7.966166457234469e+03
10290, 6.768781146240740e-01, 1.274696766293751e+00, 3.480508616525699e-03, 2.512604874195210e-10, -1.344943665140826e-11, -1.114039641164693e-09, 2.554018450257109e+03, 2.994901600838745e+03, 1.199852374054085e+02, 6.217194163668644e+03, -1.061257289683539e+03, 2.148838063552323e+02, 3.944454010016859e+03
10291, 5.429435405100010e-01, 4.153573129075998e-01, -1.375313691196819e-02, -1.566772369371383e-09, 5.108757339076595e-10, -3.580392740944345e-09, 2.983176237125262e+03, 3.192148166420980e+03, -1.150260365357848e+02, 5.482269010034457e+03, 9.008851229264326e+02, 5.845818241976056e+02, 3.044105192912564e+03
10292, 9.952487750394012e-01, 1.118058029919473e+00, 8.636059490539121e-03, -2.989538897395107e-10, 3.182643911846766e-11, 5.660803522225753e-11, -7.203645536766417e+01, -1.713710139743283e+02, -4.214005849576594e+01, -4.563930797886835e+02, 3.727924822440351e+02, -1.687705357890133e+01, 7.365609523258036e+02
10293, 7.242124979718287e-01, 6.277796193438772e-01, -6.346340281780043e-03, -6.278803858833697e-10, 1.707682651525642e-10, -1.537039668837875e-09, 2.140371085922390e+03, 2.103124677176115e+03, -1.262355329351542e+02, 3.713280608182020e+03, -5.630065705953433e+02, 5.658839989936508e+02, 2.119770368941999e+03
10294, 3.414137014252999e-01, 4.849490616235385e-01, 3.069595544903637e-02, -3.497345707677200e-10, 7.589911341069594e-11, -2.074057732959627e-09, 4.912820119484105e+03, 5.627181825793531e+03, 2.748774582680451e+02, 1.173014299210164e+04, -2.688614941209926e+01, 2.911118042162928e+02, 6.526810024135427e+03
10295, 9.165405247606095e-01, 1.372459105641870e+00, 1.849449853145349e-02, -4.418222547068106e-10, 3.559760665773654e-10, -7.848183742669615e-10, 3.017915677402712e+03, 2.857148379526659e+03, -2.061292431951816e+02, 4.989508267396707e+03, 7.966853786743516e+02, -5.063462479236039e+02, 2.651554491054531e+03
10296, 4.485210762347013e-01, 4.269868612746611e-02, -1.592847392623731e-02, -2.286905732234801e-10, -1.364972118951146e-10, -3.330508949985773e-09, 3.040639677661763e+03, 2.928178444889865e+03, -6.733860913113007e+01, 5.441624001206980e+03, -4.905799193971704e+02, 6.747970624676458e+02, 2.854654720103571e+03
10297, 7.058502908786176e-01, 3.497646158139657e-01, 3.624046399520212e-02, -4.891490008333367e-10, 1.191049172562937e-10, -2.409367821454633e-10, 1.178979536205523e+03, 1.042392042236113e+03, -4.736091755444333e+01, 1.658786519210600e+03, 6.961671055127601e+02, -1.757050933842700e+02, 1.366637641549262e+03
10298, 7.269865499834403e-01, 1.024721094077174e+00, 3.001463884266853e-02, -7.740781612995727e-10, 3.452326969004942e-10, -1.031641097879363e-09, 4.068605713124469e+03, 3.768179950931661e+03, -3.810408893685191e+01, 6.610915675180496e+03, 7.775087525195250e+02, -3.075193329550457e+02, 3.069037431472183e+03
10299, 5.956243099491904e-01, 3.288138945317000e-01, 2.137991846470683e-02, -1.017254638372023e-09, 3.350403418552382e-10, -1.397154284985441e-09, 2.438881306037930e+03, 2.353715707833978e+03, -2.931079653715808e+01, 3.935396134353246e+03, 5.723102036010752e+02, -1.711396198798201e+02, 1.856696522147894e+03
10300, 8.796853213879882e-01, 1.544624915644570e+00, 1.450552515719327e-02, -8.691179941805033e-10, 1.437644337017780e-09, -2.643662168228256e-09, 7.232909858945371e+03, 8.849582260164585e+03, 1.692680748935410e+02, 1.438601037493980e+04, 1.264951659103433e+03, -2.041582931485622e+03, 7.720537688462439e+03
10301, 8.457828360311158e-01, 3.411706298474401e-01, 3.129362728120862e-03, -5.773978177515816e-10, 1.059408663944681e-10, 2.233819178917455e-10, -5.317660222562436e+02, -5.577651339263274e+02, -1.587025290925496e+00, -9.906389896948380e+02, 3.983446200053071e+02, -8.917540009643473e+01, 8.361875897710593e+02
10302, 7.032341138852365e-01, 1.881156929028041e-01, 2.326822731878822e-02, -6.199423283795259e-10, 9.543758358509123e-11, -2.849137401256040e-10, 9.079513874216323e+02, 7.952823155137468e+02, -4.614536890512699e+01, 1.280032384062814e+03, 5.236555446950064e+02, -6.385315729238050e+01, 1.017018121355004e+03
10303, 8.913860093581445e-01, 1.527901362158338e-01, 7.653188915674142e-03, -3.851945887468368e-10, 6.817357967063363e-11, 3.026605325525391e-10, -9.641077106914240e+02, -1.186347542831808e+03, -2.864381000684950e+01, -2.206530746798193e+03, 4.411498391342154e+02, -4.156261922910110e+02, 1.556093183926132e+03
10304, 7.084730908985081e-01, 6.284038102889969e-02, 3.324627855434069e-02, -2.770925371890502e-10, 8.542546430198709e-11, -1.426168377827072e-10, 6.613510197833103e+02, 5.384334106193039e+02, -9.510835714346837e+01, 9.915623919167625e+02, 4.578045007450806e+02, -9.525252772654790e+01, 9.207865631774278e+02
10305, 6.461812594420303e-01, 1.115458380972276e+00, 1.834551023347220e-02, -2.491192354122765e-10, -4.438186032696767e-10, -2.392129590574208e-09, 5.724034476758120e+03, 6.028923780612121e+03, 1.999625870296202e+02, 1.271536026386750e+04, -1.598632054826788e+02, 1.388636193238815e+03, 7.267844836704448e+03
10306, 4.989451986930141e-01, 7.418364672231553e-01, 3.066446520746163e-02, -6.740721348445192e-10, 4.221801539518286e-10, -1.858426528283897e-09, 4.998633549983237e+03, 5.367725399259160e+03, 2.287812219495057e+02, 1.014828416683171e+04, 7.768824816040011e+02, -3.262602232896905e+02, 5.200137989768641e+03
10307, 6.494864918913608e-01, 2.787067666035238e-01, 1.803114932892375e-02, -8.170538021128643e-10, 2.102879904066401e-10, -9.568717801805447e-10, 1.623792555200612e+03, 1.533974813074480e+03, -4.336729263096508e+01, 2.878877378960080e+03, 3.991717722608735e+02, -4.233307943187037e+01, 1.478197136055085e+03
10308, 3.987173060230209e-01, 6.011322628779348e-01, 1.241327468655318e-02, -9.048382983648782e-10, 2.511711286210968e-10, -4.858773099606083e-09, 4.711070040325820e+03, 6.021732585509249e+03, 7.158519529164995e+02, 1.406387692941853e+04, 4.884743415382434e+02, 3.784937736631713e+02, 8.922857476321788e+03
10309, 8.219866842137331e-01, 1.130342815404461e+00, -1.907870447569293e-03, -5.067484894996731e-10, -1.562068612543743e-10, -2.500660467641852e-09, 3.499997441198134e+03, 3.147201361376578e+03, -1.067005366638055e+02, 6.021481076769176e+03, -2.049898549273019e+02, 1.212060706175753e+03, 3.455344460710373e+03
10310, 9.748311746664249e-01, 9.861318010811521e-01, 7.750460792910936e-03, -4.127321201209084e-10, 1.546890225053656e-10, 1.769340990061975e-10, -4.433683046060600e+02, -4.590271798505244e+02, 6.660644058129495e+01, -9.027747842237613e+02, 4.481489241502439e+02, -2.624813564254626e+02, 1.013220973422117e+03
10311, 4.271392396682969e-01, 1.773980398452059e-02, -1.942859174919465e-02, 1.216768167249210e-10, 3.271498231278748e-10, -1.386083129068568e-09, 2.017309480071600e+03, 2.089720944506370e+03, -9.307733799085234e+01, 3.575237420015019e+03, -1.329268320410577e+03, -1.376957072593952e+03, 3.651637489867547e+03
10312, 3.991824746545430e-01, 6.609515486864623e-01, 1.922314891594186e-02, 8.808581619338754e-11, -2.428650123188923e-10, -1.820691930763745e-09, 3.674878766110648e+03, 4.480661515869421e+03, 3.036895483021657e+02, 9.773098791175533e+03, -7.360902163892952e+02, 1.338217831751449e+03, 6.340219409008576e+03
10313, 7.923746392544972e-01, 1.347126458498176e+00, -1.034763174319022e-03, -4.739744790576747e-10, 1.056506559485987e-09, -3.615545071139714e-09, 5.234704879512767e+03, 6.193943231435456e+03, 6.629547106773106e+01, 1.136015211194404e+04, -1.315025535474784e+02, -2.567513942543997e+03, 7.239262785240411e+03
10314, 5.649899844664373e-01, 6.814957597074968e-01, 4.003060339544288e-02, -6.960895579632999e-10, 2.907189667699196e-10, -1.328205336436831e-09, 4.250784493687760e+03, 4.238901612136147e+03, 1.125828098228147e+02, 7.946035938341556e+03, 9.237405658342058e+02, -2.756141348219374e+02, 4.065063184915705e+03
10315, 3.981407668234182e-01, 6.642467056523599e-01, -9.488750409597072e-03, -5.824788794000339e-10, -9.237908230767580e-10, -4.514612000378169e-09, 5.185561964180901e+03, 5.566541380773804e+03, 5.257800941749482e+02, 1.447637639857889e+04, -9.018861152719826e+02, 4.220354428477369e+03, 1.181644927337964e+04
10316, 7.467525280277039e-01, 9.610374959640201e-02, 2.879864064419297e-02, -3.316460644426760e-10, 3.943360391266451e-11, -2.738841613151652e-11, 3.935131372752944e+02, 2.888312322551487e+02, -6.322795641598574e+01, 3.867695103306952e+02, 4.184734590104683e+02, -4.314544435238932e+01, 7.437982664936695e+02
10317, 8.624868955910282e-01, 1.458857320515629e+00, 2.977023307774648e-05, -1.143343557570544e-09, 1.347277100383008e-09, -2.215035611933976e-09, 4.974393160488898e+03, 5.117663225989824e+03, 1.799567068247300e+02, 8.435869006638719e+03, 1.723673641663981e+03, -1.612291737606370e+03, 5.321200534963507e+03
10318, 5.298232371754960e-01, 1.226293192788988e-01, 5.141986678107539e-02, -4.404537264940215e-10, 2.292669429320735e-10, -7.211069016878027e-10, 2.584952525497723e+03, 2.434198098963965e+03, -8.950745671174849e+01, 4.511245862917333e+03, 7.034601790779843e+02, -2.877651075391823e+02, 2.404321081457843e+03
10319, 4.645725943916468e-01, 3.248580049737160e-01, 5.434613134843612e-03, -1.458462991544707e-09, 9.178449658841246e-10, -3.589695959777673e-09, 3.485520626443773e+03, 3.243035113191707e+03, 9.427657629633259e-01, 6.035414776756265e+03, 4.710668940387432e+02, -6.560782984881113e+02, 3.022598669581010e+03
10320, 3.062242122226488e-01, 1.756913202927135e-02, 3.628643156182874e-03, -4.243980288233916e-10, 7.424333615949373e-10, -1.314954795176267e-09, 2.943069324025848e+03, 4.810516356844885e+03, -6.867613404157378e+02, 3.496661270733596e+03, 2.568637316371690e+02, -1.981818133921925e+03, 4.019413952227155e+03
10321, 7.333030181150111e-01, 5.886580923792413e-01, -5.011695322228265e-03, -6.878007422880740e-10, 2.857949254400418e-10, -1.463861599403415e-09, 1.516860490851599e+03, 1.755033558937410e+03, -1.067071248755358e+02, 3.244777039911581e+03, -2.308286182515879e+02, -2.193192887899533e+02, 1.723132746136037e+03
10322, 3.635915006898703e-01, 1.126462391566577e-01, 3.278829626400442e-02, -1.092636769164310e-09, 9.188230043200658e-10, -2.978356183541707e-09, 4.145882805974261e+03, 3.931496115507630e+03, -1.526983699754269e+02, 7.784960290632186e+03, 6.262537912131304e+02, -2.690098889200873e+02, 3.941147947146521e+03
10323, 8.184036902795691e-01, 2.991778643831293e-01, 2.420486184348362e-03, -6.307576595306954e-10, 7.105544717403503e-11, 4.099987322751198e-10, -4.105021550159371e+02, -5.027475769579993e+02, 9.888898004737509e+00, -9.965713789536406e+02, 4.251497133350173e+02, -4.789164053410864e+00, 9.168114122880446e+02
10324, 7.493569163237090e-01, 1.063796092550379e+00, -5.569015042072772e-03, -8.124569793504807e-10, 8.010429431699083e-10, -2.556237425281757e-09, 3.500493318415109e+03, 3.257586920082566e+03, -1.604793190778633e+02, 5.583205325947947e+03, -8.609284569746962e+02, -6.916480928465354e+02, 2.939146544465318e+03
10325, 5.224228219673508e-01, 8.865520893264753e-01, 2.124438912537944e-02, -4.863972802541862e-10, 2.460913489412948e-11, -2.455995812250886e-09, 5.302094168414057e+03, 5.741362618509206e+03, 4.153439981620627e+02, 1.420047433138727e+04, -1.928898502788607e+02, 4.414829851412838e+02, 8.756667271596814e+03
10326, 7.447811501013415e-01, 7.021158933496016e-01, 3.942580803975486e-03, -8.490416156948765e-10, 5.124132309813640e-10, -1.424082315914925e-09, 1.899492895830777e+03, 2.109967116172552e+03, -4.398173585528488e+01, 3.894426598512855e+03, 5.563175701178222e+02, -7.846261313714894e+02, 2.526927611476961e+03
10327, 7.427453491862854e-01, 8.142061162428298e-01, -6.766964176951322e-03, -7.698535894082110e-10, 1.691860130821705e-10, -1.766416349227601e-09, 1.815661819524482e+03, 1.902353573644461e+03, -8.522596139513443e+01, 2.727331760512524e+03, 4.645925189406734e+01, 3.567495515670565e+02, 1.081526598169254e+03
10328, 5.883054695227800e-01, 3.446069565573157e-01, 4.690731050544382e-02, -5.593678165341338e-10, 1.802906488684470e-10, -6.125155235793698e-10, 2.538852795832667e+03, 2.423030889660800e+03, -5.177645359299303e-01, 4.192864729542330e+03, 8.318035765105458e+02, -2.688128149740667e+02, 2.287621989797905e+03
10329, 7.380186426926900e-01, 7.586154320439331e-01, -5.844675615087912e-03, -9.421415156156917e-10, 6.314662281646074e-11, -1.818144130863732e-09, 2.090593081123228e+03, 2.108636868140292e+03, -1.480961096340206e+02, 3.324657728691401e+03, 3.925785477198856e+02, 5.583540865718826e+02, 1.721744148354160e+03
10330, 4.244809510934778e-01, 1.735549499460745e-01, 3.273179254685118e-02, -1.102569115636586e-09, 5.984434347995128e-10, -2.501776735653521e-09, 3.766199666807678e+03, 3.565325918444219e+03, -6.543318975295172e+01, 6.798387237151653e+03, 6.582833178473375e+02, -2.642897023228708e+02, 3.371350031429537e+03
10331, 5.937020760353039e-01, 7.892516387634931e-01, 7.394414654119619e-03, -1.652405786284991e-09, 8.812747664973822e-10, -3.455816757214548e-09, 4.750106665742775e+03, 4.608799216468281e+03, -3.470009323828061e+02, 8.472494709028211e+03, 1.096522179960343e+03, -6.599160463812641e+02, 4.435867545260383e+03
10332, 1.081602151390383e-01, 4.450372705091041e-02, -1.367234220691703e-02, -7.442081525734062e-10, 1.992889435498930e-09, -7.875286612321181e-09, 8.956090464843583e+03, 9.411782191977833e+03, 1.001101921223627e+02, 2.022138226751795e+04, 7.400679292175057e+02, -3.333436665077122e+03, 1.252954595517569e+04
10333, 5.003671588607864e-01, 9.981425369948990e-02, 3.192417339849320e-02, -7.463453532354815e-10, 5.495910302913860e-10, -1.816340455026448e-09, 2.651224878312729e+03, 2.467772724113128e+03, -1.376363952018921e+02, 5.068515080066097e+03, 5.039683397996333e+02, -1.664152861674438e+02, 2.687428035135982e+03
10334, 5.898249155907467e-01, 9.821339459336558e-01, 2.335552816915035e-02, -2.638071743626059e-10, 1.420750908923062e-10, -1.748103826942924e-09, 4.868023036827003e+03, 5.574685747334482e+03, 4.717809656552487e+02, 1.061066017964531e+04, -6.997012953242334e+01, 1.764229023223853e+02, 5.494992304710629e+03
10335, 5.723129371472784e-01, 9.928514759469994e-01, 1.833521910929954e-02, 6.627189849912381e-11, 7.593501668475378e-11, -1.691047308317068e-09, 4.227553983669822e+03, 5.006834904519455e+03, 3.633651714942947e+02, 9.173103478991394e+03, -5.823070713980651e+02, 1.586139695194162e+02, 4.764513479170775e+03
10336, 7.876863650080230e-01, 1.482869389221406e+00, 4.943696131373444e-03, -2.173277027793895e-10, 1.342085760458428e-10, -1.029222565404303e-09, 3.695577727912184e+03, 3.322752140495365e+03, 3.754951728152328e+02, 5.757587511668291e+03, 2.235343605398953e+02, 1.731521842974681e+02, 2.412983841233965e+03
10337, 3.439361141347967e-01, 2.246228006158200e-01, 5.210144064430007e-02, -6.678906137318851e-10, 4.633298684780590e-10, -1.494015833416883e-09, 4.684831437001519e+03, 4.764524522652375e+03, 5.158590721459408e+01, 9.006317613090652e+03, 8.027536373417194e+02, -5.725643054494603e+02, 4.611064341987649e+03
10338, 4.665591195576041e-01, 5.506624501943527e-01, -1.475030470604230e-02, -1.778963203990177e-09, 6.153748841996468e-10, -7.061162060072442e-09, 6.235746276720464e+03, 5.299545560353689e+03, -1.588460531139741e+02, 1.261996201609715e+04, 6.738916392771687e+02, 1.050546411540919e+03, 7.236063781885310e+03
10339, 3.911029739073638e-01, 2.092647289436367e-01, 9.627512325597247e-03, -1.511369518383806e-09, 1.075707399002995e-09, -4.667001721729617e-09, 4.409458646526571e+03, 4.859557858685438e+03, -1.091521163752992e+02, 8.613496838928402e+03, 4.392586350594617e+02, -6.041118653493891e+02, 4.206391872162140e+03
10340, 7.837465716902117e-01, 2.833868390992755e-01, 2.577311877635634e-02, -3.721403163614142e-10, 4.726555367480404e-11, 2.163929114385908e-11, 2.053300394703564e+02, 5.807203163492339e+01, -1.907789540607019e+01, 2.080165527738636e+01, 4.951755921286538e+02, -8.379751336660060e+01, 8.867451338111314e+02
10341, 4.642381498245612e-01, 5.105844818067923e-01, 4.415644764964333e-02, -8.019029591911623e-10, 4.963664845176724e-10, -1.467459696886080e-09, 4.688427325680294e+03, 4.718298096316619e+03, -3.648468767783438e+01, 8.811719139433395e+03, 1.057117264932192e+03, -6.745174220099785e+02, 4.647651786742361e+03
10342, 2.321128831733995e-01, 1.983940223246195e-02, -4.991051978555042e-04, -3.737754067381210e-10, 9.189789122690000e-10, -1.803410814207057e-09, 3.155363213059298e+03, 5.404018202829357e+03, -5.982517602786728e+02, 3.968132857590379e+03, 2.243991922923607e+02, -2.481116867881618e+03, 4.856131019255408e+03
10343, 3.367125349663938e-01, 5.627127748135458e-01, -6.372046618791958e-03, 1.765357660926182e-10, 7.097845053845836e-10, -3.905319986683953e-09, 4.926959087339145e+03, 4.758681871438076e+03, 1.306808558802676e+02, 1.028886261250985e+04, -2.773004363600653e+03, 6.282747299830019e+02, 7.347427597513742e+03
10344, 3.332414931353297e-01, 4.614748527197640e-01, 8.992149436027844e-03, -8.487634342516108e-10, 5.716293201826718e-10, -5.248210817828824e-09, 4.595158102022083e+03, 6.051731785568930e+03, -8.726481768633664e+01, 1.302499906686918e+04, 1.869435947259823e+02, -1.209442259991144e+02, 7.815159164584318e+03
10345, 4.059890573086504e-01, 2.259678690099263e-01, 3.125394287908052e-02, -1.384149595410264e-09, 7.125528991042877e-10, -2.805763775890338e-09, 4.105798224016037e+03, 4.143186589848451e+03, -1.700479090875828e+02, 7.774110500598131e+03, 8.646729003821428e+02, -3.676900588979749e+02, 4.007003260966517e+03
10346, 4.164358758493079e-01, 4.892649728259207e-01, 1.334414092186779e-02, -1.437396344143609e-09, 9.222054120547554e-10, -4.170065514481981e-09, 4.652551545108194e+03, 5.557363920284504e+03, 2.243745984129602e+02, 9.759675912899245e+03, 5.483497437508262e+02, -4.232253078252170e+02, 4.885782291713424e+03
10347, 6.393498782813457e-01, 3.513361208394915e-01, -8.021376654090079e-03, -9.503268620351485e-10, 2.301842139838388e-10, -1.808602562798973e-09, 1.757903692130687e+03, 1.909035317375218e+03, -1.454012325589906e+02, 3.089597179611083e+03, -7.585120246963770e+01, 5.219185018634059e+02, 1.578882151857953e+03
10348, 3.861495282176112e-01, 5.850141342976080e-01, 2.857415950027863e-02, -2.879521360742059e-10, 2.502886024475020e-10, -2.856987977201660e-09, 6.205224759425635e+03, 7.000576567063779e+03, 4.218614794568105e+02, 1.521942400779427e+04, -4.376749567841105e+02, 3.791740731788884e+02, 8.732629116185581e+03
10349, 7.551416778423842e-01, 1.431899379889104e+00, 3.668046217435317e-03, -3.125697493966888e-10, -2.189741386134323e-10, -2.283786754953884e-09, 5.591033487365766e+03, 4.995159833790710e+03, 1.239248724149172e+02, 1.020945332075244e+04, 8.006489729016436e+02, 4.523672711256905e+02, 5.198072601233998e+03
10350, 3.631622313555777e-01, 2.638018918024879e-01, 6.194181602436330e-03, -1.556162311235616e-09, 1.321325838990658e-09, -5.707749163729769e-09, 5.083163764219849e+03, 4.869285337385382e+03, -1.196698311687842e+02, 1.071784929848682e+04, 2.091091665001802e+02, -4.959170775116892e+02, 5.823444557016143e+03
10351, 8.704350668226132e-01, 4.645064781150655e-02, 7.695207819884401e-03, -5.010999637184393e-10, -2.008852035250695e-10, 6.734970287220480e-10, -1.516305540374800e+03, -1.700537830637943e+03, -8.532449153914064e+01, -3.251691083197995e+03, 9.064136541526200e+02, 1.885634801192809e+02, 2.306308081750513e+03
10352, 8.437390515325948e-01, 9.720138713179094e-01, -1.075645047037374e-03, -8.011761861248387e-10, 3.669007135186121e-10, -6.073228440676181e-10, 1.361701646948718e+03, 1.378497887422377e+03, -2.084028743311659e+02, 1.994852967180429e+03, 4.974348190465855e+02, -5.301745366376510e+02, 1.451345147013428e+03
10353, 9.183619451175642e-01, 4.053927245213703e-01, 7.990942998148391e-03, -4.757634349182020e-10, 7.108538112113836e-11, 7.649463596147101e-10, -1.799139994165343e+03, -1.867494063074010e+03, 6.941934487436825e+01, -3.538753837510272e+03, 9.071060851892723e+02, -3.064316523657129e+02, 2.382582942223951e+03
10354, 7.052052593787002e-01, 4.672837790683282e-01, -6.718918006229223e-03, -9.482620623372351e-10, 2.515299101565850e-10, -1.048095901345297e-09, 1.233967319115848e+03, 1.293409485777078e+03, -5.012372492043928e+01, 2.100203861685950e+03, 5.054034590423958e+02, 2.812528369728644e+02, 1.309027405932089e+03
10355, 4.922952057698136e-01, 4.298372522098800e-01, 4.734149295078649e-02, -7.103647487310803e-10, 3.406403117658344e-10, -1.164998338625430e-09, 3.847010936298465e+03, 3.806291117904816e+03, 2.315321839131542e+01, 6.869510548861094e+03, 9.543879571057912e+02, -4.444914930626818e+02, 3.547834979484852e+03
10356, 2.694781024425917e-01, 3.694565087925556e-01, 6.533566998404367e-03, -9.428849836886159e-10, 5.345177932941981e-10, -4.737089823255710e-09, 4.429154797200581e+03, 4.675959865542878e+03, 5.761365966491330e+02, 1.251933026168785e+04, 2.111428954212504e+02, 6.324659446742342e+02, 8.114477130038093e+03
10357, 4.269834204634710e-01, 5.441925550958325e-01, 9.705064131410431e-03, -1.476512331880544e-09, 1.219558996022815e-09, -5.137420222594866e-09, 5.650296917237103e+03, 5.421702101856885e+03, -2.086702704084661e+02, 1.085139318153640e+04, 1.005106735950440e+02, -2.108149686493115e+02, 5.346668819483358e+03
10358, 6.224736652448819e-01, 7.018931921409653e-01, 3.832717264920778e-02, -7.013101135997982e-10, 3.408970652837719e-10, -1.177674111263629e-09, 3.582570278242573e+03, 3.458106506677279e+03, -2.645695280057135e+01, 6.663464546323713e+03, 8.873500738727598e+02, -4.695886862737428e+02, 3.593977102962136e+03
10359, 5.529686544736389e-01, 6.269101853704201e-01, -1.385124465104998e-02, -1.074517347272916e-09, 1.485342995428414e-10, -5.786264270142450e-09, 5.845977908653109e+03, 4.878076762975013e+03, -1.374686842547545e+02, 9.484614419256273e+03, -1.233467511785818e+03, 1.623606645633151e+03, 5.497969041018345e+03
10360, 8.761323352550420e-01, 7.664538724756466e-01, 3.695996112682277e-03, -5.315333397000706e-10, 1.683508075894993e-10, 1.950803573630346e-11, 2.660367769109464e+02, 2.053799420653168e+02, -1.765448109260237e+01, 1.922160419258614e+02, 3.427825556185659e+02, -1.140478698744075e+02, 6.301638308272359e+02
10361, 4.988525452136588e-01, 3.802134420345105e-01, 2.557170941231110e-02, -1.241740385375163e-09, 4.629958499278901e-10, -2.398393463973770e-09, 3.791283263014980e+03, 3.580120181340162e+03, -1.463142145827939e+01, 6.417901474198699e+03, 6.861429209585148e+02, -9.520244260410243e+01, 2.989743625279700e+03
10362, 8.262967990777449e-01, 1.453552926861361e+00, -1.691431875779324e-04, -8.902744183205505e-10, 9.868667881179684e-10, -3.332859708138330e-09, 5.144853451788529e+03, 6.251766710117574e+03, 3.145715693881019e+02, 1.062103367910056e+04, 6.393717164368534e+02, -1.905147511647910e+03, 6.128961238285950e+03
10363, 4.023037786594128e-01, 1.227090632299513e-01, 3.387435367490124e-02, -1.056029817358401e-09, 8.089468169299740e-10, -2.503552825218052e-09, 3.711322361912561e+03, 3.430699092727414e+03, -1.384837297840325e+02, 6.664162890883177e+03, 6.609440448369686e+02, -3.231408557273114e+02, 3.362735007511497e+03
10364, 6.253851359541027e-01, 6.916183392313117e-01, -1.091762376986863e-02, -1.535706245113078e-09, 1.010878880601023e-09, -4.369366664077997e-09, 4.015466950039063e+03, 4.318752988546110e+03, -1.854885710332174e+02, 7.708299816724022e+03, 1.188612819747655e+03, -1.443402733903463e+03, 4.816727731966347e+03
10365, 4.054439484499192e-01, 3.139301190367724e-01, 2.690322941701295e-02, -1.536484675415065e-09, 6.416988265030925e-10, -3.250178907136223e-09, 4.670488495400972e+03, 4.695517895774542e+03, 1.072502215990353e+01, 8.650329564955064e+03, 7.523399234145528e+02, -1.856651556317378e+02, 4.188311614920502e+03
10366, 5.531126926919764e-01, 1.862821987980880e-02, -3.172888590507374e-03, -2.722754827340261e-10, 3.976754051393856e-10, -4.862895347887764e-10, 1.286472722178894e+03, 1.867351713301218e+03, -4.054702507585102e+02, 1.379345036265869e+03, 1.811931418490335e+02, -8.871518858976465e+02, 1.801367462681130e+03
10367, 9.832202191286452e-01, 9.351186391204281e-01, 7.071916405532300e-03, -3.251204746187097e-10, 1.459333904163939e-10, 1.730852041347761e-10, -4.919117733687578e+02, -6.525043017354278e+02, 1.846173844623535e+01, -1.206667607483201e+03, 4.621887497661251e+02, -2.836315128366240e+02, 1.142409624353295e+03
10368, 8.544851150363236e-01, 6.189036156296046e-01, 2.310982199710435e-03, -5.535909815035959e-10, 1.526641178488907e-10, 1.252364488272763e-10, 9.722524471805696e+01, -3.695132816073178e+01, -1.095202058864419e+01, -1.879014780687012e+02, 2.549615194692817e+02, -9.351524130110695e+01, 5.316526542949972e+02
10369, 4.487368812939218e-01, 2.130062801810334e-01, 3.065333118059665e-02, -1.222651489868348e-09, 5.357527185328420e-10, -2.286716252237385e-09, 3.779566328545284e+03, 3.513192443450474e+03, -2.076054016595085e+02, 6.212146964528207e+03, 6.969432410010559e+02, -1.552667093346903e+02, 2.880137576061500e+03
10370, 7.645493569081815e-01, 9.619695282854959e-01, 2.979850600033027e-02, -5.067390474274634e-10, 2.170860292349740e-10, -8.916628376296605e-10, 2.781424876528941e+03, 2.729027071122063e+03, -9.864539736480370e+01, 5.220048599115834e+03, 7.426471712396732e+02, -2.040922288326672e+02, 2.808226814446443e+03
10371, 3.886943384027432e-01, 3.532771477590960e-01, 2.948990207669051e-02, -1.428050721163039e-09, 6.955726934766592e-10, -3.146648424263040e-09, 5.032713142415251e+03, 5.196649606167453e+03, 2.314302402573479e+01, 9.492525463261471e+03, 8.189364185907348e+02, -4.969948261578549e+02, 4.684043571946160e+03
10372, 6.470235629475137e-01, 5.362332941031496e-01, 1.269985157081141e-02, -9.763826958232482e-10, 4.740402519639928e-10, -1.530739438821546e-09, 2.734352250252176e+03, 2.438578469463165e+03, 2.414168169400658e+01, 3.874127826072949e+03, 3.394946309727807e+02, -3.046515994831381e+02, 1.532854295397075e+03
10373, 6.269705025380187e-01, 6.186204163419617e-01, 4.170115449295703e-02, -6.346117493931536e-10, 2.252893070498807e-10, -7.534153754120803e-10, 3.004129599303954e+03, 2.882192828029836e+03, -9.229141051355123e+00, 4.915408856580420e+03, 9.386031087185781e+02, -3.374112335473317e+02, 2.624049187213055e+03
10374, 7.695895795309264e-01, 1.054592566920345e+00, 2.885403740010591e-02, -5.540295069712053e-10, 2.658461443951123e-10, -8.767237143382532e-10, 3.193520866763995e+03, 3.236385750598921e+03, -9.310263571949031e+01, 5.693850807047022e+03, 7.928455679068599e+02, -4.654288710510892e+02, 2.950931978902388e+03
10375, 4.218815315570620e-01, 1.044502223181556e-01, 3.272252026136669e-03, -1.149000219345241e-09, 7.552990462138977e-10, -3.722731229456955e-09, 3.591419033496241e+03, 3.071974025027268e+03, 1.992158215372278e+01, 5.512041319670756e+03, 4.617878314706600e+02, -6.027517340190216e+01, 2.368143712796313e+03
10376, 4.265377997401391e-01, 2.267550666292203e-01, 5.434210685250392e-02, -6.995730359941928e-10, 3.269371476146799e-10, -1.130043789888685e-09, 3.945317461588503e+03, 3.871884322900216e+03, -6.395718082796199e+01, 7.116026328232915e+03, 1.022529494704304e+03, -4.036828168838679e+02, 3.732220915530131e+03
10377, 6.273452191738166e-01, 7.015677065771846e-01, 1.828598630067648e-02, -1.104268956582431e-09, 5.500072320029924e-10, -2.421081458667976e-09, 3.741301417418808e+03, 3.387500368399541e+03, -8.789601404473493e+01, 7.013207654025226e+03, 6.288932689854267e+02, -5.404589398216229e+02, 3.751550935055375e+03
10378, 2.449447514227260e-01, 2.434197038402807e-01, -1.712598896707104e-02, -1.789715343768631e-09, 1.521484290370941e-09, -6.670012621008709e-09, 5.443899600753973e+03, 4.693750224420583e+03, 2.535251531269143e+02, 7.543888065829336e+03, 5.429159398115994e+02, -8.872231879683203e+02, 3.160154077946385e+03
10379, 8.536491142768952e-01, 1.174478328658954e+00, 6.836236320797821e-04, -4.423773935150785e-10, 5.215588262570018e-11, -1.199641187373663e-09, 2.546059403363613e+03, 2.223282394561565e+03, -6.796514408684695e+01, 3.758662446430462e+03, -4.254015295379176e+02, 3.781764080295209e+02, 1.718080578370446e+03
10380, 6.818097133316031e-01, 9.255355303715932e-01, 3.141565593166470e-02, -7.566720739386545e-10, 3.779403346921737e-10, -1.239468119205826e-09, 3.737735517648940e+03, 3.774024406493916e+03, -4.936462084287692e+01, 6.866669127171212e+03, 9.332214204629521e+02, -4.128071145271525e+02, 3.579000319909272e+03
10381, 6.944831942638893e-01, 6.493863164163670e-01, -8.113780261349901e-03, -9.668007287243628e-10, 1.614732538856563e-10, -1.909580204466947e-09, 2.393790508753924e+03, 2.354965182588459e+03, -1.311116729723260e+01, 4.234477022251158e+03, 4.384971870401787e+02, 7.049729794400725e+02, 2.351470872379527e+03
10382, 7.426819609308404e-01, 4.695704734229960e-02, 2.654021166676756e-02, -2.668949823643881e-10, 5.057513907866800e-11, -5.352995006414968e-11, 3.370443727600858e+02, 2.611172512591182e+02, -1.134871090290638e+02, 4.178189160736281e+02, 3.430889282291021e+02, -6.036716738708564e+01, 6.489399260746818e+02
10383, 4.151430587186231e-01, 1.243860330638711e-01, 3.727447466850744e-03, -1.368722267896226e-09, 8.527388138053782e-10, -4.105396440770214e-09, 4.135261512553662e+03, 3.776626153222236e+03, -2.584446619442575e+02, 5.938890847577302e+03, 5.301996143956050e+02, -2.488307256460648e+02, 2.293034968560736e+03
10384, 6.803297052522649e-01, 2.624039775235163e-01, 1.396254913206336e-02, -8.080051046169123e-10, 1.648857055240405e-10, -6.792701047742523e-10, 1.299652209288169e+03, 1.068376489635971e+03, -4.265961919719126e+01, 2.009978173208095e+03, 5.048734711533251e+02, -1.085375245729958e+02, 1.236052167057405e+03
10385, 4.742405822984830e-01, 1.757641192049337e-01, 1.376035960805268e-02, -1.151149920795555e-09, 6.360002404457287e-10, -3.065556490742753e-09, 3.462440489589334e+03, 3.384761612338571e+03, -2.287559754508262e+02, 6.067616891635824e+03, 4.037059805628448e+02, -1.381970909378921e+02, 2.774628628244341e+03
10386, 4.568650981362165e-01, 5.235944051662839e-01, 1.029288730557136e-02, -1.849940891876242e-09, 1.328291193193413e-09, -4.507085895338595e-09, 5.157029707688358e+03, 5.107310661343530e+03, 1.937286467528446e+02, 9.683015490413029e+03, 1.230501458597498e+03, -1.071858627059243e+03, 5.367837890588386e+03
10387, 5.142609192827967e-01, 5.449645069813095e-01, 4.478334753638677e-02, -7.384823314284068e-10, 3.616537563269971e-10, -1.290935923812621e-09, 4.316254861438802e+03, 4.280563668118638e+03, -8.426863548650811e+00, 7.976789990758858e+03, 1.031285988803322e+03, -4.098401357135869e+02, 4.150447250591406e+03
10388, 2.705878992483342e-01, 8.200486976826582e-02, 1.395230765190747e-02, -1.193051646888572e-09, 1.391835053678042e-09, -4.731660995476299e-09, 4.530719869167043e+03, 4.604442676178993e+03, -2.624956137304014e+02, 8.829929639052747e+03, 5.312254481335632e+02, -6.084944218107540e+02, 4.509523205575825e+03
10389, 4.065655713043425e-01, 4.228630808266145e-01, 2.877676851425826e-02, -1.360570290622423e-09, 6.592042585342299e-10, -3.004324622718643e-09, 5.124027804029072e+03, 5.038195379763830e+03, 1.205678498025559e+02, 9.533045817623979e+03, 8.917329675061997e+02, -3.388524490704634e+02, 4.753827886656081e+03
10390, 9.149669570640880e-01, 1.099156358357387e+00, 1.714739345092214e-02, -4.420436659593629e-10, 1.436119974877868e-10, -1.907956595255964e-10, 1.100165566883200e+03, 9.526579231128770e+02, 6.066462951660179e+01, 1.518279786391270e+03, 6.369100353407182e+02, -1.223446731500439e+02, 1.237401097943951e+03
10391, 7.252010215990023e-01, 5.264259760786926e-01, -5.727251420500908e-03, -8.645793331080471e-10, 3.174067081947233e-10, -8.104126078513785e-10, 1.177738442962857e+03, 1.020303943047248e+03, -8.666684369293330e+01, 1.210455794403339e+03, 4.018885712089007e+02, -1.126162390537268e+02, 7.590328286704422e+02
10392, 1.266894272008519e-01, 1.729374581168683e-02, 4.018688520789066e-02, 2.000639238423055e-10, 4.819672485670584e-10, -5.758443357832416e-10, 2.397011083376459e+03, 3.394407754908591e+03, 3.507473908183740e+02, 3.758755371912445e+03, -3.671822796771364e+02, -1.134283632059046e+03, 2.474729511840767e+03
10393, 6.367787615373769e-01, 8.033749775941883e-01, 3.506658389599019e-02, -8.150851004154200e-10, 4.112823528130861e-10, -1.150343495309966e-09, 3.818247901145839e+03, 3.685737757924590e+03, -5.297848284681952e+01, 6.581628550641391e+03, 1.114885066874156e+03, -5.578161881423158e+02, 3.562416386796264e+03
10394, 5.367007769590836e-01, 1.010681145546887e+00, 7.392553801764817e-04, 1.521851884388950e-10, -1.539235467551741e-10, -8.555834283766394e-10, 1.698318942320790e+03, 1.801607709428865e+03, 1.005686694302474e+02, 3.149347483593009e+03, -7.386916684081024e+02, 3.795995921556060e+02, 2.016408518570657e+03
10395, 6.837950838410185e-01, 4.127204695006920e-01, 1.617406946090675e-02, -8.893216320722411e-10, 2.365133117197370e-10, -9.923186921748786e-10, 1.902611531645317e+03, 1.743597973789428e+03, 1.167356720586512e+02, 2.999980658472448e+03, 5.978288947880612e+02, -8.438057803496730e+01, 1.593248549600898e+03
10396, 4.525897107243104e-01, 9.152320263794846e-02, 2.816377200157514e-03, -8.407744449911792e-10, 8.253438885928773e-10, -3.228974619597298e-09, 3.364331462716581e+03, 2.854006432813524e+03, -4.448272036448042e+02, 4.903000920392791e+03, -6.310534527812734e+01, -8.510507920065281e+01, 2.010086086157337e+03
10397, 7.104562023233768e-01, 6.342700165357127e-01, 3.559734304109871e-02, -5.185959160897192e-10, 2.244995879621304e-10, -5.293759616459283e-10, 2.048924930966785e+03, 1.960051861924891e+03, -3.607988423585658e+01, 3.350728673381473e+03, 6.986167799153181e+02, -3.007776547497018e+02, 1.886210429011510e+03
10398, 2.441932327288943e-01, 2.430844216398187e-01, 3.732618261673996e-02, -5.118014068559180e-10, 3.830721809050301e-10, -2.203112251462760e-09, 5.324167620114096e+03, 5.693966987422110e+03, 2.530070782614644e+02, 1.147716718813314e+04, 1.989096999689044e+02, -2.353382236658827e+02, 6.016449542590304e+03
10399, 9.705073570520598e-01, 1.591713353730945e+00, 4.952541021190174e-03, -1.281429148886749e-09, 1.495346034582602e-09, -6.115348320226851e-10, 3.407838431599908e+03, 4.494349233851746e+03, -9.576819418152739e+02, 3.485765500846948e+03, 6.354141658049396e+02, -1.295261908234975e+03, 3.177693750683684e+03
10400, 7.969770576659839e-01, 3.367376412613559e-01, 2.499285786298417e-02, -3.702723684880023e-10, 7.084368784460396e-11, 8.589566449216428e-11, 5.889370358382112e+01, -8.210999788989875e+01, -1.488209970196615e+01, -3.489676782034950e+02, 5.177680510470245e+02, -9.169086825682420e+01, 9.792141373353136e+02
10401, 3.597640929384560e-01, 3.564352051513349e-01, -1.846081417822795e-02, -1.018334920396703e-09, 5.901743757584952e-10, -7.721014233907230e-09, 6.142103517873389e+03, 6.687554005675622e+03, -1.284621159999643e+02, 1.196520800620823e+04, -1.971119081617634e+03, 5.114588847133517e+02, 6.596973272097825e+03
10402, 9.547085794700195e-01, 6.996329060290770e-01, 7.454224865074429e-03, -4.384058226408665e-10, 1.040940441153878e-10, 6.318922750619004e-10, -1.368105707729656e+03, -1.542623217799679e+03, -2.126016789213268e+01, -2.994344718921619e+03, 6.976350872328629e+02, -3.213174504721576e+02, 2.040215023176993e+03
10403, 7.709619573792156e-01, 9.348468441644916e-01, 3.002344974374531e-02, -5.055630824696281e-10, 2.666628275357210e-10, -7.613525872337913e-10, 2.541919141353007e+03, 2.344508818991860e+03, -8.969471476085745e+01, 4.905618355581518e+03, 6.680876430486544e+02, -4.674587500832980e+02, 2.848047612945434e+03
10404, 6.412487238310830e-01, 6.348151218148378e-01, 1.917161231218038e-02, -1.014658106850962e-09, 5.451939173940914e-10, -1.447068665331745e-09, 2.906454680747674e+03, 2.729224172287239e+03, -5.288474212726967e+01, 4.484914988865195e+03, 5.929907754784371e+02, -3.529421799730454e+02, 2.059055131581819e+03
10405, 5.840459937673069e-01, 7.275305445324639e-01, -1.024246173444317e-02, -1.225985981089008e-09, 7.938371970207737e-10, -3.940666768396266e-09, 4.603942643172648e+03, 3.914286180164513e+03, -1.755772778588474e+01, 6.195947678951427e+03, -1.239296357851211e+03, 4.773052346531644e+01, 2.953534907658258e+03
10406, 6.097963124451253e-01, 1.986577394639103e-01, 4.312320686655649e-02, -4.862797675756996e-10, 1.535117056814986e-10, -5.281635299798253e-10, 1.955011967904965e+03, 1.806865058625718e+03, -6.994126488847304e+01, 3.123643119307378e+03, 6.731371557703270e+02, -2.122216058959450e+02, 1.752114616967250e+03
10407, 3.965083391603103e-01, 1.442190720435676e-01, -1.961076276984276e-02, -1.495769415470311e-09, 4.321608803199109e-10, -7.423531722051820e-09, 5.384530781041137e+03, 5.113264601429136e+03, -2.496488545054677e+02, 9.448166142409107e+03, 7.474490726956508e+02, 1.482725270343163e+03, 5.113460786258859e+03
10408, 6.327059335638079e-01, 8.070677082710656e-01, 1.368204176030602e-02, -1.383638632448713e-09, 8.329278465121089e-10, -2.439611749568353e-09, 4.592396444042523e+03, 4.437238044281309e+03, -1.647678459795093e+02, 7.000047416910681e+03, 8.906667924568966e+02, -7.974899946621181e+02, 3.250185043628179e+03
10409, 6.144704407056388e-01, 8.239664218935476e-01, 3.656440452992001e-02, -8.596644689349765e-10, 3.790789656319737e-10, -1.340313942532718e-09, 4.507340046651052e+03, 4.234931261911428e+03, 3.476345989173298e+00, 8.340163649133894e+03, 1.243429639647357e+03, -5.740537784456507e+02, 4.629885464703715e+03
10410, 5.927156618988013e-01, 4.415931368226858e-01, 4.596260409873554e-02, -5.887154877797268e-10, 2.099200619620297e-10, -7.132306286751184e-10, 2.752877720326849e+03, 2.657380229913802e+03, -6.016896417474382e+01, 4.737155213406943e+03, 9.132004863566226e+02, -2.435941002569706e+02, 2.612786063903274e+03
10411, 5.603481426347870e-01, 7.513745925201514e-01, 3.810494387905260e-02, -6.868959180912866e-10, 4.169137274818087e-10, -1.311234993691544e-09, 4.462507324696785e+03, 4.743778969936982e+03, 3.124491563535983e+01, 8.636071535446521e+03, 9.766486089938221e+02, -6.089989290137268e+02, 4.505656669656654e+03
10412, 8.524183348419413e-01, 8.781236060936937e-01, 9.748883368713365e-04, -5.496705238388433e-10, 1.248857091521864e-10, -4.666880040837027e-10, 7.675352438555325e+02, 6.594341591595791e+02, 1.369308703874129e+02, 9.791571018561955e+02, 2.756721265615634e+02, 2.398446304103066e+01, 6.044067545763584e+02
10413, 6.534827229682982e-01, 4.823166682189586e-01, 4.112361783845878e-02, -5.368437520074060e-10, 1.727647628208520e-10, -5.040681210508332e-10, 2.181903081161568e+03, 2.025311367766837e+03, -4.442844285238621e+01, 3.422546724738360e+03, 8.005762127009855e+02, -2.454720220795783e+02, 1.966583368793121e+03
10414, 8.442409645501090e-01, 1.042681953997362e+00, 2.472511361658175e-02, -4.746105533496238e-10, 2.139640185022139e-10, -4.387816377931563e-10, 2.112828345721221e+03, 1.932139899428163e+03, -4.182142700341546e+01, 2.987462710542507e+03, 6.784275108950602e+02, -3.179823605013753e+02, 1.626360050499856e+03
10415, 3.777761541402004e-01, 1.470396982155178e-01, 4.979728727878191e-03, -1.361083266905097e-09, 1.052597958107024e-09, -4.832513354897652e-09, 4.380461797889129e+03, 4.290495887779051e+03, -2.674645497209670e+02, 8.168347681688185e+03, 3.322936570370501e+02, -1.729126742745230e+02, 3.915676109302578e+03
10416, 5.790965531223327e-01, 2.082221354387314e-02, -7.835551932429619e-03, -1.592342271970887e-10, 1.959407564960026e-10, -4.254545543449515e-10, 8.096900136195140e+02, 9.054765469881029e+02, -1.453140955741794e+02, 6.820171920619782e+02, -6.286735404451616e+01, -4.612999163045268e+02, 8.667773972598778e+02
10417, 2.122394015586594e-01, 9.994038587065457e-02, -1.997496359536592e-02, -1.193902238963100e-09, 1.802310788664429e-09, -9.302442890261144e-09, 6.314337289663566e+03, 5.779018891488322e+03, -4.327967618943188e+02, 9.682663018603804e+03, -1.103518298682809e+03, -1.883217290982134e+03, 5.318837264899043e+03
10418, 3.747180471280785e-01, 6.124828708388265e-01, -8.152006364383062e-03, -1.416537308303802e-10, 4.677142767897539e-10, -5.722248807027304e-09, 4.873598869815991e+03, 6.298487687880526e+03, 5.600808273257501e+02, 1.250062158281814e+04, -2.097890830731078e+03, 9.388400339603494e+02, 8.131598580237795e+03
10419, 3.633304021012670e-01, 1.942279769252611e-01, 1.702930947956747e-02, -1.475661420775672e-09, 9.655272846935483e-10, -4.104987028268584e-09, 4.610506338114890e+03, 4.669264466512650e+03, -2.423130619415728e+01, 8.217879533884836e+03, 4.326126610311580e+02, -2.518559620341582e+02, 3.682139090621924e+03
10420, 7.326363849710821e-01, 9.918742867003322e-01, -6.526790598186904e-03, -8.711085303236770e-10, 4.515008523720042e-10, -2.063700296914723e-09, 2.598399607202491e+03, 1.953798014101017e+03, 3.669148089008675e+02, 3.048612166210530e+03, -1.608669672843484e+02, -2.410231797256016e+02, 1.250680130507233e+03
10421, 4.118580962604776e-01, 6.864181405504707e-02, 2.915486429151178e-02, -7.967339016636356e-10, 1.013033625259485e-09, -2.181056177457769e-09, 3.174873561395611e+03, 2.819588189228643e+03, -2.903260934189419e+02, 5.521191713854920e+03, 5.057853883796440e+02, -6.258039011703756e+02, 2.942832810961140e+03
10422, 8.769673184631436e-01, 1.168560763330717e+00, 2.215450355665732e-02, -3.817103468234884e-10, 1.076783859839990e-10, -4.621547630276218e-10, 1.834766939919965e+03, 1.736318786623292e+03, -1.608314861856314e+01, 3.202282875351602e+03, 6.895209938120361e+02, -8.059242223349050e+01, 1.860376389951632e+03
10423, 5.183554447582213e-01, 6.490743773869256e-01, 4.042285943630306e-02, -7.841722900488517e-10, 2.981436583154192e-10, -1.515532929454332e-09, 4.900052134515855e+03, 4.742915864942295e+03, 7.874401648426077e+01, 9.281704443900901e+03, 1.077880879437097e+03, -3.164574250452823e+02, 4.869969671649229e+03
10424, 9.159979884137599e-01, 9.247149909111730e-01, 1.706013215106008e-02, -3.292023927153133e-10, 7.880342099162691e-11, -3.304633574794471e-11, 3.258416738553130e+02, 2.385430407796453e+02, -2.548068923725140e+01, 2.603303167654875e+02, 4.124314394532364e+02, -8.186418053280923e+01, 7.338568271830031e+02
10425, 6.589488500992841e-01, 4.399689770363970e-01, -7.591126409280443e-03, -8.513871407865254e-10, 3.232422369104074e-10, -1.492037474711826e-09, 1.257417706228464e+03, 1.555915901432843e+03, 2.221122750327083e+00, 1.734400050287869e+03, 1.649186053921779e+02, 9.372354390905856e+01, 5.312217123381990e+02
10426, 7.107346536450794e-01, 1.121434941600677e-01, -3.669314050118767e-03, -5.321475051214103e-10, 9.621392168092522e-11, -4.168671817747824e-10, 5.972619757965626e+02, 6.017914077949363e+02, -7.332287429109643e+01, 1.015237341113625e+03, -2.178857159094050e-01, -4.503800396063562e-01, 4.346955410445108e+02
10427, 4.609745010364935e-01, 2.633126244870915e-01, 3.070713022618749e-02, -1.223622674165224e-09, 5.444953236543560e-10, -2.198949813781138e-09, 3.844129828582566e+03, 3.547186591257483e+03, -8.321835828595928e+01, 6.280964175369676e+03, 7.504799671515783e+02, -3.153080312991123e+02, 2.959498655548686e+03
10428, 4.596868626992267e-01, 6.054735658318311e-01, -1.410034144332714e-02, -1.815900054176639e-09, 1.033365949005358e-09, -7.881336921174160e-09, 6.887075375289171e+03, 6.771956478135668e+03, -1.301031629373796e+02, 1.513017492652543e+04, 3.979574346036400e+02, -2.269778211324687e+02, 8.342141616736320e+03
10429, 5.416126626285240e-01, 1.771129100501313e-01, 1.919073066186994e-02, -9.862473582131176e-10, 4.305637535562892e-10, -1.780102057986226e-09, 2.519632258837119e+03, 2.333264293983103e+03, -7.716709959581985e+01, 4.132777117184130e+03, 4.588709014264845e+02, -2.103553293912798e+02, 1.928706241685856e+03
10430, 7.698782419187945e-01, 5.462186443532673e-01, 2.873307229563333e-02, -4.828077638497591e-10, 1.448815959798441e-10, -1.905468196738970e-10, 9.327708989301736e+02, 8.141855653937157e+02, -4.170315948305345e+01, 1.273998257665184e+03, 6.121929179352658e+02, -1.529633647428529e+02, 1.170775166942756e+03
10431, 3.544347516323486e-01, 3.013128956916718e-01, 4.861132966085786e-02, -7.715592394512992e-10, 3.699644766712018e-10, -1.662087189960027e-09, 5.051541143647133e+03, 5.048407232184945e+03, 2.304306155167566e+01, 9.957809687607865e+03, 8.517860662570166e+02, -3.280191304775312e+02, 5.156341509639334e+03
10432, 8.914214552675342e-01, 8.261187825119587e-01, 2.477199403298659e-03, -5.011321667570043e-10, 1.649241115500983e-10, -4.357051660221036e-11, 4.313262604931618e+02, 3.173407036542247e+02, -6.592797475847250e+01, 6.056284025223954e+02, 2.808165448893682e+02, -1.462624286717351e+02, 6.140303363370701e+02
10433, 5.023732784253956e-01, 9.421702439483748e-02, 5.208810340798813e-02, -4.299107490244447e-10, 3.409081724179241e-10, -8.423094780748111e-10, 2.620642113604125e+03, 2.494747895175702e+03, -7.847545258327705e+01, 4.817506319589565e+03, 6.479498787531813e+02, -4.340176399984807e+02, 2.638511030405681e+03
10434, 6.681249147024183e-01, 6.006287969465812e-01, -9.104687977358444e-03, -9.695793628511771e-10, 4.317434777280236e-10, -1.845113966733301e-09, 2.005538069932069e+03, 1.690282225642377e+03, -1.701284294366816e+02, 2.307226244810900e+03, 1.373862141143475e+02, -1.152538185861296e+01, 6.552598177661478e+02
10435, 7.838567646063133e-01, 1.269965582513360e+00, 2.074909530096194e-02, -5.118621325102402e-10, 1.910351645476586e-10, -1.393821809043548e-09, 3.947009393060234e+03, 4.143432058992426e+03, 7.775589754261311e+01, 8.032922992419605e+03, 1.633406450995026e+02, -2.118291240189874e+01, 4.003777010315760e+03
10436, 1.410001539610681e-01, 1.861261586931376e-01, 1.665628368275171e-02, 1.778025941847120e-10, 6.901556554972442e-11, -1.279654188266361e-09, 4.180068371697073e+03, 3.648394012505060e+03, -6.562822030275747e+01, 6.687716307702615e+03, -7.550441885819650e+02, 1.568704612167756e+02, 3.114682856964995e+03
10437, 4.158027367494697e-01, 6.412631828719730e-01, 2.806763631780525e-02, -3.980263591217722e-10, -1.943231477792380e-11, -2.402483504387671e-09, 5.740740384297619e+03, 6.166764093597206e+03, 4.904057549260442e+02, 1.310429888001847e+04, 5.278688087799983e+01, 6.342281494764410e+02, 7.294040597044538e+03
10438, 9.674517878828107e-01, 1.227009461292073e+00, 4.464236490775238e-03, -3.460503559691309e-10, 1.453541168154980e-10, -2.711003750225863e-10, 8.530099998788816e+02, 7.746075654841068e+02, -3.715372446312033e+01, 1.274962680713948e+03, 9.723005384756661e+01, -6.061807552651076e+01, 5.106848588312142e+02
10439, 5.279620690796683e-01, 5.720940529441694e-01, 4.414245969055338e-02, -7.204033343914199e-10, 3.240921905771629e-10, -1.238823643500645e-09, 4.278918503958354e+03, 4.234138665292151e+03, -2.199986061969915e+01, 7.799221479269906e+03, 1.015940272542381e+03, -4.316446446485037e+02, 4.026038258972766e+03
10440, 3.885650620863840e-01, 5.795168715209809e-02, 2.683833275456659e-03, -8.871340328630937e-10, 1.083334533823143e-09, -3.412235199768707e-09, 2.821357635424806e+03, 3.118344694446458e+03, -5.289797673930236e+02, 5.943877952578534e+03, 1.394297255934937e+01, -9.269576517984354e+02, 3.511236218998263e+03
10441, 4.034413322470369e-01, 4.320523344229010e-01, -1.706673126408009e-02, -1.963244005200050e-09, 1.047474398569493e-09, -7.173432983798763e-09, 6.433028861216735e+03, 6.283734580631490e+03, 2.571347516630282e+02, 1.231517516965028e+04, 8.596147378910038e+02, -5.737289027049698e+02, 6.237208243531908e+03
10442, 7.902495796186135e-01, 1.401590217795278e+00, 1.539515716387779e-02, 4.204797846241444e-11, 3.862740554985631e-10, -2.017472828847149e-09, 3.917399699987799e+03, 5.472184186740998e+03, 4.744392100408822e+02, 1.196532903285558e+04, -6.509831988142435e+02, -8.847014038920648e+01, 7.526208981589776e+03
10443, 2.299953651235359e-01, 1.584208351594686e-01, -1.988569278393288e-02, -2.148162925338506e-09, 1.279496320480509e-09, -7.554918712219590e-09, 6.027002199842469e+03, 5.171279272608715e+03, -4.044910252972956e+02, 8.687734565743676e+03, 1.761736453287067e+03, 4.397560357992012e+01, 4.460537485793906e+03
10444, 4.624182720487350e-01, 5.604872172902340e-01, 4.043239044007314e-02, -9.277402585729771e-10, 4.975092118384255e-10, -1.772287958959745e-09, 5.029184643250273e+03, 5.034113559531848e+03, 5.678175191252954e+01, 1.000014062704731e+04, 1.058019624884298e+03, -4.969276758633362e+02, 5.366062493883975e+03
10445, 6.465380481778673e-01, 6.928922314453617e-02, 4.069422583214674e-02, -2.848745912495380e-10, 1.880253362692650e-10, -3.335119527119148e-10, 1.203613621119823e+03, 1.115008629917494e+03, -1.451591444064330e+02, 2.050994215827596e+03, 4.465251923987651e+02, -2.519391548218367e+02, 1.285602836821730e+03
10446, 5.029770924877114e-01, 7.012663423866259e-01, 3.678879938644705e-02, -7.031010596356250e-10, 2.549043829154604e-10, -1.582042071845904e-09, 4.917001887584720e+03, 5.116130794607388e+03, 1.496892133759709e+02, 9.975548857387119e+03, 8.946562270907046e+02, -2.143344447050709e+02, 5.217999087434806e+03
10447, 4.726057048424273e-01, 7.225118365449682e-01, 7.256784456650812e-03, -1.126116677150673e-09, 8.469796005482259e-10, -4.250380194695636e-09, 4.985767853822922e+03, 5.649483780802876e+03, 2.704725042541958e+01, 1.140063420601969e+04, 1.283582884715401e+03, -8.366404360700793e+02, 6.661698849823864e+03
10448, 7.940693439642800e-01, 6.229960482379971e-01, 2.622696717073445e-02, -4.680332222121408e-10, 1.341999311265202e-10, -2.796651164388159e-10, 1.120790843373091e+03, 9.485911678498823e+02, -4.297698116383684e+01, 1.728086372396670e+03, 6.029946045809799e+02, -1.518178461599072e+02, 1.291716376878442e+03
10449, 3.593762983179732e-01, 3.743803354313665e-01, 1.869491078224601e-02, -1.523404762497799e-09, 8.068127945992446e-10, -4.483464976424682e-09, 5.347884906750539e+03, 5.747713166431285e+03, 2.242518490546128e+02, 1.113635494639993e+04, 6.226938144954269e+02, -6.536221870241673e+02, 5.826459427503756e+03
10450, 8.921420308129547e-01, 1.581415070303844e+00, 1.716777951617149e-03, -1.382859742103151e-09, 2.693349498863632e-09, -3.134206029053441e-09, 7.124800406896895e+03, 9.887116339266717e+03, -5.947063783541561e+02, 1.075107649412792e+04, 5.653422009839586e+02, -2.107819666963750e+03, 5.109982489934854e+03
10451, 8.130847237532928e-01, 1.246883176839715e+00, 2.476066902395219e-02, -5.921547216194068e-10, 2.854190968838566e-10, -1.252160742828402e-09, 4.022869722051970e+03, 3.885460062707114e+03, -4.560610800520055e+01, 7.879544774903336e+03, 9.881487280313763e+02, -3.479040708586077e+02, 4.326827184893761e+03
10452, 8.915363704356992e-01, 1.323445618396048e+00, 1.911211940216583e-02, -4.870997357890971e-10, 3.344588774549354e-10, -6.763472622135676e-10, 2.732610578317324e+03, 2.454543575046959e+03, -1.005538517107792e+02, 4.265482419894279e+03, 5.690337835174282e+02, -2.457157060020386e+02, 2.009009361987757e+03
10453, 5.029644550930902e-01, 6.059943707092481e-01, 4.008733933178007e-02, -9.006471152418466e-10, 4.463879216469930e-10, -1.640366787249788e-09, 4.878443340792831e+03, 4.896737277178766e+03, 6.164752426982031e+01, 9.262379907302691e+03, 1.020442070323947e+03, -4.946870127016411e+02, 4.796716383176822e+03
10454, 3.870002895505159e-01, 4.524737505424300e-01, 4.061160612764957e-02, -8.146651641651513e-10, 3.426342220615527e-10, -1.816786364139830e-09, 5.103996069746700e+03, 5.291947326890823e+03, 2.684819513713551e+02, 1.043418904493584e+04, 9.158994889421076e+02, -2.816936831176151e+02, 5.515014383191124e+03
10455, 9.405237530204241e-01, 1.030520753142070e+00, 4.211926870813159e-03, -4.822486280044054e-10, 1.254947578196316e-10, 3.221996313501834e-11, 1.832948090850488e+02, 1.004444014346280e+02, -1.719876933318118e+01, -3.273180413938994e+01, 3.244468136959457e+02, -1.346422810590855e+02, 6.377335054695981e+02
10456, 3.466396683553566e-01, 4.072712834257795e-01, 3.893511093192041e-02, -6.429382838495215e-10, 3.428583888196009e-10, -2.143347006685800e-09, 5.386193390528581e+03, 5.781705814335602e+03, 1.863344489466313e+02, 1.180688698740702e+04, 4.423533931030293e+02, -2.511849341289802e+02, 6.302598275514633e+03
10457, 8.808561630125503e-01, 1.480220917893434e+00, 3.296476306328781e-04, -4.798395214560691e-10, 1.119805830350513e-09, -2.639879900246750e-09, 5.479248100447131e+03, 4.980842546350660e+03, -2.552933726193711e+02, 8.849681297007297e+03, -7.831916053599467e+02, -1.047103234415423e+03, 4.314282975733558e+03
10458, 5.313822726667120e-01, 3.525812517532176e-01, 6.477099132150454e-03, -1.178055219889951e-09, 4.791349989091068e-10, -2.882830145577177e-09, 2.945266188761028e+03, 3.063011415375267e+03, 4.492256141238939e+01, 5.174446825744122e+03, 1.171153894917957e+02, -7.055330422597578e+01, 2.186954578992383e+03
10459, 5.182015611320212e-01, 2.431497492725260e-01, -1.477420528371238e-02, -1.171504163715696e-09, 7.071543251047804e-10, -3.759676090418735e-09, 2.628726495249016e+03, 1.795237500877227e+03, 1.777762636562313e+02, 2.476795296324103e+03, 1.177123755738955e+01, 1.987253403740498e+02, 8.971388851900158e+02
10460, 2.731829866189436e-01, 4.315778665140987e-01, 1.954708689096935e-02, 2.840723946686392e-10, -1.395123068310446e-10, -1.535699844859696e-09, 4.401644928593172e+03, 4.461763588623056e+03, 2.952687688650034e+02, 8.060372616035482e+03, -1.192411158726762e+03, 8.692772774679972e+02, 4.468104491335610e+03
10461, 9.069899309730216e-01, 2.900786429713704e-01, 7.549552906738730e-03, -1.194068870339668e-10, 1.747374584990196e-11, 5.496185079700651e-10, -1.512910871996686e+03, -1.714567042518529e+03, -2.421474849024547e+01, -3.904877865727634e+03, -1.426034020583718e+02, 8.415276134167755e+01, 2.315993894838859e+03
10462, 5.496824176850751e-01, 7.933984428272360e-01, 9.111182845975688e-03, -1.196728922075661e-09, 9.433840029982550e-10, -4.353835196909423e-09, 4.782632492551878e+03, 5.186047043806685e+03, -9.460586804903893e+01, 1.133002195492262e+04, 4.028495799039171e+02, -9.309243672684871e+02, 6.595704252457942e+03
10463, 2.792425063193236e-01, 1.425551644155157e-01, 5.022408457534139e-02, -6.706719502386704e-10, 5.337382312603248e-10, -1.876413122744538e-09, 4.937410890582549e+03, 4.915254257602962e+03, 6.235034769721214e+01, 1.007574028476707e+04, 6.993086316645108e+02, -5.327805596671470e+02, 5.370949051783481e+03
10464, 4.427878503738040e-01, 2.930213636917641e-01, 1.016326168599028e-02, -1.699464244440038e-09, 8.095967815061458e-10, -3.675869990370864e-09, 4.242116820312755e+03, 3.886464627962436e+03, -2.165556944167237e+00, 7.003530993610263e+03, 8.744594801316797e+02, -2.522922413742266e+02, 3.349478476478463e+03
10465, 5.811255940588385e-01, 8.409135607903311e-01, 1.162916920454091e-02, -1.523852451630843e-09, 6.194153428670347e-10, -3.985325657224415e-09, 5.947617803742600e+03, 5.335626441210709e+03, 9.365583413070686e+01, 1.070210971411542e+04, 8.992731430790973e+02, -1.033544532785998e+02, 5.326713054822642e+03
10466, 9.396843494185450e-01, 5.643545346747229e-01, 7.780981149622161e-03, -3.254749023077390e-10, 1.166285915666662e-10, 1.180348548404562e-10, -7.291964262126154e+02, -8.391955955474532e+02, -2.390018674039899e+01, -1.364929501550718e+03, 4.609230653216752e+02, -1.890483431998823e+02, 1.045278886968664e+03
10467, 4.732313610923142e-01, 3.676065611834534e-01, 4.937691987548821e-02, -7.235453351621904e-10, 2.983999024182093e-10, -1.190817584669758e-09, 3.947541046971651e+03, 3.829032034970162e+03, -3.661384352057028e+01, 7.076728535062659e+03, 9.932658972080058e+02, -3.586010959735556e+02, 3.677802744236509e+03
10468, 6.258188965396134e-01, 2.742408128214399e-01, -9.824751115293382e-03, -9.365542855419892e-10, 3.451062600538078e-10, -1.566167458819764e-09, 1.468667935952642e+03, 1.527070260096756e+03, -9.431510394314377e+01, 1.519392311529657e+03, 1.477941997829020e+02, -1.193087670270182e+02, 3.714034342207952e+02
10469, 8.671485857790920e-01, 7.137786333742528e-01, 3.409438633635724e-03, -5.075191034369849e-10, 1.771682589695881e-10, 4.002358010156071e-11, 1.765810327832693e+02, 1.537363070101838e+02, -7.626927572949801e+00, 1.119807471783235e+02, 2.714977770384666e+02, -9.717308249136865e+01, 5.028466618683065e+02
10470, 5.614798006681089e-01, 2.552186524441735e-01, 4.846742998239802e-02, -5.574662508960121e-10, 1.829760526894473e-10, -7.436855687655496e-10, 2.638250747199897e+03, 2.496237174548107e+03, -6.153697608290644e+01, 4.723306689218984e+03, 8.449569340000040e+02, -2.416679323396167e+02, 2.644269201018622e+03
10471, 4.134322808685279e-01, 2.786202186659514e-01, 1.314371406831438e-03, -2.033914341933720e-09, 9.077438288761571e-10, -5.197356575380159e-09, 5.637893193989502e+03, 5.157386427444450e+03, 6.116774105263687e+00, 8.742179830627012e+03, 1.280354455057578e+03, -3.926356213027817e+02, 4.091410030684129e+03
10472, 8.390992550460328e-01, 4.309555384183291e-01, 2.050173521606119e-02, -3.382600691061180e-10, 5.455031382914775e-11, 1.670624309704899e-10, -1.909346414763935e+02, -3.504985383908331e+02, -2.075300121873572e+01, -8.154523071026304e+02, 4.479018888142132e+02, -6.193368593572750e+01, 9.646140114097788e+02
10473, 1.655905370390109e-01, 1.895867612766241e-02, 4.262043361257813e-02, 2.759214467062855e-11, 6.630204076619056e-10, -9.061670585810653e-10, 2.816183170184502e+03, 4.048393143068316e+03, 7.052700622107477e+01, 4.641726578042571e+03, -1.627500686157487e+02, -1.348003559698390e+03, 2.854334086850166e+03
10474, 7.101339500350191e-01, 2.422921010125396e-01, -4.354834020524046e-03, -6.316865452196648e-10, 3.507313217290777e-11, -6.619141555148967e-10, 1.048996266966979e+03, 8.565033639166754e+02, -7.144249109147907e+01, 1.716463041460949e+03, -3.709524057781286e+01, 2.239732420382022e+02, 8.837309141124571e+02
10475, 6.603977099234952e-01, 9.537721346500646e-01, 3.025483358556032e-02, -8.585650372492088e-10, 4.897696219772406e-10, -1.436380858402256e-09, 4.355987357866521e+03, 4.385844389426651e+03, 8.576597075483821e-01, 8.010978738684962e+03, 1.130414669876210e+03, -5.581157237033163e+02, 4.244846276447564e+03
10476, 7.214293868376215e-01, 8.253608573311380e-01, 5.799811429325376e-03, -9.738497082020535e-10, 6.786123690852936e-10, -2.049865739530749e-09, 2.747984651708494e+03, 3.296955905944043e+03, -1.189663920203654e+02, 4.162274776490333e+03, 3.233675036207940e+02, -6.384250078187082e+02, 1.761845474974398e+03
10477, 6.051459605920989e-01, 6.147231920066540e-01, -1.039315566063681e-02, -1.670139317745595e-09, 5.923376732977680e-10, -3.405332705409495e-09, 3.540346857857673e+03, 3.206446178286698e+03, -1.397559953324700e+01, 5.823374721918123e+03, 2.116847477521124e+03, 2.762151678074436e+02, 4.445065869632743e+03
10478, 2.488997722050413e-01, 3.813184091549403e-01, -7.482164817681599e-03, -9.856357311081078e-10, 8.603986332897792e-10, -4.464793180676040e-09, 4.719171947474000e+03, 5.336097246453867e+03, -5.254725532319206e+02, 9.375055902369550e+03, 1.555275273765241e+02, -1.364820274613656e+03, 5.067016224464945e+03
10479, 7.875944187127470e-01, 1.189164067856592e+00, -4.568609184259408e-03, -1.527906733309554e-09, 5.505162505611117e-10, -2.406493482431051e-09, 4.216137634475469e+03, 3.395233369135326e+03, -1.141491587327644e+02, 6.322180175360401e+03, 1.668585731304500e+03, -6.365425215763125e+02, 4.055285756448272e+03
10480, 3.844499959403048e-01, 2.849830980057002e-01, 3.217637864139314e-02, -1.338658758289844e-09, 6.271489340611489e-10, -3.129678510379330e-09, 4.564330976998409e+03, 4.570467210611057e+03, -4.334331786168805e+00, 9.303587322890982e+03, 8.402517289129104e+02, -3.188965056235395e+02, 4.985450570246742e+03
10481, 1.685741957269660e-01, 4.650668111103632e-02, 4.673914739027089e-02, -7.279864134774017e-11, 7.499687799310574e-10, -1.256488867898809e-09, 3.548910600629790e+03, 3.895440015243758e+03, 1.092472789519681e+02, 7.280272862305264e+03, -2.034029274481533e+02, -1.270720750778140e+03, 4.213577698195525e+03
10482, 7.429334875536704e-01, 1.017697438742528e+00, -3.954397747628458e-03, -8.384307053293789e-10, 3.484211773607436e-10, -3.383863535800144e-09, 4.537510906624298e+03, 4.260078744075218e+03, -1.665611327908523e+02, 8.104766587781079e+03, -3.918809765165943e+02, 4.251276818140136e+01, 3.786992883022446e+03
10483, 9.198914944122659e-01, 3.712852077752326e-01, 7.356429726474909e-03, -2.950009521681751e-10, -2.170429426524635e-11, 1.764476350322476e-10, -9.888343009581901e+02, -8.373421507659020e+02, -8.560301741686956e+01, -1.258747067110020e+03, 3.897771054543292e+02, 1.184795178427004e+02, 8.102881168058093e+02
10484, 5.819943773411098e-01, 2.884579408650684e-01, 4.613204082249406e-02, -5.900207062806254e-10, 1.513611872295890e-10, -6.722965556927123e-10, 2.422463849708718e+03, 2.279723571917063e+03, -4.123091552883537e+01, 4.067156852565707e+03, 8.908045489374887e+02, -1.863132373941243e+02, 2.334521334739655e+03
10485, 8.989084634665239e-01, 1.299462402000047e+00, 2.009602575982695e-02, -3.416041746441868e-10, 2.501490027323264e-10, -4.956099230591202e-10, 2.287613336977809e+03, 2.277823182529143e+03, -9.047747684023024e+01, 3.492983164490117e+03, 6.006646176999593e+02, -2.734921667210131e+02, 1.672172057854571e+03
10486, 5.618368116818753e-01, 7.710665198618673e-01, 1.139797487285347e-02, -1.276592697319125e-09, 9.138127892921460e-10, -3.702984428543482e-09, 4.789869121434762e+03, 5.868769276044523e+03, 1.034359589322924e+02, 9.776011045292305e+03, 8.830687400746486e+02, -8.303896319016594e+02, 5.008618227626437e+03
10487, 8.702920530620371e-01, 1.109922373199191e+00, -5.294212154809951e-04, -3.705210734341219e-10, 1.825222483044322e-10, -1.862662803644875e-09, 2.499519510836215e+03, 2.398431573535889e+03, -1.690186026343063e+02, 4.886866985833872e+03, -1.021865779457618e+02, 1.631083778503806e+02, 2.479479774535997e+03
10488, 7.367291970310905e-01, 1.299594286992852e+00, 1.670344772335109e-02, -2.724670095763177e-10, 3.187047723035518e-10, -1.633543815327305e-09, 5.545604433919678e+03, 6.062048504645358e+03, -2.424997873789595e+01, 9.715301643937708e+03, 1.692644717954827e+02, -2.708314663342547e+02, 3.975856954003489e+03
10489, 1.914039134831386e-01, 1.173647186403140e-01, 2.087447660630062e-02, -5.594561549501405e-10, 6.596225443978483e-10, -4.606113141000276e-09, 5.031802491070014e+03, 5.002755474284821e+03, 3.597821060050404e+02, 1.201953953414443e+04, 2.601957214071950e+02, 1.445861250757771e+02, 7.048860617286499e+03
10490, 3.197466929904645e-01, 3.934111094444501e-01, -1.623112987663963e-02, -1.959520526779095e-09, 8.954699653533898e-10, -6.387269539944910e-09, 4.599392310787041e+03, 4.208361914766032e+03, -1.730745394083060e+02, 5.925568248555733e+03, 8.043060599282506e+02, 3.222190910066988e+02, 2.184556481572839e+03
10491, 7.034884831202006e-01, 9.812662743733800e-01, 3.048619988840222e-02, -8.016314867320349e-10, 3.728058842106333e-10, -1.086285352033473e-09, 3.845177233071021e+03, 3.500436124726357e+03, -2.306849212775863e+02, 6.733975006853397e+03, 1.080765393848714e+03, -4.151831914178455e+02, 3.693348847801302e+03
10492, 5.083822745406793e-01, 1.120024375821249e-01, 5.124622561205990e-03, -9.484488638189037e-10, 4.283865705868922e-10, -2.811296409292902e-09, 2.527349366822739e+03, 2.332104094262782e+03, -7.994446059586946e+00, 4.141957801101054e+03, 4.190429965618264e+02, 2.859768844161258e+02, 1.932008525859802e+03
10493, 3.968562144788690e-01, 4.307532176445256e-01, 4.479642759866233e-02, -7.868463226092189e-10, 3.343932114838457e-10, -1.584604205941728e-09, 5.030113831219147e+03, 5.131437271075151e+03, 1.662723336482583e+02, 1.001729174619363e+04, 1.018236226372749e+03, -3.207988547821254e+02, 5.280055131733659e+03
10494, 8.455199561079821e-01, 1.470283158458552e+00, -1.038820826213271e-03, -3.133791685098039e-10, 5.966021586713901e-10, -4.085372239070552e-09, 7.321839766284730e+03, 7.283259464852122e+03, 2.187376445254267e+02, 1.585333097217365e+04, 2.525260579845904e+02, -8.511842569205594e+02, 8.696284767484387e+03
10495, 9.881455103296030e-01, 1.066225456134822e+00, 9.024300480680560e-03, -2.847443733781847e-10, 1.461585901215815e-10, 1.296699704670766e-10, -2.366592566784078e+02, -3.337994091829783e+02, -3.615390960108069e-01, -7.376260946990733e+02, 2.943178867953742e+02, -2.613261212444440e+02, 8.224861454812541e+02
10496, 3.768899462914256e-01, 7.174820532639936e-02, 3.435614465924226e-02, -8.214968921992134e-10, 1.149355326312085e-09, -2.413618817759839e-09, 3.346307223757115e+03, 3.244243987558675e+03, -3.042908497013426e+02, 6.219935536006684e+03, 5.809739165316539e+02, -8.225839996703182e+02, 3.446991809472775e+03
10497, 9.324949197499750e-01, 5.345172143448300e-01, 8.885785002770829e-03, -2.391334603752655e-10, 2.563677411496224e-10, 8.419687691663883e-10, -1.773427933082819e+03, -1.919656262466161e+03, 6.412027023088167e+01, -4.084595213813222e+03, 3.133271880628428e+02, -4.702247430315817e+02, 2.448491112466055e+03
10498, 6.557310947514597e-01, 3.989787931795638e-01, 4.166526986978791e-02, -4.895411775101020e-10, 1.631579715912227e-10, -4.883169761837835e-10, 1.932785830750577e+03, 1.798528979785660e+03, -3.881431848694683e+01, 3.371432143990513e+03, 7.330297475018201e+02, -2.030497019371006e+02, 2.005263391875132e+03
10499, 7.433995509942189e-01, 7.650739998682383e-01, 3.384064534509289e-02, -4.745790558585487e-10, 1.984881367845591e-10, -5.664554111806609e-10, 2.184341831398445e+03, 2.107143648225301e+03, -2.333525097344538e+01, 3.725665004083926e+03, 7.697451248621322e+02, -3.078406834219214e+02, 2.136370277696852e+03
10500, 6.135709221030559e-01, 1.470755557715484e-01, 1.461816485683735e-02, -8.519778137581876e-10, 2.565209552712830e-10, -1.235129731274825e-09, 1.967194455880539e+03, 1.930816410768836e+03, -1.295746865055733e+02, 2.917966135492236e+03, 4.261957359187542e+02, -1.623469766634648e+01, 1.239340661113655e+03
10501, 2.953521458456293e-01, 6.517936571516408e-02, 1.159724573991265e-03, -1.098457986651408e-09, 1.371675748924958e-09, -4.783546473668534e-09, 3.981155784274861e+03, 3.771615787258473e+03, -3.177786668060734e+02, 7.278531149798991e+03, 5.453511309902341e+02, -7.567767669453237e+02, 3.810620680700406e+03
10502, 4.361138605934599e-01, 4.581638260253021e-01, 2.155119732326470e-02, -1.520022689430537e-09, 8.062508636404581e-10, -3.402383793183147e-09, 4.766592953486129e+03, 4.933597030019656e+03, 2.321859299275619e+01, 9.087946988836198e+03, 8.542943058249567e+02, -3.774944348791159e+02, 4.538599680246949e+03
10503, 4.137931946653033e-01, 1.758258962321959e-02, 3.580247741039348e-03, -2.677350970905603e-10, 5.025260335525219e-10, -8.923147586726118e-10, 2.162513037347416e+03, 3.422847832348858e+03, -4.886833941715728e+02, 2.460665289148213e+03, -5.002520564424261e+01, -1.440160847884668e+03, 2.871880681669886e+03
10504, 5.614922419918117e-01, 8.479106599115102e-02, -1.215866513607195e-02, -6.674673369941236e-10, 3.894997419927233e-10, -1.883005286588046e-09, 1.384186362521919e+03, 1.268053888497291e+03, -2.005318304045910e+02, 1.178574692337084e+03, 9.732093634899228e+01, -2.514132530010944e+02, 6.087394588967724e+02
10505, 7.233934544777160e-01, 3.205917515480625e-01, -2.897608407680458e-03, -7.030633848994929e-10, 1.195482643538931e-10, -4.797524065869818e-10, 8.275669512761373e+02, 7.807910409793260e+02, -2.780470642352995e+01, 1.196698655401694e+03, 1.656026914341255e+02, 1.236802646601478e+02, 5.349721069199833e+02
10506, 2.548533108993902e-01, 1.810564026980484e-01, -1.164227382806117e-04, -1.567562206264875e-09, 1.163170428795318e-09, -6.550660282591089e-09, 5.468679453915526e+03, 6.470433652266666e+03, -3.374235871168684e+02, 1.072869635466882e+04, 5.172498941683650e+02, -6.193128750311282e+02, 5.069210683964003e+03
10507, 4.648329150679716e-01, 4.578427334476749e-01, -1.691839255072696e-02, -1.413081969153924e-09, 1.671807413317256e-09, -6.236378000261194e-09, 5.511681973603814e+03, 5.013650010077133e+03, -4.122006453830047e+01, 9.215780097076002e+03, -3.265108377795771e+02, -1.311965033803220e+03, 4.615389476417328e+03
10508, 9.589424156255199e-01, 1.263740142609087e+00, 1.435000297701007e-02, -3.831401719741314e-10, 1.413794618773677e-10, -1.957073163969445e-10, 1.103829166694427e+03, 9.670031428719184e+02, 5.048326929727853e+01, 1.493807313907898e+03, 4.166717673519751e+02, -1.989414901575251e+02, 9.334818645478807e+02
10509, 7.769866070072463e-01, 9.874312883757077e-01, 3.023819809184555e-02, -5.242998230334280e-10, 1.854608275569648e-10, -7.242434990369287e-10, 2.672386391897846e+03, 2.661490230519583e+03, -7.430331929024969e+01, 4.803971506469039e+03, 8.782909137606418e+02, -2.063566046298485e+02, 2.650565374514157e+03
10510, 1.032301883512715e+00, 1.477779297367662e+00, 6.008206045584259e-03, -4.279429616345225e-10, 4.830058359612941e-12, -4.341724509374746e-10, 1.553992890044001e+03, 1.413166996283037e+03, -6.932816817935802e+01, 2.604629008427330e+03, 6.574230119514310e+02, 2.198081627099796e+02, 1.651546570888949e+03
10511, 5.161560619082924e-01, 4.049923612704653e-01, 4.996960355242344e-02, -5.840120790376150e-10, 2.345787530023656e-10, -9.152290716724801e-10, 3.546222380497513e+03, 3.461724219180041e+03, -1.971891390802580e+00, 6.172500816973509e+03, 9.238943299687478e+02, -3.074575651789571e+02, 3.157647604028080e+03
10512, 7.305022828666115e-01, 3.857424395783171e-01, -4.712630277816383e-03, -8.293712154925944e-10, 1.643665243111225e-10, -3.926062498496542e-10, 8.110416068038189e+02, 7.011726171442531e+02, -1.498842555218462e+01, 1.302260034956232e+03, 2.127586655389545e+02, 2.538666774428199e+02, 7.982192613458581e+02
10513, 9.580669104111617e-01, 8.253742365425736e-01, 8.648143305136944e-03, -3.052640684390024e-10, 3.679969591830537e-11, 3.744022823371247e-10, -7.668816800901910e+02, -7.747297717658690e+02, -5.078852691469439e+01, -1.575004200500865e+03, 3.532671892200779e+02, -4.928571220045973e+01, 1.017939177716755e+03
10514, 9.041328618079864e-01, 1.482170085496175e+00, 7.591896131857040e-04, -1.415807561492791e-09, 9.242102249467334e-10, -2.254404980852896e-09, 4.189324815014118e+03, 4.890529116872418e+03, -1.714078304445623e+02, 7.880386430290401e+03, 1.950865358979594e+03, -3.262260473366983e+02, 4.832439779154050e+03
10515, 5.733393367448177e-01, 9.912769238123947e-01, -6.461574111718174e-03, -6.214810574737104e-10, -1.121282766281748e-10, -3.125141331838578e-09, 3.813963819822802e+03, 5.022213723800216e+03, 4.750550556105802e+02, 9.165116524042040e+03, -1.096105492602473e+02, 1.380696217646428e+03, 5.482810850710909e+03
10516, 7.439112262273546e-01, 7.264776996693042e-01, 3.218505109637075e-02, -5.298577077834750e-10, 2.025951033276181e-10, -5.299651612237426e-10, 1.901505235047352e+03, 1.774802945005615e+03, -1.009572117573994e+01, 3.169396090345291e+03, 8.030707318181787e+02, -2.719051084837355e+02, 1.985224446218858e+03
10517, 9.627044826916837e-01, 7.431630743354629e-01, 7.751206423114665e-03, -2.163432795602584e-10, 1.185499094143661e-11, 4.149665986020560e-10, -9.721249328069894e+02, -1.079921465418511e+03, -2.975158097792581e+01, -2.275397397119785e+03, 6.012499161464878e+01, 3.762066812244732e+01, 1.259919605986827e+03
10518, 7.829937146915624e-01, 8.298269907645480e-01, -2.932826743827218e-03, -5.082555802584067e-10, 2.960007699660430e-10, -1.606319380062381e-09, 2.345141162219628e+03, 2.231529832912006e+03, -1.563573937027943e+02, 4.009261176191636e+03, -3.593981454116420e+02, 1.294086044624468e+00, 1.852596785707204e+03
10519, 3.891229524012148e-01, 5.822655971043933e-01, -1.290329715629384e-02, -2.758936039150253e-09, -2.842523536366959e-10, -1.225323250436775e-08, 1.072316857221401e+04, 9.740643924512477e+03, 1.362094971376995e+03, 2.304223790964795e+04, 2.631644308771251e+03, 4.768155692258668e+03, 1.610518869303589e+04
10520, 7.525999841686305e-01, 8.504805221572516e-01, 3.204206757864893e-02, -5.934277799011139e-10, 2.192002082987046e-10, -6.770798280261362e-10, 2.479848940821145e+03, 2.285903266569198e+03, -7.830915744493035e+01, 4.273253151384362e+03, 9.595912925372591e+02, -2.612625243662332e+02, 2.566584152979349e+03
10521, 7.852665160840531e-01, 4.084052180752986e-01, -1.840111927288787e-03, -6.473854415871767e-10, 1.414393757913742e-10, -2.693059389970595e-11, 2.422464290549875e+02, 1.674235857994426e+02, -5.463088248956462e+01, 2.019160917938070e+02, 1.924598813670405e+02, -4.074668723551583e+01, 3.595333903927790e+02
10522, 7.593370376586392e-01, 9.048271728002809e-01, 3.257290656467075e-02, -4.737860589045957e-10, 2.211659102981004e-10, -6.292642195754630e-10, 2.448180568898462e+03, 2.421609854959410e+03, 1.013827033022368e+01, 4.214134807458264e+03, 7.121322453268062e+02, -3.271315877523683e+02, 2.238073641689077e+03
10523, 1.697698711319933e-01, 1.739210504985884e-01, 4.504935025643879e-03, 5.371958130010630e-11, 5.699348857103209e-10, -4.000050240609340e-09, 3.796059541061204e+03, 5.049806157061920e+03, 4.403259148458001e+02, 9.340425228788561e+03, -1.192601275266854e+03, -6.303824265294314e+01, 5.497373676292354e+03
10524, 6.854173516800346e-02, 1.998852074723413e-02, 2.326078727028581e-02, 3.522809117372035e-10, 3.067755229667503e-10, -3.431624241637641e-10, 1.669945282144082e+03, 1.676591358845847e+03, 3.929382610277497e+02, 1.975858861580375e+03, -6.029907338798791e+02, -4.639974547719910e+02, 1.513760213436786e+03
10525, 2.929616971058473e-01, 2.011177498621783e-02, -2.063576528387943e-02, -2.381320441456118e-10, 8.939845344133593e-10, -2.050125936665078e-09, 2.638793241839388e+03, 3.748675232856574e+03, -5.883105969756001e+02, 4.070622008138359e+03, -1.665857732155604e+02, -2.975158956206815e+03, 5.419326864768136e+03
10526, 2.443512090019343e-01, 1.235242504103738e-01, 5.064268792121748e-02, -4.588786319186813e-10, 4.999649629011344e-10, -1.730784105106500e-09, 4.871437259412281e+03, 4.902442422489744e+03, 1.702471710227473e+02, 1.033325540891507e+04, 4.517599543609359e+02, -5.582482702912005e+02, 5.594391040731463e+03
10527, 5.711234545869696e-01, 1.743979720175437e-01, -1.010626431398483e-02, -1.071483396144021e-09, 5.007310396751057e-10, -2.092352918299762e-09, 1.865048878077180e+03, 1.717072171080648e+03, -2.777365158500729e+02, 2.556740721276310e+03, 8.894862771338571e+02, -4.851718429404344e+02, 1.978341318594779e+03
10528, 7.967990801769831e-01, 9.397658821816666e-01, 2.889879626474928e-02, -5.101781721760678e-10, 2.199869106076545e-10, -6.386769302079444e-10, 2.455542975945245e+03, 2.124016006380986e+03, -1.015386564541984e+02, 4.195682166869552e+03, 8.759635677148564e+02, -3.840983710471675e+02, 2.547618318352329e+03
10529, 2.866975235611503e-01, 3.495310443808210e-01, 9.399913722982852e-03, -1.454003058744536e-09, 7.552986384526312e-10, -5.365907677565303e-09, 6.384623008157662e+03, 6.132623558492113e+03, 8.066737668445137e+01, 1.319248493766127e+04, 1.008571873232814e+03, -2.749016859780426e+02, 7.171049532092461e+03
10530, 2.160220549363918e-01, 2.530975928524092e-01, -1.452358833476409e-02, -2.315304905983664e-09, 8.167032509340838e-10, -1.037895318037954e-08, 8.974464977904827e+03, 8.939232833707385e+03, 5.846095849865287e+01, 1.922181598755369e+04, 1.284870014474511e+03, 8.065480431109492e+00, 1.050398025686296e+04
10531, 8.992593657013375e-01, 1.068979592355549e+00, 2.015247676499946e-02, -4.290932480311312e-10, 1.686755042589249e-10, -3.617301708231082e-10, 1.528691398942274e+03, 1.347443710364433e+03, -7.261887944578946e+01, 2.472105779244833e+03, 8.797566232005520e+02, -3.279414785945876e+02, 1.937587568776549e+03
10532, 5.323583424396958e-01, 6.386430094325619e-01, -1.299064154813817e-02, -2.164002050546339e-09, 9.784149347662306e-10, -4.998022203383933e-09, 5.011757366386822e+03, 4.292559509014810e+03, -3.535621951959251e+02, 7.827260117415339e+03, 2.273886731681828e+03, -1.227365613059989e+03, 5.556544355316531e+03
10533, 4.942861599983970e-01, 4.729151727005508e-01, -1.496301011365931e-02, -1.773068882225582e-09, 1.033242431400242e-09, -4.348353125523630e-09, 3.534459724477556e+03, 3.537269568074969e+03, -5.998882850792361e+01, 5.580952768283452e+03, 1.010610458317879e+03, -3.895822925183970e+02, 2.777140779676829e+03
10534, 3.746916191264842e-01, 2.658313685410482e-01, 5.295412850551778e-02, -7.057148425065418e-10, 3.857893485875633e-10, -1.408131520808226e-09, 4.657356182861819e+03, 4.681818797644779e+03, 1.516258738326042e-01, 9.124977492146223e+03, 9.599469304466483e+02, -4.731782961007415e+02, 4.825674707240884e+03
10535, 5.263163819027351e-01, 8.046820734792399e-01, 2.971381906960449e-02, -5.549665516538104e-10, 6.060599705464812e-10, -2.034597212910079e-09, 5.355849040733333e+03, 5.978179182709121e+03, 1.484169459436773e+02, 1.147530520267654e+04, 3.211416262668976e+02, -5.025383004276190e+02, 5.929572441041884e+03
10536, 6.177713538377790e-01, 1.011476428239428e+00, 2.649016080142789e-02, -2.986019075932400e-10, 4.211671812078217e-10, -2.127743777086852e-09, 5.693218024511058e+03, 5.735342011086062e+03, 4.406009900375980e+02, 1.241895342619133e+04, -7.282716562152989e+01, -5.286272549074705e+02, 6.811065683518965e+03
10537, 7.792567603098717e-01, 6.484827727938176e-01, -3.766000095563847e-03, -7.333924714127801e-10, 2.374370737225718e-10, -5.849603966682646e-10, 9.249864269735310e+02, 7.427213231128145e+02, -1.053722767327439e+02, 9.034385842869544e+02, 1.886405508033442e+02, 5.935841241209500e+01, 4.247274932595088e+02
10538, 9.174612482127117e-01, 1.558843206197591e+00, 1.534737785209849e-02, -1.217550369333553e-09, 1.297899261351847e-09, -1.334912810791597e-09, 5.352123270079132e+03, 4.924859328346001e+03, -3.735832947729829e+02, 8.492732113180977e+03, 2.392960933174669e+03, -1.673269462774295e+03, 6.114312626753743e+03
10539, 8.819261756029217e-02, 7.733598673389695e-02, -9.443445263712730e-03, 5.683789020841537e-11, 3.164914900695444e-10, -2.639990375082418e-09, 2.636873261495224e+03, 3.164079285102033e+03, -5.417121110994974e+02, 5.514643587629326e+03, -7.111028958076605e+02, 7.292052650603667e+02, 3.321883406412614e+03
10540, 6.587537768376349e-01, 2.063809047934006e-01, -6.502679335585078e-03, -7.781759696751471e-10, 1.534519861438931e-10, -1.238167223059980e-09, 1.494420491018684e+03, 1.363602159861387e+03, -1.227713094991774e+02, 2.915442827059538e+03, 3.704789290965600e+02, 3.036082632874345e+02, 1.719252719196093e+03
10541, 9.063000801740736e-01, 9.627845367020826e-01, 1.839118793431997e-02, -3.921331929543719e-10, 9.082586857047473e-11, -1.267240012234426e-10, 7.597977165818480e+02, 5.712287678137344e+02, -3.721533320878598e+01, 8.879883349686600e+02, 5.078401713662592e+02, -1.327512607003943e+02, 9.523089871061439e+02
10542, 4.864737785508963e-01, 7.077468250887285e-01, 7.143348075615304e-03, -1.400180592716796e-09, 5.159478826782439e-10, -4.244168485932434e-09, 5.298752163293717e+03, 5.948784951217854e+03, 2.590894301445171e+02, 1.016834045529623e+04, 4.668761657249685e+02, -3.730805724149422e+02, 4.716238978978442e+03
10543, 3.704927908180626e-01, 4.149063342075415e-01, 4.316617699494862e-02, -7.403011064653097e-10, 3.098596538666052e-10, -1.797229557693619e-09, 5.156392653078676e+03, 5.387992979574939e+03, 2.053611448686843e+02, 1.098707529375462e+04, 8.713228345262979e+02, -3.157985649419288e+02, 5.950077899528762e+03
10544, 9.235618662438071e-01, 1.448450016837722e+00, 1.689388882436578e-02, -5.253689570098128e-10, 3.177582823159085e-10, -7.433638424905099e-10, 2.909492659011074e+03, 2.481967188508115e+03, -1.187611301337088e+02, 4.255445758898630e+03, 8.895271327589152e+02, -4.923327482070344e+02, 2.390200784460609e+03
10545, 3.813120498469327e-01, 3.830078827365532e-01, -1.831607092161149e-02, -1.770747451390866e-09, 1.405552624491348e-09, -7.031125532361483e-09, 4.724809369371798e+03, 5.065292828547245e+03, -2.638244469423528e+02, 7.266788286024779e+03, -4.386663324527082e+02, -9.140897330579824e+02, 3.000809659796696e+03
10546, 6.372758502577385e-01, 1.116365623829806e-01, 4.223175451914497e-02, -3.728900667452347e-10, 1.210556346213557e-10, -4.135978334694874e-10, 1.556409906378513e+03, 1.402415553217907e+03, -6.852305596107030e+01, 2.711608498501660e+03, 6.061423578342246e+02, -1.300954372100903e+02, 1.644134568045020e+03
10547, 4.157232909734886e-01, 1.269593345789737e-01, 5.745662952050423e-02, -5.286828008060362e-10, 4.006881167984141e-10, -1.009142475926923e-09, 3.567377194428734e+03, 3.384697240297095e+03, -6.846012143835881e+01, 6.470620757060994e+03, 7.919730904161645e+02, -5.193232686720576e+02, 3.420142396907851e+03
10548, 6.930689843675156e-01, 5.072820319395046e-01, 3.647587501644749e-02, -5.186795474921187e-10, 1.872529347636657e-10, -4.540714089420008e-10, 1.698267542420402e+03, 1.665191761712293e+03, -3.411520600190988e+01, 2.873496094276014e+03, 7.234495161960144e+02, -2.523268473187718e+02, 1.784870701523522e+03
10549, 8.558478666669231e-01, 1.026161290964438e+00, 2.359894028673666e-02, -3.685359029131403e-10, 1.463722126524325e-10, -3.982232476581032e-10, 1.779713739507991e+03, 1.665171040927987e+03, -4.533996147160026e+01, 2.761347538813868e+03, 4.635988502113958e+02, -1.526984165030851e+02, 1.345382164073052e+03
10550, 3.376626219676180e-01, 1.537710033349420e-01, 5.418991461407960e-02, -6.830219978917778e-10, 4.453457290614745e-10, -1.493761598253041e-09, 4.442034245035478e+03, 4.358548725411935e+03, 2.264675519777446e+01, 8.439039768384118e+03, 8.342932395743424e+02, -4.791469536161151e+02, 4.369798019767208e+03
10551, 4.230512718411192e-01, 2.094437203387685e-01, 2.221040454307108e-03, -1.668048742287601e-09, 8.787134789133775e-10, -4.231514343944414e-09, 4.267667542933717e+03, 3.834451647642392e+03, -3.999012387242685e+02, 6.680732856168248e+03, 8.353338298548906e+02, -2.689217226276449e+02, 3.137834599009460e+03
10552, 2.927649516709443e-01, 2.486709745862140e-01, 2.243255957669833e-02, -1.343157959775764e-09, 9.816323847312327e-10, -4.079274361867277e-09, 5.563525217124296e+03, 5.945369880741144e+03, 3.099464024172423e+02, 1.076380297510217e+04, 6.088172594872956e+02, -6.158314355833575e+02, 5.266964643004913e+03
10553, 9.115960384512043e-01, 1.337243988668953e+00, 1.775106698355376e-02, -4.236068403088598e-10, 2.418600477609891e-10, -6.919797727107179e-10, 2.721871813492001e+03, 2.467974511766158e+03, -4.109132374167443e+01, 4.212002960707127e+03, 5.947476537524402e+02, -1.028579337656375e+02, 1.939400428593364e+03
10554, 8.822322769799621e-01, 9.166682995738473e-01, 5.925767280392791e-04, -4.973457179735671e-10, 2.988646051981316e-11, -2.778529588172002e-10, 7.331583072806957e+02, 7.061464877977983e+02, -5.324865696961377e+01, 1.211407711315557e+03, 2.602058373001053e+02, 3.729393131895508e+02, 9.334073082477450e+02
10555, 7.164826698484772e-01, 8.985116312828721e-02, 8.344954016408692e-03, -5.173447276465584e-10, 7.944006918970638e-11, -2.633146620115223e-10, 5.388949985612182e+02, 5.326655750990728e+02, -1.054378613952858e+02, 8.894365896678257e+02, 1.594140439788654e+02, -5.969444185530346e+01, 4.953605798703506e+02
10556, 9.243963594876082e-01, 1.306739996696183e+00, 2.497979796827077e-03, -4.706786321917792e-10, 3.009771228940224e-10, -6.476147623891937e-10, 1.464528059613658e+03, 1.551394156156935e+03, -1.658378195793296e+02, 1.990846200968585e+03, 3.900563749152484e+02, -2.684797427336470e+02, 9.970054628677243e+02
10557, 5.771218962905954e-01, 1.129569442480187e-01, -1.234427364064405e-02, -7.116002483785359e-10, 4.695225617888714e-10, -2.316865965968562e-09, 1.889817503234385e+03, 1.633992843954226e+03, -3.268909109409157e+02, 2.583513724712027e+03, 1.766451089950022e+02, -4.576401806675910e+02, 1.329139719871063e+03
10558, 2.741679475537094e-01, 2.135649506976709e-01, -2.112566667914724e-02, -1.588070609914142e-09, 3.626236703416195e-10, -9.025748580785374e-09, 6.885182988080503e+03, 6.933149262673517e+03, -1.301801374352325e+01, 1.202018520546819e+04, -7.929388310479607e+02, 1.491644081784764e+03, 5.889483184902301e+03
10559, 8.919020206042578e-01, 1.219271219215613e+00, 1.316238109303956e-03, -6.778947814707300e-10, 4.397898964533462e-10, -9.409225019138729e-10, 1.962425675239850e+03, 1.802292314362893e+03, -7.626945283328479e+01, 3.549131277795060e+03, 5.528696346614083e+02, -5.984628652520521e+02, 2.192323163600836e+03
10560, 8.497524974178756e-01, 1.252979919160704e+00, -2.382717013353235e-03, -9.157828575229700e-10, 1.665128471211471e-10, -1.408649385623590e-09, 2.435989945821899e+03, 2.116823536915084e+03, -1.034280848439662e+02, 3.252186023179941e+03, 1.078390832737657e+03, 2.414953969956420e+01, 2.133346590605415e+03
10561, 7.829710128737476e-01, 1.269653358634179e-01, 2.548470476632682e-04, -5.610082715290875e-10, -1.730816301975190e-11, 2.858921252877086e-10, -2.838760125098390e+02, -3.307562779546279e+02, -3.154274227729065e+01, -8.270071014953843e+02, 3.889812756482060e+02, 2.202025289093934e+02, 9.349324055181459e+02
10562, 9.436986502275024e-01, 6.198544120908213e-01, 7.022541005606307e-03, -6.371810046725931e-10, 2.780022861874468e-10, 6.341323869520496e-10, -1.633397038261721e+03, -1.540153794437965e+03, -7.017984731852953e+01, -3.207328482008487e+03, 9.575740632515152e+02, -4.900817663190915e+02, 2.473635638343902e+03
10563, 6.915264303087405e-01, 1.030513501481027e+00, -5.457334605609144e-03, -2.087208333738356e-09, 5.478577051992963e-10, -3.576282453651451e-09, 4.531980095403964e+03, 3.860538387750596e+03, 2.605536902232700e+02, 6.801157692072086e+03, 2.279008126636606e+03, 3.253386728093712e+02, 4.819383359813023e+03
10564, 5.840714949974960e-01, 1.275311289328496e-01, 4.611124699603728e-02, -4.333729010560170e-10, 1.727204931761016e-10, -6.095702528998895e-10, 2.090061580531267e+03, 1.896709330984312e+03, -9.028235535336431e+01, 3.644661901911516e+03, 6.328324734548324e+02, -1.853139597350988e+02, 2.020806779824625e+03
10565, 6.616213456815702e-01, 9.046957011521478e-01, 3.419419757323119e-02, -6.688573518051989e-10, 3.147827427412569e-10, -1.158186298964769e-09, 3.908012098819552e+03, 3.976538104891540e+03, -1.660668929266595e+00, 7.172173598920342e+03, 8.162825776326016e+02, -3.179949492964743e+02, 3.569045886215280e+03
10566, 7.692951486282846e-01, 9.804653124293439e-01, -5.856888830189293e-03, -8.984805025869454e-10, 1.990303866133648e-10, -2.089829831862213e-09, 2.680700483295947e+03, 3.082596464554592e+03, -1.387450990775266e+02, 3.960797709627418e+03, 4.980190380128778e+02, 5.894153045642033e+02, 1.769111091966209e+03
10567, 5.529906306953912e-01, 1.228853833831457e-01, -1.217425003775541e-02, -5.436803100118598e-10, 2.588618621578567e-10, -3.349919214815313e-09, 3.034406362030150e+03, 3.039321727316511e+03, -8.567783463945440e+01, 5.820480378197080e+03, -6.311652445341837e+02, 2.362353851132606e+02, 3.022100305446555e+03
10568, 4.236218045888238e-01, 6.708901252325680e-02, -1.802407148538483e-02, -1.002989766747181e-09, 4.838286742060379e-10, -3.659443931057418e-09, 2.564934673895141e+03, 2.974878877824551e+03, -5.948278743888065e+02, 2.711047211960135e+03, 7.389994095674625e+02, -4.022956610373445e+02, 1.820673368607139e+03
10569, 8.979332328556151e-01, 1.422980309871163e+00, 1.786633453629936e-02, -6.142555725280143e-10, 3.952747495063426e-10, -7.431578658801514e-10, 2.910749005840377e+03, 2.923582594929536e+03, -5.737350458747388e+01, 4.539948562396008e+03, 5.687268561955714e+02, -3.995272675641445e+02, 2.023027285772230e+03
10570, 6.695716827789566e-01, 6.620695897098999e-01, 1.178286050369726e-02, -9.554014347152262e-10, 5.698151711222169e-10, -1.798027097064506e-09, 2.955475783196808e+03, 3.131526035658630e+03, -2.385333074847379e+02, 4.493995367071767e+03, 3.321711362954766e+02, -5.480986315495009e+02, 1.878862202936027e+03
10571, 5.618282982121516e-01, 3.650292074277328e-01, -1.362959503351741e-02, -1.341213004271074e-09, 5.377027489965214e-10, -2.805104385899526e-09, 2.291794088956769e+03, 2.167957967567021e+03, -2.339071415880982e+02, 4.107164581335885e+03, 1.176298916152306e+03, -3.191005425612146e+02, 2.855934941852296e+03
10572, 8.270794640777034e-01, 1.637603207733922e-01, 1.809017333036345e-02, -4.028194439694862e-10, -3.194101564341662e-11, 3.429707275232277e-10, -8.468810840030166e+02, -9.220103747397484e+02, -8.395355096224854e+01, -1.893831960450392e+03, 5.151647678603061e+02, 2.248120600390572e+02, 1.411397912902331e+03
10573, 4.662477326821500e-01, 6.983532461286677e-01, 3.244586280267037e-02, -5.173047979879458e-10, 1.857045236107498e-10, -1.714687912523804e-09, 4.816790814933988e+03, 5.586872731127641e+03, 2.317219183640643e+02, 1.085898743745124e+04, 5.059986813997177e+02, -4.285713706773870e+01, 5.777791894088875e+03
10574, 6.505385525004651e-01, 1.021045737297195e+00, 2.722691148389308e-02, -6.742497520684670e-10, 3.644108315352610e-10, -2.146013270237612e-09, 5.252682823565416e+03, 5.384216483597328e+03, 1.210981080235171e+02, 1.207533935656103e+04, 7.587595047263601e+02, -2.081917027802253e+02, 6.897079661326347e+03
10575, 3.277417676986104e-01, 3.239793306179142e-01, 6.677197186474151e-03, -1.961663260767184e-09, 9.021437592589691e-10, -5.907036250347905e-09, 5.782825037837146e+03, 5.838818168327311e+03, -1.437518409768317e+02, 1.183478265775516e+04, 1.006725699606606e+03, 2.576072273623252e+01, 6.276538276296769e+03
10576, 7.271511643197667e-01, 8.480876032972808e-01, 3.380358704657159e-02, -5.554183499101793e-10, 2.593411401026042e-10, -8.768509005993650e-10, 2.912220328124176e+03, 2.790868581055328e+03, -9.137437663411504e+01, 5.445433386790776e+03, 8.972574418188261e+02, -3.402315897249464e+02, 3.086557574748343e+03
10577, 4.568114854639039e-01, 7.883317226162159e-01, -7.431186651636203e-03, -5.643006199607604e-10, -6.942134982284449e-11, -2.772978115243608e-09, 3.188286104663114e+03, 4.458888672276582e+03, 3.052493459381797e+02, 7.561020827467372e+03, -9.261394759694114e+01, 8.730401440008427e+02, 4.215577383125931e+03
10578, 6.512730158384955e-01, 1.619567513426460e-01, -7.591454921426023e-03, -5.558341808570224e-10, 7.097870143925650e-14, -1.664291914788659e-09, 1.509362864218839e+03, 1.446325375483591e+03, -6.970195396725062e+01, 2.906844334255288e+03, -3.444201513584226e+02, 5.556025927732229e+02, 1.827992187877519e+03
10579, 4.710786807644305e-01, 2.326659305803893e-01, 7.019781681895539e-03, -1.287631629914437e-09, 6.648745370477715e-10, -3.020292273634464e-09, 3.455496029537503e+03, 3.044384721194700e+03, -5.367898816857739e+01, 5.317098310039449e+03, 1.449282338571085e+02, -2.063486438817711e+02, 2.144597276059830e+03
10580, 5.552680599681076e-01, 6.555527063267199e-01, -1.184479392166444e-02, -1.554034344821387e-09, 6.269791548249440e-10, -4.472688646423747e-09, 4.238130234931786e+03, 3.523138806579972e+03, -1.691040266499115e+01, 3.992095087653564e+03, -7.384734122493096e+01, -4.631376431125319e+02, 1.027881617168009e+03
10581, 1.002804837277802e+00, 1.169189001595457e+00, 8.542752473767477e-03, -2.375833267312583e-10, 6.011690224854962e-11, 1.050826443621294e-10, -1.615200444181013e+02, -1.870347308896150e+02, 3.158131213539578e+01, -5.681860842417150e+02, 2.620286811208889e+02, -6.511816274154856e+01, 6.142822340274791e+02
10582, 7.645481557635118e-01, 6.821487345533093e-01, 3.024159431040811e-02, -5.230849226043489e-10, 1.713535021926793e-10, -3.403578772868436e-10, 1.549730214512166e+03, 1.379459697704251e+03, -3.989752964074151e+01, 2.322074045970754e+03, 7.965247825777710e+02, -2.201199988725724e+02, 1.676455634464869e+03
10583, 5.737550428274074e-01, 9.204614419117055e-01, 2.764275139971098e-02, -7.199594220669279e-10, 2.989268805983705e-10, -1.862867948948366e-09, 5.495146006621878e+03, 5.630676648244676e+03, 3.259052492257176e+02, 1.137533702250506e+04, 8.197912252778440e+02, -3.025074060218474e+02, 6.033855875183400e+03
10584, 8.574155058472656e-01, 7.383524346529698e-01, 1.506805466810802e-03, -5.709188965124332e-10, 1.759895143464864e-10, -9.833948643293544e-11, 4.239887850579407e+02, 2.485079513422984e+02, -1.606928886002140e+01, 3.888242494267524e+02, 2.779060316364294e+02, -4.712105538000490e+01, 5.147722802476944e+02
10585, 7.749105854149629e-01, 1.309216007409314e+00, 1.999101528057414e-02, -9.419658670779147e-11, 3.370338884473329e-10, -1.361912452180037e-09, 3.520179312714803e+03, 3.975269724967797e+03, 2.462296408427144e+02, 8.176107843338788e+03, -1.275262472013994e+02, -2.158596430414459e+02, 4.487356841942395e+03
10586, 5.190290726299019e-01, 1.134503222789787e-01, -1.464727658194421e-02, -7.494119324252368e-10, 4.560872040336100e-10, -3.095641820670627e-09, 2.388777314778260e+03, 2.219094551294243e+03, -1.330011986861648e+02, 3.326142549961929e+03, -2.193216606510001e+02, 3.894257990263260e+02, 1.311042270769407e+03
10587, 4.921741586735123e-01, 7.859308304327077e-01, 2.834250070269131e-02, -1.655858267494042e-10, 2.850525628939209e-10, -1.808166105688370e-09, 5.146158496763435e+03, 5.531729676136163e+03, 4.409824683379896e+02, 1.126662705755814e+04, -2.172019450252858e+02, -1.345863904407345e+02, 6.002348824679241e+03
10588, 6.758390677897529e-01, 1.054769467412327e+00, 2.679027983834665e-02, -9.686958909126425e-10, 5.306900556653726e-10, -1.953150241432017e-09, 5.304030646357082e+03, 5.950104346514900e+03, 9.739285791971538e+00, 1.096870034498906e+04, 1.331248358758399e+03, -4.255500583240065e+02, 5.891207822156724e+03
10589, 6.457673584596012e-01, 3.595299308789285e-01, 4.326315416307693e-02, -4.536031180347277e-10, 1.648960719504087e-10, -4.557464170697797e-10, 1.922174303844058e+03, 1.846682831256641e+03, -3.613434281401573e+01, 3.212076441084919e+03, 7.559889598714657e+02, -2.875825606780006e+02, 1.932229096168127e+03
10590, 4.062708175613743e-01, 4.336739618090464e-01, 1.016765070976886e-02, -1.739883745111463e-09, 8.540482134457742e-10, -4.608818043707032e-09, 5.032395680336885e+03, 4.715008709757971e+03, 1.765259323730979e+02, 9.389287953065032e+03, 7.295288466001767e+02, -2.592803157024878e+02, 4.728410481295975e+03
10591, 6.409735540068252e-01, 5.382602321839111e-01, 4.028387105684343e-02, -6.346444353339029e-10, 2.234037676691935e-10, -6.871538656753945e-10, 2.574052373093671e+03, 2.369171921393433e+03, -2.993810751168709e+01, 4.158760717948771e+03, 8.334130083756950e+02, -2.963039424906789e+02, 2.286429744533935e+03
10592, 7.577724473928773e-01, 4.960367562243921e-01, 3.166974762964177e-02, -4.562503184219179e-10, 1.158625519210852e-10, -1.671795657832949e-10, 9.785982842627325e+02, 8.254329365463011e+02, -5.573870587198678e+01, 1.305986145767459e+03, 6.223740776254970e+02, -1.045497848074316e+02, 1.176838039517121e+03
10593, 2.871629437407597e-01, 3.894074954956858e-01, 6.094272783245880e-03, -6.390826495517943e-10, 4.084935575384940e-10, -4.556308379501011e-09, 4.449721993967115e+03, 5.654516826224314e+03, 3.776900849780101e+02, 1.205413687485893e+04, 1.824760801378795e+02, -2.797495010480433e+02, 7.132988001397016e+03
10594, 4.207206311355710e-01, 6.410876277649830e-01, -1.198340595572430e-02, -3.547355045441481e-09, 1.710835832894834e-09, -8.639426684919479e-09, 9.801026613281163e+03, 7.663993338666090e+03, -6.173326213965898e+02, 1.691139796358940e+04, 6.086980413776643e+03, -2.708509081854801e+03, 1.430471065193096e+04
10595, 1.010070136784471e+00, 1.280641896084543e+00, 7.312675132529985e-03, -3.881482366621679e-10, 4.084560195553756e-11, 1.009663907639657e-11, 5.239921459384639e+01, 4.800908734079749e+01, -4.194306515297678e+01, -1.023897360885066e+02, 4.723697210116151e+02, -2.204629322301298e+01, 8.363220602994156e+02
10596, 5.366652073649600e-01, 5.333218298439988e-01, 1.409407444787892e-02, -1.514955889216581e-09, 7.130659793538901e-10, -3.005875359189894e-09, 3.697499336778287e+03, 3.704596771908659e+03, 1.215918345568145e+02, 7.353489100511782e+03, 6.547843879899788e+02, 8.238559576428422e+01, 3.832924085088477e+03
10597, 5.917195709928018e-01, 7.587857197153592e-01, 1.745742811976341e-02, -1.204703675553956e-09, 7.409691036094333e-10, -2.447908291196567e-09, 4.264556423614413e+03, 4.319252992389943e+03, -3.534941711203493e+02, 6.859259132967638e+03, 8.008724188167561e+02, -2.396206937628133e+02, 3.010792427371422e+03
10598, 7.595843842449320e-01, 9.023243019412731e-01, -6.662219701917552e-03, -8.435843328058290e-10, 4.429798278705526e-10, -1.506123109542201e-09, 1.556850711873807e+03, 1.627659842609056e+03, 9.838857357226365e+01, 1.210278090271225e+03, -2.791588065121859e+01, -1.384120722363153e+02, 4.883846329901152e+02
10599, 9.254056905417980e-01, 1.473996279210531e+00, 1.860695367717855e-03, -7.903685703136634e-10, 7.796809295841178e-10, -8.692847180423244e-10, 3.018992443809785e+03, 3.021486103510231e+03, -1.606998205565529e+02, 3.564438437652897e+03, 4.103311962580624e+02, -8.888771273633444e+02, 1.802513080491279e+03
10600, 8.367367278385511e-01, 3.694234494524063e-01, 3.285654409336241e-03, -5.311378243784729e-10, 4.673781098172184e-11, 3.794292490592616e-10, -3.142707414531535e+02, -4.505876231598278e+02, -7.591725814103800e+00, -9.740975487640699e+02, 2.665855604824067e+02, 2.355681086030392e+02, 8.624741517827418e+02
10601, 9.060830787149965e-01, 1.156526807244786e+00, 1.917639363651173e-02, -3.676173735872847e-10, 1.272502256481188e-10, -3.218226874916560e-10, 1.398265444097479e+03, 1.362642889189293e+03, -2.425186373695852e+01, 2.204281533983130e+03, 5.323286564490563e+02, -1.456991147191750e+02, 1.263017737878668e+03
10602, 3.010289747750393e-01, 3.037980813056091e-01, -1.935216209070842e-02, -1.795435345907526e-09, 1.967529253421139e-09, -1.024173096664937e-08, 8.383501681015341e+03, 8.165062715819622e+03, -1.712331792519782e+02, 1.494704204574240e+04, 5.095456927207611e+02, -1.950813221846507e+03, 7.539588860789621e+03
10603, 4.463181940783622e-01, 7.761329535086052e-01, 1.821632449852404e-02, 1.452549777026407e-11, -1.884431204694216e-10, -1.539194839014687e-09, 4.386189171296397e+03, 4.948332270003682e+03, 1.584716646355949e+02, 8.857515855081114e+03, -8.540053641245139e+02, 9.335779725718730e+02, 4.761644728782886e+03
10604, 6.569072189235201e-01, 1.919136417469135e-01, 1.224539101343472e-02, -7.404927738494129e-10, 1.843888202568883e-10, -9.028649017390231e-10, 1.331170623852939e+03, 1.346101589995982e+03, -1.110696465230323e+02, 2.273911264341989e+03, 3.577147815856542e+02, -1.199616502246667e+02, 1.157137937758331e+03
10605, 8.223172742091750e-01, 5.583496526586100e-01, 2.498948259868875e-02, -4.011216891810143e-10, 1.068755781480431e-10, 5.921776509493056e-12, 3.622732139836011e+02, 2.318320359868248e+02, -2.099002789736364e+01, 1.789429114850722e+02, 5.631142213028653e+02, -1.633691411996663e+02, 1.029268736294812e+03
10606, 4.037389533716390e-01, 5.101878497012343e-01, 3.911928574163007e-02, -5.946719159549020e-10, 5.509307521024109e-10, -1.800302983548550e-09, 5.180446215478672e+03, 5.728772807664584e+03, 1.705992063861445e+02, 1.063901021565176e+04, 4.910312525608791e+02, -6.559306169207451e+02, 5.404154833321818e+03
10607, 5.438285718159045e-01, 6.990025888159506e-01, 1.698872842337173e-02, -1.206684350628456e-09, 4.674046627076656e-10, -2.820613036507366e-09, 4.758114591012468e+03, 4.703892355668379e+03, -2.070751467939650e+01, 7.807397211390417e+03, 4.008027950493702e+02, -1.014810302891592e+02, 3.159195105275060e+03
10608, 9.049750064166330e-01, 1.185052950105222e+00, 1.896639560384010e-02, -3.510349414392733e-10, 1.804556614425105e-10, -4.736348207175617e-10, 1.717395744619148e+03, 1.627245019115355e+03, 4.151371940569879e+01, 2.975319449386364e+03, 5.208802692688306e+02, -3.911010743803902e+02, 1.726818177318968e+03
10609, 7.662044692910310e-01, 1.096512901957447e+00, 2.683175526481432e-02, -6.198452096322804e-10, 3.338562816171188e-10, -1.034297890409384e-09, 3.554356008790585e+03, 3.343759989666522e+03, -2.556585049073119e+01, 6.222341419762185e+03, 8.742639739127000e+02, -3.253176684830118e+02, 3.215094403858211e+03
10610, 7.433453541434790e-01, 7.336966930311171e-01, -3.213865221097487e-03, -9.349266271501453e-10, 2.073559118210329e-10, -1.643805705565586e-09, 2.167226463392375e+03, 2.090762750600183e+03, 1.332685509195091e+01, 4.065192707869425e+03, 9.543498802473420e+02, 1.891027258514851e+02, 2.567763916350744e+03
10611, 4.919730699119805e-01, 4.972522934086580e-01, 4.681704235412056e-02, -6.504182933753959e-10, 3.897072240730930e-10, -1.194959107343244e-09, 4.218547446645729e+03, 4.182213130216996e+03, -3.949301732449536e+01, 7.786678189532354e+03, 9.250257456779328e+02, -5.491810502318499e+02, 4.042155271128093e+03
10612, 6.211057132851505e-01, 2.975576515230781e-01, 4.369572947402492e-02, -5.274887340553419e-10, 1.423837939443991e-10, -5.165971511301540e-10, 2.008163852657627e+03, 1.889085347068051e+03, -3.976862183357590e+01, 3.206844314815246e+03, 7.511289570037411e+02, -1.772573247375228e+02, 1.839929579217781e+03
10613, 6.749003681921508e-01, 6.310556226055234e-01, 3.816811551955335e-02, -5.434948500031242e-10, 2.179710399979443e-10, -6.610738276112512e-10, 2.413287903502726e+03, 2.352756483476529e+03, -3.238813188298716e+01, 4.094992606173782e+03, 8.293523006077380e+02, -2.609213313373627e+02, 2.281327079965734e+03
10614, 6.918154710503889e-01, 5.518824951741297e-01, 1.657564395020360e-02, -8.907872224861839e-10, 3.688004649700142e-10, -1.256612640989597e-09, 1.886092606048060e+03, 1.796239733820575e+03, -3.241998686443959e+01, 3.896194518891074e+03, 5.603313696324001e+02, -2.864690201027258e+02, 2.328187506509015e+03
10615, 8.513451441014903e-01, 1.092970181536264e+00, 2.399038131355628e-02, -3.092864886411355e-10, 1.853409473776787e-10, -6.299783186459275e-10, 2.247969716750437e+03, 2.006150067648643e+03, -6.479601255669016e+01, 3.959256052351525e+03, 3.705281265817093e+02, -2.023308585931163e+02, 1.986978234104677e+03
10616, 8.734741109344795e-01, 6.915453633320955e-01, 1.803033009746154e-02, -3.939834977916291e-10, 1.055771171474629e-10, 6.318059256055772e-11, 1.063248677631462e+02, 7.291118889496994e+01, -3.990357909551519e+01, -2.324615894498461e+02, 5.305987457065456e+02, -1.243115156951136e+02, 1.000157321701670e+03
10617, 6.193856934473291e-01, 4.766507312883498e-01, 4.163845264837403e-02, -6.852109943559736e-10, 2.361376404034130e-10, -7.068436483685385e-10, 2.575813954457693e+03, 2.478315839966750e+03, -9.856143947294967e+01, 4.232694196546787e+03, 9.115785646718318e+02, -2.976902199182497e+02, 2.388352702253339e+03
10618, 2.818086512584436e-01, 1.080254772980827e-01, 2.938600641697112e-02, -1.119595757538541e-09, 1.193285845388971e-09, -3.733836270298796e-09, 4.638152225679450e+03, 4.378687079980480e+03, -9.886478915721092e+01, 9.292983489785658e+03, 6.259525062408326e+02, -5.705055698985570e+02, 5.012359215673523e+03
10619, 7.495007578170317e-01, 1.055558700109743e+00, 3.020754642767283e-02, -6.063111038785423e-10, 2.926569611814478e-10, -9.011183654369809e-10, 3.616142421385647e+03, 3.484379300124224e+03, -3.520256398236258e+01, 5.948106972456017e+03, 8.507277737278873e+02, -4.641690060523386e+02, 2.929842420769601e+03
10620, 2.629194036310264e-01, 1.946577071982684e-01, 1.266066252836888e-02, -1.409723759181294e-09, 1.021599562620252e-09, -5.384059785939094e-09, 5.122468191114191e+03, 5.777605225067012e+03, 2.751953598901191e+00, 1.099646709833086e+04, 5.023908888770493e+02, -3.390853831637865e+02, 5.673353743631264e+03
10621, 7.539177897555143e-01, 1.019622787040736e+00, 3.167985352488679e-02, -5.577211205578822e-10, 2.159935120799218e-10, -8.979301695179556e-10, 3.440232698614903e+03, 3.247950585091463e+03, -3.884129146866059e+01, 5.981711943759868e+03, 8.685976500935639e+02, -3.099818633911391e+02, 3.088842502188071e+03
10622, 8.876809239292778e-01, 9.811458347549994e-01, 1.909328038278281e-02, -3.862500678140874e-10, 1.219755955100441e-10, -1.984559444713131e-10, 9.053949895848917e+02, 7.181086596934059e+02, -5.282175085715274e+01, 1.349903091817212e+03, 5.380588780527140e+02, -1.353799690204375e+02, 1.117045031442031e+03
10623, 5.679507429063971e-01, 6.844844235129499e-01, -1.288869166482213e-02, -1.276260742720124e-09, 1.261928829941880e-09, -5.523339708723228e-09, 5.361344781737207e+03, 5.546403448041248e+03, 4.742171770856082e+01, 1.161905145935630e+04, -1.319800743676215e+02, -1.174094077534177e+03, 6.498429818651180e+03
10624, 5.991779890617711e-01, 3.361245499459267e-01, -1.199521614768959e-02, -1.067240365143997e-09, 6.846216426403830e-10, -2.375770424599082e-09, 2.253408555295140e+03, 2.262379338760787e+03, 7.001758356015694e+01, 3.529455453850487e+03, 3.050884798966446e+02, -1.014436953662907e+03, 2.235647635125030e+03
10625, 2.866684449909879e-01, 2.314828442959170e-01, 1.368660462437042e-02, -1.506060697912390e-09, 9.786260495585345e-10, -4.944816734629166e-09, 5.200098066751768e+03, 5.559906273285416e+03, 1.487895730840912e+02, 1.022877834574468e+04, 7.543486421236989e+02, -2.606860681017307e+02, 5.058175478619723e+03
10626, 5.738730317208636e-01, 4.674882141833804e-01, -1.202594734462584e-02, -1.172123811813011e-09, 6.563710175685611e-10, -3.086266841784825e-09, 2.870703196072697e+03, 2.676945089039703e+03, -2.458390677318437e+01, 3.999397864326509e+03, -1.839913309114612e+02, -1.968232558814388e+02, 1.322791486841522e+03
10627, 7.903782645265047e-01, 8.645434585821740e-01, 3.020094195224703e-02, -4.668867297580717e-10, 1.803203281522409e-10, -4.252893368446997e-10, 1.974040654753840e+03, 1.761086169571007e+03, -1.625944972690762e+01, 2.899886916493702e+03, 7.250209705659191e+02, -2.910796558229399e+02, 1.712204852715859e+03
10628, 1.903862798308461e-01, 2.988395662928472e-01, 1.544726880524539e-02, 1.457389620883630e-10, -1.084120518546515e-10, -1.351868209517172e-09, 4.342910513155781e+03, 4.524430549428182e+03, 8.478576728160117e+01, 7.491336682682114e+03, -1.105809146683880e+03, 8.229211933490666e+02, 3.885310771752001e+03
10629, 1.882441988328028e-01, 2.645299812080663e-01, 2.185347954459965e-02, 1.620018039709101e-10, 4.644526142326080e-11, -1.673836374158721e-09, 4.441492060602486e+03, 4.168045379282478e+03, 2.286266181494532e+02, 9.317369804015369e+03, -1.225315127573422e+03, 4.178813899205864e+02, 5.510637521102112e+03
10630, 3.898541815698980e-01, 3.093413080845445e-01, -1.847214864024276e-02, -2.186005785418831e-09, 7.243774001218946e-10, -6.669801205491754e-09, 5.080595062379738e+03, 4.103110940030925e+03, 2.479543035969449e+02, 6.865130857735869e+03, 1.154384778727739e+03, 1.380798471466212e+03, 3.973218914001214e+03
10631, 5.646885153412399e-01, 3.675674977172045e-01, 2.520278657507614e-02, -1.057063378389399e-09, 3.744610865572878e-10, -1.700245001551128e-09, 2.876651793734397e+03, 2.780131920798243e+03, 3.731779260712707e+01, 4.799288963928026e+03, 6.918017885973502e+02, -2.492695974708797e+02, 2.348994564313796e+03
10632, 3.111813758722837e-01, 1.659650698927760e-01, -2.212379325597144e-02, -1.287770623115316e-09, 1.354073251031610e-09, -6.781107166583780e-09, 4.219501844184229e+03, 4.120490031161102e+03, 1.241630058323303e+02, 5.961310411656535e+03, 1.100991682580259e+02, -2.488122789457712e+02, 1.866680887594489e+03
10633, 4.418712430146844e-01, 4.639767502305686e-01, -1.718249190282524e-02, -1.833433620521711e-09, 9.448051585723013e-10, -5.808220250334773e-09, 5.193193768791090e+03, 4.170586746092904e+03, 6.536781335136020e+02, 5.643639100017761e+03, 6.587647917470968e+02, 1.403301003045741e+02, 2.086176106838131e+03
10634, 7.465630414195691e-01, 1.328845794758888e+00, 1.618191754549622e-02, 6.224278782788124e-11, 1.913836576258731e-10, -1.479213975354762e-09, 5.104710875300059e+03, 4.585374529198890e+03, 6.698713933209815e+01, 9.206944728538949e+03, 3.348092705321286e+02, -1.625894771009128e+02, 4.433681490007691e+03
10635, 4.103778674697069e-01, 1.466852877308243e-01, 5.824310460668397e-02, -5.314505238844596e-10, 3.612732874626375e-10, -1.006902867559618e-09, 3.736469881788852e+03, 3.590378290804038e+03, -4.090266213644430e+01, 6.795066884865976e+03, 8.528202876803716e+02, -4.954181677218331e+02, 3.570215340539500e+03
10636, 4.399201034250616e-01, 5.482069900865875e-01, 3.998963798638019e-02, -8.117307181520132e-10, 4.584859924963312e-10, -1.820429204928345e-09, 5.189454986751720e+03, 5.271411675976802e+03, 6.828731297203126e+01, 1.086966262808800e+04, 9.845633308630386e+02, -4.994775852561188e+02, 5.956212104895859e+03
10637, 4.012553727822145e-01, 2.713840611474460e-01, 3.144289249886401e-02, -1.442017392423912e-09, 7.094712433687915e-10, -3.052430103650941e-09, 4.535062300106062e+03, 4.444817651681328e+03, -8.721548364439421e+00, 8.716833160967964e+03, 9.797202074438052e+02, -4.152088731230226e+02, 4.611909858860357e+03
10638, 1.946779305657270e-01, 1.203227893422773e-01, 4.140426820262191e-02, -3.323353842093903e-10, 4.238017292624990e-10, -2.145682298135946e-09, 5.307441184985775e+03, 5.279565296861922e+03, 2.308279277144836e+02, 1.138158195333651e+04, -3.186635755277665e+01, -2.200230031980655e+02, 6.113379308047637e+03
10639, 7.542368283211979e-01, 1.977704164433761e-02, 3.647701189667978e-03, -2.013603304418253e-10, 3.798227620980224e-11, -2.357933812318619e-11, 1.162985549468356e+02, 1.839632058042901e+02, -2.393726520774973e+02, 1.701942946851543e+02, 7.678388312749354e+01, -4.958284220392002e+01, 4.481036574954665e+02
10640, 1.780757309436460e-01, 1.130634423695652e-01, -2.069765316100821e-02, -1.496313248245914e-09, 1.326973595202838e-09, -8.525107562452828e-09, 7.374681663919634e+03, 8.827161426539655e+03, -4.180879017544721e+02, 1.435682271385985e+04, 2.680680165514538e+03, -2.389006915410897e+03, 8.939975703717382e+03
10641, 7.146205978021798e-01, 1.447149030660486e-01, 3.484026805061075e-02, -3.586456324942558e-10, 6.247047182110228e-11, -1.325801408666779e-10, 8.172484690053473e+02, 6.309457714291785e+02, -3.366277318225706e+01, 1.063939615381707e+03, 5.831595363293335e+02, -9.818404124489827e+01, 1.092734845266107e+03
10642, 3.772414038093431e-01, 6.344161937122704e-01, -6.605189450701550e-03, 2.532598919523018e-10, -3.163543469462880e-11, -4.434049723285440e-09, 3.583811277826590e+03, 4.127297214047253e+03, 7.995985602277917e+02, 8.851061613539761e+03, -2.979670815338180e+03, 1.470124601095929e+03, 7.759756032637767e+03
10643, 5.199838846118199e-01, 2.748474373911638e-01, 7.971006339514416e-03, -1.107094471215314e-09, 4.925403631092180e-10, -2.936529655587311e-09, 3.032181984715874e+03, 2.923075811186684e+03, -2.782444908419939e+02, 5.366443967447717e+03, -1.358451249977494e+01, 5.440107098119055e+01, 2.440708419832844e+03
10644, 2.410373691624878e-01, 9.992702252733600e-02, -1.163776319807315e-03, -1.609087763645003e-09, 1.214585185262626e-09, -7.307856610108814e-09, 6.007928487253037e+03, 5.613093900734406e+03, -1.753463358974289e+02, 1.091987458633581e+04, 1.148030625540282e+03, -3.414313978055990e+02, 5.533389847131201e+03
10645, 4.349128829383907e-01, 4.096087636252176e-01, 4.107892015723837e-03, -1.836152728867351e-09, 1.043440041445406e-09, -4.729829135598182e-09, 5.347134637583178e+03, 5.537031509449527e+03, 1.345017173771677e+01, 8.589691040018903e+03, 8.116086864876999e+02, -2.376498914660444e+02, 3.475713256483688e+03
10646, 9.776179296953562e-01, 8.499147991051285e-01, 7.524388590779998e-03, -2.761315724015440e-10, 6.535749138107572e-11, 1.895191882794260e-10, -6.603071582891628e+02, -6.548885338341472e+02, -1.026705116919785e+01, -1.304905322953867e+03, 3.567266005830261e+02, -1.323729444401955e+02, 9.239451389166999e+02
10647, 5.223256313065661e-01, 4.880129475039705e-01, 2.256696409019751e-02, -1.118272700011432e-09, 7.263590761936308e-10, -2.757262003985295e-09, 3.996042283970641e+03, 4.168398028489763e+03, -6.652814350532206e+01, 7.521146997665346e+03, 4.365092165962173e+02, -4.570926390169711e+02, 3.613889540347113e+03
10648, 4.628910477952903e-01, 2.265012469184885e-01, 3.611574016950000e-02, -1.074004929589387e-09, 4.406361742548175e-10, -1.882282533442144e-09, 3.797691256956158e+03, 3.552790904827453e+03, -1.002376129747577e+02, 6.020186217305530e+03, 7.034219440410998e+02, -2.470389263238039e+02, 2.690982079881417e+03
10649, 5.027953618466292e-01, 8.716299371063165e-01, 1.661163938378665e-02, -2.312234338212436e-10, 2.990257030523125e-10, -2.704814226860988e-09, 5.966221242528965e+03, 6.106596262009397e+03, 3.741538480191884e+02, 1.505030087395792e+04, -9.268074683489507e+02, 2.734140708803986e+01, 9.179551310100213e+03
10650, 9.301193511011185e-01, 4.999265542400746e-01, 7.205900075308899e-03, -5.156298794415408e-10, -1.116243905768881e-10, 1.103063707313246e-09, -2.356874483651293e+03, -2.288007743631746e+03, 6.290843043373503e+01, -5.207181141018122e+03, 6.083925378289691e+02, 4.381898970856012e+02, 3.166008529094631e+03
10651, 8.783535348014129e-01, 8.032852018439065e-01, 3.389999227746859e-03, -4.855897191642602e-10, 1.588367125497605e-10, -6.129108723579011e-11, 4.305055240424657e+02, 3.069654807992190e+02, -9.431868437642429e+00, 3.754256786701691e+02, 2.358549423385390e+02, -9.045440886071398e+01, 4.507625842080283e+02
10652, 6.335537231990083e-01, 1.349609802447622e-01, 1.965505271083759e-02, -6.690315073964732e-10, 1.855860098224721e-10, -9.391900615466181e-10, 1.695485891694912e+03, 1.553604802956838e+03, -3.376767076477615e+01, 2.591200703911503e+03, 3.800777331578314e+02, 4.909618030762100e+01, 1.180487010592675e+03
10653, 4.902792961614472e-01, 6.462247013595286e-01, 3.885363298648466e-02, -8.884693339335544e-10, 3.396195693088164e-10, -1.641625178210246e-09, 5.121762752442514e+03, 5.046078291905987e+03, 1.365339841133644e+02, 1.031502023741118e+04, 1.018916417294410e+03, -4.016486714094172e+02, 5.569843972896511e+03
10654, 5.225142320303676e-01, 3.465539433997308e-01, -1.387544836189494e-02, -1.307476962016864e-09, 7.257405824673119e-10, -3.616007147924106e-09, 2.534190378084535e+03, 2.594455649335860e+03, 6.840639002974081e+01, 2.864421874692761e+03, 2.896555325637406e+02, 1.358256825320214e+02, 6.433260346692047e+02
10655, 4.851544258064462e-01, 4.346274906983361e-01, 2.083575293469407e-03, -1.448053451963122e-09, 8.049966828735052e-10, -3.812066087467715e-09, 4.348259956948403e+03, 4.120555263440763e+03, -3.355921819912581e+01, 6.520711746340697e+03, 5.621909022470522e+02, -6.532160029608067e+01, 2.496082711575295e+03
10656, 2.456506053395675e-01, 1.532678960574222e-01, 4.880830249644942e-02, -4.493500518129132e-10, 4.156712057166685e-10, -1.738662478060435e-09, 5.053236479771560e+03, 5.265510261376628e+03, 1.766178728650045e+02, 1.072001893500047e+04, 3.134046093390970e+02, -3.649964428105079e+02, 5.634047425097381e+03
10657, 8.516601138372778e-01, 1.132277446578539e+00, 2.352275554731664e-02, -4.403368405527247e-10, 1.152495031080450e-10, -5.673636826563357e-10, 2.286735664330051e+03, 2.163271820116191e+03, -2.550983833254812e+01, 3.774963981576856e+03, 6.311408925484017e+02, -1.612204534742605e+02, 1.920612941836410e+03
10658, 6.933720638887357e-01, 9.831511546094596e-01, -7.469958256635163e-03, -9.631834384276841e-10, 4.248320686949434e-10, -3.850845636532775e-09, 4.343746039783476e+03, 4.036416099547583e+03, -2.630501624309358e+02, 6.681936318041509e+03, -1.843445831228145e+03, -3.280907899213465e+01, 4.084834686600916e+03
10659, 2.001414336581198e-01, 6.886454280745334e-02, 2.817832558788400e-02, -5.273375770735138e-10, 1.426807928503668e-09, -3.449139708448084e-09, 4.248602518286722e+03, 4.366209878026705e+03, 2.852741339056916e+00, 9.512384870991080e+03, 4.151370028581300e+02, -1.301408177565540e+03, 5.718409476829049e+03
10660, 8.193618756654352e-01, 4.206340687481271e-01, 7.453722705298878e-04, -5.994672869441540e-10, 5.154734707320847e-11, 2.817153820060047e-10, -1.802738204363849e+02, -2.550956237014847e+02, -5.120210640325394e+01, -6.433503330004605e+02, 2.939997941225412e+02, 1.107632152869602e+02, 6.995484347258499e+02
10661, 1.317520527343982e-01, 1.680748565611979e-01, 1.688862799684577e-02, 2.968617355414097e-10, 1.250378204794449e-10, -1.229479831595377e-09, 4.029250820627553e+03, 3.725038958840336e+03, -3.204915667917100e+01, 6.284048536768046e+03, -7.620843541692255e+02, -6.269257604749517e+01, 2.760395627434520e+03
10662, 9.918301173237941e-01, 9.629442495111564e-01, 7.217130748610710e-03, -3.280770767520702e-10, 3.491141114706571e-11, 4.045626713587472e-10, -1.029719119189093e+03, -1.210849802821483e+03, -9.998568068789163e+01, -2.500024852878428e+03, 5.784552531703365e+02, -6.072020453737929e+00, 1.721111050881729e+03
10663, 7.972059149995291e-01, 6.376455444978886e-01, -2.682952019809840e-03, -6.665638076203087e-10, 2.330812033394834e-10, -5.574366550459858e-10, 1.027537172823718e+03, 8.591186748412115e+02, -5.863751161769575e+01, 1.663606157017795e+03, 9.161859415511097e+01, 3.220209376567040e+01, 7.607116564555162e+02
10664, 4.370436967076629e-01, 3.214205859802665e-01, 3.080820031519473e-03, -1.704839862740723e-09, 7.772781891974433e-10, -4.428292611280503e-09, 4.584622154153056e+03, 4.539633624177810e+03, -2.901894108950483e+01, 7.648974504746405e+03, 8.662882610696718e+02, -1.421145603069322e+02, 3.441601661926699e+03
10665, 7.098966710665351e-01, 4.145411636971201e-01, 1.424825518721871e-02, -8.287797470212951e-10, 2.794261458175313e-10, -6.316828306403775e-10, 1.157048771126161e+03, 1.057300278703228e+03, -2.083805626696251e-01, 2.061368179404468e+03, 5.530901905316758e+02, -2.056894482404363e+02, 1.400927801773123e+03
10666, 8.002591213814568e-01, 1.307462704698391e-01, 2.188131188623374e-02, -3.203226914207619e-10, 2.229477039625024e-11, 1.956300496755836e-10, -2.526385225993836e+02, -3.957508324739068e+02, -2.594652959910778e+01, -9.557932395277500e+02, 4.173533256510067e+02, -1.993365041916152e+01, 9.695569643837980e+02
10667, 5.788831993735049e-01, 7.416579383449813e-02, 2.902211421484575e-02, -5.016701354656649e-10, 4.601492444995444e-10, -9.449442123297891e-10, 1.937386684706841e+03, 1.712859820032863e+03, -1.845939733055198e+02, 2.892745065280851e+03, 2.225028602592080e+02, -4.580751761845706e+02, 1.434528335253763e+03
10668, 5.991824725095414e-01, 9.414165910687999e-01, -9.775886501474658e-03, -9.022471752752199e-10, 1.250578636163215e-09, -4.231935030036818e-09, 4.168880099163624e+03, 3.832433540859030e+03, 3.888734115015894e+02, 5.697285343770958e+03, -8.790955611492722e+02, -1.724657245021240e+03, 3.828690116529349e+03
10669, 2.905072710379549e-01, 4.073257078654117e-01, 2.976654587878963e-02, -1.560953042239603e-10, 6.404965901525409e-11, -1.957791296576353e-09, 5.323874332636230e+03, 5.713742447199626e+03, 3.863222744888486e+02, 1.158777181338871e+04, -4.244731004127024e+02, 2.379115225412132e+02, 6.172875141405779e+03
10670, 6.928505918178782e-01, 6.814655408312521e-01, 1.056915596827481e-02, -1.000502966988405e-09, 4.682543686145651e-10, -1.631444205293216e-09, 2.658722393909406e+03, 2.424321369972212e+03, -2.895462157606441e+02, 4.365472366925163e+03, 5.805467456048989e+02, -3.959670455271861e+02, 2.258536596959101e+03
10671, 4.321783850295031e-01, 8.220832716695584e-02, 1.942854642738414e-02, -8.716811592094412e-10, 8.630915595051369e-10, -2.786725781970409e-09, 3.312912734650854e+03, 2.927238300395078e+03, -2.324782291166903e+02, 5.634879418609004e+03, 4.345896229143098e+02, -3.262657528835621e+02, 2.735669582466891e+03
10672, 8.034724853176874e-01, 6.967039295187663e-01, -3.181462455253298e-03, -8.228523779229770e-10, 2.310181668519451e-10, -7.788075549024228e-10, 1.144847320042207e+03, 1.078994797977595e+03, 6.694493911985313e+00, 2.044637749883421e+03, 6.118143771339024e+02, -1.723322163810180e+02, 1.444088973986223e+03
10673, 4.281196128015699e-01, 1.498306290995038e-01, 2.769504059783538e-02, -1.153734236151575e-09, 7.336567701285759e-10, -2.708141182754408e-09, 3.684787729869755e+03, 3.421382951605850e+03, -1.169294784266378e+02, 6.572208341559019e+03, 6.564031753019002e+02, -3.645424735608188e+02, 3.301427992778435e+03
10674, 8.220824494102336e-01, 9.713319672135748e-01, -7.848261160662943e-04, -6.626787355840109e-10, 3.692683676005663e-10, -9.478988789164746e-10, 1.916759763817338e+03, 1.821593972931442e+03, -3.941188035089917e+01, 3.119951376308690e+03, -2.304372569029319e+01, -3.428885730028558e+02, 1.389316348000609e+03
10675, 4.623623824153336e-01, 3.298775654091212e-01, 2.806568107641999e-02, -1.265702144375625e-09, 5.840784660660886e-10, -2.479179078210312e-09, 4.035522910055419e+03, 3.786345874696547e+03, -2.773842675917668e+01, 6.669230648791319e+03, 6.389207794638684e+02, -3.720559399906010e+02, 3.049099793392106e+03
10676, 4.098940138048213e-01, 3.378876592206386e-01, -1.843414355232834e-02, -1.043296588238836e-09, 6.014508728146434e-10, -7.921390794970053e-09, 6.512103837873512e+03, 6.359998897802532e+03, -2.748283266974095e+02, 1.321936197846967e+04, -1.318191390020884e+03, 9.420300874144947e+02, 7.357472003434835e+03
10677, 7.392107568023821e-01, 4.674751532309173e-01, 3.464030526213206e-02, -4.295714573451895e-10, 1.099050138945101e-10, -2.085279364829362e-10, 1.113559794838431e+03, 9.501239756747842e+02, -3.237911899996038e+01, 1.633099802719673e+03, 6.951529974146838e+02, -1.491435168914842e+02, 1.378816228120728e+03
10678, 3.068539965331017e-01, 2.461954640165291e-01, -3.897244110229722e-03, -1.793542115464459e-09, 1.472514016711522e-09, -6.261324346169981e-09, 5.712623233283420e+03, 5.763962594222093e+03, -2.596170259955379e+02, 9.103041343127636e+03, 1.921036119467435e+02, -2.398961926614305e+02, 3.436433286702438e+03
10679, 7.185506686923465e-01, 4.251605392073720e-02, 3.253099264454316e-02, -2.294653389149355e-10, 7.274057576328479e-11, -9.927909884820687e-11, 4.972319214973828e+02, 4.211980593459389e+02, -1.084256133602494e+02, 7.009577291447782e+02, 3.406856782732564e+02, -1.125578357574575e+02, 6.958819922091500e+02
10680, 4.582061223015675e-01, 1.393130022553254e-01, 2.106329519549849e-02, -1.086217729283449e-09, 6.934916654736449e-10, -2.695158934212306e-09, 3.456254138747705e+03, 3.195797839501800e+03, -2.188753431718904e+02, 5.809851795424228e+03, 4.514688906110447e+02, -2.379954563691084e+02, 2.673085480446417e+03
10681, 9.590913307196303e-01, 1.297870557751883e+00, 2.840030638198180e-03, -4.723027566456687e-10, 3.437305351765632e-10, -8.649655778778849e-10, 1.694303358063336e+03, 1.537308428389480e+03, 8.165217715655242e+00, 2.982221684470498e+03, 3.800650181722734e+02, -6.321013824282078e+02, 1.875575221092863e+03
10682, 6.327543568526616e-01, 2.194973571306348e-01, 4.401734136105845e-02, -4.265185053332904e-10, 1.082649418637183e-10, -4.116007698750778e-10, 1.769218303608848e+03, 1.623208476615593e+03, -7.481175380655560e+01, 2.846878227177259e+03, 7.046631259649225e+02, -1.524528636465820e+02, 1.707684135064444e+03
10683, 8.599167735159701e-01, 1.059241658132827e+00, 2.196596766660135e-02, -4.068724550515693e-10, 2.908937397161684e-10, -4.729068654106399e-10, 1.606517939462506e+03, 1.706039390851066e+03, -1.075468595569722e+01, 2.785063584770604e+03, 5.248147396711289e+02, -4.701736582404337e+02, 1.664755872090636e+03
10684, 5.474429776673659e-01, 3.541318059152850e-01, 4.996606589770294e-02, -5.523595037021007e-10, 1.952989769686131e-10, -7.977305546000226e-10, 3.086567665972267e+03, 3.004437715110066e+03, -1.441843067176041e+01, 5.398571644239981e+03, 9.734966891410891e+02, -2.553956288706474e+02, 2.929400000675309e+03
10685, 6.276166574600476e-01, 2.942330400567899e-01, -1.050113760030967e-02, -9.077647471244577e-10, 3.372878529775778e-10, -1.589512339210980e-09, 1.551366765227596e+03, 9.790011194679300e+02, -2.059082047772164e+02, 1.711784161076734e+03, 3.095359368323166e+02, -3.154225301838858e+01, 9.288543351006714e+02
10686, 7.387253853336371e-01, 5.715338941982566e-01, 3.354167129365935e-02, -4.849902846942141e-10, 1.671129715292071e-10, -3.418800365994923e-10, 1.482664327643386e+03, 1.352523904533373e+03, -3.075560411908181e+01, 2.323171014247664e+03, 7.367138318023108e+02, -2.648933957858806e+02, 1.635346134807208e+03
10687, 5.934767171141632e-01, 6.177139795741209e-01, 1.936640620430239e-02, -1.341972771160040e-09, 3.601146857946439e-10, -2.061004655921796e-09, 3.249338570330990e+03, 2.981142836906575e+03, -1.025713444356097e+02, 5.782975839906999e+03, 9.591254009684594e+02, -1.184445250295318e+01, 3.156343706025850e+03
10688, 8.851806666431846e-01, 1.092546652143940e+00, 2.032512279347162e-02, -3.911787477003033e-10, 8.225569874990535e-11, -5.835851764082892e-10, 1.694162186640247e+03, 1.603982546134243e+03, -5.124952725395890e+01, 3.371240320225597e+03, 7.927119375209271e+02, -5.074985188406006e+01, 2.207429402969366e+03
10689, 6.043164570198509e-01, 7.024132648039502e-01, -1.149041058407369e-02, -9.152309968259496e-10, 7.899741156553646e-10, -4.785913477408211e-09, 4.796260166445657e+03, 4.689371495071640e+03, 2.768291675328705e+01, 8.328847092089296e+03, -1.196487545137051e+03, -2.599170951015391e+02, 4.167481992272311e+03
10690, 6.490814403886772e-01, 3.797413319889971e-01, -7.580895368808948e-03, -9.361975647845610e-10, 6.005762488748561e-10, -2.183104145093259e-09, 2.152923221145017e+03, 2.027724379158857e+03, -4.736880957329687e+00, 4.158400638101677e+03, 6.634732602793473e+01, -8.619035559810528e+02, 2.555504706856424e+03
10691, 9.220688901768205e-01, 1.253485744827336e+00, 1.719295561103329e-02, -2.987923750502237e-10, 1.648946938556893e-10, -6.623058196828647e-10, 1.984754560475502e+03, 1.910531145372306e+03, -1.454924093099999e+02, 3.816939877239607e+03, 3.065831850462585e+02, -1.716578034226011e+02, 1.982999313569008e+03
10692, 8.275322586376349e-01, 1.226353419119673e+00, -2.614688922416192e-03, -1.176598051993903e-09, 5.020520097831886e-10, -2.329206596230245e-09, 3.582109609271189e+03, 3.225006531872875e+03, -2.356514669201691e+02, 6.033348333276237e+03, 1.255101268849383e+03, -5.386014488091015e+02, 3.574093699176622e+03
10693, 9.979523122870815e-01, 1.138948402511616e+00, 8.372664853426186e-03, -3.498103588897711e-10, 7.687126179018902e-11, 1.165881107613326e-10, -3.299105707330297e+02, -3.357604609627608e+02, -4.315566901376156e+00, -6.156111972851239e+02, 4.426591855648208e+02, -1.036732759180653e+02, 8.367374333628119e+02
10694, 5.404942378242887e-01, 4.807999674396934e-01, 4.749010767039817e-02, -6.395034116632314e-10, 3.138015412087497e-10, -1.009227662425254e-09, 3.547730450735411e+03, 3.576498543074114e+03, -3.652816140868070e+01, 6.607493045438885e+03, 1.013912021220442e+03, -4.540483507112992e+02, 3.602983014202123e+03
10695, 8.222615081401754e-01, 2.337744130973076e-01, 2.040926986634994e-02, -3.564570561344834e-10, 3.563402380738626e-11, 2.000727344966669e-10, -3.936196308383617e+02, -5.833852450252882e+02, -4.556765947896058e+01, -1.128097709397307e+03, 4.651342653342957e+02, -8.047042780006605e+01, 1.053942935321066e+03
10696, 6.914546445443137e-01, 1.426081640064399e-01, 1.230994798072958e-02, -6.390279768315830e-10, 1.542523473053769e-10, -6.038122914590385e-10, 1.076618061815962e+03, 8.751873785234067e+02, -9.501670416430500e+00, 1.697149029274444e+03, 4.261386207923803e+02, -9.687141798930227e+01, 1.060109622166687e+03
10697, 3.844860455263815e-01, 5.242156150495674e-01, 9.316983168739032e-03, -7.380947954518204e-10, 1.064243191291377e-09, -4.639794873291981e-09, 5.789181813314382e+03, 7.031291106716960e+03, -6.714744850991477e+01, 1.083039832172431e+04, -3.857793038102421e+02, -7.675516811262601e+02, 4.787730945775853e+03
10698, 8.869755956707883e-01, 1.268160020649338e+00, -8.784455781897099e-04, -5.431982956922238e-10, 3.278474503661099e-10, -8.422734526123438e-10, 1.556690313332111e+03, 1.753065214530586e+03, -1.513555101095384e+02, 1.749211581858694e+03, 2.997227945082593e+02, 4.676939422456348e+01, 6.185548126429516e+02
10699, 1.023424762986018e+00, 1.360221096882481e+00, 8.673617797229728e-03, -2.387512623685149e-10, 9.248647766684057e-11, -1.755995510545126e-11, 3.699301956860776e+02, 3.582260101248395e+02, -6.101835424470720e+01, 3.471766315870395e+02, 3.056355899607195e+02, -1.037133146248002e+02, 5.692686675111880e+02
10700, 8.528750799521914e-01, 6.773459316716243e-01, 2.026535443128482e-02, -3.935478961045137e-10, 1.118570271977209e-10, 8.775122623405072e-12, 2.826427283652966e+02, 1.756597948742600e+02, -4.173123588310331e+01, 2.227198481325605e+02, 4.954903807260511e+02, -1.626167944151074e+02, 9.108867547186504e+02
10701, 7.939428529014386e-01, 1.002488374515964e+00, 2.680920601740902e-02, -5.985446277959366e-10, 2.173197847344030e-10, -6.584948022271942e-10, 2.565321832596284e+03, 2.340203304258111e+03, 2.861467147106841e+01, 4.154773500092280e+03, 9.260707787506182e+02, -2.218759379756778e+02, 2.378616074727820e+03
10702, 7.267954190976714e-01, 1.279642789298315e+00, 1.849235995416209e-02, -1.849780052951789e-10, -3.141712929483185e-11, -1.411304892474100e-09, 5.305918054584351e+03, 5.361671384643390e+03, 1.254319230490809e+02, 9.445751277001427e+03, -2.844057979302455e+02, 2.202569514088040e+02, 4.164842962799693e+03
10703, 5.015240343705971e-01, 3.792285475466130e-01, -1.642365652584785e-02, -1.472894401244558e-09, 5.503750315039200e-10, -4.315736048077217e-09, 3.398152708198033e+03, 3.592908690137383e+03, 3.889455401558985e+01, 4.835465654604570e+03, 7.353944691395556e+02, 7.631686912684685e+02, 2.279935501915372e+03
10704, 8.499573153858186e-01, 1.212205968925064e+00, -4.689457067566724e-04, -3.606644511922680e-10, 2.558798324582658e-10, -2.658046430114120e-09, 3.960639012137024e+03, 3.651663266203649e+03, -1.109928721991829e+02, 7.107285353789918e+03, -3.675284271920697e+02, -1.918180701314658e+02, 3.394356907445082e+03
10705, 8.617168459641741e-01, 5.115716445389353e-01, 2.724886277963981e-03, -4.870738461137920e-10, 1.881069980527645e-10, 4.115376883004305e-10, -3.864341147703618e+02, -5.274842845396804e+02, -3.424016671825058e+01, -1.219380591227445e+03, 1.887521632409933e+02, -2.025683761775990e+02, 9.108835746889004e+02
10706, 8.091189385015185e-01, 1.300465926648218e+00, 2.227404025894222e-02, -4.836407815880126e-10, 2.513174043308327e-10, -1.466781722433614e-09, 4.132815463916013e+03, 4.243444706201011e+03, 3.969267492850815e+01, 8.659397242822643e+03, 8.395977961309878e+02, -6.386239790081682e+02, 4.831607473798155e+03
10707, 8.361031431982148e-01, 5.424143224079323e-01, -8.815766461580180e-05, -6.250096487136101e-10, 7.827983557542848e-11, 2.530872564503281e-10, -1.891077897638949e+02, -2.000568221938111e+02, -2.516469600589454e+01, -5.160408172856088e+02, 3.562042546355713e+02, 7.264058152148476e+01, 7.083781804678301e+02
10708, 6.439976788335893e-01, 4.226869761178584e-01, -9.316385690260149e-03, -6.678636775516323e-10, 6.315353731673925e-11, -2.127502489964358e-09, 2.273228368062098e+03, 2.054277026612970e+03, -1.326098300980720e+02, 3.584753131185676e+03, -6.913951737997315e+02, 8.650854385942315e+02, 2.405650308922373e+03
10709, 6.583440114675317e-01, 1.025692021851541e+00, -8.166716759808096e-03, -2.232079663211108e-09, 4.205299647123218e-10, -7.889952423340722e-09, 7.577315238148780e+03, 8.070722329458660e+03, -3.818529499587791e+02, 1.776031133959566e+04, 2.330141313979446e+03, 1.642348112380763e+03, 1.112342259805150e+04
10710, 8.622209186854813e-01, 1.406939818086389e+00, 1.981202062591893e-02, -7.044059329470330e-10, 3.937571384050576e-10, -1.600698634226009e-09, 4.666350900855274e+03, 4.077173086754200e+03, 2.690160900733439e+02, 9.054344820983961e+03, 1.412900741060041e+03, -6.495802394422338e+02, 5.445986389140725e+03
10711, 7.125453101381992e-01, 1.074508641477208e+00, 3.047290755819355e-02, -7.122812117835478e-10, 2.919844471871570e-10, -1.123134540592230e-09, 4.413952304780266e+03, 4.347120210889656e+03, 7.356795579515327e+01, 7.895514814338323e+03, 1.118393708385432e+03, -5.021519046939140e+02, 4.108958986002413e+03
10712, 5.923850298403063e-01, 3.071071497951821e-01, -1.099355164181595e-02, -9.468637816572771e-10, 2.224047925348987e-10, -2.472348329861561e-09, 2.419946781173451e+03, 2.385643735631661e+03, -2.272005731302903e+02, 4.480078750300711e+03, -4.353830141259284e+02, 2.035468271229255e+02, 2.272403698876684e+03
10713, 8.249468919923987e-01, 1.023308441146634e+00, -2.976050607660798e-03, -6.697576954678077e-10, 4.537242877163720e-10, -9.690085529308495e-10, 1.699061200242942e+03, 1.760253659342177e+03, 2.498374897469230e+00, 2.389567394814465e+03, 4.704981739826075e+02, -5.230355436811053e+02, 1.386763285632710e+03
10714, 5.309042973556245e-01, 8.416737350112058e-01, 2.646806259773198e-02, -7.496307472346687e-10, 7.487854977310412e-10, -2.705158618030180e-09, 6.286755576911995e+03, 6.715137785229616e+03, 1.159426582079656e+02, 1.395279815277977e+04, 5.415434060959770e+02, -9.487947696683456e+02, 7.699902224742756e+03
10715, 7.281241650589527e-01, 9.722799047128864e-01, -6.385641762934099e-03, -1.348843042584357e-09, 4.271695359289940e-10, -2.426843215898528e-09, 3.450635199384984e+03, 2.917258345086654e+03, -1.572651590747932e+02, 4.617682419628502e+03, 1.284618547999978e+03, -3.302691985056663e+02, 2.760639549261784e+03
10716, 4.057120031417029e-01, 2.240223862065485e-01, 3.235834299222157e-03, -1.727359641002999e-09, 1.043288418188294e-09, -4.839340889343170e-09, 4.033957234889372e+03, 3.669158789127368e+03, -3.058172653047738e+02, 7.928012306831618e+03, 8.279785255506815e+02, -1.279352248705572e+02, 4.370767464437846e+03
10717, 8.990984979803801e-01, 6.636549691298123e-01, 1.538567160028171e-02, -3.537440150850088e-10, 5.543586397964418e-11, 1.543098786321629e-10, -2.582191864897884e+02, -4.737490801151600e+02, 1.260188391242707e+01, -8.179389237455697e+02, 3.683854403189422e+02, -2.096594159552736e+01, 8.049978983583846e+02
10718, 3.106547409309049e-01, 4.004590550190597e-01, 7.659445919740868e-03, -1.293874996688061e-09, 6.379402133182643e-10, -5.113313629059943e-09, 5.764483851252093e+03, 6.349874503825241e+03, 4.586158385407498e+02, 1.226611283582159e+04, 9.913426125844977e+02, -5.224164269982417e+02, 6.573118863469626e+03
10719, 8.280904466373502e-01, 1.321918680230152e+00, -2.955069684971376e-03, -1.009463551556641e-09, 3.294542320691836e-10, -2.567138577361763e-09, 3.652139081927408e+03, 3.787880251940966e+03, 4.027072746087548e+01, 6.777686145986928e+03, 1.438986837680222e+03, 3.249566338710129e+02, 3.987092887391972e+03
10720, 3.416789355855382e-01, 2.922533734091498e-01, -2.027119908721008e-02, -1.678598705818817e-09, 1.173379495463971e-09, -7.828946874030843e-09, 4.897383585364209e+03, 4.390355330545511e+03, -1.082149234915304e+03, 7.892355656105919e+03, 4.402151480740436e+02, 2.813763231522159e+02, 3.882975373772433e+03
10721, 2.919354938264877e-01, 4.357844310673532e-02, 5.562694878767262e-02, -3.539285507241218e-10, 8.174273610725962e-10, -1.094954939505013e-09, 3.177465274509740e+03, 3.385580868925364e+03, -6.565265994125296e+01, 5.830062120767121e+03, 4.165099977392894e+02, -1.089137643217421e+03, 3.258768222434934e+03
10722, 6.293384200534197e-01, 5.021368820294579e-01, 4.417536075640618e-02, -5.545659336180006e-10, 2.019141043106056e-10, -6.118490633505210e-10, 2.558069475501069e+03, 2.420656562628265e+03, -3.318709687967832e+01, 4.241679286177421e+03, 9.518419745953469e+02, -3.435491618215195e+02, 2.481968109227743e+03
10723, 6.865288393058516e-01, 5.772968197903017e-01, 1.629487276495311e-02, -8.408845795312656e-10, 2.458615050778073e-10, -1.344586327410366e-09, 1.893272575625951e+03, 1.782469623803747e+03, 8.917852523633263e+01, 3.992195621259802e+03, 4.843373356481754e+02, 6.391324492663986e+01, 2.321676811177373e+03
10724, 5.548954897779951e-01, 7.360271656656986e-02, 4.812215227423172e-02, -3.727011157188366e-10, 3.342706419570681e-10, -5.822532012738600e-10, 1.949200323367997e+03, 1.778117613392232e+03, -9.149881170736548e+01, 3.311399579390132e+03, 5.476507126304273e+02, -4.535544513860964e+02, 1.913091679687359e+03
10725, 7.636925540514032e-01, 8.388646374805500e-01, -5.259846697655678e-03, -1.046625328168865e-09, 4.639916078522657e-10, -1.487682389003965e-09, 2.041377047676766e+03, 1.685667900725650e+03, -1.757844218182219e+02, 2.512979077181884e+03, 1.040440247444851e+03, -4.152564105314027e+02, 2.091471372241847e+03
10726, 1.149327743794876e-01, 1.959797361786167e-02, 8.239733208323361e-03, 4.158434099233402e-10, 1.052728514884218e-09, -1.462701972608348e-09, 3.237987273845768e+03, 5.187677526825630e+03, 4.023021914101333e+02, 6.040866340997412e+03, -1.781590132866803e+01, -2.504553900070032e+03, 5.049509010177462e+03
10727, 4.421776769377090e-01, 1.765541633809596e-01, 3.892519317843296e-03, -1.228233515773479e-09, 8.519687285539800e-10, -4.042439706578832e-09, 3.706028826015682e+03, 3.233018187240444e+03, -2.946140908842491e+02, 6.661474613545592e+03, 4.167439605098651e+02, -1.040175987204337e+02, 3.342190019027292e+03
10728, 4.841213399393657e-01, 2.664451491104115e-01, 5.362870865708393e-02, -5.242403021617062e-10, 2.305059508737854e-10, -9.000476912588739e-10, 3.546877174345584e+03, 3.374712703171676e+03, -4.658683893042751e+01, 6.110072579157341e+03, 8.560236743390460e+02, -3.308069075152805e+02, 3.094194999304073e+03
10729, 7.307971555298138e-01, 1.252158165924619e+00, -5.049366110063347e-03, -9.007694825043482e-10, 1.060806495068502e-10, -3.160332547451564e-09, 3.449653697607778e+03, 3.881644002161999e+03, 8.374209588203290e+02, 4.968424833888083e+03, 6.336039873345350e+02, 6.097394554951561e+02, 2.502142525475529e+03
10730, 8.554007843228791e-01, 1.590846833725624e+00, 5.696372079604737e-03, -1.100942554324371e-09, 2.969886661832762e-09, -1.714542249015689e-09, 8.060635324554239e+03, 1.107205027781845e+04, -3.167176409806449e+02, 9.106635680877054e+03, 2.365416915442088e+03, -1.921734512827520e+03, 5.931147275974651e+03
10731, 9.913441839091135e-01, 9.973949717481438e-01, 7.905004961103310e-03, -4.274620300867709e-10, 1.282914875207552e-10, 3.860133154005784e-10, -8.618406937157363e+02, -1.024716172641640e+03, -2.128118310235815e+01, -2.020540430876754e+03, 8.276644936765018e+02, -2.918756026875238e+02, 1.868798554896862e+03
10732, 8.146819750386798e-01, 5.142696552136350e-01, -1.214597218982951e-03, -6.547002565710122e-10, 1.421516441793635e-10, -1.026771544792288e-10, 2.369674945160641e+02, 2.390755325011039e+02, -1.139668978626322e+01, 4.611179090730424e+02, 3.353109087839420e+02, -5.544138802700641e+01, 6.298304909766107e+02
10733, 7.805739313797510e-01, 5.122367289197469e-01, 2.752905701462337e-02, -4.624180757328656e-10, 1.100151818114186e-10, -1.110052395431143e-10, 7.390088160941423e+02, 5.705786353415519e+02, -2.193212308689716e+01, 7.992602335930828e+02, 6.067112213378454e+02, -1.483829640182931e+02, 1.101788637004651e+03
10734, 9.053149799801770e-01, 1.243150102689955e+00, 1.856158833160003e-04, -5.605448077834418e-10, 2.354999282810131e-10, -8.757881937980394e-10, 1.856934619733859e+03, 1.513021977969438e+03, -1.311357895766854e+01, 2.719906254065363e+03, 2.108904962540639e+01, -2.798531246628603e+01, 1.078880195573137e+03
10735, 7.706002135796646e-01, 8.668138985247009e-01, -5.017339626638046e-03, -7.029212888477421e-10, 5.589001248057801e-10, -1.759307745025821e-09, 2.327633409290157e+03, 1.868040126748076e+03, 1.141679867569104e+02, 3.664272384867709e+03, 2.006505473471427e+02, -8.671469574061193e+02, 2.242288224564085e+03
10736, 6.779096072573495e-01, 2.837546580384516e-01, 1.344812030059906e-02, -8.626686054217020e-10, 1.781929175259795e-10, -7.659574571758969e-10, 1.466192804922170e+03, 1.278022073435448e+03, -4.123189405629934e+01, 2.225767496728663e+03, 5.304918540541423e+02, -3.139794493136567e+01, 1.267917262186598e+03
10737, 1.032901335505873e+00, 1.556879198969714e+00, 7.178099345539583e-03, -1.605897943745496e-10, 2.844343454881026e-10, -3.834187453003178e-10, 1.745658080475301e+03, 1.715847397666653e+03, -1.458086002855413e+02, 2.139966150840076e+03, -1.758144759506867e+02, -2.578076358307690e+02, 7.238985349273238e+02
10738, 4.619697242616314e-01, 4.744562288128547e-01, 4.665260416051437e-02, -7.025351670985235e-10, 3.718506127603645e-10, -1.290224767492466e-09, 4.514581288336227e+03, 4.536206804361066e+03, 4.302259621724034e+01, 8.267448790225204e+03, 1.018910671141853e+03, -4.760983546735761e+02, 4.219410276567242e+03
10739, 2.678988485425314e-01, 4.880734786403239e-01, 2.580145056570058e-03, 2.679177255874272e-10, 1.749902855011936e-10, -7.945892838835968e-10, 1.761120983898604e+03, 1.735817270347013e+03, 2.419717560637922e+01, 3.335428280761903e+03, -1.130025400959237e+03, 5.401866652567833e-01, 2.520227999512081e+03
10740, 2.636266662215801e-01, 1.178441124556211e-01, 5.193821336789464e-02, -5.728328696856963e-10, 6.188145705568825e-10, -1.753520872185136e-09, 4.779193611748090e+03, 4.717214257127159e+03, 8.542526090367596e+01, 9.814731836648531e+03, 6.000038462471510e+02, -6.812175357962018e+02, 5.307227555847339e+03
10741, 1.402932131440504e-01, 1.001460028143395e-01, 3.462654756382640e-02, 3.270608619091737e-10, 2.893305279448257e-10, -1.645825701827912e-09, 4.536846782110261e+03, 4.361087898756715e+03, 3.156800763393086e+02, 9.911916605853761e+03, -1.418930677396492e+03, 2.324218542986190e+02, 6.030596765992100e+03
10742, 4.254129777747327e-01, 3.047029765118752e-01, 2.973210354570319e-02, -1.418273012757313e-09, 5.749248897400254e-10, -2.837983670503061e-09, 4.455442416784586e+03, 4.228299084887175e+03, 2.294468942391926e+01, 7.911841821662220e+03, 9.737060616087606e+02, -2.640892312084328e+02, 3.979762334880822e+03
10743, 7.903026567308740e-01, 1.033984737963930e+00, -4.774873368977063e-03, -7.884950038093923e-10, 3.050174014344712e-10, -1.602625698968406e-09, 2.332445758240429e+03, 2.091357050364928e+03, 1.752683064136667e+02, 2.186460556480782e+03, 2.789023234049299e+02, -4.395525754993757e+01, 6.128235555499634e+02
10744, 5.408507642091718e-01, 7.593388950653858e-01, -1.039514271171476e-02, -1.256562184696519e-09, 7.524713096185676e-10, -4.806745955214469e-09, 4.412999605592961e+03, 4.284491739605603e+03, 3.519456024937543e+02, 7.266830901920575e+03, -7.150599820400337e+02, 4.338443131340564e+02, 3.316292994972582e+03
10745, 2.258012102747378e-01, 8.174077018244398e-02, 5.081228378838552e-02, -4.206215020573852e-10, 8.107963102502037e-10, -1.626068958240926e-09, 4.575609951123474e+03, 4.455985451838680e+03, 1.032520040093348e+02, 9.439422419149922e+03, 3.651608840447395e+02, -1.036378548235464e+03, 5.282713763255988e+03
10746, 4.912168615187432e-01, 3.584930118351858e-01, 4.925840383651887e-02, -6.928150403805682e-10, 2.699155440835159e-10, -1.129013618134928e-09, 3.661052300511068e+03, 3.504199122411660e+03, -3.344915161137383e+01, 6.551636591867466e+03, 9.139732501208209e+02, -3.239305762220891e+02, 3.414332833110191e+03
10747, 3.433585843853293e-01, 4.866016332961797e-01, -1.464124870980294e-02, -1.618755416998633e-09, 7.527899529943619e-10, -6.690713968118301e-09, 5.420071939969576e+03, 3.127354497947520e+03, 1.842630590163109e+01, 6.421297071360753e+03, 4.115988810231347e+02, 1.023142059759569e+03, 3.493458155035781e+03
10748, 9.719334081650851e-01, 8.078210410300649e-01, 7.221334733682003e-03, -2.365145607314329e-10, 2.350907227100595e-11, 1.363532075030016e-10, -4.373292070744155e+02, -5.604296920148720e+02, 5.160583196123332e-01, -9.344588267551213e+02, 1.949507215647025e+02, 6.958497111237527e+00, 5.614784977236463e+02
10749, 7.367293307983213e-01, 3.751314415110082e-01, 3.189177460863793e-02, -4.562732184158028e-10, 1.252958081176936e-10, -1.409878030422265e-10, 8.446732576498164e+02, 6.804811318909184e+02, -4.635514633437739e+01, 1.015507230159542e+03, 6.464368936629794e+02, -1.567094858206328e+02, 1.190779095173559e+03
10750, 9.568593796175575e-01, 6.681620493986998e-01, 7.540953576686259e-03, -3.534054695513736e-10, 7.542389229031570e-11, 4.139829460083645e-10, -1.357613968930988e+03, -1.473406914689737e+03, -3.318009868305253e+01, -3.092799960532937e+03, 5.434256906192900e+02, -6.919141906289278e+01, 1.930532489306782e+03
10751, 3.969139425063119e-01, 1.733892277305020e-02, 3.655840543897367e-02, -2.555131549264803e-10, 4.962531239122997e-10, -6.687244586939099e-10, 2.215518628148217e+03, 3.431301550914995e+03, -3.781872073108109e+02, 2.731940991146048e+03, 1.174553028962736e+02, -1.036802806908724e+03, 2.193697061931161e+03
10752, 5.786686676491328e-01, 2.061916858382804e-01, -1.181500340788495e-02, -8.668293168320413e-10, 5.255341993665078e-10, -2.193149745283861e-09, 1.894508581634074e+03, 1.909068579216475e+03, 8.242364073558794e+01, 2.823409013305458e+03, -3.283259240618213e+02, -5.575182757645796e+02, 1.458011593840550e+03
10753, 4.760372322009149e-01, 6.012609401871720e-01, 1.449575802512367e-02, -1.710742993106572e-09, 8.581170249091806e-10, -3.958980615193146e-09, 5.306662571014282e+03, 5.243877368017561e+03, 4.814696553518930e+01, 9.848432581842988e+03, 1.107876152976223e+03, -3.659722736480167e+02, 5.000770238891290e+03
10754, 3.440326401851266e-01, 1.255031688494635e-01, -2.111172206324109e-02, -1.797677437514203e-09, 1.324125110594187e-09, -8.629378815798338e-09, 7.074682991301491e+03, 7.233871619191533e+03, -1.082025507711798e+02, 1.518938888293440e+04, 1.900188942087830e+03, -1.102317628150850e+02, 8.688253816378170e+03
10755, 5.492992900635574e-01, 2.809246564900875e-01, 1.724847500409225e-02, -1.154444921427978e-09, 3.684280174860624e-10, -2.309109936354634e-09, 2.823471778755666e+03, 2.781685371288456e+03, -1.160726966027425e+02, 5.358974482896808e+03, 5.687256348450446e+02, 8.929432421725693e+01, 2.751573222826781e+03
10756, 1.005472748332242e+00, 1.229483476114430e+00, 6.664254285727393e-03, -2.907999342202181e-10, 1.023949160700804e-10, 5.566920472747914e-11, 1.595329720664093e+02, -5.246368437092517e+01, -1.220625293143953e+01, -1.469159253042694e+02, 4.025473915263680e+02, -1.296281202276186e+02, 7.815867841743410e+02
10757, 4.110377632691824e-01, 5.287103105035044e-01, 3.770923092403819e-02, -6.526940602574852e-10, 6.526518337136360e-10, -2.024591705493868e-09, 5.250729580101712e+03, 5.771355208602552e+03, 1.145815971284918e+02, 1.135748672256027e+04, 5.910457710309307e+02, -7.931029291343867e+02, 6.112170520591915e+03
10758, 5.846456789333624e-01, 2.010854405170265e-01, 4.878037706477001e-02, -4.312830212501590e-10, 1.606791425933516e-10, -4.987246348016614e-10, 2.193555415834446e+03, 2.052335186732535e+03, -5.246021501296446e+01, 3.590924135354296e+03, 7.581113379551790e+02, -2.649914940559007e+02, 2.028061962209909e+03
10759, 2.912245645055409e-01, 1.188406757502657e-01, -2.335548314629676e-02, -1.881131666707934e-09, 1.531334496302176e-09, -7.743101747418548e-09, 5.569460846411674e+03, 5.218005666220585e+03, -5.404304667717454e+02, 8.957589025075280e+03, 2.301792855703136e+03, -1.388744777135239e+03, 5.945627888312960e+03
10760, 7.941334931873110e-01, 9.534864988221818e-01, -2.985154005253208e-03, -1.162470590280617e-09, 4.143638948150811e-10, -2.415304937292981e-09, 2.682016748110745e+03, 2.529218426030848e+03, -1.117136249855724e+02, 5.280516415750270e+03, 1.170513590357612e+03, -2.709422921769183e+02, 3.397141359116770e+03
10761, 4.265538764467304e-01, 2.088179565023289e-01, 2.897495504312582e-02, -1.354544990549137e-09, 6.455482744935226e-10, -2.666064688077672e-09, 4.029353854651804e+03, 3.837368210485930e+03, -2.447883178022219e+02, 6.854836615619108e+03, 8.467284203270790e+02, -2.617896424119631e+02, 3.331497548193865e+03
10762, 9.068194150865477e-01, 2.701519674304842e-01, 7.912153203798563e-03, -1.572176775635109e-10, -1.084009694975154e-10, 4.699732292838305e-10, -1.341783508906078e+03, -1.350261152445886e+03, -2.077769377950480e+01, -2.846787465760385e+03, -1.621776484210492e+02, 3.292986112178218e+02, 1.630295226694658e+03
10763, 4.770008630586023e-01, 9.136544806748341e-02, 3.417184870626257e-02, -6.568462745340420e-10, 6.226532756961482e-10, -1.826110225860776e-09, 2.773628457612371e+03, 2.609873718224032e+03, -2.341398248950214e+02, 5.358689668584540e+03, 3.567502173743064e+02, -2.277455875238400e+02, 2.799027293106640e+03
10764, 5.738734523018600e-01, 4.292906790730821e-01, 4.729465891391048e-02, -5.711327452582925e-10, 2.193006014830182e-10, -7.836008907576766e-10, 2.916240949583336e+03, 2.859033103773625e+03, -7.127814788930421e+01, 5.165656391182678e+03, 9.206974012155313e+02, -3.126799956362822e+02, 2.836093431853180e+03
10765, 2.315415720423236e-01, 1.298182210325282e-01, -2.090953251301847e-02, -1.838166969131972e-09, 6.427072111724677e-10, -9.603615874365614e-09, 7.209172994364249e+03, 6.566675120431785e+03, 2.890122913865823e+02, 1.205626528579851e+04, 1.202651863471543e+03, 1.714209499383353e+03, 6.358191184831639e+03
10766, 5.431697068729644e-01, 4.470527339324646e-01, -1.454990609805385e-02, -1.086572547528693e-09, 8.585489523336412e-10, -5.137288449759233e-09, 4.839785458848519e+03, 4.907588741614704e+03, -3.174279452232145e+02, 9.544910791636850e+03, 1.454996342281638e+02, -4.483408732524265e+02, 4.774159537217491e+03
10767, 7.672906322107159e-01, 1.328027211353284e+00, 1.786755081888911e-02, -6.252656498720927e-11, 3.562490675821675e-10, -1.262899017829570e-09, 3.665679127334844e+03, 4.344308296551752e+03, 8.390820732536280e+01, 7.888135236433165e+03, -7.877939207823604e+01, -4.839118425656565e+02, 4.020751623135367e+03
10768, 8.405432483654424e-01, 1.189799164672406e+00, 2.291633808459562e-02, -5.345841092827055e-10, 2.320862041680955e-10, -7.032395608175881e-10, 2.768719257609002e+03, 2.662484989236069e+03, -2.169928788309370e+01, 4.227256457135813e+03, 6.827187322491900e+02, -3.444724208123168e+02, 2.012280805440259e+03
10769, 4.833464033199765e-01, 1.079942121492440e-01, -1.734629072063427e-02, -4.336313044940392e-10, 3.599187225876984e-10, -4.980152955233178e-09, 4.013329686460284e+03, 4.316943756462871e+03, -2.302592583750883e+02, 6.558740984689820e+03, -6.772948143231192e+02, 5.701307060539921e+02, 2.882510596209187e+03
10770, 8.133744887970278e-01, 3.872428699518133e-01, 2.358559193058408e-02, -3.926387224865178e-10, 6.623208864164198e-11, 9.840967919954272e-11, -3.768345238268780e+01, -1.443132739274909e+02, -1.054122660529584e+01, -3.989260596777364e+02, 5.383695362926852e+02, -9.268208531743379e+01, 9.994875874332558e+02
10771, 2.137442088054738e-01, 1.747457112017960e-01, 4.167895000308502e-02, -2.137424912277960e-10, 2.543526699881062e-10, -1.840578061224413e-09, 5.192055817592857e+03, 5.703089100493802e+03, 2.289860978596899e+02, 1.124094972146218e+04, -1.936411141183636e+02, -1.424853969181020e+02, 5.838646005210533e+03
10772, 5.105780386147108e-01, 6.717903777370450e-01, 3.693568534823777e-02, -8.778128408746357e-10, 2.982032180204758e-10, -1.710371768544872e-09, 4.889566622596585e+03, 4.956302433303886e+03, 1.043735199426550e+02, 9.483849667826915e+03, 1.043632931605114e+03, -2.201363244748636e+02, 4.924515991579985e+03
10773, 8.401577280566237e-01, 1.428545877516950e+00, -1.911373621658035e-03, -1.442676698397497e-09, -3.209706675504663e-10, -4.781195273895120e-09, 6.782372204350581e+03, 6.594460937849311e+03, -1.219111000854621e+02, 1.334170887011672e+04, 2.318061651039589e+03, 2.028666014076898e+03, 8.532529237703186e+03
10774, 7.208806900507617e-01, 1.172644306399000e+00, 2.559816587491701e-02, -8.461429872925115e-10, 4.584031594377270e-10, -2.058955211239694e-09, 6.162907260593505e+03, 6.654415931819134e+03, 8.390521503263209e+01, 1.296814752932222e+04, 1.199881903024085e+03, -7.459861756272543e+02, 7.015539709016468e+03
10775, 6.873271223787767e-01, 7.411309534429589e-01, -9.739359875272153e-03, -9.085991735386650e-10, 8.705051406211114e-10, -2.028098816472788e-09, 2.450209792187036e+03, 2.413763221743736e+03, -1.484424969623960e+02, 3.949511596510898e+03, 2.889721295684019e+02, -1.127453634215761e+03, 2.536523990307816e+03
10776, 1.537973223799160e-01, 1.720631922517358e-01, 2.543991572223602e-02, 2.988605121880768e-10, 9.584040505768440e-12, -1.357227407618608e-09, 4.280859895614489e+03, 4.290028413375102e+03, -1.263267772022940e+01, 7.773846942676155e+03, -1.211377014192312e+03, 2.776079469829122e+02, 4.099145903812612e+03
10777, 6.022130020508865e-01, 4.155068468131336e-01, 4.561627258057556e-02, -5.725750179533548e-10, 1.845695011204736e-10, -6.769873846799205e-10, 2.631605761086977e+03, 2.483727180602128e+03, -9.161440864081784e+01, 4.533739270397488e+03, 8.566432477917426e+02, -2.360210087148249e+02, 2.512981312364917e+03
10778, 5.202348117447545e-01, 2.154348665688531e-01, 3.081122982797450e-02, -9.691777255460404e-10, 4.979744752722758e-10, -1.803314086218063e-09, 3.054027917202473e+03, 2.968199118713780e+03, -3.670530993226594e+01, 5.381163090979506e+03, 6.609193577153840e+02, -4.216701253108685e+02, 2.733232889975862e+03
10779, 4.502877386065510e-01, 1.970936985423724e-01, 5.496682847122238e-02, -6.031198249925344e-10, 2.662957814298181e-10, -9.981371121922714e-10, 3.509659178967548e+03, 3.389000945373044e+03, -5.186161373773592e+01, 6.309687375367242e+03, 8.842259804313330e+02, -3.237889845711272e+02, 3.295560092017193e+03
10780, 2.393198297710866e-01, 7.139277432733215e-02, 2.824213853602107e-02, -8.061005423081664e-10, 1.480082911927846e-09, -3.482754578081224e-09, 4.426744187434406e+03, 4.506791200034932e+03, -2.177538362304540e+02, 8.913120725250936e+03, 3.840499429673096e+02, -1.161340068103227e+03, 4.940215224162652e+03
