"arc_length","Displacement_Magnitude","Sxx","Sxy","Sxz","Syy","Syz","Szz","Von_Mises_Stress"
0,0,2.34552e+06,-45783.9,3752.84,4.89619e+06,531869,2.03341e+06,2.88796e+06
0.00181107,5.88176e-07,2.26104e+06,-65250.8,5142.92,4.75752e+06,482454,1.9258e+06,2.83202e+06
0.00362215,1.17635e-06,2.17657e+06,-84716.9,6533.71,4.61884e+06,433039,1.8182e+06,2.77607e+06
0.00543323,1.76453e-06,2.09209e+06,-104184,7923.79,4.48016e+06,383623,1.71059e+06,2.72012e+06
0.00724431,2.46543e-06,2.00939e+06,-120300,10255,4.3476e+06,336301,1.60381e+06,2.66991e+06
0.00905538,3.82562e-06,1.93661e+06,-117697,17841,4.24919e+06,300676,1.50161e+06,2.65175e+06
0.0108665,5.20799e-06,1.86382e+06,-115093,25427,4.15078e+06,265050,1.39941e+06,2.63358e+06
0.0126775,6.59856e-06,1.79104e+06,-112491,33013.3,4.05237e+06,229424,1.29721e+06,2.61541e+06
0.0144886,7.99313e-06,1.71825e+06,-109887,40599.3,3.95396e+06,193798,1.19501e+06,2.59725e+06
0.0162997,9.38984e-06,1.64547e+06,-107284,48185.6,3.85555e+06,158172,1.09281e+06,2.57908e+06
0.0181108,1.07879e-05,1.57268e+06,-104681,55771.5,3.75715e+06,122547,990608,2.56091e+06
0.0199218,1.19811e-05,1.49897e+06,-105058,64960.8,3.64805e+06,87262.4,896677,2.55054e+06
0.0217329,1.40067e-05,1.43446e+06,-92095.4,88635.3,3.54986e+06,63374.8,817884,2.50602e+06
0.023544,1.67138e-05,1.34861e+06,-66188.7,121389,3.41026e+06,35573.5,713334,2.46779e+06
0.0253551,1.9424e-05,1.26275e+06,-40282.9,154142,3.27066e+06,7773.58,608788,2.42957e+06
0.0271662,2.17633e-05,1.20131e+06,-23325.7,179405,3.16429e+06,-6639.59,533193,2.40148e+06
0.0289772,2.36272e-05,1.174e+06,-18877,194198,3.10436e+06,-2340.67,498065,2.38755e+06
0.0307883,2.55439e-05,1.14669e+06,-14428.4,208991,3.04443e+06,1958.33,462937,2.37361e+06
0.0325994,2.75024e-05,1.11938e+06,-9979.7,223784,2.9845e+06,6257.25,427809,2.35968e+06
0.0344105,2.94944e-05,1.09207e+06,-5531.03,238577,2.92457e+06,10556.2,392681,2.34575e+06
0.0362215,3.15135e-05,1.06476e+06,-1082.37,253370,2.86464e+06,14855.2,357552,2.33181e+06
0.0380326,3.35549e-05,1.03744e+06,3366.3,268163,2.80472e+06,19154.2,322425,2.31788e+06
0.0398437,3.56146e-05,1.01013e+06,7814.97,282956,2.74479e+06,23453.1,287296,2.30395e+06
0.0416548,3.77151e-05,983842,12019.1,297415,2.68852e+06,28396.1,251795,2.2931e+06
0.0434658,4.08938e-05,999848,6091.47,298021,2.78406e+06,60021.7,200840,2.41025e+06
0.0452769,4.41732e-05,974348,13971,290407,2.69686e+06,51828.6,218862,2.33366e+06
0.047088,4.75801e-05,950045,24877,282641,2.60006e+06,40935.7,245023,2.24357e+06
0.0488991,5.14276e-05,982364,37291.9,283782,2.66408e+06,61499.8,237245,2.30448e+06
0.0507102,5.52758e-05,1.01468e+06,49706.3,284923,2.7281e+06,82062.8,229468,2.36538e+06
0.0525212,5.91247e-05,1.047e+06,62121.2,286064,2.79213e+06,102627,221690,2.42629e+06
0.0543323,6.2974e-05,1.07931e+06,74535.6,287205,2.85615e+06,123190,213913,2.48719e+06
0.0561434,6.65916e-05,1.09432e+06,72144.2,277934,2.87196e+06,129491,208429,2.50859e+06
0.0579545,6.98476e-05,1.08142e+06,45889.7,251882,2.81008e+06,112803,206642,2.46631e+06
0.0597655,7.31201e-05,1.06853e+06,19635.1,225831,2.7482e+06,96114.4,204855,2.42402e+06
0.0615766,7.6407e-05,1.05563e+06,-6621.69,199777,2.68631e+06,79424.7,203068,2.38173e+06
0.0633877,8.04296e-05,1.04536e+06,25999.5,191589,2.73701e+06,104233,180622,2.44953e+06
0.0651988,8.45803e-05,1.03554e+06,68909.6,186521,2.8074e+06,136292,154564,2.53656e+06
0.0670099,8.88295e-05,1.02664e+06,99375.3,183767,2.87674e+06,163953,129903,2.6175e+06
0.0688209,9.34055e-05,1.02068e+06,89610.5,188484,2.9427e+06,177392,109752,2.67877e+06
0.070632,9.79968e-05,1.01472e+06,79845.6,193203,3.00867e+06,190831,89601.4,2.74003e+06
0.0724431,0.000102601,1.00876e+06,70080.8,197920,3.07464e+06,204270,69450.4,2.8013e+06
0.0742542,0.000107217,1.0028e+06,60315.9,202639,3.1406e+06,217710,49300.2,2.86257e+06
0.0760652,0.000111844,996841,50551,207358,3.20657e+06,231149,29150.1,2.92383e+06
0.0778763,0.000116477,991058,40577.6,211554,3.2747e+06,244935,7798.93,2.98788e+06
0.0796874,0.000121115,988249,25684.7,204850,3.38141e+06,264182,-35216,3.10247e+06
0.0814985,0.000126314,979043,-3913.31,183641,3.44088e+06,264487,-57134.5,3.17253e+06
0.0833095,0.000131516,969838,-33512.3,162432,3.50035e+06,264792,-79054,3.24259e+06
0.0851206,0.000137146,942093,-33215.4,152830,3.43909e+06,262075,-79455.1,3.19259e+06
0.0869317,0.000143281,891679,-26561.4,149486,3.36994e+06,279299,-109092,3.16191e+06
0.0887428,0.000149427,851536,-20781,146886,3.32271e+06,295097,-133937,3.14512e+06
0.0905539,0.00015558,853725,-25223.1,155492,3.3435e+06,293621,-135252,3.16284e+06
0.0923649,0.000161686,838355,-33403.7,169260,3.3092e+06,285578,-141781,3.13882e+06
0.094176,0.000167804,822982,-41584.7,183029,3.27488e+06,277535,-148311,3.1148e+06
0.0959871,0.000173987,814638,-49034.3,193097,3.26382e+06,274343,-141665,3.10678e+06
0.0977982,0.000180191,807991,-56307.5,202272,3.25839e+06,272322,-131834,3.10263e+06
0.0996092,0.000186402,801345,-63580.4,211446,3.25295e+06,270302,-122003,3.09848e+06
0.10142,0.000192619,794699,-70853.6,220621,3.24751e+06,268282,-112172,3.09433e+06
0.103231,0.000199152,810335,-65464.2,220769,3.27511e+06,266178,-77964,3.0943e+06
0.105042,0.000205863,838711,-52834.4,215757,3.3216e+06,264026,-29816.5,3.09662e+06
0.106854,0.000212575,867088,-40204.6,210745,3.36809e+06,261875,18330.4,3.09895e+06
0.108665,0.000219581,821864,-32951.3,203020,3.20037e+06,251594,48579.8,3.18733e+06
0.110476,0.000226749,738792,-28462.7,193901,2.92248e+06,237133,69626.4,3.31997e+06
0.112287,0.000234259,724844,-18945.5,190839,2.87099e+06,222972,72193.5,3.37258e+06
0.114098,0.000241988,754971,-6221.75,191639,2.96385e+06,209004,62977.6,3.37414e+06
0.115909,0.00024972,785102,6502.26,192439,3.05673e+06,195035,53760.7,3.37571e+06
0.11772,0.000257455,815229,19226,193240,3.14959e+06,181066,44544.8,3.37728e+06
0.119531,0.000265193,845359,31950,194040,3.24246e+06,167098,35328,3.37884e+06
0.121342,0.000272934,875490,44674,194841,3.33534e+06,153129,26111.1,3.38041e+06
0.123153,0.000280677,905617,57397.8,195641,3.4282e+06,139160,16895.2,3.38198e+06
0.124964,0.000288422,935747,70121.8,196442,3.52107e+06,125192,7678.35,3.38354e+06
0.126775,0.00029617,965874,82845.5,197242,3.61394e+06,111223,-1537.57,3.38511e+06
0.128586,0.000303919,996005,95569.5,198043,3.70681e+06,97254.4,-10754.4,3.38668e+06
0.130398,0.000311851,1.03771e+06,107431,194853,3.8171e+06,86052.1,-12124.2,3.45368e+06
0.132209,0.000320176,1.12586e+06,119146,181182,4.03143e+06,81342,-3264.35,3.63039e+06
0.13402,0.000328716,1.07505e+06,120603,178263,3.89895e+06,80511.9,-6681.23,3.51825e+06
0.135831,0.000337364,963774,115595,179058,3.61682e+06,83212.9,-13558.2,3.28431e+06
0.137642,0.000346475,919006,98253.5,171916,3.42493e+06,92117.2,17750.8,3.15025e+06
0.139453,0.000355591,874237,80911.8,164773,3.23303e+06,101022,49059.3,3.01618e+06
0.141264,0.000364711,829469,63570.4,157630,3.04114e+06,109926,80368.3,2.88212e+06
0.143075,0.000373836,784699,46228.8,150488,2.84924e+06,118831,111677,2.74805e+06
0.144886,0.000382965,739932,28887.3,143345,2.65735e+06,127735,142986,2.61399e+06
0.146697,0.000392098,695162,11545.7,136203,2.46545e+06,136640,174294,2.47992e+06
0.148508,0.000401235,650394,-5795.82,129060,2.27355e+06,145544,205603,2.34586e+06
0.150319,0.000410375,605625,-23137.5,121917,2.08166e+06,154448,236912,2.21179e+06
0.15213,0.000419991,549159,-40073.5,108242,1.98281e+06,154813,240983,2.12994e+06
0.153942,0.000430097,555673,-31588.3,123414,2.05225e+06,148000,235199,2.14857e+06
0.155753,0.00044022,563955,-22399.5,139398,2.12616e+06,141005,229199,2.16988e+06
0.157564,0.000450347,572237,-13211.1,155383,2.20007e+06,134010,223199,2.19119e+06
0.159375,0.000460477,580520,-4022.28,171367,2.27398e+06,127016,217199,2.2125e+06
0.161186,0.000470611,588802,5166.13,187352,2.34788e+06,120021,211199,2.23381e+06
0.162997,0.000480747,597084,14354.9,203336,2.42179e+06,113026,205199,2.25511e+06
0.164808,0.000490887,605366,23543.3,219321,2.4957e+06,106031,199199,2.27642e+06
0.166619,0.00050103,613649,32732.1,235305,2.56961e+06,99036.9,193199,2.29773e+06
0.16843,0.000511341,622623,41384.7,256442,2.64659e+06,101206,210234,2.33423e+06
0.170241,0.000521851,632428,49395.8,283748,2.72725e+06,114344,254840,2.3889e+06
0.172052,0.00053236,642232,57407.3,311053,2.80791e+06,127484,299448,2.44357e+06
0.173863,0.000543708,640403,64844,305464,2.84904e+06,127358,276120,2.49866e+06
0.175674,0.000555285,638466,71017,292531,2.86399e+06,128799,230676,2.54066e+06
0.177486,0.000566862,635649,77056.2,278719,2.87913e+06,130492,187823,2.58123e+06
0.179297,0.000578433,625317,81953.2,257391,2.89588e+06,134358,167133,2.60947e+06
0.181108,0.000590006,614985,86849.9,236062,2.91263e+06,138223,146444,2.6377e+06
0.182919,0.000601582,604654,91746.9,214734,2.92938e+06,142089,125754,2.66594e+06
0.18473,0.00061316,594322,96643.6,193405,2.94613e+06,145953,105064,2.69418e+06
0.186541,0.000624739,583990,101540,172076,2.96288e+06,149818,84374.6,2.72242e+06
0.188352,0.000636321,573658,106437,150748,2.97963e+06,153684,63684.8,2.75065e+06
0.190163,0.000647904,563326,111334,129419,2.99637e+06,157549,42995.1,2.77889e+06
0.191974,0.000659504,559007,116532,109669,3.01754e+06,165586,26955.2,2.80731e+06
0.193785,0.000671114,557546,121872,90669.1,3.0408e+06,175605,13125.5,2.83582e+06
0.195596,0.000683091,538034,132557,73984.1,3.00618e+06,176447,13636.3,2.80893e+06
0.197407,0.000695221,510982,145473,58265.6,2.9474e+06,173456,20138.6,2.75889e+06
0.199218,0.000707772,490646,149241,52219.1,2.88157e+06,171884,20371.5,2.71128e+06
0.20103,0.000720739,479288,150812,56507,2.80542e+06,170746,13099.5,2.6594e+06
0.202841,0.000733875,477950,170346,67050.6,2.71588e+06,167118,-773.867,2.58746e+06
0.204652,0.000747011,476613,189882,77595,2.62635e+06,163489,-14649.2,2.51553e+06
0.206463,0.000760068,476024,186028,80507.1,2.5513e+06,164115,-13344.7,2.45393e+06
0.208274,0.000773104,475654,175350,81192.6,2.48047e+06,165982,-7612.37,2.39536e+06
0.210085,0.000786142,475284,164673,81878.4,2.40964e+06,167849,-1880.15,2.33678e+06
0.211896,0.000799182,474914,153994,82564,2.33881e+06,169716,3852.17,2.2782e+06
0.213707,0.000812224,474543,143318,83249.8,2.26798e+06,171583,9584.38,2.21962e+06
0.215518,0.000825267,474173,132639,83935.3,2.19715e+06,173450,15316.7,2.16104e+06
0.217329,0.00083888,468706,162137,67687.1,2.19199e+06,175170,37966.4,2.15425e+06
0.21914,0.000852502,463165,192222,51191.5,2.1878e+06,176888,60863.2,2.14821e+06
0.220951,0.000866145,458992,216659,37309.7,2.18304e+06,176215,84608.1,2.13744e+06
0.222762,0.0008799,461974,211550,37104.8,2.17531e+06,163034,112786,2.10192e+06
0.224574,0.000893657,464957,206442,36899.1,2.16759e+06,149853,140965,2.0664e+06
0.226385,0.000907417,467939,201333,36694.2,2.15986e+06,136672,169144,2.03088e+06
0.228196,0.000921179,470922,196225,36488.5,2.15214e+06,123491,197323,1.99536e+06
0.230007,0.000934944,473905,191116,36283.6,2.14441e+06,110309,225501,1.95984e+06
0.231818,0.00094871,476887,186008,36077.9,2.13669e+06,97128.9,253680,1.92432e+06
0.233629,0.000962479,479870,180899,35873.1,2.12896e+06,83947.3,281859,1.8888e+06
0.23544,0.000976489,480457,169487,22736.8,2.14328e+06,99349.7,274809,1.90222e+06
0.237251,0.00099055,480527,156716,6809.42,2.16236e+06,120921,260157,1.9262e+06
0.239062,0.00100461,480596,143945,-9117.41,2.18144e+06,142492,245505,1.95017e+06
0.240873,0.00101867,480667,131174,-25044.8,2.20052e+06,164063,230853,1.97415e+06
0.242684,0.00103351,462839,125491,-7235.63,2.1764e+06,179045,233988,1.95645e+06
0.244495,0.00104858,448822,117442,17539,2.15935e+06,199114,255525,1.93443e+06
0.246306,0.00106365,434806,109392,42313.7,2.14229e+06,219182,277063,1.9124e+06
0.248118,0.00107873,420789,101343,67088.3,2.12523e+06,239251,298600,1.89037e+06
0.249929,0.00109403,409667,105159,81041,2.12507e+06,243265,283680,1.90395e+06
0.25174,0.00110946,400116,115410,89124.3,2.13407e+06,238571,248988,1.93684e+06
0.253551,0.0011249,390564,125663,97207.3,2.14306e+06,233876,214295,1.96974e+06
0.255362,0.00114034,381013,135914,105291,2.15206e+06,229183,179603,2.00263e+06
0.257173,0.00115578,371461,146166,113374,2.16106e+06,224488,144910,2.03553e+06
0.258984,0.00117122,361910,156417,121457,2.17006e+06,219794,110218,2.06842e+06
0.260795,0.00118666,352358,166670,129540,2.17905e+06,215100,75525.4,2.10131e+06
0.262606,0.0012021,342807,176921,137623,2.18805e+06,210406,40833.3,2.13421e+06
0.264417,0.00121755,333255,187173,145706,2.19705e+06,205712,6140.4,2.1671e+06
0.266228,0.00123358,397276,209646,149256,2.31348e+06,196980,11448.5,2.26098e+06
0.268039,0.00124978,483376,235787,151444,2.46216e+06,187036,28761.2,2.37316e+06
0.26985,0.00126599,569351,262059,153715,2.61096e+06,177069,45948.6,2.48562e+06
0.271662,0.00128245,630929,313041,171725,2.78229e+06,162727,39222.3,2.65061e+06
0.273473,0.00129886,653637,346334,187413,2.8697e+06,150571,25440.2,2.74626e+06
0.275284,0.00131516,568580,330588,196666,2.72442e+06,144479,-7905.05,2.64965e+06
0.277095,0.00133145,483521,314842,205918,2.57914e+06,138387,-41250.2,2.55304e+06
0.278906,0.0013477,421044,303718,198769,2.47317e+06,127803,-54810.9,2.47082e+06
0.280717,0.00136392,379732,296926,176246,2.40403e+06,113010,-49826.4,2.40209e+06
0.282528,0.0013806,388320,301988,177832,2.43642e+06,110705,-29399.3,2.41962e+06
0.284339,0.00139731,399640,307700,180739,2.47438e+06,109084,-8127,2.44188e+06
0.28615,0.00141402,410959,313412,183645,2.51233e+06,107462,13145.5,2.46414e+06
0.287961,0.00143073,422279,319123,186552,2.55028e+06,105841,34418.1,2.4864e+06
0.289772,0.00144744,433598,324835,189458,2.58823e+06,104219,55690.6,2.50866e+06
0.291583,0.00146419,444591,330647,192069,2.62678e+06,102649,76555,2.53171e+06
0.293394,0.00148192,445909,339422,185963,2.683e+06,102581,85353.9,2.57818e+06
0.295206,0.00149966,447227,348198,179857,2.73922e+06,102514,94152.8,2.62465e+06
0.297017,0.00151739,448546,356973,173751,2.79543e+06,102447,102952,2.67112e+06
0.298828,0.00153513,449864,365748,167645,2.85165e+06,102379,111751,2.71759e+06
0.300639,0.00155286,451182,374524,161539,2.90786e+06,102312,120550,2.76406e+06
0.30245,0.0015706,452500,383299,155433,2.96408e+06,102245,129349,2.81053e+06
0.304261,0.00158834,453818,392075,149326,3.02029e+06,102177,138148,2.857e+06
0.306072,0.00160607,455136,400850,143220,3.07651e+06,102110,146946,2.90347e+06
0.307883,0.00162382,457171,409779,137812,3.1337e+06,101832,156851,2.9503e+06
0.309694,0.00164183,478646,422865,151342,3.21728e+06,95851.5,196724,3.00684e+06
0.311505,0.0016599,497306,434740,162622,3.29331e+06,90994.2,231279,3.05893e+06
0.313316,0.0016786,471077,423467,148294,3.24708e+06,89422.4,207409,3.02921e+06
0.315127,0.00169752,417848,395863,124986,3.12612e+06,80660,164939,2.94341e+06
0.316938,0.00171651,380411,386433,107547,2.99041e+06,67033.2,111056,2.85914e+06
0.31875,0.0017356,361450,398264,96977.3,2.83745e+06,47716,43820.1,2.77668e+06
0.320561,0.00175468,341876,405238,86599.2,2.68781e+06,30836.2,-16110.7,2.69024e+06
0.322372,0.00177371,320083,394652,76915.3,2.55022e+06,22769.4,-49630.6,2.58945e+06
0.324183,0.00179274,298290,384065,67231.3,2.41263e+06,14702.8,-83150,2.48866e+06
0.325994,0.00181192,277395,372249,60724.5,2.32935e+06,26570.9,-90357.6,2.41494e+06
0.327805,0.0018311,256514,360413,54266.2,2.24689e+06,38743.9,-97162.6,2.34163e+06
0.329616,0.00185029,235634,348578,47807.9,2.16444e+06,50916.9,-103968,2.26831e+06
0.331427,0.00186947,214752,336743,41349.8,2.08199e+06,63090,-110773,2.195e+06
0.333238,0.00188881,203876,335542,36276.3,2.06145e+06,73285.3,-117688,2.17947e+06
0.335049,0.00190848,215418,345217,32757.3,2.12825e+06,77112.2,-114124,2.26126e+06
0.33686,0.00192811,225490,337065,27089.7,2.1214e+06,78796,-97073.2,2.29423e+06
0.338671,0.00194775,235563,328912,21422.2,2.11455e+06,80479.7,-80021,2.3272e+06
0.340482,0.00196738,245636,320759,15754.6,2.1077e+06,82163.5,-62969.8,2.36017e+06
0.342294,0.00198702,255708,312606,10087.1,2.10085e+06,83847.2,-45917.6,2.39314e+06
0.344105,0.00200669,268864,305666,5214.52,2.10584e+06,87967.1,-28870,2.42801e+06
0.345916,0.00202667,313998,311298,8587.11,2.2336e+06,117353,-11860.9,2.48263e+06
0.347727,0.00204665,359131,316929,11959.9,2.36136e+06,146739,5149.18,2.53724e+06
0.349538,0.00206663,404265,322560,15332.5,2.48913e+06,176124,22158.3,2.59186e+06
0.351349,0.00208698,411650,302656,12314.6,2.45594e+06,186040,31023.5,2.50674e+06
0.35316,0.00210745,406019,273946,7092.86,2.36725e+06,189242,37079.2,2.37345e+06
0.354971,0.00212804,400025,252704,2896.61,2.29611e+06,195532,39688.1,2.27543e+06
0.356782,0.00214907,392692,259027,2484.55,2.28974e+06,213221,29571.2,2.3076e+06
0.358593,0.00217009,385358,265350,2072.6,2.28337e+06,230911,19455.2,2.33977e+06
0.360404,0.00219112,381466,268992,-10485.2,2.29376e+06,232732,21490,2.35987e+06
0.362215,0.00221214,363535,242515,-12965.1,2.18273e+06,220954,33537,2.2393e+06
0.364026,0.00223317,338578,202961,-8479.62,2.01351e+06,206183,47696,2.05755e+06
0.365838,0.00225419,313620,163406,-3993.39,1.84428e+06,191412,61854.1,1.8758e+06
0.367649,0.00227527,291296,128325,33.226,1.69105e+06,178185,74326.5,1.72318e+06
0.36946,0.0022967,287950,125481,753.437,1.65308e+06,176094,74644.1,1.78044e+06
0.371271,0.00231813,284604,122637,1472.93,1.61512e+06,174002,74962.5,1.8377e+06
0.373082,0.00233956,281258,119793,2193.14,1.57715e+06,171910,75280.1,1.89496e+06
0.374893,0.002361,277913,116949,2912.64,1.53919e+06,169818,75598.5,1.95223e+06
0.376704,0.00238243,274566,114105,3632.85,1.50122e+06,167726,75916.1,2.00948e+06
0.378515,0.00240387,271220,111260,4353.06,1.46325e+06,165635,76233.7,2.06674e+06
0.380326,0.00242566,266010,116675,18825.7,1.45757e+06,166353,79405.5,2.04373e+06
0.382137,0.00244763,262042,127174,38469.4,1.47931e+06,167756,86754.7,1.9793e+06
0.383948,0.00246961,258075,137674,58113.5,1.50106e+06,169160,94103.9,1.91487e+06
0.385759,0.00249158,254107,148174,77757.3,1.52281e+06,170564,101453,1.85045e+06
0.38757,0.00251356,250139,158674,97401.4,1.54456e+06,171968,108802,1.78602e+06
0.389382,0.00253554,246172,169174,117045,1.56631e+06,173371,116151,1.7216e+06
0.391193,0.00255772,247321,193879,132879,1.63712e+06,178014,141983,1.74606e+06
0.393004,0.00258049,258999,223203,127695,1.70733e+06,188310,179877,1.80569e+06
0.394815,0.0026034,272656,249534,116489,1.76149e+06,199510,215965,1.84876e+06
0.396626,0.0026263,286313,275865,105283,1.81564e+06,210710,252053,1.89182e+06
0.398437,0.00264921,299970,302196,94076.8,1.8698e+06,221910,288142,1.93489e+06
0.400248,0.00267226,305815,320099,93737.6,1.93506e+06,216961,302207,1.97438e+06
0.402059,0.00269537,308090,334152,98361.8,2.00541e+06,204635,306215,2.01222e+06
0.40387,0.00271849,310366,348205,102986,2.07575e+06,192310,310222,2.05007e+06
0.405681,0.0027416,312641,362257,107610,2.1461e+06,179984,314230,2.08791e+06
0.407492,0.00276472,314917,376310,112234,2.21644e+06,167659,318238,2.12576e+06
0.409303,0.00278784,317192,390363,116858,2.28678e+06,155333,322245,2.16361e+06
0.411114,0.00281082,325059,409668,116530,2.35904e+06,151901,311219,2.21265e+06
0.412926,0.00283401,338152,401220,99792.8,2.34253e+06,143817,309776,2.17959e+06
0.414737,0.00285727,352261,386380,79505.9,2.30601e+06,134432,310917,2.12773e+06
0.416548,0.00288052,366370,371539,59219.5,2.26948e+06,125047,312058,2.07588e+06
0.418359,0.00290377,380479,356699,38932.5,2.23296e+06,115662,313198,2.02402e+06
0.42017,0.00292708,386450,339651,28673.6,2.17583e+06,110024,330756,1.95689e+06
0.421981,0.00295112,379537,348709,36274.9,2.2117e+06,116052,298680,2.00752e+06
0.423792,0.00297525,374918,354044,49084.1,2.23515e+06,118656,263153,2.05423e+06
0.425603,0.00299939,370300,359379,61892.8,2.2586e+06,121259,227627,2.10093e+06
0.427414,0.00302352,365681,364715,74701.4,2.28206e+06,123862,192100,2.14763e+06
0.429225,0.00304771,362429,367194,84283.1,2.28747e+06,126392,162366,2.17371e+06
0.431036,0.00307199,361291,365254,88870.2,2.26496e+06,128811,141595,2.1679e+06
0.432847,0.00309617,358926,361242,88103.7,2.23885e+06,127257,129986,2.15181e+06
0.434658,0.00312032,356251,356705,85979.2,2.21183e+06,124695,120701,2.13312e+06
0.43647,0.00314447,353575,352168,83854.4,2.1848e+06,122134,111417,2.11443e+06
0.438281,0.00316862,350899,347630,81729.9,2.15778e+06,119572,102131,2.09574e+06
0.440092,0.00319277,348224,343093,79605.4,2.13076e+06,117011,92846.1,2.07705e+06
0.441903,0.00321716,332092,339068,85381.4,2.09378e+06,121748,67900.1,2.06357e+06
0.443714,0.00324213,282824,336304,110614,2.03228e+06,144458,4385.74,2.06293e+06
0.445525,0.0032671,233555,333540,135847,1.97078e+06,167168,-59127.8,2.06228e+06
0.447336,0.0032923,176308,313629,135297,1.86655e+06,168538,-102507,1.99947e+06
0.449147,0.00331753,117740,290883,130488,1.75525e+06,166382,-142559,1.92638e+06
0.450958,0.00334299,97180.7,280190,119676,1.71869e+06,166206,-147273,1.89529e+06
0.452769,0.00336863,105743,278730,104265,1.73938e+06,167548,-124910,1.89638e+06
0.45458,0.0033943,113862,277451,90291.2,1.75731e+06,168042,-104628,1.89592e+06
0.456391,0.0034201,119411,277225,84645.9,1.75924e+06,163618,-96406.5,1.88648e+06
0.458202,0.00344591,124961,277000,79001,1.76117e+06,159195,-88183.8,1.87705e+06
0.460014,0.00347172,130511,276773,73355.8,1.76311e+06,154771,-79962,1.86761e+06
0.461825,0.00349752,136060,276548,67710.9,1.76504e+06,150348,-71739.4,1.85818e+06
0.463636,0.00352333,141610,276322,62065.7,1.76698e+06,145925,-63517.6,1.84874e+06
0.465447,0.00354914,147159,276096,56420.8,1.76891e+06,141502,-55295,1.83931e+06
0.467258,0.00357495,152709,275870,50775.5,1.77084e+06,137078,-47073.2,1.82987e+06
0.469069,0.00360076,158259,275644,45130.6,1.77278e+06,132655,-38850.5,1.82044e+06
0.47088,0.00362657,163808,275418,39485.4,1.77471e+06,128232,-30628.8,1.811e+06
0.472691,0.00365241,201064,276233,32766.4,1.82785e+06,122750,18203.3,1.8185e+06
0.474502,0.00367828,253193,277537,25544.1,1.905e+06,116772,86086.2,1.83394e+06
0.476313,0.00370414,305322,278840,18321.4,1.98216e+06,110794,153969,1.84939e+06
0.478124,0.00373035,336137,278385,10319.3,2.00992e+06,103300,195498,1.83945e+06
0.479935,0.00375693,343013,277199,5674.09,1.98422e+06,97608.7,207127,1.80463e+06
0.481746,0.00378386,323917,282364,28975.7,1.91216e+06,114010,184596,1.76367e+06
0.483558,0.0038108,304821,287528,52277.5,1.8401e+06,130410,162066,1.72271e+06
0.485369,0.00383773,285725,292693,75579.1,1.76804e+06,146811,139535,1.68175e+06
0.48718,0.00386454,279837,276734,84458.1,1.7367e+06,153477,147317,1.75902e+06
0.488991,0.00389134,274546,259818,92683.8,1.70719e+06,159702,156473,1.84164e+06
0.490802,0.00391814,269255,242902,100909,1.67769e+06,165927,165629,1.92426e+06
0.492613,0.00394494,263965,225986,109135,1.64819e+06,172152,174784,2.00688e+06
0.494424,0.00397175,258674,209070,117360,1.61869e+06,178377,183940,2.08951e+06
0.496235,0.00399859,254864,193728,132162,1.58525e+06,186913,189963,2.1186e+06
0.498046,0.00402572,260151,189689,171722,1.53916e+06,207316,184950,1.9406e+06
0.499857,0.0040537,296086,237192,165044,1.54544e+06,248379,210826,2.07448e+06
0.501668,0.00408161,314058,260007,160040,1.56074e+06,267600,224667,2.11039e+06
0.503479,0.00410941,304054,244375,157641,1.59005e+06,252809,219768,1.99375e+06
0.505291,0.00413721,294051,228743,155242,1.61936e+06,238018,214868,1.8771e+06
0.507102,0.00416495,287932,223896,149567,1.65504e+06,229893,213758,1.76726e+06
0.508913,0.00419261,289886,236480,137975,1.70317e+06,231395,220446,1.6775e+06
0.510724,0.00422044,326122,264457,111764,1.79464e+06,224051,259297,1.74273e+06
0.512535,0.00424826,362359,292435,85552.7,1.88611e+06,216706,298148,1.80795e+06
0.514346,0.00427609,398595,320412,59342.1,1.97758e+06,209361,336999,1.87317e+06
0.516157,0.00430392,434832,348390,33130.9,2.06905e+06,202016,375850,1.9384e+06
0.517968,0.00433177,454876,361722,19054.8,2.11224e+06,197289,396561,1.9667e+06
0.519779,0.00435977,447819,351930,20714.6,2.09332e+06,194598,387234,1.94777e+06
0.52159,0.00438807,415520,323133,28664.1,2.05077e+06,189509,350509,1.91155e+06
0.523401,0.00441636,383220,294336,36613.8,2.00821e+06,184420,313784,1.87534e+06
0.525212,0.00444466,350921,265540,44563.2,1.96566e+06,179331,277059,1.83912e+06
0.527023,0.00447296,318621,236742,52512.9,1.92311e+06,174242,240334,1.8029e+06
0.528835,0.00450191,311299,229745,57584.5,1.90329e+06,169653,224208,1.79861e+06
0.530646,0.00453093,306483,224935,62367.4,1.88574e+06,165115,210150,1.79751e+06
0.532457,0.00455994,301667,220124,67150.2,1.8682e+06,160576,196091,1.79642e+06
0.534268,0.00458902,294115,215439,70948.4,1.85162e+06,154108,181626,1.79933e+06
0.536079,0.00461823,280304,211038,72494.4,1.83726e+06,143227,166232,1.81139e+06
0.53789,0.00464743,266494,206638,74040.3,1.82291e+06,132346,150837,1.82344e+06
0.539701,0.00467664,252684,202237,75586.7,1.80855e+06,121466,135443,1.8355e+06
0.541512,0.00470585,238873,197836,77132.6,1.79419e+06,110585,120048,1.84756e+06
0.543323,0.00473506,225063,193436,78679,1.77983e+06,99705,104654,1.85962e+06
0.545134,0.00476427,211252,189035,80224.9,1.76547e+06,88824.3,89259.5,1.87167e+06
0.546945,0.00479383,228686,200628,92891.1,1.78167e+06,82365.8,69640.6,1.90442e+06
0.548756,0.0048236,255760,218141,121996,1.74507e+06,82922.4,58605.9,1.88079e+06
0.550567,0.00485336,282836,235655,151101,1.70848e+06,83479.4,47570.3,1.85716e+06
0.552379,0.00488313,309910,253168,180206,1.67188e+06,84036,36535.6,1.83353e+06
0.55419,0.00491289,336983,270681,209311,1.63529e+06,84592.6,25500.9,1.80991e+06
0.556001,0.00494305,324030,273576,202287,1.58939e+06,84747.5,23082.3,1.77445e+06
0.557812,0.00497337,334797,286072,194642,1.63001e+06,82400.8,22619.5,1.81467e+06
0.559623,0.00500366,340847,296379,184524,1.65975e+06,81714,20169,1.84463e+06
0.561434,0.00503394,345413,305996,173627,1.68608e+06,81548.9,17093.8,1.87137e+06
0.563245,0.00506422,349980,315614,162731,1.71241e+06,81384,14018.5,1.89811e+06
0.565056,0.0050945,354547,325232,151835,1.73874e+06,81218.9,10943.3,1.92485e+06
0.566867,0.00512487,325847,318084,136402,1.68233e+06,92541.3,1075.28,1.88238e+06
0.568678,0.00515524,294476,309591,120604,1.61927e+06,104786,-9338,1.83435e+06
0.570489,0.00518562,263106,301097,104806,1.55622e+06,117030,-19751.3,1.78632e+06
0.5723,0.00521599,231736,292604,89007.9,1.49316e+06,129275,-30164.7,1.7383e+06
0.574111,0.00524637,200365,284111,73210.1,1.43011e+06,141519,-40578,1.69027e+06
0.575922,0.0052769,184547,281453,67058.8,1.40387e+06,148570,-40237,1.66109e+06
0.577734,0.00530761,184893,284400,70902.3,1.41654e+06,150339,-27476.8,1.64577e+06
0.579545,0.00533835,187862,286576,76253.2,1.43789e+06,151669,-8143.29,1.61166e+06
0.581356,0.0053691,190831,288752,81604.3,1.45924e+06,153000,11190.1,1.57754e+06
0.583167,0.00540008,223600,290982,98715.1,1.5275e+06,161288,50152.3,1.59387e+06
0.584978,0.0054312,276378,293247,123723,1.62726e+06,174248,102295,1.64406e+06
0.586789,0.00546233,329156,295513,148731,1.72702e+06,187209,154438,1.69425e+06
0.5886,0.00549346,356863,297416,163209,1.80118e+06,195867,194960,1.73432e+06
0.590411,0.00552462,359973,299330,167800,1.84775e+06,201362,224060,1.76302e+06
0.592222,0.00555637,311921,307515,159397,1.79448e+06,218334,229021,1.74328e+06
0.594033,0.00558812,263868,315700,150994,1.7412e+06,235306,233981,1.72355e+06
0.595844,0.00561987,215816,323885,142591,1.68794e+06,252279,238941,1.70382e+06
0.597655,0.00565189,203417,317727,140947,1.66855e+06,246041,236564,1.69783e+06
0.599467,0.00568394,194246,310270,139914,1.65224e+06,237701,233521,1.69308e+06
0.601278,0.00571598,185075,302814,138881,1.63593e+06,229363,230480,1.68834e+06
0.603089,0.00574802,175904,295357,137848,1.61962e+06,221024,227438,1.68359e+06
0.6049,0.00578007,166733,287901,136815,1.6033e+06,212685,224396,1.67885e+06
0.606711,0.0058121,157671,280427,135820,1.5863e+06,204749,221501,1.67442e+06
0.608522,0.005844,151070,272566,135687,1.55362e+06,205914,221906,1.67712e+06
0.610333,0.00587589,144470,264705,135554,1.52093e+06,207077,222312,1.67982e+06
0.612144,0.00590804,146727,258265,125315,1.50834e+06,213400,210017,1.68195e+06
0.613955,0.0059403,153552,252559,109865,1.5061e+06,222382,191172,1.68379e+06
0.615766,0.00597257,160378,246852,94414.3,1.50387e+06,231364,172327,1.68563e+06
0.617577,0.00600484,167203,241146,78964.1,1.50163e+06,240347,153482,1.68748e+06
0.619388,0.00603723,172088,236025,62345.2,1.49563e+06,247501,135081,1.68387e+06
0.621199,0.00607033,166378,234109,39345.2,1.46909e+06,244675,119108,1.65049e+06
0.62301,0.00610342,160669,232193,16345,1.44255e+06,241848,103135,1.61711e+06
0.624822,0.00613651,154959,230277,-6654.91,1.41601e+06,239021,87161.5,1.58373e+06
0.626633,0.00616961,149249,228360,-29655.1,1.38946e+06,236194,71188,1.55035e+06
0.628444,0.0062027,143539,226444,-52655,1.36292e+06,233368,55215,1.51698e+06
0.630255,0.0062358,137829,224528,-75655.2,1.33638e+06,230541,39241.4,1.4836e+06
0.632066,0.00626889,132120,222611,-98655.4,1.30983e+06,227714,23267.9,1.45022e+06
0.633877,0.00630199,126410,220695,-121655,1.28329e+06,224888,7294.86,1.41684e+06
0.635688,0.00633512,133630,228700,-136148,1.32174e+06,219672,3625.73,1.43419e+06
0.637499,0.00636849,161100,246319,-153649,1.43004e+06,203316,8342.62,1.53091e+06
0.63931,0.00640188,183188,262259,-170037,1.52095e+06,188015,11323,1.61373e+06
0.641121,0.00643544,132735,255557,-171427,1.37749e+06,186934,-9109.99,1.50921e+06
0.642932,0.006469,82282.5,248856,-172816,1.23403e+06,185852,-29542.5,1.40469e+06
0.644743,0.00650289,78389.4,249806,-173387,1.21216e+06,183744,-29488.3,1.39004e+06
0.646554,0.00653682,88231.4,254668,-164873,1.23598e+06,177739,-18996.5,1.41026e+06
0.648366,0.00657074,98073.4,259529,-156359,1.25979e+06,171734,-8504.61,1.43049e+06
0.650177,0.00660467,107916,264391,-147845,1.28361e+06,165728,1987.82,1.45072e+06
0.651988,0.00663859,117758,269252,-139331,1.30742e+06,159723,12479.7,1.47095e+06
0.653799,0.00667252,127600,274114,-130817,1.33124e+06,153718,22972.1,1.49117e+06
0.65561,0.00670644,137442,278975,-122303,1.35505e+06,147712,33464,1.5114e+06
0.657421,0.00674037,147284,283837,-113789,1.37887e+06,141707,43956.4,1.53163e+06
0.659232,0.00677429,157126,288698,-105275,1.40268e+06,135702,54448.3,1.55186e+06
0.661043,0.00680853,166944,292194,-91605.4,1.43712e+06,141500,62882.4,1.58325e+06
0.662854,0.00684312,176737,294170,-72193.9,1.48337e+06,160445,69023.5,1.62707e+06
0.664665,0.00687771,186529,296145,-52782.3,1.52963e+06,179390,75164.6,1.6709e+06
0.666476,0.00691231,196321,298121,-33369.9,1.57589e+06,198335,81306.1,1.71472e+06
0.668287,0.0069469,206114,300096,-13958.3,1.62215e+06,217279,87447.2,1.75855e+06
0.670098,0.00698162,205859,300035,-3970.7,1.64748e+06,230105,86255.5,1.78629e+06
0.67191,0.00701662,178120,289209,-15348.7,1.61349e+06,222251,72442.8,1.75726e+06
0.673721,0.00705161,150380,278382,-26726.5,1.5795e+06,214397,58630,1.72823e+06
0.675532,0.00708661,122641,267556,-38104.5,1.54551e+06,206543,44817.3,1.6992e+06
0.677343,0.007122,120449,270423,-45881.8,1.54505e+06,196697,44261.9,1.68851e+06
0.679154,0.00715755,127519,278255,-52354,1.55675e+06,186128,48513,1.68448e+06
0.680965,0.00719309,134590,286087,-58826.2,1.56845e+06,175559,52764,1.68044e+06
0.682776,0.00722863,141660,293919,-65298.1,1.58015e+06,164990,57015,1.6764e+06
0.684587,0.00726417,148731,301751,-71770.3,1.59184e+06,154421,61266,1.67237e+06
0.686398,0.00729971,155801,309582,-78242.3,1.60354e+06,143852,65516.9,1.66833e+06
0.688209,0.00733526,162871,317414,-84714.4,1.61524e+06,133283,69768,1.6643e+06
0.69002,0.0073708,169942,325246,-91186.4,1.62694e+06,122715,74018.9,1.66026e+06
0.691831,0.00740617,172801,330808,-88959.3,1.63771e+06,118499,79355.7,1.66528e+06
0.693642,0.00744175,186658,340622,-89857.2,1.66062e+06,117865,88116.1,1.68302e+06
0.695454,0.00747733,200514,350436,-90754.7,1.68353e+06,117231,96876.6,1.70075e+06
0.697265,0.00751291,214371,360250,-91652.1,1.70644e+06,116597,105637,1.71848e+06
0.699076,0.00754856,228019,372318,-91806.5,1.73798e+06,117127,110957,1.74452e+06
0.700887,0.00758484,249256,382317,-74654.3,1.78999e+06,122980,131348,1.778e+06
0.702698,0.00762115,271999,389543,-55378.3,1.83618e+06,128481,157982,1.80381e+06
0.704509,0.00765746,294742,396769,-36102.3,1.88237e+06,133981,184615,1.82962e+06
0.70632,0.00769378,317484,403995,-16826.3,1.92857e+06,139482,211249,1.85543e+06
0.708131,0.00773032,319730,388022,-10435.8,1.88127e+06,139750,228879,1.8466e+06
0.709942,0.00776686,315488,366415,-13539.8,1.80349e+06,135134,235171,1.83041e+06
0.711753,0.00780338,311234,345376,-18495.3,1.72536e+06,129417,238565,1.81544e+06
0.713564,0.0078399,306979,324338,-23450.7,1.64722e+06,123699,241959,1.80046e+06
0.715375,0.00787642,302725,303299,-28407.5,1.56908e+06,117981,245352,1.78549e+06
0.717187,0.00791294,298470,282260,-33363,1.49094e+06,112263,248746,1.77051e+06
0.718998,0.00794946,294216,261221,-38319.7,1.4128e+06,106545,252139,1.75554e+06
0.720809,0.00798615,281355,243737,-24273.3,1.34496e+06,109717,252162,1.71855e+06
0.72262,0.00802299,261287,229227,5684.04,1.28575e+06,120331,249362,1.66312e+06
0.724431,0.00805992,235804,209613,17747.2,1.21487e+06,120774,242719,1.59719e+06
0.726242,0.00809697,203332,183409,6710.62,1.12894e+06,108086,231112,1.51771e+06
0.728053,0.00813401,170861,157207,-4325.74,1.04302e+06,95398,219507,1.43822e+06
0.729864,0.00817142,163361,156091,7762.69,1.08966e+06,93469.6,237997,1.47802e+06
0.731675,0.00820886,157083,156203,20983.1,1.1428e+06,92067.7,257960,1.52366e+06
0.733486,0.0082463,150805,156315,34202.9,1.19593e+06,90665.6,277923,1.56929e+06
0.735297,0.00828377,148572,159646,46644.6,1.24833e+06,90548,290783,1.60375e+06
0.737108,0.00832128,150946,166642,58199,1.29988e+06,91892.6,295556,1.62549e+06
0.738919,0.00835879,153320,173638,69754,1.35144e+06,93237.3,300329,1.64723e+06
0.74073,0.0083963,155694,180634,81308.4,1.403e+06,94581.9,305102,1.66896e+06
0.742542,0.00843404,160344,196666,89747.5,1.44066e+06,99494.7,292917,1.68218e+06
0.744353,0.00847203,167512,222687,94740.8,1.46293e+06,108352,261983,1.68598e+06
0.746164,0.00851001,174679,248709,99734.1,1.48521e+06,117210,231048,1.68978e+06
0.747975,0.008548,181847,274731,104728,1.50749e+06,126068,200114,1.69358e+06
0.749786,0.00858598,189015,300752,109721,1.52976e+06,134925,169179,1.69738e+06
0.751597,0.00862397,196183,326774,114715,1.55204e+06,143783,138244,1.70118e+06
0.753408,0.00866221,188291,328264,104278,1.54175e+06,158673,101274,1.66151e+06
0.755219,0.00870087,198340,293179,91813,1.58286e+06,177668,108400,1.68435e+06
0.75703,0.00873952,208388,258093,79347.5,1.62398e+06,196663,115527,1.70719e+06
0.758841,0.00877817,218437,223007,66882.1,1.6651e+06,215658,122654,1.73003e+06
0.760652,0.00881689,203870,234647,50314.6,1.47909e+06,240448,104262,1.57214e+06
0.762463,0.00885563,189953,246782,35537.3,1.30339e+06,263326,85468.6,1.42383e+06
0.764274,0.00889469,190767,250293,42011.5,1.31167e+06,263079,69929.4,1.43741e+06
0.766086,0.00893374,191581,253805,48485.6,1.31994e+06,262831,54390.6,1.45099e+06
0.767897,0.00897279,192395,257316,54959.9,1.32822e+06,262584,38851.4,1.46457e+06
0.769708,0.00901189,195234,259642,64356.1,1.36179e+06,259157,23760,1.50041e+06
0.771519,0.009051,199017,261415,75113.6,1.40715e+06,254249,8876.71,1.54662e+06
0.77333,0.00909012,202801,263188,85871.5,1.45251e+06,249340,-6006.09,1.59283e+06
0.775141,0.00912921,203415,263832,97418.9,1.48853e+06,245124,-21373.4,1.63192e+06
0.776952,0.00916812,173859,253736,116483,1.43564e+06,247516,-41354.2,1.60323e+06
0.778763,0.00920745,168257,255265,128435,1.48314e+06,242555,-39185.2,1.64718e+06
0.780574,0.00924714,183611,266966,134163,1.61847e+06,231163,-17639.1,1.75466e+06
0.782385,0.00928683,198964,278667,139891,1.75379e+06,219770,3906.5,1.86215e+06
0.784196,0.00932647,216274,293220,138833,1.85094e+06,212190,16046.5,1.94186e+06
0.786007,0.00936601,237225,313079,125148,1.87703e+06,211704,10682.1,1.9699e+06
0.787818,0.00940554,232817,312433,126710,1.82931e+06,202592,-538.145,1.93084e+06
0.78963,0.00944506,221416,306135,132475,1.76125e+06,191102,-13373.7,1.87328e+06
0.791441,0.00948458,210016,299837,138240,1.69318e+06,179612,-26209.3,1.81573e+06
0.793252,0.00952413,210048,296090,135518,1.66037e+06,173879,-13444.2,1.78024e+06
0.795063,0.00956367,212684,292924,130861,1.63559e+06,169458,5152.74,1.74978e+06
0.796874,0.00960322,215321,289758,126205,1.61082e+06,165037,23750,1.71933e+06
0.798685,0.00964289,217667,288607,122672,1.58534e+06,164862,43128.2,1.69087e+06
0.800496,0.00968314,218714,296501,124174,1.55673e+06,183736,66012,1.67143e+06
0.802307,0.00972338,219760,304394,125675,1.52811e+06,202609,88895.5,1.65198e+06
0.804118,0.00976362,220807,312288,127177,1.4995e+06,221483,111779,1.63253e+06
0.805929,0.00980411,218392,307559,125412,1.4646e+06,231891,121536,1.61663e+06
0.80774,0.00984474,213853,295088,121643,1.42585e+06,237105,123241,1.60291e+06
0.809551,0.00988538,210593,282819,113175,1.39167e+06,236014,124416,1.58766e+06
0.811363,0.00992604,210176,270998,94269.8,1.36766e+06,220912,124410,1.569e+06
0.813174,0.00996671,209758,259178,75364.7,1.34364e+06,205810,124404,1.55035e+06
0.814985,0.0100074,209340,247358,56459.3,1.31963e+06,190707,124398,1.53169e+06
0.816796,0.010048,208451,236719,39284.8,1.29728e+06,177367,125291,1.51487e+06
0.818607,0.0100888,202603,238528,40327.7,1.29247e+06,182565,135644,1.51733e+06
0.820418,0.0101295,195795,239154,40570.3,1.28211e+06,188336,144526,1.51289e+06
0.822229,0.0101707,182156,231374,35121.8,1.23229e+06,198174,142945,1.45939e+06
0.82404,0.0102119,168516,223593,29673.2,1.18247e+06,208012,141365,1.40589e+06
0.825851,0.010253,154877,215813,24224.7,1.13265e+06,217850,139784,1.35238e+06
0.827662,0.0102942,142139,208072,18503.4,1.08566e+06,226651,138658,1.31008e+06
0.829473,0.0103357,142082,200893,8942.57,1.07848e+06,220846,143933,1.42547e+06
0.831284,0.0103773,142025,193714,-618.261,1.07129e+06,215041,149207,1.54086e+06
0.833095,0.0104188,147666,189621,-12649.3,1.0768e+06,206177,153072,1.66865e+06
0.834907,0.0104606,171997,195653,-32783.6,1.12393e+06,187282,152316,1.83708e+06
0.836718,0.0105023,196327,201685,-52917.8,1.17105e+06,168387,151560,2.00551e+06
0.838529,0.0105441,233992,233721,-64810,1.27259e+06,160178,161020,2.01135e+06
0.84034,0.0105858,275685,273611,-74212.8,1.39056e+06,155197,173566,1.96808e+06
0.842151,0.010628,231761,212320,-87636.5,1.35158e+06,172969,168420,2.10054e+06
0.843962,0.0106698,204135,188457,-90784.6,1.34289e+06,188407,157221,2.10447e+06
0.845773,0.0107114,195355,195849,-88343.8,1.36895e+06,199825,145259,2.02268e+06
0.847584,0.0107532,188103,197799,-86869.6,1.37961e+06,207893,133663,1.93756e+06
0.849395,0.0107954,183719,189535,-87208.9,1.36136e+06,209676,122754,1.84618e+06
0.851206,0.0108376,179335,181272,-87548.2,1.34312e+06,211459,111845,1.75481e+06
0.853017,0.0108798,174951,173008,-87887.5,1.32488e+06,213242,100936,1.66343e+06
0.854828,0.010922,170567,164745,-88226.8,1.30663e+06,215025,90027.4,1.57206e+06
0.856639,0.0109644,154905,145407,-86654.8,1.23933e+06,192572,77314.7,1.56226e+06
0.858451,0.0110068,139287,126111,-85090.3,1.17222e+06,170217,64609.6,1.55213e+06
0.860262,0.0110493,128387,118088,-66459.1,1.13972e+06,169761,70526.1,1.53023e+06
0.862073,0.0110919,118608,112747,-43766.5,1.11546e+06,174517,80874.4,1.50552e+06
0.863884,0.0111346,127405,113402,-14713.6,1.11167e+06,185889,121020,1.48245e+06
0.865695,0.0111775,139283,115051,15394.7,1.11128e+06,198361,166108,1.45965e+06
0.867506,0.0112205,160068,122154,35441.7,1.11922e+06,202526,210820,1.44222e+06
0.869317,0.0112639,201916,142152,31699.5,1.14689e+06,187055,254641,1.4375e+06
0.871128,0.0113072,229760,156812,32599.5,1.16303e+06,173882,283363,1.43199e+06
0.872939,0.0113504,231882,161667,42025.9,1.15799e+06,164933,284353,1.42505e+06
0.87475,0.0113937,234005,166522,51451.6,1.15296e+06,155983,285343,1.41811e+06
0.876561,0.0114369,236127,171378,60878,1.14792e+06,147034,286333,1.41117e+06
0.878372,0.0114801,238250,176232,70303.8,1.14289e+06,138084,287323,1.40423e+06
0.880183,0.0115234,240372,181088,79730.2,1.13785e+06,129135,288312,1.3973e+06
0.881995,0.0115666,242494,185943,89155.9,1.13282e+06,120185,289303,1.39036e+06
0.883806,0.0116098,244616,190798,98582.3,1.12778e+06,111236,290292,1.38342e+06
0.885617,0.0116531,246739,195653,108008,1.12275e+06,102286,291283,1.37648e+06
0.887428,0.0116963,248861,200508,117434,1.11771e+06,93336.7,292272,1.36954e+06
0.889239,0.0117395,250983,205363,126861,1.11267e+06,84387,293262,1.3626e+06
0.89105,0.0117828,227558,193522,118300,1.06751e+06,76436.7,255820,1.33639e+06
0.892861,0.011826,193282,174590,102101,1.00531e+06,68909.8,202054,1.30199e+06
0.894672,0.0118693,159720,156889,86813.8,944626,62354.2,149298,1.2695e+06
0.896483,0.0119133,135190,154814,83092.2,903216,68115.8,109341,1.26126e+06
0.898294,0.0119573,114495,154472,78561.9,872641,74399,76217.5,1.25245e+06
0.900105,0.0120015,112639,162645,70057.1,895296,83241.5,76655.9,1.2409e+06
0.901916,0.0120457,110784,170818,61552.3,917952,92084.5,77095.8,1.22936e+06
0.903727,0.0120898,108928,178991,53047.5,940607,100927,77534.3,1.21781e+06
0.905538,0.012134,107072,187164,44542.6,963262,109769,77972.7,1.20626e+06
0.90735,0.0121782,105218,195337,36037.9,985918,118613,78412.6,1.19471e+06
0.909161,0.0122224,103362,203509,27533.1,1.00857e+06,127455,78851,1.18316e+06
0.910972,0.0122666,101507,211682,19028.3,1.03123e+06,136298,79290.9,1.17161e+06
0.912783,0.0123108,99650.9,219855,10523.5,1.05388e+06,145141,79729.3,1.16007e+06
0.914594,0.0123553,140936,238536,6918.06,1.16262e+06,154715,95924.2,1.24232e+06
0.916405,0.0123999,190767,259298,4283.15,1.28841e+06,164434,115239,1.34317e+06
0.918216,0.0124445,236102,278929,1090.61,1.40545e+06,172618,131676,1.43816e+06
0.920027,0.0124893,234492,286745,-7923.58,1.43109e+06,164773,118057,1.47214e+06
0.921838,0.012534,210312,277171,-12384.2,1.36029e+06,169191,108497,1.41745e+06
0.923649,0.0125787,174327,258501,-14463.2,1.23904e+06,180023,101060,1.31638e+06
0.92546,0.0126234,138343,239830,-16542,1.11779e+06,190855,93623.1,1.2153e+06
0.927271,0.0126686,131220,226459,-16699.6,1.06988e+06,194669,110167,1.1632e+06
0.929083,0.0127138,129302,214044,-16510.5,1.03519e+06,197219,131034,1.11992e+06
0.930894,0.012759,127384,201629,-16321.5,1.0005e+06,199767,151903,1.07664e+06
0.932705,0.0128042,125466,189214,-16132.5,965813,202316,172770,1.03337e+06
0.934516,0.0128495,123548,176799,-15943.4,931124,204866,193638,990089
0.936327,0.0128947,121630,164384,-15754.4,896438,207414,214506,946813
0.938138,0.0129399,119712,151969,-15565.3,861750,209963,235374,903536
0.939949,0.0129853,117815,143661,-15319.8,824731,209443,247573,864120
0.94176,0.0130309,122994,148743,-3924.2,870762,213149,268193,897691
0.943571,0.0130765,127856,154075,7020.36,916243,216683,286290,932552
0.945382,0.0131224,125862,163180,7997.18,932316,214441,255011,974814
0.947193,0.0131682,123869,172286,8973.45,948388,212197,223731,1.01708e+06
0.949004,0.013214,121875,181391,9950.28,964461,209954,192452,1.05934e+06
0.950815,0.0132598,119882,190496,10927.1,980534,207711,161173,1.1016e+06
0.952627,0.0133056,117888,199601,11903.4,996607,205467,129893,1.14386e+06
0.954438,0.0133514,115895,208706,12880.2,1.01268e+06,203224,98614.5,1.18612e+06
0.956249,0.0133972,113901,217812,13856.5,1.02875e+06,200980,67334.3,1.22839e+06
0.95806,0.013443,111908,226917,14833.3,1.04482e+06,198737,36055.5,1.27065e+06
0.959871,0.0134889,108073,234539,19258,1.05781e+06,199110,7254.75,1.30895e+06
0.961682,0.0135351,88212.4,229243,53700.3,1.04396e+06,222267,37.8478,1.31281e+06
0.963493,0.0135813,68351.2,223949,88142.8,1.0301e+06,245423,-7179.92,1.31666e+06
0.965304,0.0136277,62488.1,214814,101708,1.00212e+06,256591,-18050.9,1.2971e+06
0.967115,0.0136741,68125.8,202524,98119.2,962532,257911,-31924.1,1.25831e+06
0.968926,0.0137207,82818.2,193521,89275.7,958038,255475,-27250.2,1.22888e+06
0.970737,0.0137675,100360,185551,78777.5,964588,251857,-16739.4,1.2024e+06
0.972548,0.0138143,117902,177582,68280,971138,248238,-6228.92,1.17592e+06
0.974359,0.0138611,127210,174068,61123.9,974717,239228,-964.128,1.15535e+06
0.976171,0.013908,131086,173495,56173.3,976337,226661,839.522,1.13867e+06
0.977982,0.0139549,134962,172921,51222.3,977957,214093,2643.18,1.12199e+06
0.979793,0.0140018,138837,172348,46271.7,979577,201526,4446.83,1.10531e+06
0.981604,0.0140487,142713,171775,41320.6,981197,188958,6250.49,1.08862e+06
0.983415,0.0140956,146589,171201,36369.6,982816,176391,8054.15,1.07194e+06
0.985226,0.0141425,150464,170628,31419,984436,163823,9857.8,1.05526e+06
0.987037,0.0141894,154340,170055,26467.9,986056,151256,11661.5,1.03858e+06
0.988848,0.0142363,157913,169880,22001.7,986860,139336,12993.1,1.02344e+06
0.990659,0.0142832,160543,170944,19043.7,985119,129434,12854.1,1.0131e+06
0.99247,0.0143301,165202,175359,10920.3,1.00025e+06,118608,12615.3,1.02103e+06
0.994281,0.0143771,174612,187622,-9308.06,1.05492e+06,105617,12141.6,1.07182e+06
0.996092,0.0144242,184023,199884,-29535.9,1.10958e+06,92625.2,11668.3,1.1226e+06
0.997903,0.0144717,195483,207381,-21376.6,1.12646e+06,91253.7,22635.3,1.11899e+06
0.999715,0.0145195,209152,208543,4113.24,1.10601e+06,97405.7,32871.3,1.09298e+06
1.00153,0.0145674,222821,209705,29603.8,1.08555e+06,103558,43107.3,1.06696e+06
1.00334,0.0146154,226274,208116,34433.4,1.07223e+06,114276,52404.8,1.07066e+06
1.00515,0.0146634,227732,205990,35228.2,1.0603e+06,125887,61519,1.08017e+06
1.00696,0.0147114,229191,203864,36023.1,1.04837e+06,137497,70633.2,1.08967e+06
1.00877,0.0147594,230649,201737,36817.8,1.03644e+06,149107,79747.1,1.09917e+06
1.01058,0.0148074,231391,199945,37329.8,1.02436e+06,160555,88198.4,1.10925e+06
1.01239,0.0148554,230322,198998,37126.1,1.01191e+06,171590,94971.7,1.12079e+06
1.0142,0.0149034,229254,198050,36923,999465,182626,101746,1.13232e+06
1.01601,0.0149514,228186,197102,36719.7,987016,193661,108521,1.14386e+06
1.01783,0.0149995,212852,197674,42137,959695,197382,113159,1.13471e+06
1.01964,0.0150478,173332,193175,35809,895845,191294,102816,1.09375e+06
1.02145,0.0150962,133808,188675,29480.7,831991,185204,92472.5,1.05279e+06
1.02326,0.0151445,94287,184176,23152.7,768142,179116,82129.8,1.01183e+06
1.02507,0.0151929,78733.7,181690,20810,744024,175184,80192,987435
1.02688,0.0152414,82761.7,186239,25039.6,760976,172936,83215,991460
1.02869,0.0152899,86085.6,191779,29798.7,778440,170610,85620,997898
1.0305,0.0153384,89409.4,197319,34557.4,795902,168285,88024.9,1.00434e+06
1.03231,0.015387,92733.4,202859,39316.2,813365,165959,90429.9,1.01077e+06
1.03412,0.0154355,96057.1,208399,44075.1,830828,163633,92834.7,1.01721e+06
1.03594,0.015484,99381.1,213939,48833.9,848291,161307,95239.8,1.02365e+06
1.03775,0.0155325,102705,219479,53592.8,865754,158981,97644.6,1.03009e+06
1.03956,0.0155812,107341,224746,59211.8,890116,160547,100921,1.0462e+06
1.04137,0.0156302,117215,228918,68266.4,942036,177659,107678,1.10097e+06
1.04318,0.0156793,127091,233090,77321.2,993957,194771,114436,1.15575e+06
1.04499,0.0157283,136965,237262,86375.8,1.04588e+06,211883,121193,1.21052e+06
1.0468,0.0157775,139726,231611,87335.5,1.05355e+06,224891,128433,1.24819e+06
1.04861,0.0158269,133489,215394,76262.1,1.0103e+06,228396,132773,1.26374e+06
1.05042,0.0158763,125566,202523,57774.6,971984,217737,126492,1.27371e+06
1.05224,0.0159256,117643,189653,39288.3,933673,207078,120211,1.28368e+06
1.05405,0.015975,109720,176782,20800.9,895359,196419,113930,1.29365e+06
1.05586,0.0160244,104368,168425,10401.9,871628,189001,109137,1.32176e+06
1.05767,0.016074,105819,172006,21403.1,886477,190158,108282,1.3979e+06
1.05948,0.0161235,109344,176007,31612.4,901207,192902,112105,1.45745e+06
1.06129,0.0161733,119659,181383,39231.4,915552,200840,131242,1.46273e+06
1.0631,0.0162232,129974,186760,46850,929897,208778,150378,1.46801e+06
1.06491,0.016273,140289,192137,54469.2,944243,216715,169515,1.47329e+06
1.06672,0.0163228,148905,195398,58666.8,948229,223938,185141,1.47034e+06
1.06854,0.0163726,152204,192061,52209.8,920895,226700,189781,1.44197e+06
1.07035,0.0164228,155615,189081,46494.8,904569,208770,194707,1.41729e+06
1.07216,0.0164729,159027,186102,40779.5,888241,190839,199632,1.39261e+06
1.07397,0.0165231,162439,183122,35064.6,871915,172909,204558,1.36793e+06
1.07578,0.0165733,165851,180143,29349.3,855587,154978,209483,1.34324e+06
1.07759,0.0166234,163758,173076,22127.7,838636,143294,208893,1.30394e+06
1.0794,0.0166734,155425,161375,13198,820977,138690,202051,1.24807e+06
1.08121,0.0167234,147094,149675,4268.82,803318,134086,195210,1.1922e+06
1.08302,0.0167734,138729,141510,-5166.42,790496,132588,180915,1.1326e+06
1.08484,0.0168234,130354,134547,-14772.9,779319,132147,164086,1.07173e+06
1.08665,0.0168735,121978,127585,-24380,768142,131706,147256,1.01086e+06
1.08846,0.0169238,118797,125004,-29895.8,765689,135266,140877,980146
1.09027,0.0169746,122597,128314,-29913.7,774961,144204,148543,989944
1.09208,0.0170254,126397,131623,-29931.6,784233,153140,156208,999743
1.09389,0.0170762,129394,134528,-29554.9,795163,162090,162373,1.00992e+06
1.0957,0.017127,129133,135794,-27576.5,812824,171092,162443,1.02166e+06
1.09751,0.0171777,128871,137059,-25597.8,830487,180094,162512,1.03339e+06
1.09932,0.0172285,128610,138324,-23619.4,848149,189095,162582,1.04512e+06
1.10113,0.0172792,128348,139589,-21640.8,865812,198097,162651,1.05686e+06
1.10295,0.01733,127500,140951,-16973.9,882830,205851,161346,1.06984e+06
1.10476,0.0173808,124150,142722,-859.928,897112,208294,154183,1.08818e+06
1.10657,0.0174317,120801,144493,15253.3,911393,210737,147021,1.10651e+06
1.10838,0.0174829,165774,178688,29092.6,960332,237810,148961,1.1708e+06
1.11019,0.0175342,211634,213479,42889.3,1.00991e+06,265334,151069,1.23593e+06
1.112,0.0175856,220995,220090,39264.1,1.00557e+06,265114,149982,1.23561e+06
1.11381,0.0176372,222593,220708,31933.9,989765,258993,148215,1.22138e+06
1.11562,0.0176886,195754,202317,27031.9,935482,243849,145412,1.16393e+06
1.11743,0.0177399,151301,172150,23635.4,857366,223118,141969,1.07973e+06
1.11925,0.0177914,127809,156339,20076.9,813414,206688,142316,1.03394e+06
1.12106,0.017843,129032,157454,16328.4,809742,195332,147131,1.03342e+06
1.12287,0.0178946,130255,158570,12579.4,806070,183975,151947,1.03291e+06
1.12468,0.0179462,131478,159685,8830.89,802398,172619,156763,1.0324e+06
1.12649,0.0179978,132701,160800,5082.19,798726,161263,161578,1.03188e+06
1.1283,0.0180494,133924,161916,1333.38,795054,149906,166394,1.03137e+06
1.13011,0.018101,135146,163031,-2415.31,791382,138550,171210,1.03086e+06
1.13192,0.0181526,136370,164146,-6164.12,787710,127194,176026,1.03034e+06
1.13373,0.0182042,135151,163658,-7418.26,781637,120167,175521,1.02634e+06
1.13555,0.0182558,133674,163000,-8408.94,775309,113596,174453,1.02197e+06
1.13736,0.0183077,132493,156282,-5828.47,744449,120102,163983,1.04024e+06
1.13917,0.0183598,130117,145609,1888.75,700438,132953,138462,1.0105e+06
1.14098,0.0184118,127742,134936,9605.36,656430,145802,112943,980757
1.14279,0.0184639,125367,124263,17322.4,612420,158652,87421.9,951015
1.1446,0.018516,122992,113590,25039.2,568412,171502,61902.5,921278
1.14641,0.0185683,126044,111352,34935.2,563788,175912,52186,901458
1.14822,0.0186208,132067,113732,46023.6,580729,175700,51122.7,887074
1.15003,0.0186733,134309,115100,57462.6,600825,176491,52918,888391
1.15184,0.0187258,135108,116082,69034.4,622121,177664,55803.3,895701
1.15366,0.0187782,135907,117063,80606.9,643420,178838,58689.6,903012
1.15547,0.0188307,136706,118045,92178.7,664716,180012,61574.9,910322
1.15728,0.0188831,137505,119026,103751,686014,181186,64461.2,917633
1.15909,0.0189356,138304,120008,115323,707312,182359,67347.1,924944
1.1609,0.0189881,139103,120989,126896,728609,183533,70232.7,932254
1.16271,0.0190408,171157,138940,126339,803803,189808,84617.6,993036
1.16452,0.0190936,211472,161377,122578,893243,197432,102041,1.06795e+06
1.16633,0.0191464,243494,181559,118802,957362,200396,109721,1.12478e+06
1.16814,0.0191992,258091,197007,114993,968255,193566,96913.2,1.14358e+06
1.16996,0.0192521,244066,192376,114316,937129,183600,84416.5,1.11944e+06
1.17177,0.019305,197456,164885,117206,858163,170063,72272.8,1.04639e+06
1.17358,0.0193579,150848,137396,120095,779202,156528,60129.8,973342
1.17539,0.0194109,144079,122622,113434,737671,152603,60800.7,948036
1.1772,0.0194639,139130,108431,106337,697851,149117,62057.1,924911
1.17901,0.0195168,134181,94238.7,99239.6,658030,145631,63313.6,901787
1.18082,0.0195699,128842,84943.2,91710.3,628286,142165,64606.6,888995
1.18263,0.019623,123077,80969.1,83710.3,609490,138719,65939.7,887433
1.18444,0.0196761,117313,76995.2,75710.9,590696,135274,67272.5,885870
1.18626,0.0197292,111549,73021.1,67710.9,571900,131828,68605.6,884308
1.18807,0.0197822,105785,69047.3,59711.4,553106,128383,69938.4,882745
1.18988,0.0198354,97283.2,65638.4,51147.8,536890,125938,69937.3,877989
1.19169,0.0198889,79448.7,64156.7,40663.2,529471,126906,65388.2,862345
1.1935,0.0199424,61612.9,62675,30177.9,522052,127875,60838.8,846699
1.19531,0.0199959,43778.4,61193.3,19693.4,514633,128843,56289.7,831055
1.19712,0.0200496,40582.9,66955,8917.57,520778,134858,56689.4,847042
1.19893,0.0201035,43424.2,75703,-1977.29,532514,142953,59129.8,876071
1.20074,0.0201573,46265.5,84451.4,-12872.9,544252,151049,61570.2,905102
1.20256,0.0202112,49334.2,94640.1,-23113.7,556526,158577,64152.5,937163
1.20437,0.0202651,52894,107939,-31943.3,569962,164881,67040.9,975766
1.20618,0.0203191,56453.7,121237,-40772.4,583396,171185,69929.3,1.01437e+06
1.20799,0.020373,60013.7,134536,-49602.2,596832,177490,72817.8,1.05297e+06
1.2098,0.020427,81825.9,147357,-46797.5,636435,184487,79084.3,1.09277e+06
1.21161,0.0204811,109038,160038,-40552.1,683779,191691,86350.5,1.13292e+06
1.21342,0.0205352,136248,172718,-34307.2,731120,198894,93616,1.17307e+06
1.21523,0.0205893,153843,180154,-33265.7,760179,203636,97555.7,1.1977e+06
1.21704,0.0206436,152599,177316,-42417.7,753418,203557,94979,1.19191e+06
1.21885,0.0206979,139784,168455,-47266.4,722867,200863,88433,1.16582e+06
1.22067,0.020752,112741,152190,-46823.7,663062,194954,77005.4,1.11477e+06
1.22248,0.0208062,85696.2,135923,-46380.2,603255,189045,65577.5,1.06373e+06
1.22429,0.0208603,58653.4,119657,-45936.9,543451,183136,54150.2,1.01268e+06
1.2261,0.0209147,56024.9,117208,-44213.1,543325,175759,52889.4,996957
1.22791,0.0209692,53151.9,114619,-42501.8,542601,168397,51526.9,980880
1.22972,0.0210236,50278.5,112031,-40790.8,541877,161035,50164.1,964802
1.23153,0.021078,47405.5,109443,-39079.4,541153,153673,48801.6,948725
1.23334,0.0211324,44532.1,106855,-37368.4,540429,146311,47438.8,932648
1.23515,0.0211868,41659.2,104266,-35657.1,539704,138949,46076.3,916571
1.23697,0.0212412,38785.8,101678,-33946.1,538980,131587,44713.5,900493
1.23878,0.0212957,40273.6,98879.2,-23223.4,538883,129965,43835.5,884261
1.24059,0.0213503,48915.6,101771,-608.931,545587,141754,47553.8,892155
1.2424,0.021405,57557.3,104663,22004.7,552290,153543,51271.9,900049
1.24421,0.0214597,66199.3,107555,44619.2,558994,165333,54990.2,907944
1.24602,0.0215144,74841,110447,67232.8,565697,177122,58708.2,915837
1.24783,0.0215693,70413.5,109174,74621.5,560989,177522,61975.6,898986
1.24964,0.0216243,60378.6,104856,75731.9,550259,173601,63935,866266
1.25145,0.0216793,50343,100536,76842.1,539528,169680,65894.4,833543
1.25327,0.0217343,40341.5,96229.7,77938.5,528831,165746,67846.4,800854
1.25508,0.0217896,44797.8,97497.7,73083.3,532494,156520,66646,781489
1.25689,0.021845,49253.9,98765.4,68228.3,536157,147293,65445.6,762125
1.2587,0.0219003,53710.2,100033,63373.2,539821,138067,64245.2,742760
1.26051,0.0219556,58166.3,101301,58518.1,543484,128840,63044.8,723396
1.26232,0.022011,62622.6,102569,53663,547147,119614,61844.4,704031
1.26413,0.0220663,67078.7,103837,48807.9,550810,110387,60644,684668
1.26594,0.0221216,71535,105105,43952.8,554474,101161,59443.6,665303
1.26775,0.022177,75991.1,106372,39097.7,558137,91934.4,58243.2,645939
1.26956,0.0222323,83276.5,109337,34816.6,569273,82670.5,58683.8,635056
1.27138,0.0222878,111229,122881,31250.5,631700,71237.9,69280.8,680650
1.27319,0.0223433,139183,136426,27684.4,694130,59804.9,79878.6,726249
1.275,0.0223988,167135,149971,24118.3,756557,48372.2,90475.6,771843
1.27681,0.0224543,184500,158409,20393.8,792298,38227.4,96658.4,796839
1.27862,0.0225098,154148,143831,15955.1,707759,33888,82944.8,728993
1.28043,0.0225652,123794,129253,11516.4,623215,29548.6,69230.5,661143
1.28224,0.0226207,93442.3,114676,7077.77,538676,25209.2,55516.9,593296
1.28405,0.0226762,69502.2,103355,3949.38,471487,23862.8,44619.9,543830
1.28586,0.022732,66836.3,102828,5902.51,461969,33147.2,43314.3,557294
1.28768,0.0227878,64170.2,102302,7855.87,452450,42432.3,42008.5,570758
1.28949,0.0228436,61504.4,101775,9809.01,442932,51716.8,40702.9,584221
1.2913,0.0228995,58838.3,101248,11762.4,433412,61001.9,39397.1,597686
1.29311,0.0229553,56172.4,100722,13715.5,423894,70286.3,38091.5,611149
1.29492,0.0230111,53506.5,100195,15668.7,414376,79570.8,36785.7,624613
1.29673,0.0230669,50840.5,99668.1,17622,404857,88855.8,35480.1,638077
1.29854,0.0231229,49657.9,101602,17049.3,405151,94454.7,35861.6,644643
1.30035,0.0231792,50749,107308,12604.6,420488,94404.6,38829.6,640638
1.30216,0.0232356,51840,113014,8160.16,435824,94354.5,41797.4,636633
1.30398,0.0232919,52931.1,118721,3715.52,451161,94304.5,44765.4,632628
1.30579,0.0233483,54022.1,124427,-728.876,466497,94254.4,47733.2,628623
1.3076,0.0234046,56990.7,131692,-3840.61,482632,93751.7,53162.9,626855
1.30941,0.023461,62521.5,141084,-5133.05,499855,92631.1,61952.2,628138
1.31122,0.0235173,68478.5,147058,-8526.61,516007,94168.1,71709,630140
1.31303,0.0235737,75515.1,144356,-17253.1,529436,102450,83918.7,633965
1.31484,0.0236301,82552.4,141654,-25979.9,542866,110733,96129.4,637790
1.31665,0.0236865,86037.1,136954,-36279.1,552831,117867,101148,640911
1.31846,0.023743,81472.6,127792,-48381.4,551525,121253,87714.7,639997
1.32028,0.0237996,91600.1,127381,-40847.3,539018,120806,87972,623774
1.32209,0.0238562,101729,126970,-33312.6,526511,120360,88230.2,607549
1.3239,0.0239128,111059,125775,-26332.8,514282,119595,88758.9,590842
1.32571,0.0239695,113106,117421,-24415.9,504589,115932,91768.1,569709
1.32752,0.0240262,115152,109068,-22499.3,494897,112268,94776.5,548578
1.32933,0.0240829,117199,100714,-20582.3,485204,108605,97785.7,527445
1.33114,0.0241396,119245,92360.6,-18665.8,475512,104941,100794,506313
1.33295,0.0241963,121291,84006.7,-16748.8,465819,101278,103803,485180
1.33476,0.024253,123338,75653.4,-14832,456127,97614.3,106812,464049
1.33657,0.0243097,125384,67299.4,-12915.3,446435,93950.5,109821,442916
1.33839,0.0243665,123464,61790.6,-8344,441810,92177.5,111010,432368
1.3402,0.0244235,115663,57264.7,-3583.52,440394,91320.1,106551,431694
1.34201,0.0244805,107862,52738.9,1176.48,438977,90462.6,102093,431019
1.34382,0.0245375,103977,52846.4,4874.18,433344,94720.7,97607.7,446550
1.34563,0.0245946,98627.4,56278.2,9057.89,430055,100304,91049.3,473291
1.34744,0.0246516,93277.7,59710.2,13241.9,426765,105888,84490.5,500034
1.34925,0.0247086,87928.3,63142.1,17425.6,423476,111471,77932.1,526776
1.35106,0.0247657,82578.6,66574.1,21609.6,420187,117055,71373.2,553519
1.35287,0.0248227,77229.2,70005.9,25793.3,416898,122638,64814.9,580260
1.35469,0.0248799,74999.7,69648.5,24832,407631,126261,68746.9,612023
1.3565,0.0249371,74368.8,67349.8,21235,395302,128878,78053,646355
1.35831,0.0249944,69348.8,65312.5,20165.3,376375,131008,81984,669614
1.36012,0.0250518,55231.7,63817.2,24335.1,343772,132127,74772.6,669914
1.36193,0.0251092,41113.9,62321.9,28504.9,311168,133246,67561,670214
1.36374,0.0251666,26996.8,60826.6,32674.7,278565,134364,60349.5,670514
1.36555,0.025224,12879,59331.3,36844.6,245961,135483,53137.9,670814
1.36736,0.0252815,11700.1,59145.6,39926.4,240767,133795,49941.1,656306
1.36917,0.0253391,12760,59186.6,42820.4,240317,131622,47438.7,639235
1.37099,0.0253967,13819.9,59227.5,45714,239866,129449,44936.6,622165
1.3728,0.0254543,14879.9,59268.5,48608,239416,127276,42434.2,605093
1.37461,0.0255119,15891.6,60285.8,51814.4,241270,125227,40497,588413
1.37642,0.0255694,16784.4,63720.3,55795.4,248831,123484,39958.3,572693
1.37823,0.025627,17677,67154.9,59776,256391,121742,39419.8,556975
1.38004,0.0256846,25450.1,73271.8,61265.3,276229,120666,41306.4,556860
1.38185,0.0257424,50925.6,86290,56343.4,327653,121304,49433.2,596894
1.38366,0.0258002,76402.5,99309.1,51421.2,379080,121942,57560.5,636930
1.38547,0.025858,97227.6,106282,47343.5,415182,122376,64692.8,660960
1.38728,0.0259158,107706,101405,44765.9,419385,122376,69330.8,652825
1.3891,0.0259737,83566.6,88770.3,39650.8,360568,121332,59984,605694
1.39091,0.0260316,59425.3,76134.8,34535.7,301747,120288,50637,558561
1.39272,0.0260895,40086.3,66132.1,30460,254067,119031,42625.4,519356
1.39453,0.0261476,43928.7,68838.6,31403.5,260168,116743,41061.3,518419
1.39634,0.0262056,47770.4,71544.7,32346.6,266268,114456,39496.8,517481
1.39815,0.0262637,51612.8,74251.2,33290.1,272370,112168,37932.8,516544
1.39996,0.0263217,55454.9,76957.5,34233.4,278470,109880,36368.7,515607
1.40177,0.0263797,59297,79663.9,35176.6,284571,107592,34804.3,514670
1.40358,0.0264378,63139.1,82370.1,36120,290671,105305,33240.2,513733
1.4054,0.0264958,66981.1,85076.5,37063.2,296772,103017,31675.7,512795
1.40721,0.0265538,70823.2,87782.8,38006.5,302873,100729,30111.7,511859
1.40902,0.0266119,74665.3,90489.1,38949.7,308973,98441.6,28547.2,510921
1.41083,0.0266699,78507.4,93195.4,39893.1,315074,96153.9,26983.2,509984
1.41264,0.0267281,70338.5,86232.7,30156.7,308379,95111.5,17114.8,504991
1.41445,0.0267862,61228.2,78512.2,19583.5,300680,94166.9,6595.7,499679
1.41626,0.0268445,58023.6,75302.1,25119.3,310662,96301.8,10501.8,506283
1.41807,0.0269028,55617.6,72702.3,32833.1,323033,98852.9,16358.2,514497
1.41988,0.0269611,53764.7,71201.8,40623.8,323729,100452,22737.7,512771
1.4217,0.0270194,52559,70988.1,48504.3,310765,100936,29728.9,499415
1.42351,0.0270778,50402.1,70066,52839.1,300726,101455,35907.9,487692
1.42532,0.0271363,46830.3,68090.4,51899.8,295040,102024,40878,478403
1.42713,0.0271948,43258.3,66114.7,50960.3,289354,102594,45848.4,469113
1.42894,0.0272532,39752.6,64512.5,49998.9,284808,104049,50965.8,461300
1.43075,0.0273117,36471.7,64183.6,48962.8,284151,108526,56585.9,458525
1.43256,0.0273701,33191.1,63854.7,47926.7,283495,113001,62205.7,455749
1.43437,0.0274285,29910.2,63525.7,46890.6,282838,117478,67825.9,452973
1.43618,0.027487,28255.9,62917.6,44890.4,282590,119404,72252,449590
1.438,0.0275457,29414.4,61826.5,41222.4,283048,116921,74613.7,445157
1.43981,0.0276044,30573,60735.5,37554.7,283506,114438,76975.3,440725
1.44162,0.0276632,31731.5,59644.4,33886.7,283964,111955,79337,436292
1.44343,0.0277219,32890.1,58553.4,30219,284422,109472,81698.6,431859
1.44524,0.0277806,34048.7,57462.3,26550.9,284880,106989,84060.3,427426
1.44705,0.0278393,35207.2,56371.3,22883.3,285338,104507,86421.9,422993
1.44886,0.027898,39048.1,59164.9,19416.7,285137,98859.4,89036.3,420482
1.45067,0.0279567,45124.9,65944.6,11678.4,280800,96376.2,89205.9,420028
1.45248,0.0280154,51216.1,72760.5,3847.58,276385,93997.9,89321.3,419594
1.45429,0.0280741,57307.1,79576.5,-3982.51,271969,91619.3,89436.7,419160
1.45611,0.0281328,57982.8,78818.4,-10736.8,265350,91161.1,86707.9,412712
1.45792,0.0281917,53814.7,65359.2,-5168.34,245200,87760.7,77561.5,387032
1.45973,0.0282506,49647,51900.8,399.814,225051,84360.8,68415.7,361354
1.46154,0.0283095,45479,38441.5,5968.34,204901,80960.6,59269.3,335674
1.46335,0.0283684,43928.1,30910.6,7958.81,193439,80091.6,53966.7,326515
1.46516,0.0284274,43979.3,27205.1,7632.68,187547,80715.2,51051.8,328055
1.46697,0.0284864,43521.5,25099.6,6237.24,183493,80046.8,47880.2,334563
1.46878,0.0285454,43063.6,22993.9,4841.72,179438,79378.2,44708.1,341071
1.47059,0.0286044,42605.8,20888.4,3446.27,175384,78709.7,41536.4,347579
1.47241,0.0286633,42148,18782.7,2050.75,171330,78041.1,38364.3,354088
1.47422,0.0287223,41690.2,16677.3,655.305,167276,77372.6,35192.7,360596
1.47603,0.0287813,41232.4,14571.6,-740.216,163221,76704,32020.6,367104
1.47784,0.0288403,39763.3,16949.2,8.57744,160786,82223.7,38311,380058
1.47965,0.0288995,37693.5,20510,6185.37,166600,87933.8,44430.3,393095
1.48146,0.0289587,35454.2,24410.2,13878,174713,93710.3,50522.9,406169
1.48327,0.0290179,33214.9,28310.6,21571.1,182828,99487.3,56616,419243
1.48508,0.029077,30975.6,32210.8,29263.7,190941,105264,62708.7,432317
1.48689,0.0291363,30259.6,35256.3,35116.5,197114,107115,65447.4,433867
1.48871,0.0291956,31349.9,37287.8,38786.6,200982,104311,64208.6,421752
1.49052,0.0292549,32440.3,39319.4,42457,204852,101506,62969.6,409636
1.49233,0.0293142,32706.1,40727.1,43738,207455,95136.1,62504.9,396932
1.49414,0.0293734,32425.2,41721.4,43434.4,209221,86401.3,62553.6,383838
1.49595,0.0294327,32144.3,42715.5,43130.5,210986,77666.4,62602.4,370743
1.49776,0.029492,31863.4,43709.7,42827,212751,68931.6,62651.1,357649
1.49957,0.0295513,31552.5,46267.1,43551.3,213028,64441.4,62233.4,350142
1.50138,0.0296107,31166.5,52749.7,46857.3,209572,70608.1,60644.6,356664
1.50319,0.02967,30780.4,59231.9,50162.8,206116,76774,59055.8,363186
1.50501,0.0297294,30924.8,64684.5,51422.7,202843,81848.1,57671.4,367882
1.50682,0.0297888,32072.6,65257.8,45870.1,199201,83024.6,56645.5,364770
1.50863,0.0298484,29711.8,60790.1,41953.3,191452,84023.9,54154,356129
1.51044,0.0299079,27351.2,56322.7,38036.6,183703,85023,51662.7,347489
1.51225,0.0299675,25183.1,52250.1,34016,176570,86022.6,49491.3,340219
1.51406,0.030027,24443.7,51103.5,29227.1,173998,87025.5,49690.9,343106
1.51587,0.0300865,23704.1,49956.9,24438,171427,88028.3,49890.5,345992
1.51768,0.0301461,22964.7,48810.4,19649.1,168855,89031.1,50090.2,348878
1.51949,0.0302056,22225.2,47663.7,14859.9,166284,90033.9,50289.8,351764
1.5213,0.0302651,21485.8,46517.2,10071.1,163712,91036.8,50489.5,354650
1.52312,0.0303247,21143.5,45722.7,5335.54,162557,92297.6,50693.9,357739
1.52493,0.0303842,20974.5,45081.9,623.707,162019,93671,50900.5,360916
1.52674,0.0304437,20805.6,44441.1,-4088.44,161482,95044.5,51107.1,364093
1.52855,0.0305034,20534.5,45273.4,-2745.94,162593,95173.4,51984.6,356558
1.53036,0.0305632,20229,46605.1,649.288,164263,94880.6,53089.7,345391
1.53217,0.0306229,19923.3,47936.7,4044.36,165933,94587.6,54194.7,334225
1.53398,0.0306827,19617.8,49268.4,7439.59,167603,94294.8,55299.9,323058
1.53579,0.0307424,19114.1,50530.3,10877.4,169504,93931.5,56340.9,311969
1.5376,0.0308022,17632.9,51447.2,14526.5,172551,93221,57065.9,301267
1.53942,0.0308619,16152,52364.2,18175.4,175596,92510.6,57790.8,290565
1.54123,0.0309217,14670.7,53281.1,21824.5,178642,91800.1,58515.8,279863
1.54304,0.0309814,14111.3,53387.4,25625.7,181084,91077.9,59564.7,270310
1.54485,0.0310412,17275,50219.5,30042.2,181083,90308.1,61922.3,265398
1.54666,0.031101,20795.7,47972.8,33577.7,178033,88952,63905,258331
1.54847,0.0311609,18678.6,46403.5,31608,163779,85642.4,61541.2,245233
1.55028,0.0312208,13981,43967.6,28619.6,148988,82305.9,57982,232472
1.55209,0.0312807,12730.6,43375.5,27539.4,146276,79968.1,56087.4,233555
1.5539,0.0313407,12595.1,43379.7,27076.3,147471,77953.4,54731.3,239116
1.55572,0.0314007,12459.5,43383.9,26613,148665,75938.6,53375.1,244676
1.55753,0.0314606,12323.9,43388.2,26149.9,149860,73923.9,52018.9,250237
1.55934,0.0315206,12188.3,43392.5,25686.8,151055,71909.1,50662.7,255798
1.56115,0.0315805,12052.7,43396.6,25223.6,152249,69894.4,49306.6,261358
1.56296,0.0316405,11917.1,43400.9,24760.4,153444,67879.6,47950.4,266919
1.56477,0.0317004,11781.5,43405,24297.2,154639,65864.9,46594.2,272479
1.56658,0.0317604,11645.9,43409.3,23834.1,155834,63850.1,45238.1,278040
1.56839,0.0318203,12052.9,41871,22240.8,150894,62171.3,42418.5,276112
1.5702,0.0318803,13071.4,38082.8,18602.8,136860,61380.1,37105.6,261802
1.57201,0.0319402,14089.7,34294.9,14965.1,122826,60589,31793,247492
1.57383,0.0320002,15108.1,30506.8,11327.1,108792,59797.9,26480.2,233182
1.57564,0.0320602,15375.6,28239.2,10419.4,101259,60172.3,23737.2,225649
1.57745,0.0321203,14483.1,28141.2,14446.8,103652,62510.6,25159.6,229198
1.57926,0.0321804,13590.7,28043.2,18473.8,106045,64848.7,26581.9,232748
1.58107,0.0322406,12698.2,27945.2,22501.2,108438,67186.9,28004.2,236298
1.58288,0.0323007,12082.9,28093.5,25204.9,109897,68329.8,28619,237907
1.58469,0.0323609,12009.1,28568.9,25139.7,109309,67253.7,27636.5,235535
1.5865,0.0324211,11935.2,29044.4,25074.6,108721,66177.7,26654.2,233162
1.58831,0.0324812,11861.4,29519.8,25009.6,108134,65101.7,25671.8,230790
1.59013,0.0325414,11787.6,29995.2,24944.3,107546,64025.7,24689.4,228417
1.59194,0.0326016,11713.8,30470.7,24879.3,106959,62949.7,23707,226045
1.59375,0.0326618,11640,30946.1,24814.1,106371,61873.7,22724.6,223672
1.59556,0.0327219,11566.2,31421.6,24749,105783,60797.7,21742.2,221300
1.59737,0.0327821,11492.4,31897,24683.8,105196,59721.6,20759.8,218927
1.59918,0.0328423,11418.6,32372.4,24618.7,104608,58645.7,19777.4,216555
1.60099,0.0329025,13177.6,34193.8,24739.3,105949,57403.8,18522.8,217208
1.6028,0.0329627,18373.3,38539,25208.6,110908,55851.2,16757.7,223535
1.60461,0.033023,19744.7,40652.1,23790.3,110936,55055.5,14826.1,225511
1.60643,0.0330832,15820.8,39674.9,19758.3,104137,55307.7,12663.5,221463
1.60824,0.0331435,11010.9,37261.7,17098.4,95963.4,55880,11232.8,215233
1.61005,0.0332038,3883.02,31091.9,18026.5,84190.8,57289.6,11716,203298
1.61186,0.0332641,-225.006,26703.6,18386.1,76039,57588.3,11864.2,193189
1.61367,0.0333244,1080.28,25508,17726.7,74376.7,55895,11411.9,186352
1.61548,0.0333847,2385.46,24312.5,17067.4,72714.7,54202,10959.7,179514
1.61729,0.033445,3690.68,23117,16408.1,71052.6,52508.8,10507.5,172677
1.6191,0.0335053,3970.44,22441.1,14628.2,71064.2,52253.4,11161.5,170568
1.62091,0.0335657,4061.44,21860.9,12642.2,71383.8,52262.5,12019.1,169329
1.62273,0.033626,4152.43,21280.7,10656,71703.4,52271.6,12876.7,168090
1.62454,0.0336863,4243.43,20700.5,8669.96,72023.1,52280.7,13734.3,166851
1.62635,0.0337467,4080.64,19753.4,7017.81,72734.9,52244.5,14780.9,166859
1.62816,0.0338071,2967.11,17432.2,6617.1,74916.4,52038.1,16535,171536
1.62997,0.0338675,1853.49,15110.9,6216.37,77097.9,51831.7,18289.2,176214
1.63178,0.0339279,1532.56,13344.1,6865.33,76991.4,51114.2,19654.4,179635
1.63359,0.0339883,2341.54,12367.6,9010.74,73623,49668.2,20465.3,181263
1.6354,0.0340487,3150.48,11391.2,11156,70254.9,48222.2,21276.2,182892
1.63721,0.0341092,3959.48,10414.8,13301.4,66886.6,46776,22087.2,184520
1.63902,0.0341696,4591.91,9538.11,15435.9,63106.7,45114.7,22955.3,185160
1.64084,0.0342301,4200.08,9240.55,17507.8,56936.1,42202.9,24156.1,180061
1.64265,0.0342906,3808.2,8942.97,19579.5,50765.8,39291.4,25356.7,174962
1.64446,0.0343511,3440.62,9565.09,20871.3,44456.9,36769.6,26137.8,170462
1.64627,0.0344115,3142.54,11654.3,20690.4,37938.6,34982,26057.3,166908
1.64808,0.034472,3401.46,10384.1,18579.1,32152.2,34110.2,23488.5,160955
1.64989,0.0345326,3660.31,9113.85,16467.9,26366.1,33238.5,20919.8,155003
1.6517,0.0345931,3789.8,8593.49,14291.9,24421.8,33098.5,19525.1,150944
1.65351,0.0346536,3812.46,8691.91,12062.5,25648.3,33562.3,19099.5,148448
1.65532,0.0347141,3835.08,8790.22,9833.05,26874.7,34026.2,18673.9,145952
1.65714,0.0347746,3857.74,8888.64,7603.73,28101.2,34490.1,18248.2,143456
1.65895,0.0348351,3866.42,9308.59,5421.15,29825.3,34904,17845.9,141166
1.66076,0.0348955,3822.34,10947,3416.39,33434.2,35128.4,17531.9,139654
1.66257,0.034956,3778.22,12585.6,1411.49,37043.4,35352.7,17217.9,138143
1.66438,0.0350165,3437.93,14252.6,89.5579,40298.3,35622.5,16772.6,136485
1.66619,0.0350771,1863.96,16039,1611.22,42078.7,36081.1,15780,134219
1.668,0.0351377,290.139,17825.3,3132.78,43859.1,36539.7,14787.6,131952
1.66981,0.0351983,-1283.77,19611.6,4654.43,45639.5,36998.4,13795,129686
1.67162,0.0352589,-3083.57,21150.8,6218.01,47871.7,37358.1,12771.7,127434
1.67344,0.0353195,-5050.02,22507.8,7812.65,50437.3,37645.1,11725.5,125193
1.67525,0.0353801,-7016.37,23864.8,9407.19,53002.6,37932,10679.4,122952
1.67706,0.0354407,-8982.83,25221.8,11001.8,55568.2,38218.9,9633.3,120711
1.67887,0.0355013,-8654.84,25139.9,12859.9,56185.4,38402.3,11184.3,119454
1.68068,0.0355619,-7685.52,24655.7,14791.7,56258.3,38556.8,13461.4,118471
1.68249,0.0356225,-6857.51,24183.4,16656.4,56053.3,38599.8,15646.6,117327
1.6843,0.0356831,-8947.1,23930.3,17106.8,50138.2,36373.6,15911,112861
1.68611,0.0357437,-11361.8,22445.5,15957.6,44721.4,35267.5,14689.2,108525
1.68792,0.0358043,-13776.6,20960.5,14808.4,39304.3,34161.3,13467.4,104189
1.68973,0.035865,-15461.5,19657.4,13694.7,35219.4,32923.3,12574.7,100639
1.69155,0.0359256,-15152.7,18851.1,12677.7,34772.7,31324.6,12581.2,99235.1
1.69336,0.0359863,-14844,18044.8,11660.8,34326.2,29726.1,12587.7,97831.7
1.69517,0.0360469,-14535.2,17238.4,10643.8,33879.5,28127.4,12594.2,96428
1.69698,0.0361076,-14226.5,16432.1,9626.84,33433,26528.9,12600.7,95024.6
1.69879,0.0361682,-13917.7,15625.7,8609.84,32986.3,24930.2,12607.2,93621
1.7006,0.0362289,-13608.9,14819.4,7592.92,32539.8,23331.7,12613.7,92217.5
1.70241,0.0362895,-13300.2,14013.1,6575.93,32093.2,21733,12620.1,90814.1
1.70422,0.0363502,-12991.4,13206.8,5558.99,31646.6,20134.5,12626.7,89410.5
1.70603,0.0364108,-12682.7,12400.4,4542,31200.1,18535.8,12633.1,88007
1.70785,0.0364715,-12155.1,10929.1,2697.64,28931.6,18333.9,11731.4,84583.6
1.70966,0.0365321,-11607.5,9397.12,777.786,26497.1,18259.2,10746.9,80976.1
1.71147,0.0365928,-11059.9,7865.22,-1141.93,24062.8,18184.5,9762.46,77368.8
1.71328,0.0366535,-11243.1,6670.93,-1987.98,22067,17860.4,8882.58,74808.6
1.71509,0.0367142,-10330.9,5698.75,-446.169,19752,17459.8,9639.63,71468.3
1.7169,0.0367749,-9418.66,4726.51,1095.75,17436.9,17059.1,10396.7,68127.7
1.71871,0.0368356,-8506.45,3754.33,2637.57,15122,16658.5,11153.8,64787.4
1.72052,0.0368963,-8574.66,3978.72,2655.12,15432.4,16325.5,11558.2,63775.2
1.72233,0.036957,-8706.24,4280.5,2574.08,15912.7,15996.9,11939.8,62913.7
1.72415,0.0370177,-8837.89,4582.32,2493,16393,15668.2,12321.4,62052.2
1.72596,0.0370784,-8969.47,4884.1,2411.96,16873.2,15339.6,12703,61190.6
1.72777,0.0371391,-9101.12,5185.91,2330.89,17353.5,15011,13084.5,60329.1
1.72958,0.0371998,-9232.7,5487.7,2249.84,17833.7,14682.3,13466.1,59467.6
1.73139,0.0372605,-9364.28,5789.49,2168.81,18314,14353.7,13847.7,58606
1.7332,0.0373212,-9587.22,6141.49,2164.71,18224.2,14030.7,14282,57740
1.73501,0.0373819,-8510.99,5892.72,1849.41,15572.2,13792.3,14552.2,55002.3
1.73682,0.0374426,-7001.87,5431.43,1345.45,13221.5,13564.3,14704.3,51850.5
1.73863,0.0375033,-5492.5,4970.05,841.462,10870.7,13336.3,14856.3,48698.5
1.74045,0.0375641,-3592.19,4286.18,584.72,9538.47,13111.5,14891.8,45666.9
1.74226,0.0376248,-2507.56,4195.36,912.8,9533.28,12806.3,14712.9,45359.2
1.74407,0.0376855,-1543.85,4183.25,1249.8,9481.02,12494.3,14534.6,45244.9
1.74588,0.0377462,-580.048,4171.16,1586.82,9428.76,12182.3,14356.2,45130.6
1.74769,0.0378069,383.686,4159.07,1923.82,9376.5,11870.4,14177.9,45016.4
1.7495,0.0378677,1347.46,4146.97,2260.85,9324.24,11558.4,13999.6,44902.1
1.75131,0.0379284,2311.2,4134.87,2597.85,9271.98,11246.4,13821.2,44787.8
1.75312,0.0379891,3274.98,4122.77,2934.87,9219.72,10934.4,13642.9,44673.5
1.75493,0.0380498,4306.14,4460.79,2886.82,9141.12,10893.5,13165.6,45058.1
1.75674,0.0381106,5384.01,5041.01,2572.42,9044.29,11040,12481.6,45787.7
1.75856,0.0381713,6461.82,5621.19,2258.04,8947.47,11186.5,11797.5,46517.3
1.76037,0.0382321,5396.93,7271.6,2010.96,10631.2,11515,11641.1,50506.1
1.76218,0.0382928,4067.73,9053.96,1772.2,12534.5,11866,11549.8,54896.8
1.76399,0.0383536,2982.84,9134.12,1683.75,12930.7,11609,11293,55574.3
1.7658,0.0384143,1986.5,8597.49,1649.76,12780.7,11131.8,10976.3,54906.2
1.76761,0.0384751,990.167,8060.79,1615.78,12630.6,10654.5,10659.6,54238
1.76942,0.0385358,-6.17543,7524.16,1581.79,12480.6,10177.3,10342.9,53569.9
1.77123,0.0385966,-1002.51,6987.45,1547.81,12330.6,9700,10026.1,52901.6
1.77304,0.0386573,-1998.85,6450.82,1513.82,12180.6,9222.77,9709.44,52233.5
1.77486,0.0387181,-1537.72,5053.9,1586.62,10614.8,8476.51,9307.73,49066.4
1.77667,0.0387788,-383.035,4258.63,2270.82,9230.12,8154.16,9346,46871.9
1.77848,0.0388396,701.393,4341.03,3413.61,8620.7,8301.24,9785.74,46585.8
1.78029,0.0389003,1910.23,4441.96,4527.77,8085.15,8356.75,10184.9,46119.6
1.7821,0.0389611,3275.44,4566.15,5606.06,7642.33,8297.25,10533.2,45427
1.78391,0.0390219,4640.75,4690.38,6684.42,7199.53,8237.73,10881.5,44734.3
1.78572,0.0390826,6005.96,4814.58,7762.71,6756.71,8178.23,11229.8,44041.7
1.78753,0.0391434,7371.27,4938.81,8841.07,6313.92,8118.71,11578.1,43349.1
1.78934,0.0392042,9007.39,4930,9614.84,6265.27,7816.71,11829,42505.9
1.79116,0.0392649,10947.1,4711.15,9969.79,6705.47,7196.15,11940.3,41383
1.79297,0.0393257,12488,4246.32,10210.6,6907.47,6593.4,11974.7,39680.9
1.79478,0.0393864,14029,3781.46,10451.4,7109.49,5990.62,12009.1,37978.7
1.79659,0.0394472,15569.9,3316.63,10692.1,7311.49,5387.87,12043.5,36276.6
1.7984,0.039508,17111,2851.76,10932.9,7513.5,4785.08,12077.8,34574.4
1.80021,0.0395687,17891.3,2689.06,11219.5,7585.27,4105.5,12410,34470.2
1.80202,0.0396295,18100.8,2753.1,11540.4,7559.3,3368.19,12965.8,35565.4
1.80383,0.0396903,18310.2,2817.15,11861.2,7533.32,2630.93,13521.5,36660.5
1.80564,0.039751,18314.1,2863.37,12212.2,7534.59,1969.63,14026.7,37290.2
1.80745,0.0398118,17844.7,2868.58,12632.5,7598.58,1483.34,14415.4,36847.9
1.80927,0.0398726,17083.2,2969.42,13011.8,7829.99,863.084,14808.8,36174.7
1.81108,0.0399333,16280.6,3083.72,13385.2,8084.94,224.036,15202.7,35469.1
