"arc_length","Displacement_Magnitude","Sxx","Sxy","Sxz","Syy","Syz","Szz","Von_Mises_Stress"
0,1.99761e-09,2.64991e+06,-192718,75368.5,5.4755e+06,433311,2.23339e+06,3.1758e+06
0.00181107,7.93673e-07,2.60576e+06,-189101,88442.3,5.4726e+06,400368,2.10983e+06,3.26063e+06
0.00362215,1.58535e-06,2.56161e+06,-185483,101516,5.4697e+06,367426,1.98627e+06,3.34546e+06
0.00543323,2.37704e-06,2.51746e+06,-181866,114590,5.4668e+06,334484,1.86271e+06,3.43029e+06
0.00724431,3.16872e-06,2.47331e+06,-178249,127663,5.4639e+06,301542,1.73915e+06,3.51512e+06
0.00905538,3.96041e-06,2.42916e+06,-174631,140737,5.461e+06,268599,1.61559e+06,3.59995e+06
0.0108665,5.13493e-06,2.31597e+06,-165318,152785,5.3163e+06,225308,1.43326e+06,3.60438e+06
0.0126775,6.37152e-06,2.19173e+06,-155092,164668,5.14889e+06,180358,1.24152e+06,3.59593e+06
0.0144886,7.60855e-06,2.06749e+06,-144866,176551,4.98147e+06,135409,1.04978e+06,3.58749e+06
0.0162997,8.84582e-06,1.94324e+06,-134640,188435,4.81406e+06,90460,858036,3.57904e+06
0.0181108,1.03765e-05,1.85791e+06,-129936,193414,4.71108e+06,67780.5,715914,3.59467e+06
0.0199218,1.22949e-05,1.81827e+06,-131716,190286,4.68376e+06,71248.5,632050,3.63858e+06
0.0217329,1.4253e-05,1.77863e+06,-133496,187158,4.65643e+06,74716.6,548186,3.68249e+06
0.023544,1.62365e-05,1.73899e+06,-135276,184030,4.62911e+06,78184.5,464321,3.72639e+06
0.0253551,1.82371e-05,1.69935e+06,-137056,180902,4.60178e+06,81652.6,380457,3.7703e+06
0.0271662,2.0221e-05,1.66369e+06,-137947,178187,4.58661e+06,87715.8,295422,3.82594e+06
0.0289772,2.20396e-05,1.65198e+06,-133478,177955,4.64469e+06,109425,203325,3.95231e+06
0.0307883,2.38635e-05,1.64026e+06,-129009,177723,4.70277e+06,131135,111229,4.07867e+06
0.0325994,2.56917e-05,1.62855e+06,-124541,177491,4.76085e+06,152844,19132.2,4.20504e+06
0.0344105,2.79881e-05,1.6226e+06,-118432,183223,4.80984e+06,165473,-60584.9,4.31202e+06
0.0362215,3.0958e-05,1.57555e+06,-117457,199265,4.69078e+06,163640,-83941.5,4.2295e+06
0.0380326,3.39687e-05,1.5285e+06,-116482,215307,4.57172e+06,161807,-107298,4.14699e+06
0.0398437,3.69845e-05,1.47507e+06,-115144,230912,4.42313e+06,159711,-122669,4.03858e+06
0.0416548,4.00232e-05,1.42079e+06,-113758,246458,4.27061e+06,157581,-136976,3.92673e+06
0.0434658,4.30828e-05,1.36651e+06,-112372,262005,4.11808e+06,155450,-151283,3.81488e+06
0.0452769,4.61764e-05,1.31587e+06,-110325,275355,3.98126e+06,151453,-164599,3.71492e+06
0.047088,4.94337e-05,1.29677e+06,-102561,269703,3.98033e+06,131301,-169343,3.71786e+06
0.0488991,5.2703e-05,1.27767e+06,-94796.7,264049,3.97941e+06,111149,-174086,3.7208e+06
0.0507102,5.59822e-05,1.25858e+06,-87033,258396,3.97848e+06,90997.7,-178830,3.72374e+06
0.0525212,5.94626e-05,1.27266e+06,-83520.2,250446,4.04559e+06,80220.5,-165019,3.75906e+06
0.0543323,6.3403e-05,1.31005e+06,-82311.7,236948,4.18936e+06,73025.5,-155703,3.86972e+06
0.0561434,6.75048e-05,1.34699e+06,-80699.5,221491,4.34681e+06,64183.5,-155502,4.00654e+06
0.0579545,7.16168e-05,1.38393e+06,-79088,206034,4.50425e+06,55342.5,-155301,4.14335e+06
0.0597655,7.57374e-05,1.42087e+06,-77476.5,190578,4.66169e+06,46501.4,-155100,4.28016e+06
0.0615766,7.98651e-05,1.45781e+06,-75864.3,175120,4.81914e+06,37659.4,-154899,4.41697e+06
0.0633877,8.42156e-05,1.46181e+06,-80055.9,181033,4.8369e+06,39162.9,-139297,4.42217e+06
0.0651988,8.86569e-05,1.4536e+06,-86397.4,194865,4.8029e+06,44499.2,-117987,4.37858e+06
0.0670099,9.31227e-05,1.44518e+06,-92468,208325,4.76905e+06,49884,-97101,4.3354e+06
0.0688209,9.8411e-05,1.42508e+06,-83586.7,201288,4.74399e+06,57901,-99520.3,4.31439e+06
0.070632,0.000103763,1.39865e+06,-72951.4,193618,4.69274e+06,66008.2,-91215.9,4.26308e+06
0.0724431,0.000109187,1.36387e+06,-60004.7,185115,4.60697e+06,74232.6,-68782.9,4.17184e+06
0.0742542,0.000114621,1.3291e+06,-47058.2,176612,4.5212e+06,82457.7,-46350.5,4.0806e+06
0.0760652,0.000120063,1.29433e+06,-34111.8,168108,4.43543e+06,90682.9,-23918,3.98936e+06
0.0778763,0.000125364,1.24964e+06,-19436.8,158353,4.33352e+06,97272.4,-1083.67,3.88462e+06
0.0796874,0.000130573,1.1986e+06,-3657.22,147797,4.22129e+06,102817,22006.6,3.77123e+06
0.0814985,0.000135785,1.14756e+06,12122.4,137241,4.10907e+06,108362,45097.5,3.65785e+06
0.0833095,0.000141451,1.13337e+06,32310.8,123973,4.06288e+06,114722,72510.9,3.59693e+06
0.0851206,0.000147561,1.15555e+06,56852.1,108027,4.08189e+06,121886,104193,3.58782e+06
0.0869317,0.000153584,1.1727e+06,67405.7,108073,4.12634e+06,116373,108254,3.62252e+06
0.0887428,0.000160364,1.12818e+06,15371.4,116294,4.03755e+06,110566,114657,3.5428e+06
0.0905539,0.000167187,1.10813e+06,-3423.23,119759,4.00665e+06,108192,108431,3.5221e+06
0.0923649,0.000174035,1.09902e+06,-7357.85,121097,4.00162e+06,107353,96560.5,3.52778e+06
0.094176,0.000180891,1.0899e+06,-11292.7,122434,3.99659e+06,106513,84691,3.53346e+06
0.0959871,0.000187754,1.08079e+06,-15227.4,123772,3.99157e+06,105674,72820,3.53914e+06
0.0977982,0.000194623,1.07168e+06,-19162.2,125110,3.98654e+06,104835,60950.5,3.54482e+06
0.0996092,0.000201497,1.06257e+06,-23096.9,126448,3.98151e+06,103995,49079.5,3.5505e+06
0.10142,0.000208376,1.05346e+06,-27031.8,127786,3.97648e+06,103156,37210,3.55618e+06
0.103231,0.000215259,1.04435e+06,-30966.4,129124,3.97145e+06,102317,25339,3.56186e+06
0.105042,0.000222307,1.03541e+06,-35544.1,129756,3.95487e+06,105538,33422.4,3.54301e+06
0.106854,0.000230016,1.04147e+06,-2804.19,141267,3.97386e+06,97923.1,17130.1,3.57108e+06
0.108665,0.000237808,1.06546e+06,-3564.23,146601,4.12546e+06,89994.2,2878.75,3.72082e+06
0.110476,0.000245577,1.08923e+06,5830,150448,4.22403e+06,81036.7,4297.47,3.8089e+06
0.112287,0.000253354,1.11169e+06,16437.5,153828,4.30055e+06,72309.5,11795.9,3.8725e+06
0.114098,0.00026119,1.12794e+06,19386.1,156915,4.3402e+06,66082.8,28095.4,3.89877e+06
0.115909,0.00026903,1.1442e+06,22335,160003,4.37984e+06,59856.8,44393.7,3.92504e+06
0.11772,0.000276874,1.16046e+06,25283.6,163091,4.41949e+06,53630.1,60693.2,3.95131e+06
0.119531,0.000284722,1.17672e+06,28232.5,166179,4.45913e+06,47404,76991.6,3.97758e+06
0.121342,0.000293318,1.15462e+06,27147.1,162581,4.41425e+06,58561.8,62806.6,3.94853e+06
0.123153,0.000302142,1.12109e+06,24859.8,156991,4.34419e+06,74896.4,39543.5,3.903e+06
0.124964,0.00031097,1.08757e+06,22572.8,151402,4.27413e+06,91231.8,16279.3,3.85747e+06
0.126775,0.000319779,1.05608e+06,21297.2,145757,4.20741e+06,104896,-1687.76,3.81068e+06
0.128586,0.000328641,1.01724e+06,20080.3,140452,4.10174e+06,112306,-3130.76,3.71889e+06
0.130398,0.000337573,970296,17298.5,135461,3.96506e+06,119811,-2042.3,3.59936e+06
0.132209,0.000346507,923351,14517.1,130471,3.82837e+06,127316,-953.891,3.47982e+06
0.13402,0.000355441,876406,11735.3,125480,3.69168e+06,134820,134.566,3.36029e+06
0.135831,0.000364738,846346,13034.2,122211,3.6094e+06,138111,2318.62,3.28775e+06
0.137642,0.00037472,848196,22044.8,122196,3.62993e+06,133435,6573.49,3.30405e+06
0.139453,0.000384705,850046,31054.9,122181,3.65046e+06,128760,10828.4,3.32035e+06
0.141264,0.000394693,851897,40065.5,122167,3.67099e+06,124084,15083.3,3.33665e+06
0.143075,0.000404684,853746,49075.6,122152,3.69152e+06,119409,19338.2,3.35294e+06
0.144886,0.000414677,855597,58086.2,122137,3.71205e+06,114733,23593,3.36924e+06
0.146697,0.000424567,880561,74185.7,120160,3.82913e+06,109400,24468.5,3.47511e+06
0.148508,0.000434428,912323,92370.8,117606,3.97462e+06,103873,24349.8,3.60732e+06
0.150319,0.000444291,943628,110406,115075,4.11801e+06,98352.6,24468.8,3.73759e+06
0.15213,0.000454196,958494,123097,113396,4.18671e+06,93077.6,33085.7,3.79796e+06
0.153942,0.000464853,943417,129923,110965,4.17472e+06,87266.5,23709.5,3.79555e+06
0.155753,0.000475886,910586,133210,108418,4.10877e+06,81538.2,8311.45,3.74823e+06
0.157564,0.000486923,867357,134242,106818,3.99244e+06,77088.9,3648.26,3.65101e+06
0.159375,0.000497962,824128,135274,105218,3.87611e+06,72639.3,-1015.4,3.55379e+06
0.161186,0.000509042,785954,135240,102837,3.77201e+06,66044.9,-7809.9,3.46803e+06
0.162997,0.000520332,763789,135413,98077.2,3.72841e+06,56024.4,-26168.7,3.44375e+06
0.164808,0.000531733,744263,138764,93014.8,3.71385e+06,48392.8,-50656.3,3.45165e+06
0.166619,0.000543136,724736,142114,87952.3,3.69929e+06,40760.9,-75143.4,3.45954e+06
0.16843,0.00055454,705209,145464,82889.9,3.68473e+06,33129.3,-99631,3.46744e+06
0.170241,0.000565945,685683,148815,77827.6,3.67017e+06,25497.6,-124119,3.47534e+06
0.172052,0.000577351,666155,152165,72765,3.65561e+06,17865.7,-148606,3.48324e+06
0.173863,0.000589246,673925,165672,67472,3.69674e+06,26850.1,-151502,3.52562e+06
0.175674,0.000601331,691310,182061,62323.7,3.74034e+06,46329.7,-146142,3.56344e+06
0.177486,0.000613443,708842,197783,56585.1,3.77522e+06,66164.8,-133682,3.5891e+06
0.179297,0.000625556,726374,213505,50846.4,3.81011e+06,86000.1,-121222,3.61477e+06
0.181108,0.00063767,743906,229226,45107.8,3.845e+06,105835,-108763,3.64043e+06
0.182919,0.000649933,761543,242962,39507.3,3.87542e+06,121489,-93283.1,3.65789e+06
0.18473,0.000662718,779553,249654,34396.7,3.88998e+06,122317,-67095.1,3.64626e+06
0.186541,0.000675528,792298,256279,29022,3.87644e+06,126665,-37827.5,3.60859e+06
0.188352,0.000688417,806192,262459,20478.8,3.83883e+06,131046,3813.92,3.54106e+06
0.190163,0.000701714,807688,268443,25501.4,3.87022e+06,111408,-4351.53,3.57712e+06
0.191974,0.000715002,803589,270364,32774.5,3.87402e+06,91182.5,-11305.8,3.58668e+06
0.193785,0.00072824,792873,262767,42023,3.81444e+06,69954.1,-4927.12,3.52627e+06
0.195596,0.00074148,782156,255169,51271.7,3.75487e+06,48725.6,1451.33,3.46587e+06
0.197407,0.000754722,771439,247572,60520.2,3.6953e+06,27497.2,7829.96,3.40546e+06
0.199218,0.000768131,769386,250354,64656.9,3.70308e+06,15571.8,681.966,3.42338e+06
0.20103,0.000781635,772181,258945,65932.3,3.74857e+06,8852.97,-14035.9,3.48515e+06
0.202841,0.00079514,774977,267536,67207.8,3.79405e+06,2134.14,-28753.8,3.54692e+06
0.204652,0.000808747,759017,268789,71790.7,3.78444e+06,1730.99,-36759,3.55008e+06
0.206463,0.000823059,746882,275571,77506.5,3.7575e+06,15481.1,-51462.1,3.53584e+06
0.208274,0.000837373,734747,282353,83222.5,3.73056e+06,29231.1,-66165.8,3.52161e+06
0.210085,0.000851688,722612,289134,88938.3,3.70362e+06,42981.2,-80869,3.50737e+06
0.211896,0.000866005,710477,295916,94654.3,3.67669e+06,56731.2,-95572.7,3.49314e+06
0.213707,0.000880323,698342,302698,100370,3.64975e+06,70481.3,-110276,3.4789e+06
0.215518,0.000894697,684137,302175,108464,3.58756e+06,84349.7,-108000,3.42236e+06
0.217329,0.000909081,669585,300429,116955,3.51946e+06,98237.9,-102879,3.35872e+06
0.21914,0.000923688,662135,315220,121982,3.47462e+06,113451,-121916,3.33511e+06
0.220951,0.000938996,643085,303650,117467,3.45226e+06,116011,-117070,3.31323e+06
0.222762,0.000954299,614932,283518,112268,3.4201e+06,121972,-122409,3.28885e+06
0.224574,0.000969495,611456,262231,94057.9,3.40895e+06,109446,-105751,3.26171e+06
0.226385,0.000984766,605911,255795,86091.6,3.41459e+06,103983,-95491.1,3.26015e+06
0.228196,0.00100005,600135,251019,79270.5,3.4221e+06,99310,-85947.3,3.26146e+06
0.230007,0.00101533,594358,246243,72449.6,3.42962e+06,94637.2,-76403.3,3.26276e+06
0.231818,0.00103061,588582,241468,65628.5,3.43713e+06,89963.8,-66859.5,3.26406e+06
0.233629,0.00104589,582806,236692,58807.5,3.44464e+06,85290.9,-57315.5,3.26537e+06
0.23544,0.00106118,577029,231916,51986.6,3.45216e+06,80618.1,-47771.6,3.26667e+06
0.237251,0.00107663,601444,240221,52927.6,3.5636e+06,70072.7,-30914.4,3.35833e+06
0.239062,0.00109241,616919,282562,59900.3,3.62347e+06,75991.1,-23506.4,3.41991e+06
0.240873,0.00110844,614303,313234,53384.1,3.64745e+06,84589.6,-25782,3.45389e+06
0.242684,0.00112459,622128,330848,40867,3.73167e+06,84720.9,-25791.5,3.53646e+06
0.244495,0.00114084,628615,347553,32560,3.78258e+06,88977,-19804.8,3.58405e+06
0.246306,0.0011573,632055,362191,33829.5,3.75775e+06,102617,-179.748,3.55208e+06
0.248118,0.00117376,635496,376829,35098.9,3.73292e+06,116257,19445.3,3.52011e+06
0.249929,0.00119022,638936,391467,36368.4,3.70809e+06,129897,39070.4,3.48814e+06
0.25174,0.00120661,646552,405611,33109.8,3.69833e+06,137445,59912.3,3.46872e+06
0.253551,0.00122294,657711,419335,26007.5,3.70138e+06,139821,81787.1,3.45993e+06
0.255362,0.00123978,657588,427353,24269.8,3.69422e+06,146221,82248.7,3.45562e+06
0.257173,0.00125695,650226,431710,25974.1,3.68052e+06,155201,68972,3.45417e+06
0.258984,0.00127422,643098,429710,23958.8,3.63978e+06,164206,64901.6,3.42027e+06
0.260795,0.00129153,636049,425577,20694.9,3.58996e+06,173220,63921.8,3.37548e+06
0.262606,0.00130883,628999,421444,17431,3.54014e+06,182234,62941.5,3.33069e+06
0.264417,0.00132613,621950,417310,14167.2,3.49032e+06,191248,61961.7,3.2859e+06
0.266228,0.00134373,601753,410071,25979.9,3.4324e+06,206388,76817.4,3.22838e+06
0.268039,0.00136132,574894,399420,35854.8,3.36796e+06,221862,78483.9,3.17414e+06
0.26985,0.00137901,551843,390849,39903.3,3.31877e+06,230211,72521.2,3.13758e+06
0.271662,0.00139736,548181,407624,28923.5,3.32102e+06,206280,82989.7,3.13808e+06
0.273473,0.00141574,527186,420416,20920,3.29123e+06,187655,81537,3.12145e+06
0.275284,0.00143408,528375,419623,25000.9,3.30705e+06,181567,85355.3,3.13257e+06
0.277095,0.00145242,529564,418830,29081.9,3.32287e+06,175479,89173.9,3.14369e+06
0.278906,0.00147076,530753,418036,33162.8,3.33868e+06,169391,92992.2,3.15481e+06
0.280717,0.0014891,531942,417243,37243.6,3.3545e+06,163303,96810.4,3.16592e+06
0.282528,0.00150744,533131,416450,41324.6,3.37032e+06,157215,100629,3.17704e+06
0.284339,0.00152578,534320,415657,45405.5,3.38614e+06,151127,104447,3.18816e+06
0.28615,0.00154457,529981,422104,46526.1,3.42055e+06,153010,91622,3.23297e+06
0.287961,0.00156348,524144,430514,46844.4,3.45999e+06,157053,74286.2,3.28691e+06
0.289772,0.00158239,518307,438924,47162.8,3.49943e+06,161096,56950.6,3.34085e+06
0.291583,0.0016013,512470,447334,47481.1,3.53887e+06,165139,39614.9,3.39479e+06
0.293394,0.00162026,505503,451425,50234.3,3.58827e+06,163192,21841.8,3.45628e+06
0.295206,0.00163929,501403,451130,55567.9,3.6466e+06,157077,6355.15,3.52141e+06
0.297017,0.00165832,509282,458756,56700.5,3.68375e+06,166684,-1586.44,3.5628e+06
0.298828,0.00167735,517416,466593,57884.6,3.72134e+06,176343,-9590.65,3.60468e+06
0.300639,0.00169727,512630,466698,63757.6,3.65206e+06,185256,-9733.88,3.54254e+06
0.30245,0.00171725,504442,463407,67584.2,3.57232e+06,193187,-11110.2,3.47098e+06
0.304261,0.00173723,496255,460116,71410.4,3.49258e+06,201119,-12486.7,3.39941e+06
0.306072,0.00175721,488067,456826,75237,3.41285e+06,209050,-13863.1,3.32785e+06
0.307883,0.0017772,479880,453535,79063.2,3.33311e+06,216982,-15239.6,3.25629e+06
0.309694,0.00179718,471693,450244,82889.8,3.25338e+06,224914,-16616,3.18473e+06
0.311505,0.00181717,463506,446953,86716,3.17364e+06,232845,-17992.4,3.11317e+06
0.313316,0.00183735,459679,448705,90281.5,3.13859e+06,227851,-23355.1,3.08514e+06
0.315127,0.00185789,485606,451104,90461.1,3.18768e+06,208036,-26597.6,3.123e+06
0.316938,0.00187847,482655,453989,89379.7,3.21992e+06,193482,-29800.4,3.15611e+06
0.31875,0.00189905,476495,456927,88158.2,3.25029e+06,179513,-32997.8,3.18869e+06
0.320561,0.00191964,470335,459865,86936.8,3.28066e+06,165544,-36196,3.22128e+06
0.322372,0.00194026,467124,458826,86510,3.29247e+06,151818,-30868.2,3.2295e+06
0.324183,0.00196089,465405,455775,86485.4,3.2949e+06,138215,-21225.2,3.2254e+06
0.325994,0.00198153,463686,452724,86460.8,3.29731e+06,124612,-11582.2,3.2213e+06
0.327805,0.00200275,465997,452565,80942.1,3.29844e+06,132591,-1267.13,3.21645e+06
0.329616,0.00202423,470088,453681,72997.4,3.29899e+06,150099,9344.65,3.21126e+06
0.331427,0.00204572,474179,454798,65052.6,3.29954e+06,167608,19956.6,3.20607e+06
0.333238,0.0020672,478270,455915,57107.9,3.30009e+06,185117,30568.3,3.20088e+06
0.335049,0.00208868,482361,457031,49163.1,3.30063e+06,202626,41180.3,3.19569e+06
0.33686,0.00211016,486452,458148,41218.4,3.30118e+06,220134,51792,3.1905e+06
0.338671,0.00213152,483008,458709,35417.1,3.27683e+06,238652,57075.1,3.16664e+06
0.340482,0.00215287,472030,456140,31556.3,3.23593e+06,251596,56408.7,3.2093e+06
0.342294,0.00217485,463039,453326,34752,3.22706e+06,249131,56409.8,3.16992e+06
0.344105,0.00219724,453509,455311,38464.6,3.20607e+06,240644,45993.8,3.11579e+06
0.345916,0.00221982,447872,461370,40469.3,3.18818e+06,231371,34099.1,3.11296e+06
0.347727,0.0022424,442236,467428,42473.8,3.17029e+06,222098,22204.5,3.11013e+06
0.349538,0.00226498,436599,473487,44478.6,3.1524e+06,212825,10309.7,3.10731e+06
0.351349,0.00228756,430962,479546,46483,3.13451e+06,203553,-1584.88,3.10448e+06
0.35316,0.00231014,425325,485605,48487.8,3.11662e+06,194280,-13479.6,3.10165e+06
0.354971,0.00233272,419689,491664,50492.2,3.09873e+06,185007,-25374.2,3.09883e+06
0.356782,0.00235528,409997,492256,53659.5,3.06168e+06,175143,-34287.3,3.07642e+06
0.358593,0.00237781,395219,485989,58285,3.00062e+06,164538,-39459.3,3.02946e+06
0.360404,0.00240035,380444,479724,62910.2,2.93956e+06,153933,-44633.1,2.98251e+06
0.362215,0.00242302,388070,499455,62614,2.99501e+06,145933,-64264,3.03756e+06
0.364026,0.0024458,397249,507728,60409.4,3.02625e+06,141873,-68607.9,3.05258e+06
0.365838,0.00246899,396271,505447,54071.9,3.01904e+06,147637,-72801.5,3.04013e+06
0.367649,0.00249255,387387,500164,43970.4,2.99662e+06,161600,-84159.3,3.02738e+06
0.36946,0.00251612,378503,494882,33868.9,2.97421e+06,175563,-95517.1,3.01463e+06
0.371271,0.00253969,369619,489600,23767.3,2.95179e+06,189526,-106875,3.00188e+06
0.373082,0.00256326,360735,484318,13665.8,2.92938e+06,203489,-118233,2.98914e+06
0.374893,0.00258679,352017,479048,4852.66,2.91252e+06,216357,-128488,2.9801e+06
0.376704,0.00261027,343519,473797,-2266.77,2.90299e+06,227786,-137294,2.97595e+06
0.378515,0.00263395,336193,464403,-9569.85,2.87733e+06,234720,-138425,2.95036e+06
0.380326,0.00265834,337785,452186,-12807.8,2.83362e+06,222643,-118548,2.8885e+06
0.382137,0.00268274,345149,455798,-10955.3,2.81946e+06,208682,-90201.5,2.85635e+06
0.383948,0.00270717,353150,462904,-7395.61,2.82324e+06,194821,-62084.9,2.84272e+06
0.385759,0.00273159,359956,467448,-4420.84,2.8269e+06,181476,-36196.6,2.82917e+06
0.38757,0.00275602,366762,471992,-1445.9,2.83057e+06,168131,-10308.3,2.81564e+06
0.389382,0.00278044,373568,476536,1528.86,2.83423e+06,154786,15580,2.80209e+06
0.391193,0.00280487,380374,481081,4503.8,2.8379e+06,141440,41468.4,2.78855e+06
0.393004,0.00282929,387180,485625,7478.57,2.84156e+06,128095,67356.7,2.77501e+06
0.394815,0.00285387,397561,491116,9387.5,2.84836e+06,124612,91760.6,2.76619e+06
0.396626,0.00287876,415046,498491,9178.04,2.86139e+06,140732,113214,2.76676e+06
0.398437,0.00290385,402781,510196,3698.93,2.86419e+06,143237,101235,2.78758e+06
0.400248,0.00292896,389982,521979,-1874.41,2.8668e+06,145499,88656.6,2.80877e+06
0.402059,0.00295406,377184,533762,-7448.02,2.86941e+06,147760,76077.8,2.82995e+06
0.40387,0.00297916,364386,545546,-13021.4,2.87203e+06,150021,63499.5,2.85113e+06
0.405681,0.0030043,357306,548919,-17964.7,2.85713e+06,155072,63727.6,2.84778e+06
0.407492,0.00302946,353331,547727,-22565.6,2.83274e+06,161636,70910.7,2.8311e+06
0.409303,0.00305514,347854,542175,-27679.1,2.79408e+06,181784,62464.3,2.80569e+06
0.411114,0.00308091,342142,535943,-32872.4,2.7532e+06,204050,51580.6,2.77893e+06
0.412926,0.00310667,336431,529712,-38065.4,2.71231e+06,226317,40697,2.75216e+06
0.414737,0.00313282,334933,533363,-26458.1,2.73022e+06,229709,16826.2,2.77949e+06
0.416548,0.00315904,334237,538898,-11650.4,2.75933e+06,229505,-9518.36,2.81711e+06
0.418359,0.00318527,333483,543905,3441.06,2.78718e+06,229098,-35589.6,2.85334e+06
0.42017,0.00321164,331111,534404,26342.4,2.78051e+06,223087,-54136.2,2.8512e+06
0.421981,0.003238,328739,524903,49243.6,2.77384e+06,217076,-72683,2.84905e+06
0.423792,0.00326432,321270,526997,55863.4,2.77562e+06,230720,-80698.2,2.86321e+06
0.425603,0.00329087,317585,515815,66731.7,2.75406e+06,208155,-83044.4,2.83513e+06
0.427414,0.00331764,316216,516809,72616.8,2.76599e+06,193072,-84862.8,2.84576e+06
0.429225,0.00334448,312609,518173,76170,2.7728e+06,182235,-85556,2.85309e+06
0.431036,0.00337132,309002,519539,79722.9,2.77961e+06,171398,-86249.6,2.86042e+06
0.432847,0.00339815,305395,520903,83276.1,2.78642e+06,160561,-86942.8,2.86775e+06
0.434658,0.00342499,301789,522268,86829,2.79323e+06,149724,-87636.4,2.87507e+06
0.43647,0.00345183,298182,523633,90382.2,2.80004e+06,138887,-88329.6,2.8824e+06
0.438281,0.00347867,294575,524998,93935.1,2.80685e+06,128050,-89023.2,2.88973e+06
0.440092,0.0035055,290969,526363,97488.1,2.81366e+06,117213,-89716.7,2.89706e+06
0.441903,0.00353234,287362,527728,101041,2.82047e+06,106376,-90410,2.90438e+06
0.443714,0.00355933,283050,520796,100880,2.79417e+06,98573.6,-87798.2,2.87517e+06
0.445525,0.00358655,251656,479357,96406.8,2.61997e+06,97974.8,-79517,2.69685e+06
0.447336,0.00361425,261284,500051,88385.7,2.66139e+06,99247.3,-82190.4,2.74521e+06
0.449147,0.00364209,282205,537849,79388.4,2.76217e+06,101034,-87879.2,2.85598e+06
0.450958,0.00366993,302770,566187,68098.7,2.83274e+06,105209,-87375.1,2.93597e+06
0.452769,0.00369773,320908,581730,53970.9,2.85955e+06,113472,-82348.5,2.97279e+06
0.45458,0.00372553,339046,597273,39842.8,2.88636e+06,121735,-77321.5,3.0096e+06
0.456391,0.00375334,357184,612816,25714.8,2.91316e+06,129998,-72294.6,3.04642e+06
0.458202,0.00378155,370591,623105,13690.8,2.94327e+06,139608,-68074.7,3.07571e+06
0.460014,0.00381008,380158,629130,3374.84,2.97605e+06,150313,-64509.7,3.09888e+06
0.461825,0.00383863,385348,627970,-5289.84,2.98387e+06,157397,-64738.3,3.09681e+06
0.463636,0.00386719,376570,603874,-8684.45,2.912e+06,152925,-77075.9,3.01415e+06
0.465447,0.00389575,367793,579779,-12078.9,2.84013e+06,148453,-89413.5,2.93149e+06
0.467258,0.00392434,360640,550321,-15925.3,2.7543e+06,143968,-95271.9,2.83236e+06
0.469069,0.00395298,356687,510299,-20661.6,2.64099e+06,139459,-88365,2.70081e+06
0.47088,0.00398162,352733,470276,-25398,2.52768e+06,134949,-81458.2,2.56925e+06
0.472691,0.0040103,345494,431957,-29634.8,2.41222e+06,130834,-78213.6,2.43998e+06
0.474502,0.00403951,320084,408226,-27635.1,2.29206e+06,129910,-95318,2.33716e+06
0.476313,0.00406895,323607,409895,-23442.3,2.29292e+06,135261,-83795.8,2.33597e+06
0.478124,0.00409841,331079,431737,-20144.9,2.36126e+06,145861,-70393.2,2.40168e+06
0.479935,0.00412787,338551,453579,-16847.8,2.42961e+06,156460,-56990.7,2.4674e+06
0.481746,0.00415733,346023,475421,-13550.4,2.49796e+06,167059,-43588.1,2.53311e+06
0.483558,0.0041868,353495,497263,-10253.3,2.5663e+06,177658,-30185.6,2.59882e+06
0.485369,0.00421625,362497,519530,-5358.02,2.63516e+06,188385,-15023.1,2.66487e+06
0.48718,0.00424569,372662,542121,750.92,2.70442e+06,199210,1476.17,2.73117e+06
0.488991,0.00427514,382826,564712,6859.86,2.77367e+06,210035,17975.5,2.79748e+06
0.490802,0.00430459,392990,587302,12968.5,2.84293e+06,220859,34474.1,2.86378e+06
0.492613,0.00433449,375096,587621,15684.5,2.84135e+06,222109,28758.9,2.87234e+06
0.494424,0.00436482,357530,571116,23205.1,2.76657e+06,216753,30632.2,2.79946e+06
0.496235,0.00439518,334985,546502,25903.3,2.66569e+06,209400,26288.7,2.71332e+06
0.498046,0.00442554,312442,521890,28601.9,2.56481e+06,202047,21946.2,2.62717e+06
0.499857,0.0044559,289897,497276,31300,2.46393e+06,194694,17602.8,2.54102e+06
0.501668,0.00448626,267354,472665,33998.6,2.36306e+06,187341,13260.3,2.45488e+06
0.503479,0.00451662,244809,448051,36696.8,2.26218e+06,179988,8916.8,2.36873e+06
0.505291,0.00454698,222264,423437,39395,2.1613e+06,172634,4573.34,2.28258e+06
0.507102,0.00457735,200933,400261,42210.6,2.06596e+06,165470,595.334,2.20108e+06
0.508913,0.00460817,229456,436150,49844.3,2.19847e+06,166060,11618.1,2.31061e+06
0.510724,0.00463898,257981,472039,57478.2,2.33099e+06,166650,22641.5,2.42015e+06
0.512535,0.0046698,286505,507928,65111.8,2.4635e+06,167239,33664.2,2.52968e+06
0.514346,0.00470061,315029,543818,72745.8,2.59602e+06,167829,44687.6,2.63921e+06
0.516157,0.0047315,348502,576760,77772.6,2.7266e+06,169072,57036.7,2.74702e+06
0.517968,0.0047628,371134,586193,72411.1,2.77448e+06,173390,58197.9,2.78864e+06
0.519779,0.00479433,355000,575101,64038.1,2.711e+06,179150,36916.3,2.74191e+06
0.52159,0.00482587,338866,564008,55665.2,2.64752e+06,184910,15634.7,2.69518e+06
0.523401,0.0048574,338503,566109,49076.2,2.61122e+06,189976,188.808,2.67376e+06
0.525212,0.00488901,308028,556245,48500.2,2.57726e+06,207461,-39876.2,2.67378e+06
0.527023,0.00492062,277553,546380,47924.2,2.54331e+06,224946,-79941.3,2.67379e+06
0.528835,0.00495224,247078,536515,47348.3,2.50936e+06,242431,-120006,2.6738e+06
0.530646,0.0049839,220671,521704,47713.9,2.4638e+06,256621,-152240,2.66579e+06
0.532457,0.00501558,196752,503866,48655.7,2.41114e+06,268794,-179683,2.65288e+06
0.534268,0.00504752,180407,500190,49138.9,2.40363e+06,279013,-202650,2.66705e+06
0.536079,0.00507983,175767,518408,48913.2,2.46591e+06,286212,-218699,2.72308e+06
0.53789,0.00511217,169597,528442,50582,2.50186e+06,291705,-226460,2.76228e+06
0.539701,0.00514463,172093,529196,50533.9,2.5339e+06,293455,-220594,2.78815e+06
0.541512,0.00517737,183544,542519,44982.2,2.57104e+06,287466,-206690,2.81696e+06
0.543323,0.0052101,195434,556033,39207.3,2.61e+06,279314,-193168,2.84707e+06
0.545134,0.00524284,207324,569547,33432.1,2.64896e+06,271161,-179646,2.87717e+06
0.546945,0.00527557,219215,583061,27657.2,2.68793e+06,263009,-166124,2.90727e+06
0.548756,0.00530831,231075,596252,22012.7,2.72594e+06,254904,-152082,2.93605e+06
0.550567,0.00534101,242741,607358,17213.4,2.75785e+06,247110,-134675,2.95622e+06
0.552379,0.00537372,254406,618462,12414.1,2.78975e+06,239316,-117267,2.97638e+06
0.55419,0.0054066,261585,620815,4856.2,2.79929e+06,230808,-106209,2.98238e+06
0.556001,0.00543996,263676,615749,8343.4,2.77789e+06,215542,-109841,2.96177e+06
0.557812,0.00547333,265748,610737,12315.3,2.75621e+06,200064,-113760,2.94072e+06
0.559623,0.0055067,267821,605725,16287.8,2.73453e+06,184587,-117679,2.91968e+06
0.561434,0.00554007,269894,600713,20259.7,2.71285e+06,169109,-121598,2.89864e+06
0.563245,0.00557354,271719,603426,25507.3,2.70343e+06,161680,-125862,2.88861e+06
0.565056,0.00560711,273275,614566,32145.3,2.70738e+06,163032,-130502,2.89061e+06
0.566867,0.00564073,266080,612474,33337.2,2.68058e+06,161052,-133980,2.86475e+06
0.568678,0.00567439,251312,598932,29815.1,2.62717e+06,156192,-136453,2.81478e+06
0.570489,0.00570806,237550,587066,28645.8,2.56698e+06,152090,-138591,2.75925e+06
0.5723,0.00574214,248382,601188,48197.4,2.50895e+06,162943,-127705,2.70811e+06
0.574111,0.00577655,269811,618080,56028.5,2.54606e+06,178218,-108480,2.73751e+06
0.575922,0.00581096,291240,634973,63860.3,2.58318e+06,193493,-89256.4,2.76691e+06
0.577734,0.00584537,312668,651866,71691.5,2.62029e+06,208767,-70032.1,2.79631e+06
0.579545,0.00587977,334097,668758,79523.3,2.6574e+06,224042,-50808.1,2.82571e+06
0.581356,0.00591418,355526,685651,87354.4,2.69451e+06,239316,-31583.8,2.85511e+06
0.583167,0.00594851,374613,703771,103904,2.75511e+06,248914,-20040,2.9106e+06
0.584978,0.00598334,358811,699421,104466,2.73331e+06,247632,-28279.1,2.90078e+06
0.586789,0.00601836,330195,687917,98918.9,2.69042e+06,241596,-43862.1,2.87001e+06
0.5886,0.00605338,301231,672576,93204.5,2.64441e+06,232484,-58396.6,2.83232e+06
0.590411,0.00608841,272677,654381,86562.1,2.59005e+06,222422,-70975.7,2.78613e+06
0.592222,0.00612344,244123,636185,79919.6,2.5357e+06,212360,-83554.7,2.73994e+06
0.594033,0.00615846,215569,617990,73277.2,2.48135e+06,202298,-96133.9,2.69375e+06
0.595844,0.00619349,187015,599794,66634.7,2.42699e+06,192235,-108713,2.64756e+06
0.597655,0.00622852,158497,581771,60125.9,2.37408e+06,182727,-121048,2.60267e+06
0.599467,0.00626409,141541,584146,59799.7,2.39827e+06,185535,-122883,2.63115e+06
0.601278,0.0062999,135939,591686,58860.5,2.41012e+06,172167,-126346,2.65067e+06
0.603089,0.00633574,137584,585387,59974.6,2.3985e+06,163658,-125448,2.64519e+06
0.6049,0.00637151,144058,580073,61233.6,2.38599e+06,154767,-120811,2.63218e+06
0.606711,0.00640701,167061,578127,62989.3,2.37048e+06,144573,-103381,2.59335e+06
0.608522,0.0064425,190062,576181,64744.8,2.35496e+06,134379,-85950.6,2.55451e+06
0.610333,0.006478,213064,574235,66500.4,2.33945e+06,124185,-68520.1,2.51568e+06
0.612144,0.00651383,232056,574117,71548.4,2.32733e+06,119105,-57108.6,2.48863e+06
0.613955,0.00655032,243047,577646,83166.3,2.322e+06,124231,-57707.1,2.48506e+06
0.615766,0.00658681,254038,581175,94784.3,2.31666e+06,129356,-58305.6,2.48149e+06
0.617577,0.0066233,265028,584703,106402,2.31132e+06,134481,-58904.4,2.47792e+06
0.619388,0.00665979,276019,588232,118020,2.30599e+06,139607,-59502.9,2.47436e+06
0.621199,0.00669628,287009,591761,129638,2.30065e+06,144732,-60101.8,2.47079e+06
0.62301,0.00673277,298000,595290,141256,2.29532e+06,149858,-60700.2,2.46722e+06
0.624822,0.00676926,308990,598818,152874,2.28998e+06,154983,-61299.1,2.46366e+06
0.626633,0.0068055,309455,596884,160671,2.28023e+06,157716,-53798.3,2.44492e+06
0.628444,0.00684168,307060,588043,167998,2.25313e+06,160181,-43571.5,2.40935e+06
0.630255,0.00687787,305408,576197,175547,2.22299e+06,160685,-33970.9,2.37244e+06
0.632066,0.00691478,295859,589553,162879,2.27846e+06,167807,-42974.9,2.43772e+06
0.633877,0.00695207,298182,588838,149309,2.28123e+06,169053,-34983.6,2.43259e+06
0.635688,0.00698936,300505,588122,135739,2.28401e+06,170299,-26992.1,2.42746e+06
0.637499,0.00702665,302828,587406,122168,2.28678e+06,171545,-19000.8,2.42232e+06
0.63931,0.00706394,305151,586691,108598,2.28956e+06,172792,-11009.2,2.41719e+06
0.641121,0.00710122,307474,585975,95027.8,2.29234e+06,174038,-3017.95,2.41206e+06
0.642932,0.00713851,309797,585260,81457.5,2.29511e+06,175284,4973.57,2.40692e+06
0.644743,0.00717587,316957,579522,70173.5,2.27578e+06,174976,18212.8,2.37442e+06
0.646554,0.00721325,325078,572787,59343.7,2.25206e+06,174359,32494.9,2.33648e+06
0.648366,0.00725071,338783,568696,49124.7,2.26467e+06,178713,41074.8,2.33422e+06
0.650177,0.00728827,328336,554032,54626.5,2.23063e+06,157010,22204,2.30339e+06
0.651988,0.00732659,318212,540108,48859.4,2.20085e+06,154208,24530.7,2.268e+06
0.653799,0.00736502,319926,538694,45822.5,2.20884e+06,155371,34775,2.26795e+06
0.65561,0.00740345,321640,537281,42785.9,2.21682e+06,156534,45018.7,2.26791e+06
0.657421,0.00744188,323355,535867,39749,2.2248e+06,157698,55263,2.26787e+06
0.659232,0.0074803,324168,531973,37009.6,2.22774e+06,158875,66003.1,2.2646e+06
0.661043,0.00751866,321562,518663,35398.3,2.21151e+06,160106,78628.4,2.24907e+06
0.662854,0.00755703,318957,505355,33787,2.19529e+06,161336,91252.8,2.23355e+06
0.664665,0.00759539,316351,492047,32175.8,2.17906e+06,162566,103877,2.21802e+06
0.666476,0.00763376,313746,478737,30564.5,2.16283e+06,163797,116502,2.2025e+06
0.668287,0.00767224,298399,499400,36271.4,2.2123e+06,157425,107646,2.25476e+06
0.670098,0.00771109,296053,541062,43649.1,2.3167e+06,148052,84725.4,2.34754e+06
0.67191,0.00775027,314266,578590,44306.9,2.39991e+06,144362,96124.6,2.43555e+06
0.673721,0.00778943,332918,612568,47123.6,2.47008e+06,137793,106077,2.51058e+06
0.675532,0.00782832,341908,641565,56623.3,2.52135e+06,140052,101020,2.57786e+06
0.677343,0.00786725,349026,661800,65715,2.54968e+06,141813,97543.9,2.62368e+06
0.679154,0.0079062,355715,679060,74835.4,2.57026e+06,143124,94647.6,2.66209e+06
0.680965,0.00794541,356725,684781,77078.6,2.57294e+06,145097,85506.3,2.67512e+06
0.682776,0.00798504,348191,671113,67765.7,2.54558e+06,148182,65871.1,2.64549e+06
0.684587,0.00802468,338986,651799,57340.1,2.50109e+06,150450,48550.5,2.60021e+06
0.686398,0.00806432,329142,627106,45854.5,2.44029e+06,151940,33435.3,2.54003e+06
0.688209,0.00810397,319298,602413,34369.1,2.3795e+06,153429,18319.6,2.47984e+06
0.69002,0.00814362,309454,577721,22883.5,2.3187e+06,154919,3204.29,2.41966e+06
0.691831,0.00818326,299610,553028,11398,2.25791e+06,156409,-11911.4,2.35948e+06
0.693642,0.00822287,295674,542662,7466.58,2.23791e+06,156454,-18857.2,2.33946e+06
0.695454,0.00826267,345285,554382,16461.5,2.34692e+06,151555,-18274.3,2.42797e+06
0.697265,0.00830278,295808,530593,22806.7,2.25826e+06,174998,-34249.4,2.35801e+06
0.699076,0.00834352,289048,536495,29885.1,2.26441e+06,167391,-34950,2.36948e+06
0.700887,0.00838426,282287,542398,36963.7,2.27057e+06,159784,-35650.7,2.38096e+06
0.702698,0.008425,275527,548300,44042.1,2.27672e+06,152177,-36351.4,2.39244e+06
0.704509,0.00846574,268766,554203,51120.8,2.28288e+06,144569,-37052,2.40391e+06
0.70632,0.00850648,262006,560105,58199.1,2.28903e+06,136962,-37752.7,2.41539e+06
0.708131,0.00854722,255246,566007,65277.8,2.29519e+06,129355,-38453.3,2.42687e+06
0.709942,0.00858796,248239,569930,72184,2.29704e+06,122745,-38624,2.43563e+06
0.711753,0.00862868,240014,564035,78236.2,2.27754e+06,121084,-36165.7,2.4309e+06
0.713564,0.00866941,231789,558140,84288.4,2.25804e+06,119423,-33707.3,2.42618e+06
0.715375,0.00871013,223564,552244,90340.4,2.23854e+06,117761,-31248.9,2.42146e+06
0.717187,0.00875085,214117,545560,93985,2.20909e+06,118682,-27429.3,2.39826e+06
0.718998,0.0087917,206960,541034,93529.5,2.17882e+06,117679,-21732.8,2.40774e+06
0.720809,0.00883305,208696,548473,83291.6,2.18542e+06,110791,-13837.7,2.48482e+06
0.72262,0.00887451,208324,558425,66750.4,2.19386e+06,112421,-4249.57,2.47425e+06
0.724431,0.00891598,207953,568378,50209.3,2.2023e+06,114052,5338.75,2.46368e+06
0.726242,0.0089575,205204,576915,40288,2.20456e+06,121128,13108.4,2.42542e+06
0.728053,0.00899901,202437,585440,30418.9,2.20678e+06,128247,20863.7,2.38695e+06
0.729864,0.00904054,199656,592608,20355.1,2.20637e+06,135372,29178.2,2.35055e+06
0.731675,0.00908207,196777,590516,8967.74,2.18808e+06,142544,41302.5,2.32825e+06
0.733486,0.00912381,195840,592935,857.332,2.16949e+06,150726,44250.5,2.3138e+06
0.735297,0.00916597,196687,595880,723.282,2.16744e+06,155976,25937.3,2.32459e+06
0.737108,0.00920813,197534,598826,588.742,2.16539e+06,161226,7624.59,2.33539e+06
0.738919,0.0092503,198380,601771,454.691,2.16334e+06,166475,-10688.6,2.34619e+06
0.74073,0.00929246,199227,604717,320.151,2.16129e+06,171725,-29001.3,2.35698e+06
0.742542,0.00933462,200074,607662,186.101,2.15924e+06,176975,-47314.5,2.36778e+06
0.744353,0.00937679,201173,610728,-100.301,2.15766e+06,182388,-65111.8,2.37875e+06
0.746164,0.00941925,215295,620011,-8212.5,2.18024e+06,196222,-56346,2.39865e+06
0.747975,0.00946171,229416,629294,-16324.4,2.20282e+06,210057,-47579.8,2.41856e+06
0.749786,0.00950472,219276,602513,-20433.6,2.1408e+06,211625,-58569,2.35426e+06
0.751597,0.00954781,204875,566170,-23441.2,2.04452e+06,210927,-74361.2,2.25656e+06
0.753408,0.00959075,182980,539538,-21940.1,1.9496e+06,203489,-77886.5,2.16329e+06
0.755219,0.00963353,190895,528583,-17566.2,1.94161e+06,200942,-74942.4,2.14328e+06
0.75703,0.0096763,201674,518509,-13155.8,1.94092e+06,199117,-72012.1,2.12926e+06
0.758841,0.00971908,212452,508435,-8745.36,1.94022e+06,197292,-69082.1,2.11523e+06
0.760652,0.00976217,220334,511448,-5808.17,1.96617e+06,198091,-66103.1,2.13593e+06
0.762463,0.00980563,224595,530822,-4712.74,2.02541e+06,202171,-63063,2.20004e+06
0.764274,0.0098491,228855,550195,-3617.29,2.08465e+06,206251,-60023.1,2.26415e+06
0.766086,0.00989257,233116,569569,-2521.86,2.1439e+06,210332,-56983.1,2.32826e+06
0.767897,0.00993604,237376,588942,-1426.4,2.20314e+06,214412,-53943.2,2.39237e+06
0.769708,0.00997951,241636,608315,-330.968,2.26238e+06,218492,-50903.2,2.45648e+06
0.771519,0.010023,244466,625678,674.743,2.31508e+06,222997,-49964.5,2.51499e+06
0.77333,0.0100665,230413,623944,2483.33,2.30217e+06,228744,-64756.4,2.51622e+06
0.775141,0.01011,216871,619165,8592.01,2.28602e+06,228480,-72726.1,2.5076e+06
0.776952,0.0101541,217033,605772,18235.2,2.26693e+06,218916,-76235.4,2.47972e+06
0.778763,0.0101984,214941,601346,19021.2,2.2522e+06,212176,-81686.6,2.4651e+06
0.780574,0.0102427,212849,596920,19807,2.23748e+06,205435,-87137.8,2.45047e+06
0.782385,0.010287,210757,592495,20593,2.22276e+06,198695,-92589,2.43584e+06
0.784196,0.0103313,208666,588069,21378.8,2.20804e+06,191955,-98040.1,2.42122e+06
0.786007,0.0103756,205697,579495,22649.5,2.18355e+06,184927,-101335,2.39606e+06
0.787818,0.0104199,201235,563853,24745.7,2.14244e+06,177411,-100958,2.35295e+06
0.78963,0.0104642,196773,548212,26842.1,2.10132e+06,169895,-100581,2.30984e+06
0.791441,0.0105085,193091,534997,27390.3,2.0553e+06,169017,-97500.9,2.26257e+06
0.793252,0.0105527,190255,524412,26259.2,2.00395e+06,175339,-91490.2,2.21077e+06
0.795063,0.0105969,187419,513827,25128.1,1.95259e+06,181661,-85479.5,2.15897e+06
0.796874,0.0106416,194477,514884,24466.5,1.93476e+06,187806,-72473,2.13241e+06
0.798685,0.0106865,207000,522373,24064.3,1.93543e+06,193852,-55601.7,2.1198e+06
0.800496,0.0107314,219524,529862,23662,1.93611e+06,199898,-38730.3,2.10718e+06
0.802307,0.0107764,241300,532197,25699,1.92059e+06,208922,-11918.8,2.07571e+06
0.804118,0.0108216,235223,521440,26721.2,1.88621e+06,215009,4359.64,2.0323e+06
0.805929,0.0108667,231115,510692,29797.5,1.85604e+06,222619,18191.8,1.99479e+06
0.80774,0.010912,232540,496808,35274.8,1.81881e+06,228565,34944.9,1.95261e+06
0.809551,0.0109578,246819,475641,46330.8,1.76516e+06,230648,58484.3,1.89958e+06
0.811363,0.0110035,245748,472447,50355.3,1.77017e+06,230553,63712.2,1.90337e+06
0.813174,0.0110491,244151,469868,54139.2,1.77718e+06,230383,68312.7,1.90911e+06
0.814985,0.0110948,242554,467291,57922.8,1.7842e+06,230213,72913.1,1.91485e+06
0.816796,0.0111404,240957,464712,61706.7,1.79122e+06,230043,77513.6,1.92058e+06
0.818607,0.011186,239360,462134,65490.3,1.79824e+06,229873,82114,1.92632e+06
0.820418,0.0112317,237763,459555,69274.1,1.80525e+06,229704,86714.6,1.93206e+06
0.822229,0.0112774,241715,462751,77757.9,1.83209e+06,228646,97138.1,1.95139e+06
0.82404,0.0113233,255364,476040,94457.9,1.89358e+06,226036,117741,1.99449e+06
0.825851,0.0113692,242602,505959,92348.2,1.96416e+06,221593,107388,2.06483e+06
0.827662,0.0114152,222775,542254,80662.7,2.03317e+06,219786,83458.4,2.14609e+06
0.829473,0.0114618,231877,542717,77027.5,2.01157e+06,215874,86987.4,2.12076e+06
0.831284,0.0115084,241133,538350,73780.8,1.97616e+06,209215,92668.6,2.07759e+06
0.833095,0.011555,250388,533983,70534.3,1.94075e+06,202555,98349.7,2.03443e+06
0.834907,0.0116017,259644,529616,67287.6,1.90535e+06,195896,104031,1.99126e+06
0.836718,0.0116483,268900,525249,64041.1,1.86994e+06,189236,109712,1.9481e+06
0.838529,0.0116947,275606,522406,60545.6,1.84922e+06,183370,111104,1.92888e+06
0.84034,0.0117411,280961,518788,57211,1.83113e+06,177867,111861,1.91711e+06
0.842151,0.0117876,283059,513526,55309,1.80987e+06,173175,111681,1.89993e+06
0.843962,0.0118345,259861,495499,64536.1,1.76384e+06,174799,104221,1.84078e+06
0.845773,0.0118817,248849,489048,68058,1.75388e+06,183451,93499.6,1.86049e+06
0.847584,0.0119289,240738,485203,70074.8,1.75224e+06,194042,82184.4,1.89496e+06
0.849395,0.0119761,232627,481358,72091.6,1.75061e+06,204632,70869.3,1.92943e+06
0.851206,0.0120234,224516,477513,74108.4,1.74897e+06,215223,59554.2,1.9639e+06
0.853017,0.0120706,216406,473669,76125.1,1.74734e+06,225814,48239.1,1.99837e+06
0.854828,0.0121178,208294,469824,78142,1.7457e+06,236405,36923.9,2.03284e+06
0.856639,0.0121651,197771,457998,82741,1.72937e+06,247269,32190.3,1.96957e+06
0.858451,0.0122128,209314,460306,80429.9,1.74439e+06,254274,39965.3,1.96274e+06
0.860262,0.0122604,225453,467842,76030.8,1.76995e+06,260528,47525.8,2.00015e+06
0.862073,0.0123081,235220,477117,70275.5,1.79652e+06,261855,54515.4,2.03049e+06
0.863884,0.0123561,228967,490766,61111.6,1.82566e+06,250797,60069.5,2.04302e+06
0.865695,0.0124042,222713,504416,51947.4,1.85479e+06,239738,65623.7,2.05555e+06
0.867506,0.0124522,216460,518065,42783.4,1.88392e+06,228680,71177.8,2.06809e+06
0.869317,0.0125002,210206,531714,33619.3,1.91306e+06,217621,76732,2.08062e+06
0.871128,0.0125482,203952,545363,24455.3,1.94219e+06,206562,82286.1,2.09316e+06
0.872939,0.0125962,197699,559012,15291.3,1.97132e+06,195504,87840.3,2.10569e+06
0.87475,0.0126443,189451,563912,7600.31,1.98188e+06,183572,93994.1,2.11425e+06
0.876561,0.0126925,182909,571057,916.544,1.97847e+06,166532,99746.4,2.11344e+06
0.878372,0.0127408,182295,574083,1089.49,1.96587e+06,140889,101717,2.09892e+06
0.880183,0.0127892,181681,577110,1262.79,1.95328e+06,115246,103687,2.08439e+06
0.881995,0.012838,172746,574111,8771.7,1.93069e+06,117234,99798.7,2.0679e+06
0.883806,0.012887,165916,570679,13338.8,1.91128e+06,121132,91349.7,2.05547e+06
0.885617,0.0129359,159084,567246,17905.7,1.89187e+06,125029,82900.6,2.04303e+06
0.887428,0.0129848,152254,563814,22472.7,1.87246e+06,128927,74451.6,2.0306e+06
0.889239,0.0130338,145423,560382,27039.8,1.85306e+06,132824,66002.6,2.01817e+06
0.89105,0.0130827,138592,556949,31606.5,1.83365e+06,136722,57553.8,2.00573e+06
0.892861,0.0131316,140889,548899,35348.6,1.81801e+06,137077,48465.4,1.98832e+06
0.894672,0.0131806,145701,541621,39065.9,1.80581e+06,136188,38473,1.97425e+06
0.896483,0.0132295,146463,537500,43259.3,1.79324e+06,136725,28370.4,1.96492e+06
0.898294,0.0132784,147225,533378,47452.5,1.78067e+06,137262,18267.5,1.95559e+06
0.900105,0.0133274,147988,529257,51645.8,1.76811e+06,137800,8164.86,1.94627e+06
0.901916,0.0133767,162298,514252,62673,1.75008e+06,141153,17720.9,1.92018e+06
0.903727,0.0134265,140072,477499,66748.5,1.6486e+06,156046,-11477.7,1.84873e+06
0.905538,0.0134765,150219,478904,68066.2,1.65981e+06,157416,-12342.6,1.85144e+06
0.90735,0.0135265,163546,482947,69399.5,1.67926e+06,157725,-10339.1,1.85919e+06
0.909161,0.0135765,176872,486991,70732.9,1.69871e+06,158033,-8335.06,1.86695e+06
0.910972,0.0136266,190198,491034,72066.2,1.71815e+06,158343,-6331.5,1.8747e+06
0.912783,0.0136766,199303,492573,73159.7,1.73157e+06,158242,-6450.69,1.88124e+06
0.914594,0.0137266,203721,491329,73986.8,1.73827e+06,157688,-8927.68,1.88642e+06
0.916405,0.0137766,208138,490085,74813.7,1.74498e+06,157134,-11404.9,1.8916e+06
0.918216,0.0138266,212555,488841,75640.8,1.75169e+06,156580,-13881.9,1.89679e+06
0.920027,0.0138766,216972,487598,76467.8,1.7584e+06,156025,-16359.1,1.90197e+06
0.921838,0.0139266,223963,485956,77090.2,1.76575e+06,156584,-17260.3,1.90578e+06
0.923649,0.0139765,233061,483988,77545.4,1.77364e+06,158052,-16872.4,1.90845e+06
0.92546,0.0140266,246390,484740,77782.1,1.78875e+06,161646,-13281.4,1.91672e+06
0.927271,0.0140771,289557,504674,76478.5,1.85474e+06,180226,12895.4,1.96438e+06
0.929083,0.014128,295655,507438,72060.6,1.859e+06,171207,20213.6,1.96245e+06
0.930894,0.014179,298799,508833,67394.9,1.85834e+06,159991,26029.2,1.95656e+06
0.932705,0.0142299,301943,510230,62728.9,1.85769e+06,148774,31845,1.95068e+06
0.934516,0.0142808,302117,510677,57554.7,1.85189e+06,135328,35584.9,1.94114e+06
0.936327,0.0143318,296385,509239,51369.7,1.83587e+06,117449,35195.3,1.92434e+06
0.938138,0.0143829,296993,510889,46475.7,1.83702e+06,105257,36688.9,1.92331e+06
0.939949,0.0144339,299809,513614,42031.3,1.84415e+06,95045.4,38836.9,1.92777e+06
0.94176,0.014485,302625,516340,37586.8,1.85127e+06,84833.5,40985.8,1.93222e+06
0.943571,0.0145361,302317,512548,33027.2,1.83827e+06,75577.5,44283.3,1.92906e+06
0.945382,0.0145872,299768,504080,28384.7,1.81082e+06,67007.6,48406.6,1.92043e+06
0.947193,0.0146382,297220,495612,23742.4,1.78337e+06,58437.4,52528.8,1.91181e+06
0.949004,0.0146893,294671,487145,19100,1.75591e+06,49867.4,56652,1.90318e+06
0.950815,0.0147408,295925,491146,18806.7,1.78402e+06,50969.1,63809.5,2.03889e+06
0.952627,0.0147927,311791,501630,15851.1,1.81372e+06,65536.5,68389.5,1.88807e+06
0.954438,0.0148445,304216,493252,16973.2,1.77608e+06,62813.3,46898.3,1.85514e+06
0.956249,0.0148963,296642,484873,18095.5,1.73844e+06,60089.3,25405.5,1.82221e+06
0.95806,0.0149482,289067,476495,19217.7,1.70081e+06,57366.1,3914.34,1.78928e+06
0.959871,0.015,282590,466825,20037.9,1.66203e+06,57382.7,-13019.6,1.75471e+06
0.961682,0.015052,279226,453496,20001.7,1.62001e+06,65166.9,-17031.4,1.71552e+06
0.963493,0.015104,282994,431780,18003.3,1.57056e+06,90750.6,8565.92,1.66574e+06
0.965304,0.0151561,286761,410065,16004.9,1.52112e+06,116334,34162.8,1.61595e+06
0.967115,0.0152084,306291,402753,10670.1,1.48768e+06,148921,84585,1.57391e+06
0.968926,0.0152609,298320,421734,9934.82,1.51367e+06,164596,85101.5,1.61104e+06
0.970737,0.0153135,263256,456764,13964.6,1.58146e+06,164509,37717.9,1.7084e+06
0.972548,0.0153661,233740,479667,19102.5,1.62039e+06,169213,248.247,1.77253e+06
0.974359,0.0154187,215891,477062,26571.4,1.59863e+06,183992,-16370.7,1.76676e+06
0.976171,0.0154712,200291,469540,34489.4,1.56517e+06,200714,-28970.8,1.74753e+06
0.977982,0.0155238,189422,451675,43352.8,1.5071e+06,221521,-33115.8,1.69996e+06
0.979793,0.0155763,178554,433810,52216,1.44903e+06,242328,-37260.9,1.65239e+06
0.981604,0.015629,176024,426175,57458.5,1.4591e+06,256614,-22881,1.65424e+06
0.983415,0.0156822,182874,430088,56753.6,1.49481e+06,255995,-9045.18,1.67754e+06
0.985226,0.0157356,192042,436868,54051.2,1.52252e+06,249562,-1359.15,1.69653e+06
0.987037,0.0157889,192673,443424,55234.6,1.54503e+06,244480,-286.39,1.71775e+06
0.988848,0.0158421,186094,449791,59699.8,1.56313e+06,240538,-4800.04,1.74086e+06
0.990659,0.0158954,179515,456158,64165.8,1.58124e+06,236597,-9314.25,1.76397e+06
0.99247,0.0159485,192972,480458,64218.5,1.6513e+06,228071,-2417.82,1.8307e+06
0.994281,0.0160017,206818,505107,64186.2,1.72237e+06,219455,4699.7,1.89827e+06
0.996092,0.0160549,220664,529754,64153.5,1.79344e+06,210839,11817,1.96584e+06
0.997903,0.016108,234510,554402,64121.3,1.86451e+06,202223,18934.5,2.03341e+06
0.999715,0.0161613,244344,571154,63773.3,1.9078e+06,186963,19943.9,2.07547e+06
1.00153,0.0162148,243034,565971,62547.7,1.87392e+06,153245,3985.87,2.04665e+06
1.00334,0.0162683,241725,560789,61322.5,1.84003e+06,119527,-11972.1,2.01782e+06
1.00515,0.0163221,235364,544636,60948.7,1.78444e+06,95167.9,-23868.4,1.97031e+06
1.00696,0.0163761,219367,505882,61605.7,1.68538e+06,78385,-21166.3,1.8851e+06
1.00877,0.0164302,203369,467128,62262.3,1.58633e+06,61603.6,-18464.2,1.7999e+06
1.01058,0.0164842,187371,428373,62919.4,1.48727e+06,44820.1,-15762.1,1.71469e+06
1.01239,0.0165382,171273,389412,63615.4,1.38765e+06,27719,-13088.7,1.62917e+06
1.0142,0.0165922,167938,377011,59254.2,1.36087e+06,51616.6,-6737.19,1.58472e+06
1.01601,0.0166462,164603,364611,54893.1,1.3341e+06,75512.6,-386.118,1.54028e+06
1.01783,0.0167003,161267,352209,50531.6,1.30733e+06,99410.2,5965.4,1.49583e+06
1.01964,0.0167543,157931,339808,46170.5,1.28055e+06,123306,12316.5,1.45138e+06
1.02145,0.0168085,158298,346257,46592,1.30288e+06,137667,14442,1.44868e+06
1.02326,0.0168631,162443,371944,51894.6,1.37532e+06,142295,12254.8,1.48858e+06
1.02507,0.0169177,170090,384046,50586.6,1.42036e+06,145250,31511.4,1.51048e+06
1.02688,0.0169725,171810,389660,48428,1.43928e+06,148707,42381.6,1.52605e+06
1.02869,0.0170275,165681,395951,48926.8,1.44638e+06,153563,33378.2,1.54482e+06
1.0305,0.0170825,159553,402242,49425.7,1.45348e+06,158419,24375.6,1.56359e+06
1.03231,0.0171375,153424,408534,49924.6,1.46059e+06,163275,15372.3,1.58236e+06
1.03412,0.0171923,152389,403835,46482,1.44463e+06,167460,21097.9,1.5709e+06
1.03594,0.0172472,154734,391841,40423,1.41337e+06,171199,36600.5,1.53937e+06
1.03775,0.017302,157079,379849,34364.8,1.38211e+06,174938,52100.4,1.50785e+06
1.03956,0.0173568,154010,373497,31477.8,1.36206e+06,176851,56760.4,1.49221e+06
1.04137,0.0174117,137179,381486,36652.9,1.3705e+06,174124,33861.4,1.51696e+06
1.04318,0.0174668,135034,403793,40360.8,1.4052e+06,171170,15829.6,1.56628e+06
1.04499,0.0175221,143755,436694,42982.6,1.45932e+06,168047,1400.26,1.63377e+06
1.0468,0.0175775,152478,469597,45604.5,1.51345e+06,164924,-13029.3,1.70127e+06
1.04861,0.0176329,175790,511793,44686.9,1.59434e+06,159927,-23407.4,1.79468e+06
1.05042,0.0176886,176263,505431,47082.5,1.56766e+06,157492,-35775.9,1.77151e+06
1.05224,0.0177444,176859,482552,50803.2,1.51478e+06,154898,-35943.9,1.73017e+06
1.05405,0.0178002,180649,461408,53998.2,1.46782e+06,151895,-34082.1,1.69589e+06
1.05586,0.0178561,184439,440267,57192.9,1.42085e+06,148892,-32220.3,1.66162e+06
1.05767,0.0179119,166737,432035,60727.8,1.38453e+06,151314,-35505.5,1.63576e+06
1.05948,0.0179677,146173,425525,64307.6,1.34964e+06,154459,-39476.1,1.61104e+06
1.06129,0.0180235,125608,419013,67887.7,1.31474e+06,157604,-43446.9,1.58631e+06
1.0631,0.0180793,105044,412503,71467.5,1.27985e+06,160748,-47417.5,1.56158e+06
1.06491,0.0181352,84478.9,405993,75047.6,1.24495e+06,163893,-51388.4,1.53685e+06
1.06672,0.0181911,75518.9,419017,83912,1.2374e+06,177360,-48857.3,1.54117e+06
1.06854,0.0182473,76416.4,446914,93778.8,1.25501e+06,196829,-42145.4,1.56622e+06
1.07035,0.0183037,77804.3,465948,84286.8,1.28468e+06,201188,-42696.4,1.57027e+06
1.07216,0.0183602,81855.7,464253,67341.7,1.29415e+06,195891,-24792.6,1.55067e+06
1.07397,0.0184169,95515.2,433263,64748.2,1.26587e+06,195096,2829,1.5119e+06
1.07578,0.0184737,102796,403021,62477.3,1.22652e+06,191702,25718.6,1.47441e+06
1.07759,0.0185305,110078,372780,60206.4,1.18717e+06,188310,48606.7,1.43692e+06
1.0794,0.0185872,117359,342538,57935.5,1.14781e+06,184916,71496.3,1.39942e+06
1.08121,0.018644,124640,312297,55664.7,1.10846e+06,181523,94384.4,1.36193e+06
1.08302,0.0187007,131921,282055,53393.7,1.0691e+06,178130,117274,1.32444e+06
1.08484,0.0187575,139202,251814,51122.9,1.02975e+06,174737,140162,1.28694e+06
1.08665,0.0188144,145382,241888,49976.2,1.0246e+06,172500,144952,1.28002e+06
1.08846,0.0188713,149790,259594,50319.5,1.06589e+06,172157,123729,1.31454e+06
1.09027,0.0189283,154198,277301,50662.8,1.10718e+06,171815,102505,1.34906e+06
1.09208,0.0189853,158606,295007,51006,1.14847e+06,171473,81281.4,1.38358e+06
1.09389,0.0190423,169833,329674,54805.9,1.23271e+06,179864,67026.9,1.44691e+06
1.0957,0.0190994,183508,370433,59847.2,1.33238e+06,191392,55277.4,1.52059e+06
1.09751,0.0191564,197185,411195,64888.9,1.43205e+06,202921,43527.1,1.59428e+06
1.09932,0.0192135,212564,453484,69798.6,1.53813e+06,213457,31882.2,1.6756e+06
1.10113,0.019271,206260,451219,72301.2,1.51823e+06,216305,45294.1,1.65669e+06
1.10295,0.0193289,195747,424911,74439.9,1.44837e+06,208351,61052.2,1.58345e+06
1.10476,0.0193868,185235,398602,76578.9,1.37851e+06,200397,76810.9,1.51022e+06
1.10657,0.0194447,174722,372294,78717.6,1.30865e+06,192443,92569,1.43699e+06
1.10838,0.0195026,166376,354396,79973,1.26014e+06,187468,101611,1.38424e+06
1.11019,0.0195605,160131,344654,80371.5,1.23232e+06,185381,104141,1.35136e+06
1.112,0.0196185,153886,334911,80770.1,1.2045e+06,183294,106671,1.31847e+06
1.11381,0.0196764,145190,324977,82674.8,1.1818e+06,180769,104698,1.29224e+06
1.11562,0.0197343,131731,314668,87505.3,1.16902e+06,177392,93978.7,1.27891e+06
1.11743,0.0197921,118274,304360,92335.3,1.15624e+06,174016,83260.1,1.26558e+06
1.11925,0.0198501,123622,326731,90271.5,1.20743e+06,180281,63715.1,1.31918e+06
1.12106,0.019908,131487,351834,87386.1,1.26227e+06,186918,44226.8,1.37673e+06
1.12287,0.0199664,135069,352686,87107.5,1.25227e+06,181939,39424.5,1.36774e+06
1.12468,0.0200249,138651,353536,86829,1.24227e+06,176961,34622.7,1.35875e+06
1.12649,0.0200833,142233,354387,86550.5,1.23227e+06,171983,29820.6,1.34975e+06
1.1283,0.0201417,145815,355239,86272,1.22227e+06,167005,25018.6,1.34076e+06
1.13011,0.0202001,149397,356090,85993.5,1.21227e+06,162026,20216.5,1.33177e+06
1.13192,0.0202584,160687,357296,82805.8,1.21018e+06,151439,24988,1.33498e+06
1.13373,0.0203167,174726,355536,77690.8,1.20372e+06,137504,33955.1,1.3433e+06
1.13555,0.0203749,188766,353776,72575.6,1.19726e+06,123568,42922,1.35162e+06
1.13736,0.0204336,187783,359850,66668.5,1.21343e+06,126314,21982,1.35938e+06
1.13917,0.0204923,185149,368335,60515.9,1.24435e+06,132773,2968.87,1.39092e+06
1.14098,0.0205513,185224,376897,53269.9,1.26714e+06,145542,-6398.35,1.38822e+06
1.14279,0.0206104,184290,379467,43723,1.28039e+06,155619,-11710,1.40977e+06
1.1446,0.0206694,183356,382037,34176.8,1.29364e+06,165695,-17021.5,1.43131e+06
1.14641,0.0207285,182423,384608,24629.9,1.30689e+06,175772,-22333.1,1.45286e+06
1.14822,0.0207875,181489,387178,15083.7,1.32013e+06,185848,-27644.6,1.4744e+06
1.15003,0.0208467,167328,380549,7408.2,1.29388e+06,201681,-43821.8,1.4641e+06
1.15184,0.0209062,131768,338410,-2429.51,1.19401e+06,210805,-60193.1,1.41455e+06
1.15366,0.0209657,95362.5,288613,-13927.5,1.08828e+06,214807,-71300,1.36718e+06
1.15547,0.0210253,58958.9,238819,-25424.7,982565,218809,-82406.6,1.31982e+06
1.15728,0.0210848,28774.7,191001,-36788.2,883550,220466,-88593.1,1.27612e+06
1.15909,0.0211443,41306.7,163344,-30934.1,846765,197298,-68628.2,1.22907e+06
1.1609,0.0212039,50110.3,154703,-16074.5,843672,183647,-67123.8,1.19697e+06
1.16271,0.0212636,76122.2,165773,708.986,884292,173361,-61997.2,1.19954e+06
1.16452,0.0213233,102135,176845,17493.7,924915,163075,-56871.2,1.20211e+06
1.16633,0.021383,125330,209614,35527.2,989019,167736,-65157.8,1.22768e+06
1.16814,0.0214428,146841,255366,54309.8,1.06718e+06,181342,-81469.9,1.26702e+06
1.16996,0.0215025,168350,301115,73091.1,1.14533e+06,194946,-97780.8,1.30636e+06
1.17177,0.0215624,169823,313373,67017.1,1.16401e+06,193914,-91539.8,1.32428e+06
1.17358,0.0216224,170707,324647,60213.6,1.18094e+06,192452,-84636.9,1.34157e+06
1.17539,0.0216824,171591,335921,53409.5,1.19787e+06,190990,-77733.4,1.35886e+06
1.1772,0.0217424,172475,347195,46606.3,1.21479e+06,189529,-70830.8,1.37615e+06
1.17901,0.0218026,176217,359829,40706.3,1.2252e+06,181504,-58447.6,1.38317e+06
1.18082,0.0218628,179152,369780,32926,1.22782e+06,172393,-44784.3,1.38006e+06
1.18263,0.021923,182087,379733,25144.9,1.23045e+06,163282,-31120,1.37696e+06
1.18444,0.0219832,185023,389684,17364.6,1.23308e+06,154172,-17456.6,1.37385e+06
1.18626,0.0220438,180270,370785,15800.3,1.17357e+06,154750,-4500.39,1.34178e+06
1.18807,0.0221046,173289,337301,19678,1.09051e+06,153382,10841.9,1.30508e+06
1.18988,0.0221653,166307,303815,23555.8,1.00746e+06,152014,26185.2,1.26837e+06
1.19169,0.022226,154918,271251,28127.7,932566,149375,34882.2,1.22871e+06
1.1935,0.0222867,137354,239973,33672.6,869095,144956,34273.3,1.1849e+06
1.19531,0.0223474,119791,208697,39217,805630,140537,33663.9,1.14109e+06
1.19712,0.0224081,102227,177420,44761.8,742160,136119,33055.1,1.09728e+06
1.19893,0.0224688,84516.4,155552,49329.8,702313,132423,27274.2,1.06403e+06
1.20074,0.0225298,77901.1,170040,50823.6,738317,131972,15171.7,1.06069e+06
1.20256,0.0225908,88062.5,209819,50720.7,815114,134131,9281.94,1.06973e+06
1.20437,0.0226518,98224.5,249602,50617.9,891917,136289,3391.63,1.07876e+06
1.20618,0.0227128,108386,289382,50515,968714,138448,-2498.12,1.0878e+06
1.20799,0.022774,124272,306626,48160.8,1.02815e+06,140284,13243,1.13297e+06
1.2098,0.0228352,140581,322200,45640,1.08631e+06,142097,30584.7,1.18081e+06
1.21161,0.0228964,156891,337775,43119,1.14446e+06,143910,47927.8,1.22865e+06
1.21342,0.0229576,173200,353349,40598.2,1.20262e+06,145722,65269.4,1.27649e+06
1.21523,0.0230189,202832,379397,43334.5,1.28155e+06,156137,80564.3,1.35057e+06
1.21704,0.0230803,209451,356792,27979.8,1.23921e+06,152236,102078,1.30016e+06
1.21885,0.023142,181575,341881,34013.2,1.17339e+06,160261,94495.8,1.27382e+06
1.22067,0.0232038,171110,339243,36773,1.15809e+06,157688,81163.8,1.25799e+06
1.22248,0.0232656,163147,337821,39000.4,1.14874e+06,153793,67577.3,1.24327e+06
1.22429,0.0233273,155185,336400,41227.7,1.13938e+06,149898,53991.7,1.22855e+06
1.2261,0.0233891,146677,330539,42886.6,1.11813e+06,146159,41287.9,1.20662e+06
1.22791,0.0234508,136034,322481,44170.6,1.08764e+06,143962,27766.9,1.18392e+06
1.22972,0.0235125,124444,315931,45591.4,1.05914e+06,142602,13182.8,1.16536e+06
1.23153,0.0235742,112854,309381,47012,1.03065e+06,141242,-1400.39,1.14679e+06
1.23334,0.023636,103855,303858,47851.6,1.00955e+06,139430,-12821.3,1.13263e+06
1.23515,0.0236982,100499,304268,53623.1,1.00679e+06,137748,-9186.28,1.13013e+06
1.23697,0.0237604,99802.7,290471,50988.8,981118,137680,1839.92,1.10902e+06
1.23878,0.0238226,102069,260850,38989.8,929934,139412,21098.6,1.06718e+06
1.24059,0.0238848,104336,231227,26990.1,878746,141145,40358.3,1.02534e+06
1.2424,0.023947,106603,201604,14990.1,827558,142877,59618.3,983496
1.24421,0.0240093,113810,202213,18998.5,830508,140738,68410,984828
1.24602,0.0240716,123107,215609,29778.3,856359,136963,72773.7,1.00442e+06
1.24783,0.0241339,132404,229007,40558.9,882213,133187,77136.8,1.02402e+06
1.24964,0.0241963,130868,247055,49002.5,914124,128519,71380.2,1.05107e+06
1.25145,0.0242588,116623,270560,54706.4,953146,122804,53751,1.08688e+06
1.25327,0.0243212,102379,294064,60409.9,992164,117090,36123.1,1.12268e+06
1.25508,0.0243837,88134,317569,66113.7,1.03119e+06,111375,18494.3,1.15849e+06
1.25689,0.0244463,86515.4,329200,67852.1,1.05297e+06,108383,17841.8,1.17604e+06
1.2587,0.024509,95026.4,324878,65518.8,1.05046e+06,107954,28443.4,1.16194e+06
1.26051,0.0245716,103537,320557,63185.7,1.04795e+06,107525,39044.2,1.14784e+06
1.26232,0.0246344,88040.7,311413,59572.9,1.00443e+06,106691,30867.6,1.11268e+06
1.26413,0.0246974,74918.9,292898,59229,937356,109178,28322.4,1.07752e+06
1.26594,0.0247605,68438.3,273022,60098.7,874067,112676,32005.4,1.0476e+06
1.26775,0.0248236,61958.3,253148,60968.5,810782,116172,35688.2,1.01769e+06
1.26956,0.0248866,55478,233273,61838.3,747494,119670,39371.2,987782
1.27138,0.0249497,48997.7,213398,62708,684208,123167,43054,957872
1.27319,0.0250128,42517.4,193523,63577.9,620920,126664,46737,927960
1.275,0.0250759,49333.2,205051,65455.4,649863,134403,46834.9,954948
1.27681,0.0251391,59388,224228,67578.5,701271,143175,46059.8,995797
1.27862,0.0252023,94057.1,245645,73114.5,800016,155518,57971.3,1.03554e+06
1.28043,0.0252656,117130,263460,77098.1,876635,164075,62018.4,1.06279e+06
1.28224,0.0253291,111573,273847,77216.7,898512,164501,47741.7,1.06673e+06
1.28405,0.0253927,106016,284236,77335.3,920393,164927,33464.2,1.07068e+06
1.28586,0.0254562,100460,294623,77453.9,942272,165354,19187.6,1.07462e+06
1.28768,0.0255199,88719,282726,75036.1,915983,158585,11694.9,1.04649e+06
1.28949,0.0255835,78437.2,263686,70084.5,870150,151529,7018.05,995434
1.2913,0.0256471,68154.5,244644,65132.7,824314,144473,2340.75,944375
1.29311,0.0257107,57872.7,225603,60181.1,778481,137418,-2336.08,893320
1.29492,0.0257744,55085.8,208983,57791.6,744283,132106,2482.02,858335
1.29673,0.0258383,64275.9,196230,59495.9,728675,129578,22473.3,849027
1.29854,0.0259023,73465.3,183478,61200.2,713067,127051,42463.3,839719
1.30035,0.0259662,82697.3,175116,62339.1,705087,124433,58860.4,836947
1.30216,0.0260301,92064.1,180912,61655,721702,121523,63667.4,855248
1.30398,0.0260941,103065,186546,61354.8,738841,118937,70130.1,872750
1.30579,0.0261582,132014,190392,65272.3,761717,119918,94790,881435
1.3076,0.0262223,160965,194239,69190,784595,120898,119451,890122
1.30941,0.0262864,146728,217093,66363.3,814604,117927,90914.9,916996
1.31122,0.0263505,119785,245542,61552.4,846714,113792,46726.4,949223
1.31303,0.0264145,95624.1,270980,57116.9,874297,110356,8423.5,975818
1.31484,0.0264789,100128,265393,56549.9,855206,114112,30786.2,944365
1.31665,0.0265433,104631,259807,55982.9,836116,117869,53147.2,912914
1.31846,0.0266077,109134,254220,55415.9,817025,121625,75509.7,881460
1.32028,0.0266721,114737,247580,54694.1,806053,122275,93038.5,867188
1.32209,0.0267366,124863,228416,52858.3,783992,118068,109816,873783
1.3239,0.0268011,134988,209252,51022.8,761932,113861,126592,880377
1.32571,0.0268658,127636,190555,50337.9,719298,115561,122544,867375
1.32752,0.0269305,103195,172316,50778.5,656551,123038,98135.4,835213
1.32933,0.0269952,89178.6,159467,50134.9,615052,127096,78755.6,817362
1.33114,0.02706,85892.1,152169,48375.7,595427,127636,64553.5,814241
1.33295,0.0271248,82605.2,144870,46616.3,575799,128176,50350.7,811120
1.33476,0.0271896,81581.4,154107,42380.4,589655,134137,34252.6,814118
1.33657,0.0272544,81924.5,173334,36648.3,623737,143374,17007.9,820812
1.33839,0.0273192,82267.4,192560,30916.6,657816,152610,-235.54,827506
1.3402,0.027384,82610.4,211787,25184.5,691898,161846,-17480.3,834200
1.34201,0.027449,83767.5,222723,16791.8,710627,171988,-25986.6,849041
1.34382,0.0275142,85376.2,229064,6922.9,720846,182633,-29648.1,868401
1.34563,0.0275793,86984.6,235404,-2945.29,731064,193278,-33309.4,887760
1.34744,0.0276447,92111.3,223422,-2306.33,718342,187430,-17074.1,886247
1.34925,0.0277101,99429.2,206841,1391.65,702972,176555,6788.73,880939
1.35106,0.0277756,106748,190259,5089.88,687602,165680,30653.1,875630
1.35287,0.0278409,105968,179630,9334.87,653340,154308,38544.6,852661
1.35469,0.0279062,102641,170873,13752.3,613132,142778,41412.3,824136
1.3565,0.0279715,99314,162116,18169.4,572928,131249,44280.5,795613
1.35831,0.0280369,87706.9,155024,19644,526889,119636,38204.2,760172
1.36012,0.0281024,82479.8,160995,22575.2,549318,126207,33897,764291
1.36193,0.028168,77303.7,167101,25361.9,571920,132732,29456.9,768690
1.36374,0.0282336,73237.4,175527,26262.1,599609,139323,23432.1,778594
1.36555,0.0282991,69171.2,183954,27162.4,627301,145913,17406.6,788499
1.36736,0.0283646,65105.3,192381,28062.6,654991,152504,11381.5,798403
1.36917,0.0284302,61038.8,200807,28962.8,682682,159094,5356.23,808307
1.37099,0.0284958,48456.9,202064,25849.4,686885,165722,2426.64,814053
1.3728,0.0285616,30939.4,172207,23805.2,623214,156938,14331.9,801015
1.37461,0.0286275,41242.9,185722,27183.5,652725,156873,12122.5,811464
1.37642,0.0286935,53479.8,202253,30938.9,688711,157414,8932.36,823545
1.37823,0.0287594,64983,216753,35161.7,718733,156665,5774.45,834639
1.38004,0.0288254,72222.5,221420,40220.3,722534,150523,4174.96,840247
1.38185,0.0288913,76281.4,221851,42941,720066,143668,5890.82,842165
1.38366,0.0289573,80340.6,222282,45661.8,717598,136813,7606.75,844083
1.38547,0.0290232,84399.2,222712,48382.5,715129,129958,9322.83,846000
1.38728,0.0290892,88458.5,223143,51103.3,712662,123104,11038.8,847918
1.3891,0.0291551,93972.2,224297,53620.3,713694,117449,11600.6,849264
1.39091,0.0292213,103830,228334,54240.9,730852,120599,10620,844304
1.39272,0.0292876,108400,230463,54308.6,740987,124627,15742,836802
1.39453,0.029354,102876,214101,48489.3,709922,123345,26156.3,820513
1.39634,0.0294204,84057.9,186588,44052,629114,116891,27519.7,813765
1.39815,0.0294867,65239.1,159072,39614.4,548301,110436,28882.8,807019
1.39996,0.0295531,46656.2,132422,35942.2,470242,103851,29703.8,798744
1.40177,0.0296195,29977.1,112775,38479.1,414493,96203.9,26124.2,778064
1.40358,0.0296859,13299.2,93130.7,41016.2,358748,88557.2,22544.3,757384
1.4054,0.0297523,-3379.95,73484.1,43553.2,302999,80910,18964.7,736704
1.40721,0.0298188,-4325.36,85758.3,47273.8,328119,78469.5,19619.9,728304
1.40902,0.0298854,-4599.46,99395.2,51044.9,356691,76251,20456.4,720427
1.41083,0.029952,1689.16,119497,51592.6,405144,76998.4,27374.5,710404
1.41264,0.0300186,14121.3,145652,49123.4,472212,80522.2,39986,698371
1.41445,0.0300852,26552.3,171805,46654.4,539275,84045.5,52596.7,686338
1.41626,0.0301517,38524.4,195112,44183.5,599394,87184.1,64441.1,680396
1.41807,0.0302186,41401.6,200288,36152.5,599957,91011.9,51883.8,699873
1.41988,0.0302855,44130.9,205458,27988.7,600137,94914,38858.3,719049
1.4217,0.0303524,46859.9,210627,19825.5,600317,98815.6,25833.9,738224
1.42351,0.0304193,49589.3,215796,11661.7,600496,102718,12808.4,757400
1.42532,0.0304862,52318.2,220966,3498.5,600676,106619,-216.026,776576
1.42713,0.030553,55047.6,226135,-4665.35,600855,110521,-13241.5,795752
1.42894,0.0306199,58340,229949,-13025.8,599415,114439,-26361.5,808639
1.43075,0.0306868,62598.7,231439,-21724.8,595197,118382,-39646,810742
1.43256,0.030754,56701.7,230297,-17567.5,593002,114782,-49856,760519
1.43437,0.0308212,49249.5,217055,-13308.8,562473,110173,-53227.2,736816
1.43618,0.0308883,40528,203345,-8651.41,529879,104706,-56032.6,708430
1.438,0.0309555,31806.1,189634,-3993.79,497282,99239.3,-58838.2,680042
1.43981,0.0310227,23970.5,175940,671.013,466042,93717.6,-61397,652419
1.44162,0.0310899,17094.4,162262,5344.1,436267,88136.3,-63688.5,625623
1.44343,0.031157,10219.1,148586,10016.9,406494,82555.2,-65979.8,598828
1.44524,0.0312243,5574.02,139692,12721,388038,81529.7,-66636.6,581410
1.44705,0.0312916,10805.7,144176,11976,407352,91568.3,-58250.4,590318
1.44886,0.031359,20104.7,150134,12536.8,435835,101452,-45207.3,602204
1.45067,0.0314263,29403.5,156091,13097.7,464317,111335,-32164.3,614090
1.45248,0.0314937,36845.8,162328,12487.8,490994,119612,-21934.6,625357
1.45429,0.0315611,39799,169242,9047.96,513304,124008,-18506.6,635127
1.45611,0.0316285,42909.7,169819,5037.32,522285,125311,-15044.5,638982
1.45792,0.0316962,46469.9,146128,1455.54,476313,118347,-9889.44,633185
1.45973,0.0317639,47247.8,133724,1005.3,451571,113372,-5170.45,618349
1.46154,0.0318316,46106.5,129104,2715.43,441471,109767,-751.685,597276
1.46335,0.0318993,44965.3,124484,4425.36,431371,106162,3667.12,576204
1.46516,0.031967,43823.9,119865,6135.49,421272,102558,8085.89,555131
1.46697,0.0320347,42682.7,115245,7845.42,411172,98953.3,12504.7,534059
1.46878,0.0321024,41541.3,110625,9555.56,401072,95348.9,16923.5,512986
1.47059,0.0321701,40400.1,106005,11265.5,390972,91744.2,21342.3,491914
1.47241,0.0322379,39087.2,101495,13548.6,379955,88039,24940.8,469643
1.47422,0.0323056,36524.1,97776.6,20007.9,362248,83598.8,22560.8,438648
1.47603,0.0323733,35470.4,100609,24740.5,364115,83286.1,21457.1,415378
1.47784,0.0324414,32665.6,108077,23672.4,371064,86905.8,22337.6,427218
1.47965,0.0325094,27453.9,114805,22527.5,379769,90082.8,21564.8,443639
1.48146,0.0325773,24807.8,113648,21120.3,369665,90550.3,22829.3,458431
1.48327,0.0326453,23371.2,108774,19589.2,350693,89740.5,25054.5,472456
1.48508,0.0327133,21934.6,103900,18058.3,331720,88930.6,27279.6,486481
1.48689,0.0327812,20498,99025.7,16527.2,312748,88120.7,29504.9,500507
1.48871,0.0328492,19061.4,94151.5,14996.3,293776,87310.8,31729.9,514532
1.49052,0.0329172,19896.3,89796.4,12088.3,277849,88617.6,32967.1,527021
1.49233,0.0329854,28070.6,87118.5,4731.37,271767,96763.6,31011.4,534547
1.49414,0.0330535,36120.8,85133,-2431.91,266437,105043,28981.5,541831
1.49595,0.0331217,37539.2,91287.5,-4067.36,288246,106679,28738.1,533070
1.49776,0.03319,38023,97235.9,-4960.27,311484,106965,28714.6,520809
1.49957,0.0332583,38506.8,103184,-5853.12,334719,107250,28691.2,508547
1.50138,0.0333265,38990.6,109132,-6746.03,357957,107536,28667.7,496286
1.50319,0.0333948,39474.5,115080,-7638.88,381192,107822,28644.3,484025
1.50501,0.033463,39958.3,121028,-8531.79,404430,108108,28620.8,471763
1.50682,0.0335314,45107.4,119637,-9913.8,403011,103794,30986.9,464567
1.50863,0.0335998,39697.4,113648,-6739.56,384906,99669,27392.2,450630
1.51044,0.0336682,28394,107290,-666.136,363176,96837.2,20685.8,435365
1.51225,0.0337367,23824.7,106401,4060.25,354680,95517.9,17570.7,432388
1.51406,0.0338052,19255.7,105512,8786.2,346184,94198.5,14455.7,429411
1.51587,0.0338736,14686.3,104623,13512.6,337688,92879.2,11340.6,426434
1.51768,0.0339421,10117.3,103734,18238.5,329192,91559.9,8225.61,423456
1.51949,0.0340105,5547.96,102845,22964.9,320696,90240.5,5110.49,420479
1.5213,0.034079,3506.38,104625,27775.7,324823,94109.9,2198.36,424899
1.52312,0.0341475,3241.5,108282,32646.6,337824,101627,-571.303,434518
1.52493,0.0342161,11040.4,110581,35103.5,347611,102601,5075.66,435835
1.52674,0.0342848,24491.7,111930,35868.9,355145,98990,16622.2,431332
1.52855,0.0343535,38618.5,113065,36401.1,361724,94445.6,29254.6,425744
1.53036,0.0344222,41822.6,114798,39817.6,364129,93975.7,35226.7,426561
1.53217,0.0344909,45739.7,112126,39244.7,357580,92808.5,40857.1,427782
1.53398,0.0345596,50204.8,109796,36958.8,352616,91853.5,45500.9,427611
1.53579,0.0346284,57352.8,111770,30689,358428,95314.3,46810.6,408166
1.5376,0.0346973,58924,102476,25071.5,334768,96192.7,48805.5,390127
1.53942,0.0347662,53259.8,93520.8,24030.2,309063,92755.9,48315.6,384558
1.54123,0.034835,45611.2,86609.4,23664.6,285372,87969.1,45763.7,381134
1.54304,0.0349039,37963.2,79698.5,23299,261682,83182.7,43212.1,377711
1.54485,0.0349727,30314.7,72786.9,22933.2,237991,78396,40660.4,374288
1.54666,0.0350416,22666.6,65876,22567.6,214302,73609.6,38108.8,370864
1.54847,0.0351105,15018.2,58964.5,22201.9,190611,68823,35557.1,367441
1.55028,0.0351794,16053.8,56649,25485.7,195793,66757,35505.4,373027
1.55209,0.0352484,19668.8,55698.2,29853.6,209551,65499.1,36196.2,381289
1.5539,0.0353173,21596.5,56378.6,33504.5,222495,66959.7,36553.1,385180
1.55572,0.0353863,17792,63654.5,34835.6,229058,70678.6,32273.6,374817
1.55753,0.0354552,13861.7,71075.5,36115.9,235479,74443.4,27890.5,364142
1.55934,0.0355242,9931.04,78497,37396.2,241900,78208.4,23507.2,353466
1.56115,0.0355932,6000.77,85918,38676.3,248321,81973.1,19124.2,342790
1.56296,0.0356622,2477.83,91295.3,39455.1,252191,84543.9,15852.2,336300
1.56477,0.0357314,-442.442,91514.3,38497.7,250315,83703.4,15242.5,336884
1.56658,0.0358006,-3362.96,91733.2,37540.5,248440,82862.9,14632.8,337468
1.56839,0.0358699,-6283.23,91952.1,36583.1,246564,82022.4,14023,338052
1.5702,0.0359391,-9203.75,92171.1,35625.9,244688,81181.8,13413.3,338636
1.57201,0.0360083,-12124.1,92390,34668.7,242813,80341.4,12803.6,339220
1.57383,0.0360776,-15044.5,92609,33711.3,240937,79500.8,12193.8,339804
1.57564,0.0361468,-17964.9,92827.9,32754.1,239061,78660.3,11584.1,340388
1.57745,0.036216,-20885.3,93046.9,31796.7,237186,77819.8,10974.3,340971
1.57926,0.0362852,-23805.6,93265.8,30839.6,235310,76979.3,10364.6,341555
1.58107,0.0363545,-26726.1,93484.7,29882.2,233434,76138.8,9754.85,342139
1.58288,0.0364236,-24639.7,92921.9,28077.9,231912,75223.1,11079.5,332803
1.58469,0.0364928,-22060.9,89599.4,25649.7,224842,73460.2,13294,331140
1.5865,0.0365621,-22484.5,88469.2,25675.9,219776,73322,13079.8,322742
1.58831,0.0366315,-21823.2,87944.7,24180.7,216930,71215.4,15746.1,305447
1.59013,0.0367009,-17917.6,84927.7,23315.4,211921,68280.7,18268.8,291533
1.59194,0.0367703,-11242.6,80045.1,22903.8,205027,64778,21055.2,280237
1.59375,0.0368397,-4567.93,75162.7,22492,198133,61275.5,23841.2,268942
1.59556,0.0369091,2107.07,70280,22080.3,191238,57772.8,26627.6,257646
1.59737,0.0369785,8781.7,65397.6,21668.6,184344,54270.3,29413.6,246351
1.59918,0.037048,7753.73,61298.2,21184.2,174195,53583.2,31367.8,233534
1.60099,0.0371175,5593.45,60940.2,20009.4,173538,53683.3,29218.4,232278
1.6028,0.037187,5033.77,63412.6,18288.9,181788,53506.6,23955.9,241062
1.60461,0.0372565,4474.11,65884.8,16568.5,190036,53329.9,18693.7,249847
1.60643,0.037326,3914.4,68357.1,14847.9,198286,53153.1,13431.1,258631
1.60824,0.0373955,3354.75,70829.3,13127.5,206534,52976.4,8168.86,267415
1.61005,0.037465,3326.54,74092.2,13409.5,213895,54026.5,3635.45,273253
1.61186,0.0375346,4321.1,73042.2,15050.1,209896,56177.3,657.182,295788
1.61367,0.0376042,1455.68,68860,12231.9,197989,56788,-1125.34,276706
1.61548,0.0376738,375.812,60422.9,9457.51,177213,56519.4,-858.81,272438
1.61729,0.0377435,2056.68,52462.5,8575.22,166510,55962.1,1758.31,278597
1.6191,0.0378131,2182.38,45515.8,8135.44,152893,55658.1,2897.35,276691
1.62091,0.0378827,1885.77,38836.7,7808.92,138558,55420.4,3660.2,272808
1.62273,0.0379523,-7179.4,36683.2,8971.58,118179,56231.8,-243.575,254585
1.62454,0.038022,-16243.9,34530.1,10134.2,97802.2,57043.2,-4147.11,236364
1.62635,0.0380917,-17704.4,38504.5,11255.1,101166,57469.4,-3975.4,230446
1.62816,0.0381614,-16515.8,44613.2,12361.3,112800,57761.4,-2384.08,228814
1.62997,0.0382311,-15327.2,50722.3,13467.6,124434,58053.5,-792.633,227183
1.63178,0.0383008,-14138.5,56831,14573.9,136068,58345.6,798.686,225552
1.63359,0.0383705,-12949.9,62940.1,15680.2,147702,58637.6,2390.13,223920
1.6354,0.0384402,-10034.5,65110.5,16077.1,156606,56913.8,4182.65,226293
1.63721,0.0385099,-6814.52,64210.5,16476.4,158719,54581.1,6570.99,227156
1.63902,0.0385797,-1907.43,62585.1,14672.2,159408,57700.9,10587.3,226307
1.64084,0.0386494,254.77,61904.4,12956.8,159913,60026.5,12529.6,224108
1.64265,0.0387192,-1751.1,62057.1,11921.9,157699,60528.6,11568.7,218774
1.64446,0.038789,-4136.33,60136.1,12608.9,145163,59928.8,11280.2,207915
1.64627,0.0388589,-1030.09,54725.6,12501.2,135744,58330.4,13769.2,208093
1.64808,0.0389287,2099.33,49300.2,12390.1,126337,56727.8,16269.9,208318
1.64989,0.0389986,5228.6,43875.1,12279.1,116931,55125.3,18770.6,208543
1.6517,0.0390684,8358.02,38449.7,12168.1,107525,53522.8,21271.3,208768
1.65351,0.0391383,10403.8,32590.8,10408.1,95776.5,49374.1,21044.9,202774
1.65532,0.0392082,12210.7,27863.2,8786.46,86077.8,45448.3,20992.7,194957
1.65714,0.0392781,13768.7,26848.3,8345.95,83814.5,43375.5,22723.3,184314
1.65895,0.039348,15326.9,25833.2,7905.41,81550.7,41302.5,24454.1,173670
1.66076,0.0394179,15656.7,26433,7619.63,82503.5,39862,25375.7,162542
1.66257,0.0394878,14105.4,29505.8,7570.78,88381.6,39389.6,25058.6,150669
1.66438,0.0395577,12554.3,32578.3,7521.94,94259.4,38917.3,24741.5,138798
1.66619,0.0396276,11002.9,35651.1,7473.1,100138,38444.9,24424.4,126926
1.668,0.0396976,9122.9,33731.9,6073.56,92941.9,38300.3,23604.6,134007
1.66981,0.0397675,7277.1,30977.8,4371,83843.6,38261.6,22682.3,143937
1.67162,0.0398375,5326.43,28059.9,2985.63,74248.6,38160,21778.3,151981
1.67344,0.0399075,2719.71,24116,3583.82,61541.7,37665.8,20988.8,148225
1.67525,0.0399775,113.063,20172.3,4181.87,48835.8,37171.7,20199.3,144469
1.67706,0.0400474,-2493.66,16228.4,4780.06,36128.8,36677.5,19409.8,140713
1.67887,0.0401174,-3555.75,13367.6,5807.45,26222.4,35806.9,18427.1,127999
1.68068,0.0401874,-4229.7,15271.5,5971.14,29878.5,36531.1,16853.8,123480
1.68249,0.0402574,-5015.36,17479.7,5957.06,33878.7,36904.5,15359.2,120413
1.6843,0.0403275,-5801.08,19688,5943.01,37879.2,37278,13864.5,117347
1.68611,0.0403975,-6586.75,21896.2,5928.95,41879.5,37651.4,12369.9,114280
1.68792,0.0404675,-7372.47,24104.5,5914.88,45879.9,38024.8,10875.1,111213
1.68973,0.0405375,-8158.14,26312.7,5900.82,49880.1,38398.3,9380.52,108147
1.69155,0.0406075,-8943.86,28521,5886.75,53880.6,38771.7,7885.77,105080
1.69336,0.0406776,-6893.17,30450.9,5272.69,57891.5,38258.8,8440.14,109109
1.69517,0.0407477,-2598.78,29240.2,3784.7,56543.1,36569.8,9064.7,112298
1.69698,0.0408178,1695.27,28029.6,2296.84,55194.9,34881,9689.24,115486
1.69879,0.0408879,5008.05,26659.5,1292.83,53325.9,33265.3,10104.8,117109
1.7006,0.0409579,5310.91,24800.8,1772.88,49861.1,31874.7,9879.78,113933
1.70241,0.041028,5613.81,22942,2252.94,46396.1,30484.1,9654.73,110757
1.70422,0.0410981,5916.54,21083.3,2733.04,42931,29093.4,9429.59,107581
1.70603,0.0411682,6495.61,20424,2847.6,42061.5,27871.7,9484.13,106960
1.70785,0.0412383,4997.11,19777.7,3069.6,41561.6,26847.8,7593.16,102412
1.70966,0.0413084,3391.96,19110,3303.54,41032.2,25830.4,5601.85,97625.7
1.71147,0.0413785,-971.189,21583,4511.1,44017.8,25455.6,5250.4,91900.1
1.71328,0.0414485,-5808.28,24595.7,5885.96,47607.4,25191.3,5180.63,86013
1.71509,0.0415186,-5590.13,24395,6943.44,46547.8,27246,8324.44,85711.3
1.7169,0.0415888,236.985,19768.3,6316.9,40496.8,28557.3,12751.8,106274
1.71871,0.0416589,6063.73,15141.9,5690.41,34446.2,29868.6,17178.8,126835
1.72052,0.0417291,4775.93,16157.3,6293.55,35413,29442.3,18130.1,124034
1.72233,0.0417993,1844,18476.6,7180.82,38001.6,28614.5,18278,115833
1.72415,0.0418694,-1088.06,20796,8068.14,40590.3,27786.6,18426,107632
1.72596,0.0419396,-4019.98,23115.2,8955.41,43178.8,26958.8,18573.9,99430.7
1.72777,0.0420098,-6952.04,25434.6,9842.73,45767.5,26130.9,18721.9,91229.5
1.72958,0.0420799,-8843,26614.7,10261.2,45867.7,25133.1,18647.9,84150.2
1.73139,0.0421501,-7868.29,24812.5,9018,38493.3,23683.4,18281.1,84242.6
1.7332,0.0422202,-7108.05,23006.3,7997.39,31772.7,22374,17871.1,83959.6
1.73501,0.0422904,-8381.66,21598.8,8975.32,32079.4,22594.4,17113,80116.2
1.73682,0.0423605,-8726.41,22082.8,8512.48,33094,23061.9,16816,77897.9
1.73863,0.0424307,-9071.16,22566.7,8049.58,34108.5,23529.4,16518.9,75679.4
1.74045,0.0425009,-9415.91,23050.7,7586.75,35123.1,23996.8,16221.9,73461.1
1.74226,0.0425711,-8809.21,22400.6,7051.66,34722.4,24042.9,15696.9,72736.8
1.74407,0.0426413,-6993.49,20171.8,6398.95,31494.2,23361.7,14577.6,74351.1
1.74588,0.0427115,-4946.55,18077.2,5396.49,28239.9,22799,13890.2,73335
1.74769,0.0427817,-4348.03,18011.2,4011.06,27342.9,22675.9,13762.9,68044.2
1.7495,0.0428519,-5269.7,19043.4,3147.91,28131.9,22589.6,13050.3,65719.9
1.75131,0.0429222,-5066.55,18470.9,2425.63,27428.9,22000.9,12575.7,64089
1.75312,0.0429924,-4264.03,17043.2,1778.34,25930.9,21144.4,12227.8,62827.5
1.75493,0.0430626,-3306.71,16498.1,1464.33,25483.7,20027.7,12515.6,61145.9
1.75674,0.0431328,-2336.67,16024.8,1177.47,25122,18889.6,12855.2,59430.1
1.75856,0.043203,-1366.72,15551.6,890.642,24760.5,17751.7,13194.9,57714.2
1.76037,0.0432732,-396.684,15078.3,603.776,24398.9,16613.7,13534.5,55998.3
1.76218,0.0433434,573.271,14605.1,316.951,24037.3,15475.7,13874.1,54282.5
1.76399,0.0434137,1543.29,14131.9,30.1136,23675.8,14337.7,14213.8,52566.6
1.7658,0.0434839,1871.49,14087.6,-64.9845,23831.2,13137.7,14319.4,51344.6
1.76761,0.0435541,1326.58,14626.8,100.824,24690.2,11853.3,14106.7,50794.2
1.76942,0.0436243,1321.64,14502.3,872.998,21919.3,11516.7,14001.3,47738.1
1.77123,0.0436946,1906.03,15138.2,1809.53,21788.1,11018.7,14240.1,44317.9
1.77304,0.0437648,2783.65,16292.3,2780.84,23593.3,10327.5,14671.3,40940.5
1.77486,0.043835,4808.39,14455.2,3995.72,18819,9640.33,13542.9,52163.4
1.77667,0.0439053,6810.93,12138.2,5212.83,13415,8992.81,12010.5,64282.5
1.77848,0.0439755,7969.3,10061.6,6276.38,10092.5,8487.06,10042.5,69953.6
1.78029,0.0440457,10706.9,9451.18,6683.05,8473.12,9111.44,11162.1,67765.1
1.7821,0.044116,12856.5,8949.81,7011.5,8133.01,9792.05,11909,61692.8
1.78391,0.0441862,14117.1,8624.2,7190.42,8451.87,10023.6,11768.7,55864.3
1.78572,0.0442565,14616.8,8491.67,7206.7,8771.7,9616.89,10742.5,53078.4
1.78753,0.0443267,15116.5,8359.1,7223,9091.52,9210.11,9716.38,50292.6
1.78934,0.0443969,15616.1,8226.58,7239.28,9411.35,8803.37,8690.26,47506.7
1.79116,0.0444672,16011.3,8148.94,7220.04,9804.66,8414.5,7658.36,44234.3
1.79297,0.0445374,17213.1,7427.82,7535.02,9463.08,7089.07,7970.27,42384.5
1.79478,0.0446077,18350.8,6990,7979.34,9200.32,5737.7,8361.1,40861.7
1.79659,0.0446779,19214.7,7869.41,9044.35,9426.9,4616.44,8977.57,41590.1
1.7984,0.0447482,20172,8102.92,10270.5,9931.05,3955.4,9502.07,43261.7
1.80021,0.0448184,21130.2,8330.45,11498,10437.7,3298.66,10025.7,44941.9
1.80202,0.0448887,22088.5,8557.99,12725.6,10944.5,2641.87,10549.3,46622.3
1.80383,0.0449589,23046.7,8785.52,13953.1,11451.1,1985.13,11073,48302.5
1.80564,0.0450292,24031.5,8254.39,15118,11372.8,1626.28,11028.3,48914.5
1.80745,0.0450994,25037.9,7104.79,16231.6,10817.7,1510.36,10520.3,48655.3
1.80927,0.0451697,26029.7,6137.65,17297.8,10474.8,1421.15,10132.2,48562.1
1.81108,0.0452399,26854.8,5879.56,18296.4,10922.1,1346.86,10189.3,49142.1
