"arc_length","Displacement_Magnitude","Sxx","Sxy","Sxz","Syy","Syz","Szz","Von_Mises_Stress"
0,1.99392e-09,2.6455e+06,-192563,75371.7,5.46643e+06,432328,2.2296e+06,3.17053e+06
0.00181107,7.92262e-07,2.60143e+06,-188954,88421,5.46355e+06,399432,2.10625e+06,3.25525e+06
0.00362215,1.58254e-06,2.55735e+06,-185345,101470,5.46067e+06,366535,1.98289e+06,3.33996e+06
0.00543323,2.37282e-06,2.51327e+06,-181736,114519,5.45779e+06,333639,1.85954e+06,3.42468e+06
0.00724431,3.16309e-06,2.46919e+06,-178127,127569,5.45491e+06,300743,1.73619e+06,3.50939e+06
0.00905538,3.95337e-06,2.42511e+06,-174518,140618,5.45203e+06,267846,1.61283e+06,3.59411e+06
0.0108665,5.12588e-06,2.31212e+06,-165217,152646,5.3076e+06,224613,1.43081e+06,3.59856e+06
0.0126775,6.36036e-06,2.18808e+06,-155006,164510,5.14049e+06,179724,1.2394e+06,3.59015e+06
0.0144886,7.59527e-06,2.06405e+06,-144794,176375,4.97338e+06,134836,1.04798e+06,3.58175e+06
0.0162997,8.83043e-06,1.94002e+06,-134583,188239,4.80627e+06,89946.7,856562,3.57334e+06
0.0181108,1.03584e-05,1.85483e+06,-129886,193211,4.70348e+06,67309.6,714690,3.58896e+06
0.0199218,1.22735e-05,1.81525e+06,-131666,190092,4.67622e+06,70798.9,630988,3.6328e+06
0.0217329,1.42282e-05,1.77568e+06,-133446,186973,4.64897e+06,74288.3,547286,3.67664e+06
0.023544,1.62082e-05,1.7361e+06,-135225,183853,4.62171e+06,77777.5,463584,3.72047e+06
0.0253551,1.82053e-05,1.69652e+06,-137005,180734,4.59445e+06,81266.9,379882,3.76431e+06
0.0271662,2.01858e-05,1.66091e+06,-137898,178022,4.57932e+06,87345.3,295013,3.81986e+06
0.0289772,2.20011e-05,1.64923e+06,-133444,177765,4.63732e+06,109034,203103,3.946e+06
0.0307883,2.38217e-05,1.63754e+06,-128991,177509,4.69532e+06,130722,111194,4.07213e+06
0.0325994,2.56466e-05,1.62586e+06,-124537,177253,4.75332e+06,152410,19283.8,4.19827e+06
0.0344105,2.7939e-05,1.61993e+06,-118449,182948,4.80225e+06,165027,-60263.1,4.30506e+06
0.0362215,3.09037e-05,1.57294e+06,-117482,198966,4.68336e+06,163198,-83556.1,4.22264e+06
0.0380326,3.39092e-05,1.52595e+06,-116515,214983,4.56447e+06,161369,-106849,4.14022e+06
0.0398437,3.69198e-05,1.47259e+06,-115183,230558,4.41611e+06,159282,-122148,4.03195e+06
0.0416548,3.99533e-05,1.41839e+06,-113803,246075,4.26382e+06,157159,-136381,3.92023e+06
0.0434658,4.30077e-05,1.36419e+06,-112422,261591,4.11153e+06,155037,-150614,3.80851e+06
0.0452769,4.6096e-05,1.31363e+06,-110381,274915,3.97491e+06,151052,-163864,3.70867e+06
0.047088,4.93476e-05,1.29457e+06,-102624,269263,3.97398e+06,130936,-168609,3.71161e+06
0.0488991,5.26112e-05,1.27551e+06,-94867.5,263610,3.97306e+06,110821,-173353,3.71455e+06
0.0507102,5.58846e-05,1.25645e+06,-87111.2,257957,3.97213e+06,90705.2,-178098,3.71749e+06
0.0525212,5.93589e-05,1.27052e+06,-83599.2,250014,4.03912e+06,79922.2,-164365,3.75278e+06
0.0543323,6.32924e-05,1.30785e+06,-82395.3,236539,4.18267e+06,72698.5,-155141,3.86332e+06
0.0561434,6.73873e-05,1.34474e+06,-80792.1,221111,4.33989e+06,63831.9,-155011,3.99999e+06
0.0579545,7.14923e-05,1.38163e+06,-79189.7,205683,4.4971e+06,54966.1,-154882,4.13666e+06
0.0597655,7.56059e-05,1.41852e+06,-77587.3,190255,4.65432e+06,46100.4,-154752,4.27333e+06
0.0615766,7.97266e-05,1.45541e+06,-75984.1,174826,4.81154e+06,37233.7,-154622,4.40999e+06
0.0633877,8.40696e-05,1.45943e+06,-80168.4,180762,4.8293e+06,38718.4,-139060,4.41521e+06
0.0651988,8.85033e-05,1.45126e+06,-86496.7,194615,4.79539e+06,44038.1,-117779,4.37172e+06
0.0670099,9.29614e-05,1.44288e+06,-92554.7,208095,4.76164e+06,49406.8,-96922.4,4.32864e+06
0.0688209,9.82407e-05,1.42281e+06,-83701.3,201079,4.7366e+06,57436.4,-99397.3,4.3077e+06
0.070632,0.000103584,1.39643e+06,-73092.5,193424,4.68541e+06,65550,-91156.1,4.2565e+06
0.0724431,0.000108998,1.36172e+06,-60170.5,184927,4.59978e+06,73772.8,-68796.4,4.16542e+06
0.0742542,0.000114423,1.32701e+06,-47248.7,176431,4.51414e+06,81996.3,-46437.1,4.07434e+06
0.0760652,0.000119856,1.2923e+06,-34327,167934,4.4285e+06,90219.9,-24077.9,3.98326e+06
0.0778763,0.000125147,1.2477e+06,-19677.9,158185,4.32676e+06,96818.9,-1300.47,3.87869e+06
0.0796874,0.000130347,1.19677e+06,-3924.8,147634,4.21473e+06,102381,21743.2,3.7655e+06
0.0814985,0.000135551,1.14585e+06,11828.3,137083,4.1027e+06,107942,44787.5,3.65231e+06
0.0833095,0.000141207,1.13168e+06,31976.8,123832,4.05659e+06,114317,72116.5,3.59152e+06
0.0851206,0.000147307,1.15382e+06,56465,107916,4.07557e+06,121494,103677,3.58246e+06
0.0869317,0.000153323,1.17072e+06,66795.5,107959,4.11941e+06,116008,107756,3.61662e+06
0.0887428,0.000160089,1.12653e+06,15043.1,116154,4.03131e+06,110130,114150,3.53751e+06
0.0905539,0.0001669,1.10653e+06,-3729.01,119605,4.00048e+06,107734,107967,3.51684e+06
0.0923649,0.000173737,1.09744e+06,-7667.32,120935,3.99548e+06,106885,96135.4,3.52251e+06
0.094176,0.000180582,1.08835e+06,-11605.9,122265,3.99047e+06,106036,84305.5,3.52818e+06
0.0959871,0.000187433,1.07927e+06,-15544.2,123596,3.98547e+06,105187,72474.2,3.53385e+06
0.0977982,0.00019429,1.07018e+06,-19482.8,124926,3.98047e+06,104338,60644.3,3.53952e+06
0.0996092,0.000201153,1.06109e+06,-23421.1,126256,3.97547e+06,103489,48813,3.54519e+06
0.10142,0.00020802,1.052e+06,-27359.7,127586,3.97046e+06,102640,36983.1,3.55086e+06
0.103231,0.000214891,1.04291e+06,-31298,128916,3.96546e+06,101791,25151.8,3.55653e+06
0.105042,0.000221927,1.03399e+06,-35872.7,129536,3.94892e+06,105003,33241.2,3.53771e+06
0.106854,0.000229624,1.04006e+06,-3192.57,141024,3.9679e+06,97441.7,16997.4,3.56573e+06
0.108665,0.000237403,1.06402e+06,-3958.91,146368,4.11928e+06,89584.3,2737.25,3.71527e+06
0.110476,0.00024516,1.08775e+06,5420.59,150216,4.21769e+06,80680.4,4115.37,3.80324e+06
0.112287,0.000252924,1.11016e+06,16014.6,153597,4.29409e+06,72002.6,11563.9,3.86677e+06
0.114098,0.000260747,1.12638e+06,18967.4,156690,4.33367e+06,65828.8,27809.9,3.89302e+06
0.115909,0.000268574,1.14261e+06,21920.6,159783,4.37325e+06,59655.6,44054.8,3.91927e+06
0.11772,0.000276405,1.15883e+06,24873.4,162876,4.41283e+06,53481.8,60300.8,3.94553e+06
0.119531,0.000284239,1.17505e+06,27826.5,165970,4.45242e+06,47308.7,76545.8,3.97178e+06
0.121342,0.000292822,1.153e+06,26743.2,162366,4.40763e+06,58442.8,62425.6,3.94276e+06
0.123153,0.000301631,1.11955e+06,24457.5,156768,4.33771e+06,74731.1,39262.4,3.89728e+06
0.124964,0.000310444,1.0861e+06,22172.1,151169,4.26779e+06,91020,16098.1,3.85179e+06
0.126775,0.000319239,1.05469e+06,20897.5,145515,4.20119e+06,104638,-1785.16,3.80505e+06
0.128586,0.000328086,1.01593e+06,19690.3,140202,4.0957e+06,112001,-3196.06,3.71338e+06
0.130398,0.000337004,969064,16924.8,135206,3.95924e+06,119457,-2083.91,3.59401e+06
0.132209,0.000345923,922202,14159.7,130209,3.82277e+06,126914,-971.811,3.47464e+06
0.13402,0.000354843,875341,11394.2,125213,3.6863e+06,134371,140.338,3.35528e+06
0.135831,0.000364125,845334,12696.9,121943,3.60415e+06,137637,2339.51,3.28284e+06
0.137642,0.00037409,847183,21687.6,121938,3.62465e+06,132980,6593.29,3.29912e+06
0.139453,0.000384059,849031,30677.8,121932,3.64516e+06,128323,10847.1,3.31539e+06
0.141264,0.00039403,850880,39668.6,121927,3.66566e+06,123666,15100.9,3.33166e+06
0.143075,0.000404005,852728,48658.7,121922,3.68617e+06,119009,19354.7,3.34793e+06
0.144886,0.000413982,854577,57649.5,121917,3.70667e+06,114353,23608.5,3.36421e+06
0.146697,0.000423855,879511,73707.3,119965,3.82358e+06,109045,24497.1,3.46991e+06
0.148508,0.0004337,911236,91844.5,117442,3.96885e+06,103546,24395.8,3.60192e+06
0.150319,0.000443547,942503,109833,114943,4.11204e+06,98053.3,24531.5,3.73198e+06
0.15213,0.000453435,957352,122497,113298,4.18064e+06,92802.8,33144.6,3.79225e+06
0.153942,0.000464074,942298,129314,110880,4.16866e+06,87013.2,23783.6,3.78983e+06
0.155753,0.000475089,909514,132604,108338,4.10279e+06,81304.8,8406.46,3.74257e+06
0.157564,0.000486109,866346,133649,106745,3.98662e+06,76874.7,3749.96,3.64549e+06
0.159375,0.000497129,823180,134693,105151,3.87045e+06,72444.3,-907.008,3.54841e+06
0.161186,0.000508191,785060,134672,102775,3.7665e+06,65875.5,-7689.65,3.46277e+06
0.162997,0.000519463,762924,134850,98027.8,3.72296e+06,55892.8,-26017.7,3.43851e+06
0.164808,0.000530846,743420,138197,92984.5,3.70841e+06,48294.1,-50469.2,3.44639e+06
0.166619,0.000542231,723915,141544,87940.9,3.69386e+06,40695.3,-74920.2,3.45428e+06
0.16843,0.000553616,704411,144891,82897.6,3.67932e+06,33096.6,-99371.7,3.46216e+06
0.170241,0.000565003,684907,148237,77854.3,3.66477e+06,25497.9,-123823,3.47004e+06
0.172052,0.00057639,665402,151584,72810.8,3.65022e+06,17899.1,-148274,3.47793e+06
0.173863,0.000588267,673139,165058,67515.5,3.69129e+06,26884.5,-151194,3.52025e+06
0.175674,0.000600332,690472,181405,62351,3.73483e+06,46341.9,-145875,3.55804e+06
0.177486,0.000612424,707955,197089,56595.9,3.76967e+06,66153.9,-133463,3.58369e+06
0.179297,0.000624518,725438,212773,50840.7,3.80451e+06,85966.1,-121051,3.60935e+06
0.181108,0.000636613,742921,228456,45085.6,3.83936e+06,105778,-108639,3.635e+06
0.182919,0.000648856,760504,242161,39480.1,3.86973e+06,121411,-93224.9,3.65246e+06
0.18473,0.000661621,778446,248849,34405.8,3.88422e+06,122226,-67165.4,3.64087e+06
0.186541,0.000674411,791126,255473,29066.9,3.87065e+06,126556,-38034.6,3.60329e+06
0.188352,0.000687279,804951,261658,20553.6,3.83305e+06,130908,3440.5,3.53589e+06
0.190163,0.000700554,806458,267617,25571.4,3.86438e+06,111271,-4636.86,3.57184e+06
0.191974,0.000713821,802375,269525,32839.2,3.86817e+06,91054.3,-11506.5,3.58133e+06
0.193785,0.000727038,791664,261942,42082.9,3.80867e+06,69853.4,-5093.18,3.52097e+06
0.195596,0.000740256,780952,254360,51326.7,3.74917e+06,48652.5,1319.98,3.46061e+06
0.197407,0.000753476,770241,246777,60570.4,3.68967e+06,27451.7,7733.33,3.40026e+06
0.199218,0.000766864,768217,249542,64714.6,3.69745e+06,15515.7,712.981,3.41809e+06
0.20103,0.000780347,771055,258099,66004.6,3.74288e+06,8764.94,-13825.3,3.47967e+06
0.202841,0.00079383,773894,266655,67294.6,3.78831e+06,2014.2,-28363.5,3.54126e+06
0.204652,0.000807415,757996,267883,71873,3.77872e+06,1583.5,-36257.7,3.54435e+06
0.206463,0.000821704,745877,274635,77566.6,3.75183e+06,15274.4,-50933.4,3.5301e+06
0.208274,0.000835995,733758,281388,83260.4,3.72493e+06,28965.2,-65609.6,3.51586e+06
0.210085,0.000850287,721639,288140,88954,3.69804e+06,42656,-80285.3,3.50162e+06
0.211896,0.00086458,709520,294892,94647.8,3.67115e+06,56346.8,-94961.6,3.48738e+06
0.213707,0.000878875,697401,301645,100341,3.64425e+06,70037.7,-109637,3.47314e+06
0.215518,0.000893226,683229,301111,108425,3.58217e+06,83858.2,-107321,3.41665e+06
0.217329,0.000907587,668713,299356,116909,3.51419e+06,97700.5,-102158,3.35308e+06
0.21914,0.00092217,661246,314111,121922,3.46941e+06,112886,-121193,3.32951e+06
0.220951,0.000937453,642213,302552,117402,3.4471e+06,115435,-116424,3.30773e+06
0.222762,0.000952732,614100,282444,112194,3.41501e+06,121375,-121818,3.28346e+06
0.224574,0.000967903,610623,261184,93995.4,3.4039e+06,108889,-105286,3.25646e+06
0.226385,0.00098315,605076,254751,86032.4,3.40954e+06,103444,-95127,3.25497e+06
0.228196,0.000998405,599298,249977,79213.7,3.41705e+06,98784.7,-85680.5,3.25634e+06
0.230007,0.00101366,593520,245202,72395.1,3.42456e+06,94126.4,-76233.8,3.25771e+06
0.231818,0.00102892,587742,240428,65576.4,3.43207e+06,89467.6,-66787.3,3.25908e+06
0.233629,0.00104418,581964,235653,58757.8,3.43957e+06,84809.3,-57340.7,3.26044e+06
0.23544,0.00105944,576185,230878,51939.2,3.44708e+06,80151,-47894,3.26181e+06
0.237251,0.00107486,600518,239159,52889.7,3.55833e+06,69616.3,-31199.6,3.3534e+06
0.239062,0.00109062,615961,281431,59855.3,3.61812e+06,75505.9,-23787.8,3.41487e+06
0.240873,0.00110662,613398,312049,53327.1,3.64211e+06,84113.5,-25959.2,3.44875e+06
0.242684,0.00112275,621258,329622,40805.9,3.72624e+06,84290.1,-25909.5,3.53117e+06
0.244495,0.00113897,627771,346290,32495.9,3.77711e+06,88570.8,-19878.9,3.57867e+06
0.246306,0.0011554,631216,360901,33764.4,3.75235e+06,102188,-244.686,3.54673e+06
0.248118,0.00117183,634661,375511,35032.8,3.72758e+06,115805,19389.5,3.51479e+06
0.249929,0.00118827,638106,390122,36301.3,3.70281e+06,129422,39023.8,3.48285e+06
0.25174,0.00120463,645721,404246,33039.6,3.6931e+06,136968,59891.3,3.46343e+06
0.253551,0.00122094,656875,417956,25932.5,3.69616e+06,139359,81805.8,3.45463e+06
0.255362,0.00123775,656748,425963,24193.8,3.68901e+06,145765,82269.2,3.45031e+06
0.257173,0.0012549,649384,430310,25899.6,3.67531e+06,154748,68969.9,3.44887e+06
0.258984,0.00127214,642249,428319,23891.2,3.6346e+06,163752,64889.9,3.41501e+06
0.260795,0.00128941,635192,424200,20636.1,3.58484e+06,172764,63904.9,3.37028e+06
0.262606,0.00130669,628134,420080,17381,3.53507e+06,181776,62919.4,3.32555e+06
0.264417,0.00132396,621076,415961,14125.8,3.4853e+06,190788,61934.4,3.28082e+06
0.266228,0.00134153,600867,408741,25939.1,3.42743e+06,205948,76710.8,3.2234e+06
0.268039,0.00135909,574017,398115,35818.3,3.36306e+06,221446,78326,3.16927e+06
0.26985,0.00137675,550983,389566,39872.7,3.31392e+06,229815,72348.2,3.13278e+06
0.271662,0.00139508,547320,406316,28885.4,3.31616e+06,205889,82829.8,3.13324e+06
0.273473,0.00141343,526357,419095,20870,3.28641e+06,187282,81387.9,3.11661e+06
0.275284,0.00143174,527554,418300,24927.8,3.30221e+06,181207,85184,3.12772e+06
0.277095,0.00145005,528752,417506,28985.7,3.318e+06,175131,88980.4,3.13883e+06
0.278906,0.00146836,529949,416711,33043.5,3.33379e+06,169056,92776.4,3.14994e+06
0.280717,0.00148667,531147,415916,37101.3,3.34959e+06,162981,96572.5,3.16105e+06
0.282528,0.00150498,532344,415121,41159.2,3.36538e+06,156906,100369,3.17216e+06
0.284339,0.0015233,533542,414327,45217,3.38118e+06,150831,104165,3.18327e+06
0.28615,0.00154205,529224,420755,46325.5,3.41555e+06,152683,91397.4,3.22799e+06
0.287961,0.00156093,523412,429139,46634.6,3.45495e+06,156683,74141.2,3.28182e+06
0.289772,0.00157981,517600,437524,46943.9,3.49436e+06,160683,56885.2,3.33565e+06
0.291583,0.00159869,511787,445909,47253.1,3.53376e+06,164684,39629,3.38948e+06
0.293394,0.00161762,504841,449976,49987.1,3.5831e+06,162699,21904,3.45086e+06
0.295206,0.00163662,500742,449660,55293.2,3.64135e+06,156554,6423.76,3.51591e+06
0.297017,0.00165562,508599,457267,56421.6,3.67845e+06,166125,-1478.18,3.55723e+06
0.298828,0.00167462,516455,464875,57550.2,3.71556e+06,175695,-9380.24,3.59855e+06
0.300639,0.0016945,511937,465193,63464.2,3.64685e+06,184673,-9510.59,3.53696e+06
0.30245,0.00171445,503765,461913,67282.6,3.56726e+06,192620,-10823.9,3.46549e+06
0.304261,0.0017344,495594,458633,71100.6,3.48766e+06,200568,-12137.3,3.39401e+06
0.306072,0.00175435,487423,455354,74918.9,3.40806e+06,208516,-13450.6,3.32254e+06
0.307883,0.00177431,479252,452074,78737,3.32847e+06,216464,-14764,3.25106e+06
0.309694,0.00179426,471080,448794,82555.3,3.24887e+06,224411,-16077.3,3.17958e+06
0.311505,0.00181421,462909,445514,86373.3,3.16928e+06,232359,-17390.8,3.10811e+06
0.313316,0.00183436,459087,447261,89932.6,3.13428e+06,227390,-22705.5,3.08011e+06
0.315127,0.00185487,484950,449643,90109.8,3.18329e+06,207618,-25966.4,3.11793e+06
0.316938,0.00187542,481968,452518,89027.6,3.21546e+06,193090,-29244,3.15102e+06
0.31875,0.00189597,475781,455447,87805.5,3.24575e+06,179144,-32522.4,3.18359e+06
0.320561,0.00191652,469594,458377,86583.4,3.27604e+06,165198,-35801.7,3.21616e+06
0.322372,0.00193711,466353,457342,86158,3.28781e+06,151497,-30553,3.22441e+06
0.324183,0.00195771,464604,454300,86136,3.29019e+06,137918,-20988.3,3.22034e+06
0.325994,0.00197831,462854,451258,86113.8,3.29257e+06,124340,-11423.3,3.21627e+06
0.327805,0.0019995,465136,451110,80620.1,3.29369e+06,132299,-1185.62,3.21147e+06
0.329616,0.00202095,469198,452240,72710.2,3.29424e+06,149768,9349.23,3.20634e+06
0.331427,0.0020424,473261,453370,64800.4,3.29479e+06,167237,19884.2,3.2012e+06
0.333238,0.00206384,477323,454500,56890.5,3.29534e+06,184706,30419.1,3.19607e+06
0.335049,0.00208529,481385,455630,48980.6,3.2959e+06,202175,40954.1,3.19094e+06
0.33686,0.00210674,485448,456760,41070.8,3.29645e+06,219644,51488.9,3.18581e+06
0.338671,0.00212806,481982,457337,35307,3.27213e+06,238117,56697.8,3.16203e+06
0.340482,0.00214938,470996,454784,31469.2,3.2313e+06,251011,55951.5,3.20466e+06
0.342294,0.00217132,462029,451985,34662.5,3.22247e+06,248572,55920.5,3.1654e+06
0.344105,0.00219368,452537,453973,38373.3,3.20152e+06,240114,45549.5,3.11135e+06
0.345916,0.00221622,446931,460022,40370.3,3.18366e+06,230851,33718.6,3.10848e+06
0.347727,0.00223877,441326,466070,42367,3.16579e+06,221588,21887.9,3.10561e+06
0.349538,0.00226131,435720,472118,44364,3.14793e+06,212325,10057,3.10274e+06
0.351349,0.00228385,430115,478167,46360.6,3.13006e+06,203062,-1773.81,3.09987e+06
0.35316,0.0023064,424509,484215,48357.6,3.1122e+06,193800,-13604.7,3.09699e+06
0.354971,0.00232894,418904,490263,50354.2,3.09433e+06,184537,-25435.5,3.09412e+06
0.356782,0.00235147,409251,490860,53514.5,3.05735e+06,174686,-34290.2,3.07171e+06
0.358593,0.00237397,394521,484618,58133.9,2.99637e+06,164099,-39410.9,3.02478e+06
0.360404,0.00239646,379792,478378,62753,2.93541e+06,153511,-44533.4,2.97786e+06
0.362215,0.0024191,387417,498046,62458.7,2.99077e+06,145497,-64069.4,3.03278e+06
0.364026,0.00244184,396585,506276,60257,3.02194e+06,141406,-68356.9,3.04774e+06
0.365838,0.00246499,395590,503984,53939.1,3.01472e+06,147140,-72568.6,3.03531e+06
0.367649,0.00248852,386679,498702,43873.4,2.99233e+06,161075,-83996.9,3.02263e+06
0.36946,0.00251205,377768,493420,33807.8,2.96994e+06,175010,-95425.1,3.00995e+06
0.371271,0.00253558,368857,488138,23742.1,2.94754e+06,188945,-106853,2.99728e+06
0.373082,0.00255911,359946,482856,13676.4,2.92515e+06,202880,-118282,2.9846e+06
0.374893,0.00258261,351204,477590,4897.17,2.90832e+06,215722,-128587,2.97562e+06
0.376704,0.00260605,342682,472344,-2191,2.8988e+06,227129,-137418,2.97152e+06
0.378515,0.0026297,335342,462971,-9463.73,2.87319e+06,234057,-138577,2.94601e+06
0.380326,0.00265404,336950,450802,-12684.8,2.82957e+06,222047,-118706,2.88428e+06
0.382137,0.00267841,344323,454427,-10850.1,2.81546e+06,208144,-90354.6,2.85217e+06
0.383948,0.00270279,352329,461533,-7317.47,2.81926e+06,194333,-62216.6,2.83856e+06
0.385759,0.00272718,359142,466081,-4364.9,2.82295e+06,181038,-36302.9,2.82503e+06
0.38757,0.00275157,365954,470630,-1412.15,2.82664e+06,167742,-10389.2,2.81151e+06
0.389382,0.00277595,372766,475179,1540.43,2.83032e+06,154446,15524.4,2.79798e+06
0.391193,0.00280034,379578,479728,4493.18,2.83401e+06,141150,41438.2,2.78445e+06
0.393004,0.00282473,386390,484277,7445.75,2.8377e+06,127854,67351.8,2.77093e+06
0.394815,0.00284927,396756,489759,9339.3,2.8445e+06,124407,91758.1,2.76211e+06
0.396626,0.00287411,414187,497096,9127.96,2.85748e+06,140536,113168,2.76265e+06
0.398437,0.00289917,401909,508771,3641.64,2.86025e+06,143002,101207,2.78341e+06
0.400248,0.00292423,389099,520524,-1939,2.86284e+06,145223,88647.4,2.80453e+06
0.402059,0.0029493,376289,532277,-7519.91,2.86543e+06,147444,76087.5,2.82566e+06
0.40387,0.00297436,363479,544031,-13100.6,2.86802e+06,149664,63528.1,2.84679e+06
0.405681,0.00299946,356382,547395,-18053.7,2.85312e+06,154678,63771.7,2.8434e+06
0.407492,0.00302458,352388,546204,-22665.7,2.82873e+06,161208,70968.6,2.8267e+06
0.409303,0.00305022,346900,540670,-27757.1,2.79012e+06,181318,62518.5,2.80134e+06
0.411114,0.00307594,341179,534459,-32923.2,2.74929e+06,203546,51628.4,2.77464e+06
0.412926,0.00310167,335458,528248,-38089,2.70846e+06,225774,40738.3,2.74793e+06
0.414737,0.00312778,333953,531900,-26504.7,2.72636e+06,229152,16854.1,2.77525e+06
0.416548,0.00315396,333252,537431,-11729.5,2.75544e+06,228939,-9505.3,2.81286e+06
0.418359,0.00318015,332493,542436,3328.16,2.78326e+06,228522,-35590.8,2.84908e+06
0.42017,0.00320647,330120,532969,26162.6,2.7766e+06,222506,-54136.1,2.84697e+06
0.421981,0.00323279,327748,523503,48996.9,2.76994e+06,216490,-72681.6,2.84485e+06
0.423792,0.00325907,320299,525602,55595.3,2.77175e+06,230109,-80681.1,2.85901e+06
0.425603,0.00328558,316595,514462,66471.9,2.75018e+06,207622,-83132.4,2.83103e+06
0.427414,0.00331231,315227,515456,72365.5,2.76207e+06,192591,-84980.9,2.84166e+06
0.429225,0.0033391,311634,516817,75927.8,2.76885e+06,181792,-85686.9,2.84896e+06
0.431036,0.0033659,308041,518179,79489.9,2.77563e+06,170993,-86393.1,2.85627e+06
0.432847,0.00339269,304448,519540,83052.2,2.7824e+06,160195,-87099,2.86358e+06
0.434658,0.00341949,300855,520902,86614.2,2.78919e+06,149396,-87805.3,2.87089e+06
0.43647,0.00344628,297261,522263,90176.5,2.79596e+06,138598,-88511.2,2.8782e+06
0.438281,0.00347308,293669,523625,93738.6,2.80274e+06,127799,-89217.4,2.88551e+06
0.440092,0.00349988,290076,524987,97300.7,2.80952e+06,117001,-89923.7,2.89282e+06
0.441903,0.00352667,286483,526348,100863,2.8163e+06,106202,-90629.6,2.90012e+06
0.443714,0.00355361,282188,519438,100718,2.79002e+06,98418,-88019.7,2.87094e+06
0.445525,0.00358079,250863,478110,96262.6,2.61605e+06,97838.8,-79712.2,2.69287e+06
0.447336,0.00360845,260451,498757,88243.1,2.65739e+06,99121.2,-82389.4,2.74114e+06
0.449147,0.00363625,281302,536466,79243,2.758e+06,100916,-88090.3,2.85172e+06
0.450958,0.00366404,301804,564738,67955.3,2.82846e+06,105086,-87575.9,2.93155e+06
0.452769,0.0036918,319892,580245,53833.4,2.85524e+06,113327,-82477.5,2.96825e+06
0.45458,0.00371956,337980,595753,39711.2,2.88201e+06,121569,-77378.9,3.00495e+06
0.456391,0.00374732,356068,611260,25589.1,2.90879e+06,129811,-72280.2,3.04165e+06
0.458202,0.00377548,369429,621525,13570,2.93885e+06,139421,-68070.7,3.07089e+06
0.460014,0.00380398,378950,627534,3258.31,2.97157e+06,150141,-64582.8,3.09408e+06
0.461825,0.00383248,384110,626374,-5394.63,2.97937e+06,157239,-64858.1,3.09206e+06
0.463636,0.003861,375348,602329,-8753.51,2.9076e+06,152773,-77145.3,3.00953e+06
0.465447,0.00388952,366587,578285,-12112.3,2.83583e+06,148306,-89432.5,2.927e+06
0.467258,0.00391806,359448,548891,-15922.6,2.75013e+06,143829,-95261.4,2.82803e+06
0.469069,0.00394665,355504,508954,-20622.2,2.63697e+06,139329,-88365.8,2.69668e+06
0.47088,0.00397525,351560,469018,-25322,2.52381e+06,134828,-81470.3,2.56532e+06
0.472691,0.00400389,344338,430785,-29526.6,2.4085e+06,130713,-78225.2,2.43625e+06
0.474502,0.00403305,318993,407129,-27551,2.28851e+06,129715,-95239.6,2.33353e+06
0.476313,0.00406244,322511,408794,-23387.5,2.28934e+06,135006,-83682.1,2.33226e+06
0.478124,0.00409186,329976,430581,-20100.8,2.35758e+06,145528,-70258.2,2.39783e+06
0.479935,0.00412127,337442,452369,-16814.2,2.42582e+06,156051,-56834.4,2.46339e+06
0.481746,0.00415069,344907,474156,-13527.5,2.49407e+06,166573,-43410.5,2.52895e+06
0.483558,0.0041801,352372,495944,-10241,2.56231e+06,177095,-29986.7,2.59451e+06
0.485369,0.00420951,361361,518154,-5358.59,2.63106e+06,187743,-14801.1,2.6604e+06
0.48718,0.00423891,371509,540687,735.633,2.70021e+06,198487,1722.58,2.72654e+06
0.488991,0.00426831,381656,563220,6829.85,2.76935e+06,209230,18246.3,2.79268e+06
0.490802,0.00429771,391803,585752,12923.7,2.8385e+06,219973,34769.4,2.85881e+06
0.492613,0.00432757,373979,586058,15612.2,2.83696e+06,221240,29100.2,2.86735e+06
0.494424,0.00435785,356438,569594,23117.3,2.76228e+06,215914,30891.8,2.79464e+06
0.496235,0.00438816,333923,545031,25797.1,2.66155e+06,208585,26476.9,2.70866e+06
0.498046,0.00441847,311409,520470,28477.5,2.56084e+06,201256,22062.9,2.62269e+06
0.499857,0.00444878,288893,495906,31157.3,2.46011e+06,193926,17648,2.53671e+06
0.501668,0.0044791,266379,471345,33837.6,2.35939e+06,186597,13234,2.45074e+06
0.503479,0.00450941,243864,446782,36517.5,2.25867e+06,179268,8819.06,2.36476e+06
0.505291,0.00453972,221348,422218,39197.4,2.15794e+06,171938,4404.12,2.27878e+06
0.507102,0.00457004,200045,399089,41994.3,2.06275e+06,164797,356.621,2.19744e+06
0.508913,0.00460081,228558,434891,49587.9,2.1951e+06,165406,11391.5,2.30681e+06
0.510724,0.00463158,257073,470693,57182,2.32744e+06,166015,22427,2.41619e+06
0.512535,0.00466235,285586,506495,64775.6,2.45979e+06,166624,33461.9,2.52557e+06
0.514346,0.00469311,314100,542297,72369.6,2.59214e+06,167234,44497.4,2.63495e+06
0.516157,0.00472396,347548,575155,77360.5,2.72254e+06,168489,56842.5,2.74261e+06
0.517968,0.0047552,370163,584549,71992.7,2.77036e+06,172808,57988.2,2.78416e+06
0.519779,0.00478669,354093,573467,63637.9,2.707e+06,178582,36749.1,2.7375e+06
0.52159,0.00481818,338024,562386,55283.1,2.64364e+06,184356,15510,2.69085e+06
0.523401,0.00484965,337677,564477,48711.5,2.6074e+06,189423,84.5243,2.66945e+06
0.525212,0.00488122,307250,554648,48146.3,2.5735e+06,206866,-39929.4,2.66948e+06
0.527023,0.00491278,276822,544819,47581,2.53959e+06,224310,-79943.5,2.6695e+06
0.528835,0.00494435,246395,534991,47015.8,2.50569e+06,241754,-119957,2.66953e+06
0.530646,0.00497596,220029,520227,47387.3,2.46019e+06,255910,-152163,2.66153e+06
0.532457,0.00500759,196148,502444,48331.9,2.4076e+06,268054,-179592,2.64863e+06
0.534268,0.00503947,179825,498784,48813.1,2.40009e+06,278246,-202547,2.66278e+06
0.536079,0.00507173,175186,516956,48577.8,2.46228e+06,285422,-218586,2.71876e+06
0.53789,0.00510402,169020,526965,50228.8,2.49818e+06,290895,-226366,2.75792e+06
0.539701,0.00513644,171514,527715,50169.2,2.53017e+06,292642,-220515,2.78376e+06
0.541512,0.00516912,182946,540996,44613.9,2.56725e+06,286692,-206629,2.81252e+06
0.543323,0.00520181,194814,554466,38838.1,2.60615e+06,278584,-193128,2.84256e+06
0.545134,0.00523449,206682,567936,33062.1,2.64505e+06,270475,-179628,2.87261e+06
0.546945,0.00526718,218551,581405,27286.3,2.68396e+06,262366,-166127,2.90266e+06
0.548756,0.00529986,230389,594554,21640.6,2.72192e+06,254305,-152107,2.93139e+06
0.550567,0.00533251,242036,605621,16837.8,2.75378e+06,246554,-134726,2.95152e+06
0.552379,0.00536517,253682,616688,12034.8,2.78564e+06,238804,-117344,2.97166e+06
0.55419,0.005398,260846,619026,4489.5,2.79515e+06,230343,-106294,2.97763e+06
0.556001,0.0054313,262935,613963,7983.55,2.77378e+06,215124,-109881,2.95702e+06
0.557812,0.00546462,265007,608953,11961.5,2.75212e+06,199693,-113753,2.93598e+06
0.559623,0.00549794,267078,603944,15940.1,2.73046e+06,184263,-117625,2.91493e+06
0.561434,0.00553126,269150,598934,19918.1,2.7088e+06,168833,-121497,2.89389e+06
0.563245,0.00556467,270978,601634,25160.8,2.69938e+06,161417,-125733,2.88385e+06
0.565056,0.00559819,272540,612744,31781.8,2.70331e+06,162744,-130366,2.88581e+06
0.566867,0.00563176,265369,610656,32967.4,2.67654e+06,160745,-133857,2.85998e+06
0.568678,0.00566537,250641,597145,29448.2,2.62319e+06,155869,-136359,2.81008e+06
0.570489,0.00569899,236914,585311,28280.8,2.56307e+06,151751,-138517,2.75464e+06
0.5723,0.00573302,247702,599416,47822.7,2.50512e+06,162571,-127579,2.70351e+06
0.574111,0.00576737,269083,616257,55646.4,2.5422e+06,177822,-108360,2.73284e+06
0.575922,0.00580173,290464,633098,63470.8,2.57928e+06,193074,-89141.5,2.76218e+06
0.577734,0.00583608,311844,649939,71294.5,2.61635e+06,208325,-69922.6,2.79151e+06
0.579545,0.00587044,333225,666780,79118.8,2.65343e+06,223577,-50704,2.82084e+06
0.581356,0.00590479,354606,683621,86942.5,2.6905e+06,238828,-31485.1,2.85018e+06
0.583167,0.00593906,373655,701692,103471,2.75103e+06,248414,-19906.6,2.90556e+06
0.584978,0.00597384,357865,697358,104037,2.72927e+06,247150,-28093.2,2.89576e+06
0.586789,0.00600881,329280,685891,98504.2,2.68643e+06,241137,-43634.8,2.86504e+06
0.5886,0.00604378,300353,670597,92809.6,2.64048e+06,232050,-58139.1,2.82742e+06
0.590411,0.00607875,271837,652456,86190,2.58619e+06,222017,-70691.5,2.78132e+06
0.592222,0.00611372,243322,634315,79570.3,2.5319e+06,211982,-83243.9,2.73522e+06
0.594033,0.00614869,214807,616174,72950.6,2.47762e+06,201948,-95796.4,2.68912e+06
0.595844,0.00618367,186291,598033,66330.9,2.42333e+06,191914,-108349,2.64302e+06
0.597655,0.00621864,157812,580064,59844.4,2.37048e+06,182433,-120658,2.59821e+06
0.599467,0.00625415,140853,582426,59524,2.39461e+06,185251,-122517,2.62665e+06
0.601278,0.0062899,135232,589944,58599.8,2.40643e+06,171910,-126010,2.64614e+06
0.603089,0.00632569,136877,583669,59718,2.39482e+06,163413,-125128,2.64067e+06
0.6049,0.00636141,143335,578373,60984.5,2.38233e+06,154531,-120516,2.62766e+06
0.606711,0.00639685,166268,576434,62758.9,2.36681e+06,144335,-103141,2.58889e+06
0.608522,0.00643229,189201,574494,64533.2,2.35129e+06,134139,-85766.9,2.55012e+06
0.610333,0.00646773,212134,572554,66307.6,2.33577e+06,123943,-68392.2,2.51135e+06
0.612144,0.0065035,231064,572440,71360.9,2.32365e+06,118855,-57016,2.48433e+06
0.613955,0.00653994,242009,575968,82957.3,2.31831e+06,123961,-57608.5,2.48076e+06
0.615766,0.00657637,252954,579495,94553.8,2.31298e+06,129067,-58201,2.47719e+06
0.617577,0.0066128,263898,583023,106150,2.30764e+06,134173,-58793.9,2.47363e+06
0.619388,0.00664924,274842,586551,117747,2.30231e+06,139279,-59386.4,2.47006e+06
0.621199,0.00668567,285786,590078,129343,2.29697e+06,144385,-59979.3,2.46649e+06
0.62301,0.00672211,296731,593606,140940,2.29164e+06,149491,-60571.8,2.46293e+06
0.624822,0.00675854,307675,597134,152536,2.2863e+06,154597,-61164.6,2.45936e+06
0.626633,0.00679471,308141,595202,160325,2.27656e+06,157327,-53704.4,2.44067e+06
0.628444,0.00683084,305764,586383,167643,2.2495e+06,159791,-43530.2,2.40518e+06
0.630255,0.00686698,304140,574568,175184,2.21942e+06,160294,-33981.4,2.36836e+06
0.632066,0.00690383,294588,587861,162533,2.27478e+06,167408,-42953.3,2.4335e+06
0.633877,0.00694106,296908,587133,149008,2.27753e+06,168652,-34965,2.42835e+06
0.635688,0.00697829,299228,586405,135482,2.28028e+06,169896,-26976.4,2.42319e+06
0.637499,0.00701552,301548,585676,121957,2.28303e+06,171140,-18988,2.41803e+06
0.63931,0.00705275,303867,584948,108431,2.28578e+06,172384,-10999.4,2.41288e+06
0.641121,0.00708998,306187,584219,94905.4,2.28853e+06,173628,-3011.03,2.40772e+06
0.642932,0.00712721,308507,583491,81379.8,2.29128e+06,174872,4977.57,2.40257e+06
0.644743,0.00716451,315666,577761,70143,2.27196e+06,174563,18204.8,2.37009e+06
0.646554,0.00720183,323786,571037,59360.9,2.24825e+06,173946,32473.2,2.33218e+06
0.648366,0.00723924,337477,566937,49175.4,2.26083e+06,178292,41048.1,2.32989e+06
0.650177,0.00727673,327053,552293,54664.3,2.22684e+06,156620,22197.9,2.29913e+06
0.651988,0.007315,316918,538402,48899.4,2.19714e+06,153823,24466.8,2.26386e+06
0.653799,0.00735337,318611,536988,45850.9,2.20516e+06,154994,34654.2,2.26389e+06
0.65561,0.00739174,320304,535574,42802.6,2.21317e+06,156163,44840.9,2.26392e+06
0.657421,0.00743011,321996,534160,39754.1,2.22119e+06,157334,55028.3,2.26395e+06
0.659232,0.00746846,322792,530270,37001.1,2.22417e+06,158509,65715,2.26075e+06
0.661043,0.00750677,320186,516980,35368.8,2.20802e+06,159708,78300.6,2.24529e+06
0.662854,0.00754507,317581,503691,33736.6,2.19188e+06,160905,90885.1,2.22983e+06
0.664665,0.00758338,314975,490403,32104.3,2.17573e+06,162103,103470,2.21437e+06
0.666476,0.00762168,312369,477112,30472.1,2.15959e+06,163302,116055,2.1989e+06
0.668287,0.00766011,297024,497728,36128.7,2.20902e+06,156978,107171,2.25118e+06
0.670098,0.00769889,294656,539302,43443.8,2.31328e+06,147727,84219.8,2.34394e+06
0.67191,0.00773801,312802,576725,44101.1,2.39635e+06,144043,95658.2,2.43174e+06
0.673721,0.00777712,331395,610610,46899.3,2.46641e+06,137490,105644,2.5066e+06
0.675532,0.00781594,340369,639541,56376.5,2.51758e+06,139729,100673,2.57368e+06
0.677343,0.00785481,347475,659733,65444.5,2.54584e+06,141478,97281,2.61932e+06
0.679154,0.0078937,354153,676958,74540.1,2.56636e+06,142780,94466.4,2.65759e+06
0.680965,0.00793284,355162,682674,76760.9,2.56902e+06,144739,85389.9,2.67054e+06
0.682776,0.00797242,346641,669048,67429.5,2.54167e+06,147802,65791.4,2.64095e+06
0.684587,0.00801199,337452,649793,56990.6,2.49723e+06,150055,48505.5,2.59574e+06
0.686398,0.00805158,327626,625175,45496.8,2.4365e+06,151537,33423.1,2.53565e+06
0.688209,0.00809116,317800,600557,34003.1,2.37577e+06,153020,18340.3,2.47557e+06
0.69002,0.00813074,307974,575939,22509.2,2.31504e+06,154502,3258.01,2.41548e+06
0.691831,0.00817033,298147,551321,11015.5,2.2543e+06,155985,-11824.8,2.3554e+06
0.693642,0.00820987,294205,540984,7083.17,2.23432e+06,156025,-18765.1,2.3354e+06
0.695454,0.00824961,343651,552682,16064.1,2.3431e+06,151144,-18207.6,2.42378e+06
0.697265,0.00828966,294289,528930,22401.3,2.25462e+06,174533,-34184.3,2.35396e+06
0.699076,0.00833033,287533,534819,29480.2,2.26075e+06,166930,-34877.6,2.36541e+06
0.700887,0.00837101,280778,540707,36559.3,2.26689e+06,159327,-35570.8,2.37685e+06
0.702698,0.00841169,274022,546595,43638.1,2.27303e+06,151724,-36264.1,2.3883e+06
0.704509,0.00845236,267266,552484,50717.3,2.27916e+06,144121,-36957.4,2.39974e+06
0.70632,0.00849304,260511,558372,57796.1,2.2853e+06,136518,-37650.7,2.41119e+06
0.708131,0.00853372,253755,564260,64875.2,2.29144e+06,128915,-38344,2.42263e+06
0.709942,0.00857439,246757,568175,71782.6,2.29328e+06,122310,-38510.9,2.43136e+06
0.711753,0.00861505,238558,562298,77840.1,2.27381e+06,120651,-36067,2.42664e+06
0.713564,0.00865571,230360,556422,83897.5,2.25434e+06,118993,-33623,2.42192e+06
0.715375,0.00869637,222161,550545,89954.7,2.23487e+06,117335,-31179.1,2.41719e+06
0.717187,0.00873703,212732,543886,93598.5,2.20547e+06,118262,-27368.2,2.39402e+06
0.718998,0.00877782,205577,539372,93136.4,2.17522e+06,117262,-21667.8,2.40348e+06
0.720809,0.00881909,207290,546772,82902.2,2.18179e+06,110367,-13763.5,2.48042e+06
0.72262,0.0088605,206892,556686,66368.6,2.19023e+06,112005,-4175.25,2.46987e+06
0.724431,0.0089019,206494,566600,49835.2,2.19867e+06,113644,5413.21,2.45932e+06
0.726242,0.00894335,203728,575106,39911,2.20095e+06,120726,13186.2,2.42114e+06
0.728053,0.0089848,200943,583601,30038.8,2.20318e+06,127851,20944.9,2.38275e+06
0.729864,0.00902626,198146,590741,19972.3,2.20279e+06,134982,29260.7,2.34642e+06
0.731675,0.00906773,195265,588643,8584.01,2.18455e+06,142153,41373,2.32416e+06
0.733486,0.0091094,194328,591055,485.241,2.166e+06,150341,44332.2,2.30974e+06
0.735297,0.0091515,195150,594008,379.545,2.16393e+06,155601,26048.3,2.3205e+06
0.737108,0.00919359,195972,596960,273.36,2.16185e+06,160861,7764.79,2.33127e+06
0.738919,0.00923569,196794,599913,167.664,2.15978e+06,166121,-10519.1,2.34204e+06
0.74073,0.00927779,197616,602866,61.4787,2.15771e+06,171382,-28802.6,2.35281e+06
0.742542,0.00931989,198438,605818,-44.2176,2.15564e+06,176642,-47086.5,2.36357e+06
0.744353,0.00936199,199512,608892,-302.524,2.15403e+06,182066,-64856.7,2.37452e+06
0.746164,0.00940438,213551,618162,-8400,2.17655e+06,195925,-56174.6,2.39443e+06
0.747975,0.00944677,227591,627433,-16497.2,2.19907e+06,209784,-47492.3,2.41434e+06
0.749786,0.00948971,217508,600732,-20612.8,2.13717e+06,211389,-58357.4,2.35016e+06
0.751597,0.00953274,203205,564492,-23638.5,2.0411e+06,210732,-73974.8,2.2526e+06
0.753408,0.00957561,181379,537941,-22169.8,1.94635e+06,203312,-77390.1,2.15948e+06
0.755219,0.00961833,189323,527012,-17802,1.93841e+06,200757,-74392.4,2.13949e+06
0.75703,0.00966104,200128,516962,-13394.7,1.93776e+06,198922,-71410.5,2.12549e+06
0.758841,0.00970375,210933,506910,-8987.27,1.9371e+06,197088,-68428.8,2.11148e+06
0.760652,0.00974676,218805,509909,-6067.04,1.96302e+06,197826,-65418.7,2.13212e+06
0.762463,0.00979016,223008,529221,-5005.92,2.02215e+06,201779,-62373.2,2.19606e+06
0.764274,0.00983357,227211,548533,-3944.78,2.08128e+06,205733,-59327.8,2.26e+06
0.766086,0.00987697,231415,567845,-2883.66,2.14041e+06,209686,-56282.3,2.32394e+06
0.767897,0.00992037,235618,587157,-1822.52,2.19954e+06,213640,-53237,2.38788e+06
0.769708,0.00996377,239821,606469,-761.395,2.25867e+06,217593,-50191.5,2.45182e+06
0.771519,0.0100072,242600,623776,210,2.31127e+06,221974,-49248.2,2.51018e+06
0.77333,0.0100506,228561,622035,1985.99,2.29837e+06,227647,-64049.5,2.5114e+06
0.775141,0.0100941,215040,617257,8059.05,2.28225e+06,227342,-72025.2,2.50279e+06
0.776952,0.0101381,215239,603890,17683.9,2.26322e+06,217821,-75550,2.47501e+06
0.778763,0.0101823,213176,599485,18503.6,2.24853e+06,211149,-81084,2.46048e+06
0.780574,0.0102265,211114,595079,19323.1,2.23384e+06,204476,-86618,2.44595e+06
0.782385,0.0102708,209052,590674,20142.8,2.21914e+06,197803,-92152.1,2.43142e+06
0.784196,0.010315,206989,586269,20962.2,2.20445e+06,191131,-97686.1,2.4169e+06
0.786007,0.0103592,204055,577725,22258.1,2.18001e+06,184166,-101070,2.39185e+06
0.787818,0.0104035,199636,562129,24364.8,2.13898e+06,176706,-100792,2.34888e+06
0.78963,0.0104477,195217,546534,26471.8,2.09795e+06,169245,-100514,2.30591e+06
0.791441,0.0104919,191565,533363,27010,2.05201e+06,168418,-97485.2,2.25875e+06
0.793252,0.010536,188745,522822,25846.5,2.00076e+06,174787,-91472.3,2.20706e+06
0.795063,0.0105802,185926,512281,24683.1,1.94951e+06,181156,-85459.4,2.15537e+06
0.796874,0.0106248,192968,513343,24002.4,1.93169e+06,187344,-72497.5,2.12888e+06
0.798685,0.0106696,205458,520816,23588.6,1.93233e+06,193431,-55696.5,2.11631e+06
0.800496,0.0107145,217949,528288,23174.7,1.93297e+06,199518,-38895.5,2.10374e+06
0.802307,0.0107594,239682,530620,25177,1.91745e+06,208563,-12185.4,2.07232e+06
0.804118,0.0108045,233630,519893,26188.8,1.88311e+06,214678,4030.02,2.029e+06
0.805929,0.0108496,229553,509165,29265.4,1.85298e+06,222309,17821.9,1.99157e+06
0.80774,0.0108948,231006,495318,34733.4,1.8158e+06,228294,34523.3,1.94949e+06
0.809551,0.0109406,245312,474224,45757.6,1.76224e+06,230457,57984.3,1.89662e+06
0.811363,0.0109861,244248,471042,49793.8,1.76723e+06,230373,63204.2,1.9004e+06
0.813174,0.0110317,242658,468473,53590.7,1.77421e+06,230213,67799.3,1.90613e+06
0.814985,0.0110773,241068,465905,57387.4,1.7812e+06,230053,72394.1,1.91186e+06
0.816796,0.0111228,239477,463336,61184.4,1.78819e+06,229893,76989.2,1.91758e+06
0.818607,0.0111684,237887,460768,64981.1,1.79518e+06,229733,81584.1,1.92331e+06
0.820418,0.011214,236297,458199,68778,1.80217e+06,229572,86179.1,1.92904e+06
0.822229,0.0112596,240230,461386,77252.7,1.82893e+06,228506,96588.7,1.94831e+06
0.82404,0.0113054,253818,474632,93904.9,1.89026e+06,225857,117163,1.99125e+06
0.825851,0.0113513,241042,504465,91813,1.9607e+06,221347,106909,2.06136e+06
0.827662,0.0113972,221229,540658,80179.9,2.02958e+06,219468,83133.3,2.14234e+06
0.829473,0.0114437,230335,541122,76554.6,2.00799e+06,215520,86747.3,2.11695e+06
0.831284,0.0114903,239594,536770,73312.8,1.97261e+06,208827,92514.3,2.07376e+06
0.833095,0.0115368,248853,532418,70071.2,1.93723e+06,202133,98281,2.03057e+06
0.834907,0.0115834,258113,528067,66829.5,1.90184e+06,195440,104048,1.98738e+06
0.836718,0.0116299,267372,523715,63587.9,1.86646e+06,188747,109815,1.94419e+06
0.838529,0.0116763,274094,520876,60105.5,1.84575e+06,182852,111292,1.92491e+06
0.84034,0.0117226,279473,517261,56788.1,1.82767e+06,177320,112132,1.91308e+06
0.842151,0.011769,281600,512007,54894.6,1.80642e+06,172599,112021,1.89586e+06
0.843962,0.0118159,258466,494027,64062.5,1.76048e+06,174181,104514,1.83681e+06
0.845773,0.011863,247466,487600,67574.2,1.75055e+06,182784,93694.6,1.85655e+06
0.847584,0.0119101,239356,483775,69594.7,1.74893e+06,193326,82269.4,1.89104e+06
0.849395,0.0119573,231246,479950,71615.1,1.74732e+06,203868,70844.3,1.92553e+06
0.851206,0.0120044,223137,476125,73635.6,1.74571e+06,214411,59419.1,1.96002e+06
0.853017,0.0120516,215027,472300,75656,1.7441e+06,224953,47994,1.99451e+06
0.854828,0.0120987,206917,468475,77676.5,1.74249e+06,235495,36568.7,2.029e+06
0.856639,0.012146,196334,456686,82253.8,1.72615e+06,246370,31665.5,1.96588e+06
0.858451,0.0121935,207773,458995,79936.5,1.74109e+06,253423,39327.7,1.95906e+06
0.860262,0.0122411,223825,466521,75542.7,1.76657e+06,259710,46806.1,1.99642e+06
0.862073,0.0122887,233543,475782,69796.7,1.79308e+06,261077,53751.5,2.02672e+06
0.863884,0.0123367,227339,489405,60651.3,1.82218e+06,250074,59356.5,2.03925e+06
0.865695,0.0123846,221134,503027,51505.8,1.85128e+06,239071,64961.5,2.05178e+06
0.867506,0.0124326,214930,516649,42360.4,1.88038e+06,228068,70566.6,2.06432e+06
0.869317,0.0124805,208726,530272,33214.9,1.90947e+06,217065,76171.6,2.07685e+06
0.871128,0.0125284,202522,543894,24069.5,1.93857e+06,206062,81776.6,2.08939e+06
0.872939,0.0125764,196318,557516,14924.2,1.96767e+06,195060,87381.6,2.10192e+06
0.87475,0.0126243,188111,562410,7248.36,1.97821e+06,183188,93551.1,2.11047e+06
0.876561,0.0126725,181589,569547,583.083,1.9748e+06,166206,99311,2.10965e+06
0.878372,0.0127207,181004,572578,779.312,1.96224e+06,140601,101334,2.09514e+06
0.880183,0.012769,180419,575610,975.896,1.94969e+06,114996,103357,2.08063e+06
0.881995,0.0128178,171518,572629,8490.65,1.92716e+06,116985,99508.9,2.06417e+06
0.883806,0.0128667,164708,569214,13072.3,1.9078e+06,120893,91091.2,2.05177e+06
0.885617,0.0129155,157898,565800,17653.9,1.88843e+06,124800,82673.5,2.03937e+06
0.887428,0.0129644,151089,562386,22235.6,1.86907e+06,128707,74255.8,2.02696e+06
0.889239,0.0130132,144279,558971,26817.3,1.8497e+06,132614,65838.1,2.01456e+06
0.89105,0.0130621,137469,555557,31398.7,1.83034e+06,136522,57420.6,2.00216e+06
0.892861,0.013111,139772,547533,35154.3,1.81473e+06,136889,48368.7,1.98479e+06
0.894672,0.0131598,144574,540276,38882.9,1.80256e+06,136010,38412,1.97074e+06
0.896483,0.0132087,145328,536166,43087,1.79001e+06,136555,28341.8,1.96143e+06
0.898294,0.0132575,146081,532057,47290.9,1.77747e+06,137100,18271.3,1.95212e+06
0.900105,0.0133064,146834,527947,51494.9,1.76493e+06,137645,8201.06,1.94281e+06
0.901916,0.0133556,161147,512982,62517.8,1.74694e+06,141055,17824.5,1.91677e+06
0.903727,0.0134053,138950,476308,66581.7,1.64559e+06,156004,-11278.4,1.84547e+06
0.905538,0.0134552,149056,477693,67912.9,1.65673e+06,157323,-12102.4,1.84807e+06
0.90735,0.0135052,162335,481710,69261.2,1.67609e+06,157575,-10060.8,1.8557e+06
0.909161,0.0135551,175615,485728,70609.4,1.69545e+06,157827,-8018.73,1.86332e+06
0.910972,0.0136051,188894,489745,71957.6,1.71481e+06,158079,-5977.13,1.87095e+06
0.912783,0.013655,197961,491259,73065.6,1.72815e+06,157933,-6056.9,1.87738e+06
0.914594,0.013705,202350,489992,73906.9,1.7348e+06,157345,-8492.92,1.88247e+06
0.916405,0.0137549,206738,488726,74748,1.74145e+06,156757,-10929.2,1.88756e+06
0.918216,0.0138048,211127,487459,75589.3,1.74809e+06,156169,-13365.2,1.89265e+06
0.920027,0.0138547,215515,486193,76430.5,1.75474e+06,155581,-15801.5,1.89775e+06
0.921838,0.0139046,222474,484530,77066.2,1.76204e+06,156108,-16664,1.90146e+06
0.923649,0.0139545,231537,482543,77534,1.76987e+06,157547,-16239.3,1.90405e+06
0.92546,0.0140045,244827,483271,77778.1,1.7849e+06,161105,-12623.4,1.91222e+06
0.927271,0.0140549,287930,503143,76445.7,1.85076e+06,179609,13495.3,1.95974e+06
0.929083,0.0141058,294013,505892,72024.8,1.85502e+06,170590,20767.9,1.95783e+06
0.930894,0.0141566,297147,507277,67358.1,1.85438e+06,159379,26538.9,1.95198e+06
0.932705,0.0142075,300280,508662,62691.2,1.85374e+06,148167,32310.2,1.94613e+06
0.934516,0.0142583,300454,509103,57515,1.84797e+06,134733,36007.1,1.93665e+06
0.936327,0.0143092,294742,507665,51326,1.83201e+06,116877,35577.8,1.91992e+06
0.938138,0.0143602,295356,509304,46427.1,1.83318e+06,104697,37015.1,1.91894e+06
0.939949,0.0144112,298173,512013,41977.5,1.84031e+06,94491,39100.8,1.92343e+06
0.94176,0.0144622,300989,514722,37527.7,1.84745e+06,84285.7,41187.5,1.92792e+06
0.943571,0.0145132,300697,510928,32964.9,1.8345e+06,75027.7,44418.3,1.92481e+06
0.945382,0.0145642,298175,502470,28320.9,1.80714e+06,66449.6,48471.5,1.91624e+06
0.947193,0.0146152,295653,494012,23677.1,1.77978e+06,57871.2,52523.7,1.90767e+06
0.949004,0.0146661,293131,485553,19033.1,1.75242e+06,49293.2,56576.9,1.8991e+06
0.950815,0.0147175,294366,489563,18666.9,1.78041e+06,50464,63694.5,2.03455e+06
0.952627,0.0147693,310207,500015,15710.3,1.81001e+06,64987.3,68249.8,1.88401e+06
0.954438,0.0148211,302669,491651,16828.3,1.77246e+06,62274,46843.5,1.85112e+06
0.956249,0.0148728,295132,483287,17946.6,1.73491e+06,59560,25435.5,1.81823e+06
0.95806,0.0149246,287595,474924,19064.7,1.69736e+06,56846.7,4029.17,1.78533e+06
0.959871,0.0149764,281155,465273,19879.3,1.65866e+06,56870.2,-12835.5,1.75081e+06
0.961682,0.0150282,277827,451973,19833.2,1.61672e+06,64652.7,-16822.3,1.71168e+06
0.963493,0.0150802,281631,430313,17815.2,1.56733e+06,90215,8698.88,1.66196e+06
0.965304,0.0151322,285434,408654,15797.2,1.51795e+06,115777,34219.5,1.61224e+06
0.967115,0.0151844,304949,401364,10457.9,1.48455e+06,148362,84467.7,1.57028e+06
0.968926,0.0152368,296972,420288,9741.07,1.51048e+06,164031,84938.3,1.60734e+06
0.970737,0.0152893,261930,455212,13802.5,1.57813e+06,163928,37643.2,1.70451e+06
0.972548,0.0153418,232448,478049,18959.3,1.61701e+06,168615,229.304,1.76854e+06
0.974359,0.0153943,214663,475467,26420.2,1.59535e+06,183375,-16402.7,1.76286e+06
0.976171,0.0154468,199133,467985,34325,1.56202e+06,200078,-29029.3,1.74375e+06
0.977982,0.0154993,188346,450195,43164.2,1.50415e+06,220864,-33228.5,1.69637e+06
0.979793,0.0155517,177559,432406,52003.2,1.44628e+06,241651,-37428,1.64899e+06
0.981604,0.0156043,175061,424799,57225.2,1.45633e+06,255907,-23106.3,1.65086e+06
0.983415,0.0156574,181903,428692,56531.5,1.49195e+06,255284,-9252.22,1.67407e+06
0.985226,0.0157107,191060,435442,53855.9,1.51959e+06,248864,-1506.15,1.69296e+06
0.987037,0.0157639,191693,441967,55052.3,1.54203e+06,243788,-371.163,1.71409e+06
0.988848,0.0158171,185129,448302,59518.6,1.56009e+06,239847,-4820.72,1.73709e+06
0.990659,0.0158702,178563,454636,63985.7,1.57814e+06,235907,-9270.84,1.7601e+06
0.99247,0.0159233,191975,478848,64050.5,1.64802e+06,227406,-2336.15,1.82661e+06
0.994281,0.0159764,205775,503406,64030.6,1.71891e+06,218817,4819.14,1.89397e+06
0.996092,0.0160295,219574,527964,64010.2,1.78979e+06,210228,11974.2,1.96132e+06
0.997903,0.0160826,233374,552523,63990.3,1.86068e+06,201639,19129.5,2.02867e+06
0.999715,0.0161357,243160,569212,63648.1,1.90383e+06,186417,20151.2,2.07059e+06
1.00153,0.0161892,241799,564042,62410.3,1.86994e+06,152772,4134.98,2.04183e+06
1.00334,0.0162426,240438,558872,61172.9,1.83605e+06,119126,-11881.2,2.01306e+06
1.00515,0.0162963,234071,542757,60786.9,1.78054e+06,94807.5,-23814.5,1.96565e+06
1.00696,0.0163502,218125,504099,61423.3,1.68171e+06,78016.9,-21169.9,1.88067e+06
1.00877,0.0164042,202180,465441,62059.2,1.58289e+06,61227.7,-18525.3,1.79569e+06
1.01058,0.0164581,186233,426783,62695.7,1.48406e+06,44436.5,-15880.6,1.7107e+06
1.01239,0.0165121,170288,388125,63331.6,1.38523e+06,27647.3,-13236,1.62572e+06
1.0142,0.016566,166870,375548,59034.1,1.35797e+06,51230.9,-6878.82,1.58107e+06
1.01601,0.0166199,163551,363178,54697.7,1.33128e+06,75132.6,-492.696,1.53674e+06
1.01783,0.0166739,160232,350806,50360.8,1.30459e+06,99036,5893.89,1.4924e+06
1.01964,0.0167278,156913,338436,46024.4,1.2779e+06,122938,12280,1.44807e+06
1.02145,0.016782,157258,344867,46433.3,1.30015e+06,137342,14380.7,1.44539e+06
1.02326,0.0168364,161344,370486,51685.4,1.37235e+06,142051,12107.5,1.48522e+06
1.02507,0.0168909,168949,382557,50356,1.41721e+06,145043,31245.5,1.50705e+06
1.02688,0.0169457,170648,388152,48187.3,1.43602e+06,148493,42067.1,1.52255e+06
1.02869,0.0170006,164511,394416,48671.8,1.44306e+06,153320,33103.3,1.54121e+06
1.0305,0.0170554,158374,400681,49156.3,1.4501e+06,158147,24140.1,1.55988e+06
1.03231,0.0171103,152237,406945,49640.9,1.45715e+06,162974,15176.3,1.57855e+06
1.03412,0.0171651,151173,402265,46222.8,1.44115e+06,167143,20915.9,1.56708e+06
1.03594,0.0172199,153478,390319,40213.9,1.40987e+06,170875,36415.6,1.53561e+06
1.03775,0.0172746,155782,378375,34205.8,1.3786e+06,174607,51912.6,1.50415e+06
1.03956,0.0173293,152702,372044,31341.1,1.35852e+06,176509,56581.2,1.48852e+06
1.04137,0.0173841,135936,379985,36468.2,1.36695e+06,173763,33720.8,1.51315e+06
1.04318,0.0174391,133813,402205,40139.8,1.40158e+06,170762,15759.1,1.56226e+06
1.04499,0.0174944,142524,434989,42734.2,1.4556e+06,167574,1423.19,1.62947e+06
1.0468,0.0175496,151237,467775,45328.6,1.50963e+06,164386,-12912.9,1.69668e+06
1.04861,0.017605,174482,509825,44404.3,1.59034e+06,159323,-23177.2,1.78973e+06
1.05042,0.0176606,174967,503477,46805.8,1.56373e+06,156854,-35452.2,1.76657e+06
1.05224,0.0177163,175620,480685,50525.7,1.51104e+06,154233,-35586.5,1.72529e+06
1.05405,0.017772,179460,459625,53721.9,1.46424e+06,151201,-33693.4,1.69106e+06
1.05586,0.0178278,183301,438567,56917.8,1.41745e+06,148170,-31800.5,1.65682e+06
1.05767,0.0178835,165650,430360,60444.1,1.38123e+06,150573,-35182.1,1.63108e+06
1.05948,0.0179392,145137,423868,64014.1,1.34643e+06,153700,-39266.1,1.60648e+06
1.06129,0.017995,124623,417373,67584.4,1.31163e+06,156828,-43350.4,1.58188e+06
1.0631,0.0180507,104110,410881,71154.4,1.27683e+06,159955,-47434.4,1.55727e+06
1.06491,0.0181064,83596.2,404388,74724.6,1.24203e+06,163082,-51518.7,1.53267e+06
1.06672,0.0181623,74641.5,417374,83581.5,1.2345e+06,176517,-49067.7,1.53702e+06
1.06854,0.0182183,75507.5,445188,93460.7,1.25207e+06,195952,-42394.2,1.56204e+06
1.07035,0.0182747,76873.8,464143,84081.9,1.28163e+06,200340,-42908.8,1.56614e+06
1.07216,0.0183311,80960,462433,67248.1,1.29106e+06,195088,-25002,1.5466e+06
1.07397,0.0183877,94644.3,431529,64671.7,1.26281e+06,194320,2462.7,1.50791e+06
1.07578,0.0184444,101972,401377,62423.5,1.22351e+06,190965,25199,1.4705e+06
1.07759,0.018501,109300,371226,60175.4,1.18421e+06,187610,47933.7,1.4331e+06
1.0794,0.0185577,116628,341074,57927.2,1.14491e+06,184254,70669.9,1.39569e+06
1.08121,0.0186144,123956,310923,55679.2,1.10561e+06,180899,93404.7,1.35828e+06
1.08302,0.018671,131284,280771,53430.9,1.06631e+06,177544,116141,1.32087e+06
1.08484,0.0187277,138612,250620,51182.9,1.02701e+06,174189,138876,1.28347e+06
1.08665,0.0187845,144796,240708,50035.5,1.02185e+06,171972,143619,1.27654e+06
1.08846,0.0188414,149148,258324,50346.5,1.06305e+06,171629,122504,1.31095e+06
1.09027,0.0188983,153501,275942,50657.6,1.10425e+06,171285,101387,1.34535e+06
1.09208,0.0189551,157853,293558,50968.7,1.14545e+06,170942,80271.2,1.37976e+06
1.09389,0.0190121,168996,328085,54732.2,1.22952e+06,179304,66139.6,1.44293e+06
1.0957,0.019069,182578,368685,59735.6,1.32898e+06,190792,54518.6,1.51643e+06
1.09751,0.019126,196161,409287,64739.5,1.42846e+06,202281,42896.8,1.58993e+06
1.09932,0.0191829,211440,451413,69611.6,1.53432e+06,212781,31373.1,1.67105e+06
1.10113,0.0192404,205139,449154,72108.6,1.51445e+06,215662,44741.7,1.65219e+06
1.10295,0.0192982,194660,422938,74206.6,1.4448e+06,207834,60484.7,1.57928e+06
1.10476,0.019356,184180,396720,76304.8,1.37515e+06,200006,76228.2,1.50637e+06
1.10657,0.0194138,173701,370504,78402.8,1.30551e+06,192178,91971.1,1.43346e+06
1.10838,0.0194716,165381,352666,79645,1.25711e+06,187260,101041,1.38087e+06
1.11019,0.0195294,159156,342952,80057.3,1.22932e+06,185165,103642,1.34799e+06
1.112,0.0195872,152930,333238,80469.5,1.20153e+06,183069,106242,1.31511e+06
1.11381,0.019645,144267,323329,82383.3,1.17884e+06,180530,104343,1.28886e+06
1.11562,0.0197028,130868,313042,87213.9,1.16604e+06,177129,93704,1.27547e+06
1.11743,0.0197606,117470,302755,92044,1.15324e+06,173728,83065.5,1.26209e+06
1.11925,0.0198184,122853,325037,90028.7,1.20423e+06,179884,63630.7,1.3153e+06
1.12106,0.0198763,130740,350043,87192.3,1.25886e+06,186407,44244.7,1.37246e+06
1.12287,0.0199346,134233,350887,86890.5,1.24885e+06,181413,39414.4,1.36348e+06
1.12468,0.019993,137726,351731,86588.7,1.23884e+06,176419,34584.5,1.35451e+06
1.12649,0.0200513,141220,352575,86287,1.22884e+06,171424,29754.4,1.34553e+06
1.1283,0.0201096,144713,353419,85985.2,1.21883e+06,166430,24924.4,1.33655e+06
1.13011,0.0201679,148206,354263,85683.4,1.20882e+06,161436,20094.3,1.32757e+06
1.13192,0.0202261,159416,355461,82489.8,1.2067e+06,150844,24812.3,1.33077e+06
1.13373,0.0202843,173387,353704,77383.3,1.20024e+06,136911,33717.3,1.33907e+06
1.13555,0.0203424,187358,351947,72276.5,1.19378e+06,122977,42622.1,1.34737e+06
1.13736,0.020401,186369,357989,66369.7,1.20993e+06,125715,21752.8,1.35511e+06
1.13917,0.0204596,183745,366436,60204.3,1.24082e+06,132160,2810.65,1.38654e+06
1.14098,0.0205185,183884,374980,52993.3,1.26361e+06,144925,-6524.45,1.38391e+06
1.14279,0.0205775,183030,377553,43486.7,1.2769e+06,154995,-11814,1.40546e+06
1.1446,0.0206364,182176,380126,33980.8,1.29018e+06,165065,-17103.4,1.42699e+06
1.14641,0.0206954,181322,382699,24474.2,1.30347e+06,175136,-22393,1.44853e+06
1.14822,0.0207543,180468,385272,14968.3,1.31676e+06,185206,-27682.4,1.47007e+06
1.15003,0.0208134,166408,378674,7329.55,1.29062e+06,201006,-43781.4,1.45981e+06
1.15184,0.0208728,131007,336697,-2483.81,1.19095e+06,210113,-60289.3,1.41041e+06
1.15366,0.0209322,94769.6,287091,-13960,1.08543e+06,214115,-71634,1.3632e+06
1.15547,0.0209917,58534.1,237488,-25435.4,979906,218117,-82978.2,1.31599e+06
1.15728,0.0210511,28495.6,189857,-36777.3,881068,219782,-89422.4,1.27244e+06
1.15909,0.0211105,40991.8,162315,-30954.9,844287,196730,-69663.8,1.22554e+06
1.1609,0.02117,49762.6,153698,-16145.9,841154,183168,-68141.5,1.19353e+06
1.16271,0.0212296,75681.5,164719,589.518,881637,172957,-62946.5,1.19608e+06
1.16452,0.0212892,101602,175742,17326.2,922124,162746,-57752.1,1.19862e+06
1.16633,0.0213488,124691,208377,35307.2,986076,167436,-65777.8,1.22408e+06
1.16814,0.0214084,146090,253947,54034.8,1.06407e+06,181041,-81714.1,1.26325e+06
1.16996,0.0214681,167487,299513,72761,1.14207e+06,194644,-97649.1,1.30242e+06
1.17177,0.0215279,168891,311742,66734.1,1.16061e+06,193651,-91472.3,1.32027e+06
1.17358,0.0215878,169709,322992,59980.6,1.1774e+06,192229,-84646.4,1.3375e+06
1.17539,0.0216477,170527,334242,53226.5,1.19419e+06,190807,-77820,1.35473e+06
1.1772,0.0217075,171345,345492,46473.3,1.21099e+06,189386,-70994.4,1.37195e+06
1.17901,0.0217676,174982,358070,40591.8,1.22127e+06,181436,-58640,1.37888e+06
1.18082,0.0218278,177816,367975,32830.2,1.22381e+06,172407,-44996.7,1.37571e+06
1.18263,0.0218879,180651,377881,25067.8,1.22635e+06,163378,-31352.4,1.37255e+06
1.18444,0.021948,183485,387785,17306.2,1.22889e+06,154349,-17709.1,1.36938e+06
1.18626,0.0220085,178813,368974,15805.1,1.16957e+06,154924,-4503.26,1.33745e+06
1.18807,0.0220691,171998,335644,19766.8,1.08684e+06,153545,11236.8,1.30098e+06
1.18988,0.0221298,165182,302312,23728.7,1.00411e+06,152165,26977.9,1.26451e+06
1.19169,0.0221904,153944,269882,28360.5,929495,149521,35996.4,1.22506e+06
1.1935,0.022251,136509,238708,33931.4,866234,145107,35602.2,1.18142e+06
1.19531,0.0223115,119074,207537,39501.8,802978,140693,35207.5,1.13779e+06
1.19712,0.0223721,101639,176364,45072.7,739717,136279,34813.3,1.09416e+06
1.19893,0.0224328,84007.8,154558,49633.1,699961,132565,29156.6,1.06097e+06
1.20074,0.0224936,77293.9,168937,51032.1,735700,132000,16878.1,1.05733e+06
1.20256,0.0225545,87243.8,208484,50807.1,812057,133975,10641.8,1.06585e+06
1.20437,0.0226154,97194.3,248034,50582.1,888420,135949,4404.9,1.07437e+06
1.20618,0.0226763,107144,287581,50357.1,964777,137924,-1831.42,1.08288e+06
1.20799,0.0227374,122965,304701,48005.9,1.02407e+06,139666,13846.3,1.12783e+06
1.2098,0.0227985,139220,320159,45497.5,1.08209e+06,141390,31145.5,1.17548e+06
1.21161,0.0228596,155476,335618,42988.9,1.14012e+06,143114,48446.1,1.22313e+06
1.21342,0.0229207,171731,351076,40480.5,1.19814e+06,144839,65745.4,1.27077e+06
1.21523,0.0229819,201219,376964,43191.8,1.27679e+06,155140,80969.9,1.3445e+06
1.21704,0.0230432,207896,354470,27946.4,1.23471e+06,151145,102276,1.29431e+06
1.21885,0.0231048,180183,339645,33940.9,1.16924e+06,159088,94649.3,1.26805e+06
1.22067,0.0231664,169772,336983,36674.9,1.154e+06,156563,81232.1,1.25237e+06
1.22248,0.0232281,161849,335527,38879.5,1.14467e+06,152729,67552.7,1.23782e+06
1.22429,0.0232897,153927,334071,41083.9,1.13534e+06,148896,53874.1,1.22327e+06
1.2261,0.0233514,145461,328205,42722.5,1.11416e+06,145211,41058.3,1.20152e+06
1.22791,0.023413,134865,320168,43982,1.08377e+06,143053,27453.4,1.17896e+06
1.22972,0.0234746,123322,313636,45374.2,1.05537e+06,141729,12814.4,1.16052e+06
1.23153,0.0235362,111781,307105,46766.1,1.02697e+06,140404,-1823.61,1.14207e+06
1.23334,0.0235978,102822,301592,47574.3,1.00593e+06,138621,-13270,1.12798e+06
1.23515,0.0236599,99518.1,302008,53287.8,1.00322e+06,136902,-9568.31,1.12545e+06
1.23697,0.023722,98860.1,288301,50579.3,977600,136829,1489.95,1.10438e+06
1.23878,0.0237841,101150,258862,38488.1,926473,138590,20742.2,1.06268e+06
1.24059,0.0238462,103440,229421,26396.2,875343,140352,39995.4,1.02096e+06
1.2424,0.0239083,105730,199980,14304,824213,142113,59249,979252
1.24421,0.0239704,112935,200606,18271.3,827132,139999,68024.4,980564
1.24602,0.0240326,122220,213950,29031.7,852915,136245,72367.8,1.00008e+06
1.24783,0.0240948,131505,227296,39792.9,878700,132492,76710.6,1.01959e+06
1.24964,0.0241571,129983,245251,48254.6,910546,127831,70957.9,1.04653e+06
1.25145,0.0242195,115783,268616,54020.6,949505,122107,53361.4,1.08219e+06
1.25327,0.0242819,101584,291979,59786.3,988462,116384,35766.2,1.11785e+06
1.25508,0.0243443,87384.2,315343,65552.1,1.02742e+06,110660,18170,1.15351e+06
1.25689,0.0244067,85737.4,326887,67321.1,1.04914e+06,107714,17398.8,1.17103e+06
1.2587,0.0244692,94190.4,322582,65000.9,1.04663e+06,107393,27746.9,1.15714e+06
1.26051,0.0245318,102643,318278,62681,1.04413e+06,107073,38094.3,1.14325e+06
1.26232,0.0245944,87217.6,309161,59074.2,1.00078e+06,106311,29883.9,1.10826e+06
1.26413,0.0246574,74163.6,290733,58742.7,933923,108876,27468.2,1.07325e+06
1.26594,0.0247203,67717.5,270957,59628.4,870829,112462,31270.5,1.0435e+06
1.26775,0.0247833,61272.1,251183,60514.1,807740,116048,35072.5,1.01375e+06
1.26956,0.0248462,54826.4,231407,61399.8,744647,119634,38874.8,984000
1.27138,0.0249092,48380.7,211633,62285.4,681558,123219,42676.8,954251
1.27319,0.0249722,41935,191857,63171.1,618465,126805,46479.1,924499
1.275,0.0250352,48708.6,203302,65043.8,647176,134491,46596.3,951216
1.27681,0.0250982,58702.5,222352,67157,698247,143175,45816.2,991686
1.27862,0.0251613,93193.4,243603,72682.6,796425,155354,57591.2,1.03096e+06
1.28043,0.0252245,116153,261282,76651.3,872641,163757,61558,1.05786e+06
1.28224,0.0252879,110635,271598,76746.6,894492,164064,47343.4,1.06167e+06
1.28405,0.0253514,105118,281916,76841.9,916345,164371,33128,1.06548e+06
1.28586,0.0254148,99600.5,292232,76937.2,938197,164679,18913.4,1.06928e+06
1.28768,0.0254784,87935.5,280411,74504,912074,157895,11484.3,1.0413e+06
1.28949,0.0255418,77765.6,261501,69568.8,866510,150835,6840.69,990544
1.2913,0.0256053,67594.8,242589,64633.2,820943,143775,2196.61,939779
1.29311,0.0256688,57424.9,223679,59697.9,775379,136715,-2447.01,889018
1.29492,0.0257324,54629.8,207155,57285.4,741329,131461,2290.62,854289
1.29673,0.0257962,63619.6,194443,58903.6,725675,129091,22019.7,845175
1.29854,0.02586,72608.7,181732,60521.9,710022,126721,41747.7,836061
1.30035,0.0259238,81662.7,173387,61589.1,701975,124250,57924.6,833421
1.30216,0.0259877,90922.7,179120,60879.5,718456,121453,62646.9,851655
1.30398,0.0260515,101808,184693,60553.3,735456,118974,69025.2,869085
1.30579,0.0261155,130547,188491,64440.2,758136,119992,93602.9,877654
1.3076,0.0261795,159288,192290,68327.4,780818,121010,118182,886223
1.30941,0.0262434,145213,215017,65560.8,810734,117992,90058.6,912701
1.31122,0.0263074,118540,243314,60836.7,842781,113787,46428.9,944450
1.31303,0.0263713,94620.1,268619,56476.9,870305,110281,8629.3,970617
1.31484,0.0264356,99061.4,263090,55871.7,851203,113990,30923.2,939234
1.31665,0.0264999,103502,257561,55266.6,832102,117699,53215.5,907854
1.31846,0.0265641,107944,252031,54661.4,812999,121408,75509.2,876471
1.32028,0.0266284,113471,245445,53929.9,802013,121984,92988.1,862236
1.32209,0.0266928,123560,226418,52122.2,780089,117630,109868,868863
1.3239,0.0267572,133648,207392,50314.8,758167,113277,126747,875489
1.32571,0.0268217,126376,188811,49645,715790,114862,122865,862587
1.32752,0.0268863,102130,170669,50087.9,653417,122253,98683.9,830592
1.32933,0.026951,88225.2,157891,49466.9,612183,126216,79453.9,812851
1.33114,0.0270156,84964.1,150637,47751,592711,126652,65321.4,809783
1.33295,0.0270803,81702.6,143381,46035,573237,127087,51188.3,806714
1.33476,0.027145,80622.5,152518,41862.6,587031,132990,34949.6,809681
1.33657,0.0272096,80859.9,171559,36206.2,620919,142195,17437.5,816293
1.33839,0.0272743,81097.2,190597,30550.1,654804,151400,-73.3528,822905
1.3402,0.027339,81334.7,209638,24893.7,688692,160606,-17585.5,829518
1.34201,0.0274039,82397.4,220491,16582.9,707306,170739,-26250.8,844331
1.34382,0.0274689,83918.1,226805,6799.33,717453,181387,-30011.2,863693
1.34563,0.0275339,85438.6,233119,-2983.54,727599,192035,-33771.4,883054
1.34744,0.0275992,90576.2,221245,-2240.55,714918,186295,-17666.1,881605
1.34925,0.0276645,97928.4,204800,1567.85,699597,175554,6045.33,876354
1.35106,0.0277298,105281,188354,5376.5,684274,164812,29758.4,871102
1.35287,0.027795,104569,177823,9665.6,650178,153543,37641.4,848244
1.35469,0.0278602,101320,169152,14106.3,610173,142106,40545.4,819844
1.3565,0.0279254,98071.5,160482,18546.6,570171,130670,43450,791448
1.35831,0.0279906,86547.1,153452,20051.6,524356,119121,37502.8,756132
1.36012,0.028056,81371.5,159328,22958.7,546668,125613,33299.4,760158
1.36193,0.0281215,76245.4,165339,25721.4,569153,132061,28963.8,764463
1.36374,0.0281869,72207.6,173659,26598.1,596691,138578,23051.1,774243
1.36555,0.0282523,68169.9,181980,27474.8,624232,145096,17137.7,784025
1.36736,0.0283177,64132.5,190301,28351.5,651770,151613,11224.7,793806
1.36917,0.0283831,60094.5,198622,29228.2,679311,158131,5311.49,803587
1.37099,0.0284486,47596.5,199839,26093.8,683477,164747,2383.82,809265
1.3728,0.0285143,30067.3,170231,23996.2,620015,156089,13752.1,796256
1.37461,0.0285801,40315.1,183619,27346.7,649402,156011,11676.7,806652
1.37642,0.0286459,52493.3,199995,31076.1,685243,156530,8667.21,818676
1.37823,0.0287117,63925.2,214361,35268.1,715133,155766,5647.09,829707
1.38004,0.0287776,71070.6,218988,40266.3,718883,149637,4005.14,835251
1.38185,0.0288434,75098.1,219418,42903.2,716429,142802,5652.57,837135
1.38366,0.0289092,79125.9,219849,45540.2,713975,135967,7300.05,839021
1.38547,0.028975,83153,220278,48177.1,711519,129132,8947.69,840905
1.38728,0.0290409,87180.8,220709,50814.1,709065,122297,10595.2,842790
1.3891,0.0291067,92670.5,221853,53247.5,710104,116662,11129.9,844109
1.39091,0.0291727,102548,225832,53852.3,727189,119857,10248.3,839211
1.39272,0.0292389,107135,227916,53970.8,737207,123952,15321.1,831818
1.39453,0.0293051,101720,211681,48241.5,706307,122703,25834.9,815649
1.39634,0.0293714,83123.4,184433,43823.7,626002,116261,27650.1,809016
1.39815,0.0294376,64525.1,157184,39405.6,545692,109818,29465.1,802385
1.39996,0.0295039,46156.4,130789,35745.1,468117,103251,30715.2,794231
1.40177,0.0295701,29640.5,111311,38231.3,412696,95673.6,27380.5,773713
1.40358,0.0296364,13125.7,91835.1,40717.6,357281,88096.4,24045.6,753197
1.4054,0.0297027,-3390.25,72357.4,43203.8,301861,80518.8,20710.9,732679
1.40721,0.0297691,-4440.25,84509.3,46863.8,326817,78154.1,21172.9,724294
1.40902,0.0298356,-4830.39,98011.5,50573.9,355204,76011.9,21797.4,716426
1.41083,0.029902,1273.02,117926,51108.8,403336,76808.5,28340.4,706411
1.41264,0.0299684,13455.1,143844,48671.9,469955,80356.1,40423.9,694384
1.41445,0.0300349,25636.2,169761,46235.2,536571,83903.4,52506.7,682359
1.41626,0.0301013,37376.5,192857,43800.1,596292,87071.4,63847.9,676375
1.41807,0.0301681,40159.2,197988,35873.3,596761,90918.7,51284.6,695687
1.41988,0.0302348,42794.7,203112,27814.6,596845,94839.1,38261.3,714702
1.4217,0.0303016,45429.8,208235,19756.7,596930,98759.2,25239,733716
1.42351,0.0303683,48065.2,213359,11698.1,597015,102680,12215.7,752731
1.42532,0.0304351,50700.3,218482,3640.12,597100,106600,-806.625,771745
1.42713,0.0305018,53335.8,223606,-4418.49,597184,110520,-13829.9,790760
1.42894,0.0305686,56542.1,227384,-12680,595661,114454,-26923.5,803523
1.43075,0.0306354,60728.3,228855,-21290.9,591382,118413,-40140,805563
1.43256,0.0307024,54966.2,227693,-17114.5,589198,114767,-50228.3,755832
1.43437,0.0307694,47653.2,214544,-12837.7,558846,110128,-53507.8,732337
1.43618,0.0308365,39069.9,200929,-8182.35,526441,104650,-56207.3,704159
1.438,0.0309035,30486.3,187314,-3526.79,494033,99171.8,-58906.9,675980
1.43981,0.0309706,22782.9,173716,1131.9,462972,93638.8,-61357.9,648559
1.44162,0.0310376,16032.7,160135,5794.48,433364,88045.7,-63539.9,621955
1.44343,0.0311046,9283.28,146555,10456.8,403759,82452.8,-65721.6,595353
1.44524,0.0311717,4699.27,137728,13150.5,385399,81397.1,-66306.5,578050
1.44705,0.0312389,9775.55,142196,12336.7,404559,91352.1,-57983.5,586826
1.44886,0.0313062,18866.4,148127,12773.7,432817,101144,-45042.7,598530
1.45067,0.0313734,27957,154058,13211,461074,110936,-32101.9,610233
1.45248,0.0314406,35217,160268,12496,487556,119137,-21947.3,621317
1.45429,0.0315079,38050.4,167149,8996.26,509740,123490,-18528.8,630903
1.45611,0.0315752,41054.1,167736,4938.58,518669,124827,-15083.1,634676
1.45792,0.0316427,44495.4,144213,1291.2,472903,118216,-10067.9,629117
1.45973,0.0317103,45224.8,131900,825.955,448246,113397,-5314.98,614407
1.46154,0.0317778,44083.3,127320,2555.98,438151,109815,-742.397,593381
1.46335,0.0318454,42941.9,122739,4285.8,428054,106232,3830.21,572357
1.46516,0.031913,41800.4,118159,6015.82,417959,102650,8402.8,551332
1.46697,0.0319805,40659.1,113578,7745.64,407862,99067.1,12975.4,530307
1.46878,0.0320481,39517.5,108998,9475.66,397767,95484.7,17548,509282
1.47059,0.0321157,38376.2,104418,11205.5,387670,91902.1,22120.6,488258
1.47241,0.0321832,37062.2,99946.5,13496.3,376654,88213.7,25872.7,466032
1.47422,0.0322508,34491.7,96271.2,19874.7,358931,83752.9,23644,435054
1.47603,0.0323184,33460.9,99095.9,24587.9,360686,83337.9,22722.4,411729
1.47784,0.0323863,30640.3,106503,23506.6,367596,86792.9,23593.8,423405
1.47965,0.0324542,25445.9,113147,22377.7,376214,89772.5,22785.7,439610
1.48146,0.032522,22885.6,111990,20964.2,366252,89970.9,24129.6,454189
1.48327,0.0325899,21567.2,107153,19416.4,347530,88858,26488.4,468001
1.48508,0.0326577,20248.7,102317,17868.7,328809,87745,28847,481813
1.48689,0.0327255,18930.3,97480.6,16320.9,310087,86632.1,31205.8,495625
1.48871,0.0327933,17611.8,92644.2,14773.2,291366,85519.1,33564.4,509437
1.49052,0.0328612,18551.2,88335,11882.9,275688,86537.2,34913.1,521770
1.49233,0.0329292,26785.7,85728.8,4655.04,269847,94440.4,32997.7,529323
1.49414,0.0329972,34894.5,83807.7,-2386.35,264752,102484,31006,536633
1.49595,0.0330653,36226.3,89900,-4054.8,286357,104212,30336.1,528033
1.49776,0.0331334,36613.3,95783.4,-4993.69,309350,104624,29827,515963
1.49957,0.0332015,37000.3,101666,-5932.5,332341,105035,29318,503894
1.50138,0.0332696,37387.4,107550,-6871.39,355334,105447,28808.9,491824
1.50319,0.0333377,37774.4,113432,-7810.2,378325,105858,28299.9,479754
1.50501,0.0334058,38161.5,119316,-8749.09,401318,106269,27790.9,467684
1.50682,0.0334741,43323.4,117915,-10285.8,399935,102181,30184.1,460691
1.50863,0.0335423,38031,111950,-7268.72,381952,98213.3,26659,446935
1.51044,0.0336106,26891.1,105614,-1327.52,360342,95490.6,19987.2,431798
1.51225,0.0336789,22438.5,104698,3284.71,351886,94328.3,16941.7,428852
1.51406,0.0337473,17986.2,103782,7896.5,343430,93166.1,13896.3,425907
1.51587,0.0338156,13533.6,102866,12508.7,334974,92003.8,10850.8,422962
1.51768,0.0338839,9081.26,101950,17120.5,326519,90841.6,7805.39,420016
1.51949,0.0339522,4628.65,101034,21732.8,318063,89679.3,4759.86,417071
1.5213,0.0340205,2619.4,102802,26567.2,322115,93477.5,1838.61,421291
1.52312,0.0340889,2327.51,106456,31558.7,334961,100763,-995.495,430548
1.52493,0.0341573,10013.4,108776,34070.3,344623,101642,4467.61,431756
1.52674,0.0342259,23291.5,110161,34844.1,352053,98031.3,15746.6,427323
1.52855,0.0342944,37241.2,111335,35373.2,358540,93509,28100.9,421845
1.53036,0.034363,40426.9,113074,38802.4,360917,93004.8,33950.6,422656
1.53217,0.0344315,44332.4,110454,38309.3,354457,91785.4,39462.3,423837
1.53398,0.0345001,48770.3,108171,36099.1,349576,90782.3,44043.7,423645
1.53579,0.0345688,55801.3,110138,29741.7,355297,94252.9,45522,404410
1.5376,0.0346375,57406.2,100969,24115.7,331815,95233.1,47608.8,386595
1.53942,0.0347062,51889.2,92135.6,23113.5,306351,92010,47285.1,381242
1.54123,0.0347749,44374,85316.4,22841.2,282888,87439.7,44906,378017
1.54304,0.0348436,36859.2,78497.6,22568.9,259426,82869.7,42527.1,374791
1.54485,0.0349124,29344.1,71678.2,22296.5,235962,78299.5,40148.2,371565
1.54666,0.0349811,21829.4,64859.4,22024.2,212500,73729.6,37769.3,368340
1.54847,0.0350498,14314.3,58040,21751.8,189036,69159.4,35390.4,365114
1.55028,0.0351186,15397,55688.3,25015.6,194107,67140.4,35356.5,370565
1.55209,0.0351874,19033.5,54663,29329.8,207652,65878.9,36019.2,378594
1.5539,0.0352562,21022.2,55245.2,32954.3,220402,67255.5,36370.2,382240
1.55572,0.035325,17225,62365.3,34345.3,226795,70793.3,32178.7,371656
1.55753,0.0353938,13300.7,69629.1,35687.4,233045,74375,27885.8,360761
1.55934,0.0354626,9376.17,76893.5,37029.5,239295,77956.9,23592.7,349865
1.56115,0.0355314,5451.96,84157.3,38371.4,245545,81538.5,19299.8,338969
1.56296,0.0356003,1936.58,89417.8,39206.5,249293,83955.2,16065.4,332299
1.56477,0.0356694,-974.989,89627,38263.8,247431,83068.9,15331.8,332873
1.56658,0.0357385,-3886.81,89836.3,37321.1,245570,82182.6,14598.2,333448
1.56839,0.0358075,-6798.38,90045.5,36378.4,243708,81296.3,13864.7,334022
1.5702,0.0358766,-9710.2,90254.8,35435.7,241847,80409.9,13131.1,334596
1.57201,0.0359457,-12621.8,90464,34493.1,239985,79523.6,12397.5,335171
1.57383,0.0360148,-15533.6,90673.3,33550.4,238124,78637.3,11663.9,335745
1.57564,0.0360838,-18445.2,90882.5,32607.8,236262,77751,10930.4,336319
1.57745,0.0361529,-21357,91091.8,31665,234400,76864.6,10196.8,336893
1.57926,0.036222,-24268.6,91301,30722.4,232539,75978.4,9463.25,337468
1.58107,0.0362911,-27180.4,91510.3,29779.6,230677,75092,8729.66,338042
1.58288,0.0363601,-25180.9,90974.8,27846.4,229172,74260.1,9918.55,328807
1.58469,0.0364291,-22681.5,87723.3,25330.4,222161,72576.1,12004.9,327212
1.5865,0.0364983,-23108.1,86597.9,25317.1,217127,72369.4,11851.6,318811
1.58831,0.0365675,-22437.7,86121.3,23806.2,214318,70229.9,14580.1,301658
1.59013,0.0366368,-18537,83179,22920.1,209353,67300.6,17090.1,287856
1.59194,0.036706,-11884.8,78395.7,22478.8,202506,63842.6,19800.4,276662
1.59375,0.0367753,-5232.86,73612.7,22037.5,195660,60384.6,22510.5,265469
1.59556,0.0368445,1419.41,68829.4,21596.2,188814,56926.6,25220.8,254274
1.59737,0.0369138,8071.3,64046.4,21154.9,181967,53468.6,27930.8,243081
1.59918,0.0369831,7130.27,60015.8,20599.3,172047,52687.5,30062.7,230367
1.60099,0.0370524,5057.52,59659.8,19347.1,171514,52656.1,28134.2,229065
1.6028,0.0371218,4549.79,62089.2,17557.7,179743,52362.8,23044.6,237681
1.60461,0.0371911,4042.09,64518.4,15768.4,187970,52069.4,17955.3,246297
1.60643,0.0372605,3534.33,66947.6,13978.9,196199,51776,12865.7,254914
1.60824,0.0373298,3026.63,69376.8,12189.6,204427,51482.6,7776.39,263529
1.61005,0.0373992,3040.24,72566.8,12402.8,211804,52439.8,3590.4,269203
1.61186,0.0374686,4084.91,71511.3,13924.4,207962,54522,1064.29,291422
1.61367,0.0375381,1119.12,67509.9,11272.9,196099,55227.7,-1011.6,272583
1.61548,0.0376075,-26.7001,59309.8,8623.31,175497,55106.8,-1002.13,268474
1.61729,0.037677,1667.94,51558.2,7826.29,164877,54642.5,1390.85,274581
1.6191,0.0377465,1764.14,44782.1,7490.96,151367,54447.2,2301.51,272765
1.62091,0.0378159,1428.36,38263.7,7273.31,137144,54321.9,2835.86,269008
1.62273,0.0378854,-7615.7,36153.8,8541.53,116958,55270.9,-1171.37,251156
1.62454,0.0379549,-16659.1,34044.2,9809.72,96774.4,56219.8,-5178.37,233305
1.62635,0.0380244,-18144.9,37941.5,11016.3,100062,56701.1,-4939.4,227567
1.62816,0.038094,-16997.8,43931.3,12201.4,111527,57019.5,-3221.36,226049
1.62997,0.0381636,-15850.6,49921.2,13386.5,122992,57338,-1503.2,224531
1.63178,0.0382331,-14703.4,55911,14571.6,134457,57656.4,214.838,223014
1.63359,0.0383027,-13556.2,61900.9,15756.7,145922,57974.8,1933.01,221496
1.6354,0.0383722,-10520.5,64037.7,16282.3,154750,56344.1,3992.84,223851
1.63721,0.0384418,-7106.12,63158.3,16763,156915,54167,6651.59,224717
1.63902,0.0385113,-2359.3,61571.3,14907.8,157468,57302.4,10325.1,223958
1.64084,0.038581,-350.955,60886.7,13173.7,157854,59631.2,12015.2,221837
1.64265,0.0386506,-2444.38,60981.5,12146.8,155621,60127.3,11023.8,216559
1.64446,0.0387202,-4796.45,59031.1,12712.3,143305,59459.8,10941.8,205725
1.64627,0.0387899,-1678.93,53648.9,12550.6,134094,57776.6,13516.6,205833
1.64808,0.0388596,1461.69,48252.2,12385.7,124896,56089.1,16102.6,205987
1.64989,0.0389293,4602.15,42855.6,12220.9,115698,54401.6,18688.5,206142
1.6517,0.038999,7742.77,37458.9,12056.1,106499,52714.1,21274.4,206296
1.65351,0.0390687,9864.25,31600.6,10259.2,95027.2,48735.1,21234.6,200343
1.65532,0.0391385,11717.3,26859.3,8622.65,85563.9,45026.8,21362.8,192645
1.65714,0.0392082,13200.2,25798.9,8227.48,83378.5,43203.9,23208.3,182313
1.65895,0.0392779,14683.2,24738.3,7832.27,81192.5,41380.8,25053.9,171981
1.66076,0.0393476,14935.5,25276.1,7575.01,82111.5,40208.5,25956.9,161173
1.66257,0.0394174,13303,28261.5,7528.98,87784.7,40032.3,25416.7,149636
1.66438,0.0394871,11670.7,31246.7,7482.94,93457.6,39856.2,24876.5,138100
1.66619,0.0395569,10038.2,34232.2,7436.9,99130.8,39680.1,24336.2,126563
1.668,0.0396267,8263.9,32322.3,5828.68,91941.8,39595,23655,133752
1.66981,0.0396965,6526.54,29591.5,3899.47,82863.9,39579.5,22906.1,143750
1.67162,0.0397664,4678.06,26706.9,2309.4,73288.4,39479.9,22161.2,151858
1.67344,0.0398362,2134.52,22857.9,2840.08,60595.2,38855.2,21442,148154
1.67525,0.039906,-408.932,19009.2,3370.61,47903.1,38230.5,20722.7,144452
1.67706,0.0399758,-2952.47,15160.2,3901.29,35209.9,37605.7,20003.4,140748
1.67887,0.0400456,-3976.86,12392.2,4933.2,25338,36514.8,19048.9,127943
1.68068,0.0401155,-4687.61,14322.8,5132.85,28907.2,36921.3,17347.3,123007
1.68249,0.0401853,-5482.06,16530.1,5157.11,32827.1,37031,15764.5,119542
1.6843,0.0402552,-6276.57,18737.6,5181.39,36747.4,37140.7,14181.6,116077
1.68611,0.040325,-7071.03,20945,5205.67,40667.3,37250.4,12598.9,112611
1.68792,0.0403949,-7865.54,23152.4,5229.93,44587.5,37360.1,11016,109146
1.68973,0.0404647,-8660,25359.8,5254.2,48507.4,37469.8,9433.21,105680
1.69155,0.0405346,-9454.5,27567.3,5278.46,52427.6,37579.5,7850.3,102215
1.69336,0.0406045,-7494.92,29530.6,4626.57,56399,36870.9,8150.91,106050
1.69517,0.0406744,-3385.05,28508.3,3024.76,55079.8,34990,8267.21,109009
1.69698,0.0407444,724.496,27486.1,1423.09,53760.9,33109.3,8383.55,111967
1.69879,0.0408143,3932.71,26278.6,326.752,51978,31319.2,8428.77,113423
1.7006,0.0408842,4376.11,24503.6,780.338,48773.1,29807.4,8256.07,110272
1.70241,0.0409541,4819.57,22728.4,1233.94,45568.1,28295.6,8083.37,107120
1.70422,0.0410241,5262.87,20953.3,1687.58,42363,26783.8,7910.61,103968
1.70603,0.041094,5810.94,20368.2,1859.92,41628.8,25523.1,7881.41,103446
1.70785,0.0411639,4523.46,19633.2,2120.7,41255.1,24827.3,6364.32,99113.5
1.70966,0.0412338,3144.33,18869,2390.95,40853.9,24154.4,4771.78,94545.9
1.71147,0.0413038,-1082.03,21085,3847.73,43882.1,24126.1,4544.31,89367.7
1.71328,0.0413737,-5797.64,23813.1,5508.4,47499.6,24208.4,4551.34,84084.5
1.71509,0.0414436,-5630.9,23458.5,6912.91,46291.1,26400.8,7482.33,83890.9
1.7169,0.0415136,152.409,18855.4,6771.17,40053.3,27753.8,11750.8,104218
1.71871,0.0415836,5935.35,14252.5,6629.44,33815.8,29106.6,16019,124543
1.72052,0.0416536,4660.79,15250.9,7230.64,34735.9,28571.3,16899.1,121671
1.72233,0.0417236,1755.3,17543.8,8003.47,37310,27599.7,16996.2,113439
1.72415,0.0417936,-1150.32,19836.7,8776.36,39884.3,26628,17093.3,105206
1.72596,0.0418636,-4055.8,22129.6,9549.19,42458.5,25656.4,17190.4,96974
1.72777,0.0419336,-6961.43,24422.5,10322.1,45032.7,24684.7,17287.5,88741.3
1.72958,0.0420036,-8847.93,25594.1,10604.8,45018.7,23633.4,17082.6,81742.9
1.73139,0.0420736,-7928.12,23839.5,9252.27,37281.8,22378,16327.9,82147.4
1.7332,0.0421436,-7217.94,22087,8137.09,30248.1,21241,15574,82159.6
1.73501,0.0422136,-8471.31,20785.5,9156.91,30771.7,21429.4,14978.5,78411.8
1.73682,0.0422836,-8712.39,21320.1,8655.17,32048,21972.1,15022.5,76200.8
1.73863,0.0423536,-8953.46,21854.6,8153.36,33324.2,22514.8,15066.3,73989.7
1.74045,0.0424236,-9194.54,22389.2,7651.62,34600.5,23057.5,15110.3,71778.7
1.74226,0.0424936,-8505.23,21794.9,7068.55,34438.7,23210.4,14870.8,71100.8
1.74407,0.0425637,-6590.26,19624.1,6320.74,31427.6,22676.5,13994.9,72820.8
1.74588,0.0426337,-4484.56,17573.9,5277.62,28325.1,22292.9,13465.8,71925.9
1.74769,0.0427038,-3874.93,17486.7,3919.95,27365.7,22294,13328.8,66737.8
1.7495,0.0427738,-4727.19,18483.4,3009.27,28091.4,22222.4,12682,64469
1.75131,0.0428439,-4538.75,17883.7,2202.77,27329.1,21669.7,12233.2,62909.4
1.75312,0.042914,-3795.73,16433.4,1451.72,25773.9,20860.6,11889.9,61727.5
1.75493,0.042984,-2924.31,15893.6,1157.15,25244.4,19715.9,12203.7,60071.8
1.75674,0.0430541,-2042.32,15428,899.775,24798.3,18543.9,12571.1,58377.3
1.75856,0.0431241,-1160.41,14962.4,642.437,24352.4,17371.8,12938.5,56682.9
1.76037,0.0431942,-278.43,14496.8,385.059,23906.3,16199.8,13305.9,54988.4
1.76218,0.0432642,603.478,14031.3,127.721,23460.4,15027.8,13673.3,53294.1
1.76399,0.0433343,1485.44,13565.7,-129.628,23014.4,13855.7,14040.8,51599.5
1.7658,0.0434043,1683.95,13546.1,-146.52,23074.1,12547.5,14037.7,50380.7
1.76761,0.0434744,952.684,14133.4,163.781,23821.9,11053.9,13530.5,49808.6
1.76942,0.0435444,1044.49,14016.5,1016.3,21223.3,10602.9,13966.2,46724.1
1.77123,0.0436145,1538.68,14650.7,1965.67,21115.1,10050.8,14161.3,43223.7
1.77304,0.0436846,2186.31,15802,2916.45,22825.7,9331.63,14116.8,39736.3
1.77486,0.0437547,4564.11,14035.6,4042.28,18666.2,8587.55,14275.9,50672.8
1.77667,0.0438247,7005.7,11809.6,5152.56,13929.7,7906.53,14147.1,62528.4
1.77848,0.0438948,8528.81,9848.69,6089.96,10995.6,7471.81,12831.9,68137.3
1.78029,0.0439649,11143.7,9257,6446.32,9543.71,8420.92,13941.5,66233.7
1.7821,0.0440349,13137.7,8793.2,6709.8,9199.27,9485.36,14218.4,60564.3
1.78391,0.044105,14239.8,8498.06,6873.12,9446.12,10098,13601.3,55087.6
1.78572,0.0441751,14590.6,8370.28,6954.44,9722.78,10030,12414.9,52502.8
1.78753,0.0442452,14941.5,8242.46,7035.79,9999.44,9962.03,11228.4,49918.1
1.78934,0.0443153,15292.3,8114.68,7117.11,10276.1,9894.06,10042,47333.3
1.79116,0.0443854,15520,8035.48,7170.55,10590.8,9832.15,8757.82,44259.4
1.79297,0.0444554,16525,7311.44,7497.55,9992.08,8351.19,8715.12,42274
1.79478,0.0445255,17485.2,6858.37,8005.42,9514.11,6811.79,8876.64,40668.8
1.79659,0.0445956,18323,7679.95,9377.41,9817.33,5404.02,9900.24,41609.6
1.7984,0.0446657,19375.5,7881.08,10575.7,10312.7,4570.07,10565.4,43174.6
1.80021,0.0447358,20429.9,8076.48,11772.3,10809.8,3741.48,11227.3,44745.3
1.80202,0.0448059,21484.4,8271.88,12968.9,11306.9,2912.84,11889.2,46316.2
1.80383,0.0448759,22538.8,8467.27,14165.5,11804,2084.25,12551,47886.8
1.80564,0.044946,23612.1,7877.57,15171.9,11661.1,1693.12,12616.7,48237.3
1.80745,0.0450161,24700.6,6647.86,16023,10996.6,1658.69,12196.4,47592.8
1.80927,0.0450862,25761,5609.3,16887.2,10589.8,1630.02,11894.5,47206
1.81108,0.0451563,26555.3,5311.74,17913.7,11024.1,1546,11948.8,47849.8
