"arc_length","Displacement_Magnitude","Sxx","Sxy","Sxz","Syy","Syz","Szz","Von_Mises_Stress"
0,0,2.12719e+06,-39263.6,2400.63,4.43969e+06,490006,1.84409e+06,2.62288e+06
0.00181107,5.37555e-07,2.05021e+06,-57036.5,3579.84,4.31307e+06,445062,1.74654e+06,2.57085e+06
0.00362215,1.07511e-06,1.97323e+06,-74808.6,4759.7,4.18645e+06,400118,1.64899e+06,2.51883e+06
0.00543323,1.61266e-06,1.89626e+06,-92581.5,5938.9,4.05983e+06,355174,1.55144e+06,2.4668e+06
0.00724431,2.25199e-06,1.82093e+06,-107295,7967.69,3.93879e+06,312142,1.45464e+06,2.42003e+06
0.00905538,3.48795e-06,1.7548e+06,-104914,14740.2,3.84892e+06,279795,1.36198e+06,2.40267e+06
0.0108665,4.74506e-06,1.68867e+06,-102533,21512.7,3.75905e+06,247448,1.26932e+06,2.38531e+06
0.0126775,6.01002e-06,1.62254e+06,-100153,28285.4,3.66918e+06,215101,1.17667e+06,2.36794e+06
0.0144886,7.27881e-06,1.55641e+06,-97772,35057.9,3.57932e+06,182754,1.08401e+06,2.35058e+06
0.0162997,8.54964e-06,1.49027e+06,-95391.7,41830.7,3.48945e+06,150407,991359,2.33321e+06
0.0181108,9.8218e-06,1.42414e+06,-93010.9,48603.2,3.39958e+06,118060,898703,2.31585e+06
0.0199218,1.09081e-05,1.35717e+06,-93360,56848.2,3.30007e+06,86023.4,813585,2.3059e+06
0.0217329,1.2755e-05,1.29866e+06,-81536.2,78281.8,3.21021e+06,64376.2,742227,2.26431e+06
0.023544,1.52205e-05,1.2207e+06,-57896.2,107964,3.08233e+06,39184.8,647243,2.22844e+06
0.0253551,1.76886e-05,1.14274e+06,-34256.9,137646,2.95446e+06,13994.8,552263,2.19257e+06
0.0271662,1.9822e-05,1.087e+06,-18795.8,160541,2.85698e+06,956.532,483717,2.16625e+06
0.0289772,2.15267e-05,1.0623e+06,-14766.2,173950,2.80201e+06,4904.22,452121,2.15328e+06
0.0307883,2.32797e-05,1.0376e+06,-10736.5,187360,2.74703e+06,8851.99,420525,2.14032e+06
0.0325994,2.50708e-05,1.0129e+06,-6706.87,200769,2.69205e+06,12799.7,388929,2.12735e+06
0.0344105,2.68924e-05,988201,-2677.22,214179,2.63708e+06,16747.4,357333,2.11438e+06
0.0362215,2.87387e-05,963503,1352.43,227588,2.5821e+06,20695.1,325737,2.10141e+06
0.0380326,3.06053e-05,938804,5382.08,240998,2.52712e+06,24642.9,294141,2.08845e+06
0.0398437,3.24886e-05,914105,9411.74,254407,2.47215e+06,28590.6,262545,2.07548e+06
0.0416548,3.4409e-05,890322,13225.9,267516,2.42049e+06,33119.6,230591,2.06531e+06
0.0434658,3.73088e-05,904483,8111.03,268167,2.50655e+06,61731.3,183785,2.17118e+06
0.0452769,4.03033e-05,881571,15037.8,261149,2.42771e+06,54296.8,200254,2.10329e+06
0.047088,4.34136e-05,859808,24718.1,253986,2.34018e+06,44427.4,224171,2.02328e+06
0.0488991,4.69203e-05,889094,36391.4,255094,2.3977e+06,63089,216861,2.07844e+06
0.0507102,5.04276e-05,918376,48064.1,256203,2.45522e+06,81749.6,209551,2.13359e+06
0.0525212,5.39355e-05,947662,59737.4,257311,2.51274e+06,100411,202240,2.18875e+06
0.0543323,5.74439e-05,976945,71410.1,258420,2.57025e+06,119072,194930,2.2439e+06
0.0561434,6.07433e-05,990594,69387.8,250057,2.58445e+06,124754,189843,2.26382e+06
0.0579545,6.3717e-05,979039,45292.3,226429,2.52881e+06,109517,188341,2.22693e+06
0.0597655,6.67055e-05,967483,21196.9,202801,2.47318e+06,94280.3,186839,2.19004e+06
0.0615766,6.97069e-05,955928,-2900.64,179172,2.41755e+06,79042,185336,2.15315e+06
0.0633877,7.33761e-05,946975,26922.3,171654,2.46325e+06,101563,164916,2.21479e+06
0.0651988,7.71616e-05,938475,66167.7,166951,2.52666e+06,130683,141190,2.29366e+06
0.0670099,8.10371e-05,930683,94074.7,164381,2.58916e+06,155792,118729,2.36665e+06
0.0688209,8.52112e-05,925177,85326.2,168701,2.64875e+06,167933,100358,2.42067e+06
0.070632,8.93991e-05,919670,76577.7,173022,2.70834e+06,180075,81986.5,2.47469e+06
0.0724431,9.35989e-05,914164,67829.3,177341,2.76793e+06,192216,63614.6,2.52871e+06
0.0742542,9.78092e-05,908657,59080.8,181662,2.82752e+06,204358,45243.6,2.58272e+06
0.0760652,0.000102029,903151,50332.2,185983,2.88711e+06,216499,26872.5,2.63674e+06
0.0778763,0.000106254,897807,41397.9,189831,2.94866e+06,228954,7409.1,2.69327e+06
0.0796874,0.000110484,895199,28054.4,183819,3.04517e+06,246321,-31746.7,2.79553e+06
0.0814985,0.000115218,886590,1224.71,164671,3.09854e+06,246413,-51504.2,2.8583e+06
0.0833095,0.000119953,877980,-25605.9,145523,3.15191e+06,246505,-71262.5,2.92108e+06
0.0851206,0.000125078,852863,-25333.9,136852,3.09604e+06,243988,-71519.3,2.87569e+06
0.0869317,0.00013066,807042,-19152.5,133859,3.03256e+06,259591,-98580.4,2.84737e+06
0.0887428,0.000136253,770571,-13747,131531,2.98904e+06,273872,-121228,2.83157e+06
0.0905539,0.000141857,772695,-17573.7,139266,3.00783e+06,272276,-122200,2.84695e+06
0.0923649,0.00014742,758876,-24841.7,151651,2.97669e+06,264702,-127964,2.82482e+06
0.094176,0.000152994,745055,-32110.1,164036,2.94555e+06,257127,-133730,2.80268e+06
0.0959871,0.000158626,737549,-38782.6,173157,2.93536e+06,254060,-127530,2.79514e+06
0.0977982,0.000164276,731569,-45311.6,181491,2.93023e+06,252081,-118436,2.79113e+06
0.0996092,0.000169932,725590,-51840.2,189824,2.9251e+06,250103,-109343,2.78712e+06
0.10142,0.000175594,719610,-58369.2,198157,2.91997e+06,248124,-100250,2.78311e+06
0.103231,0.000181541,733840,-53509.2,198408,2.94454e+06,246201,-68935.2,2.7825e+06
0.105042,0.000187648,759625,-42137.1,194037,2.98608e+06,244309,-24912.5,2.78383e+06
0.106854,0.000193755,785411,-30764.9,189666,3.02762e+06,242418,19109.5,2.78517e+06
0.108665,0.000200134,744239,-24705.6,182752,2.87548e+06,233273,46408,2.8674e+06
0.110476,0.000206659,668637,-21378.4,174530,2.62374e+06,220399,65107.3,2.99124e+06
0.112287,0.000213493,655916,-12936.3,171766,2.57685e+06,207665,67190.1,3.03965e+06
0.114098,0.000220522,683290,-1232.75,172482,2.66056e+06,195021,58677.9,3.03995e+06
0.115909,0.000227554,710666,10471.1,173199,2.74429e+06,182377,50164.8,3.04025e+06
0.11772,0.000234588,738039,22174.7,173915,2.82801e+06,169733,41652.5,3.04055e+06
0.119531,0.000241626,765416,33878.5,174631,2.91174e+06,157089,33139.5,3.04085e+06
0.121342,0.000248665,792792,45582.3,175347,2.99546e+06,144445,24626.4,3.04116e+06
0.123153,0.000255707,820166,57285.9,176063,3.07918e+06,131801,16114.1,3.04146e+06
0.124964,0.000262751,847542,68989.7,176780,3.16291e+06,119157,7601.03,3.04176e+06
0.126775,0.000269796,874916,80693.3,177496,3.24662e+06,106513,-911.233,3.04206e+06
0.128586,0.000276843,902292,92397.1,178212,3.33035e+06,93868.8,-9424.32,3.04236e+06
0.130398,0.000284057,940082,103353,175343,3.42971e+06,83721.8,-10824.2,3.10239e+06
0.132209,0.000291627,1.01992e+06,114427,163024,3.62308e+06,79350,-2834.76,3.26182e+06
0.13402,0.000299391,974147,115548,160359,3.50302e+06,78531.5,-5983.83,3.16014e+06
0.135831,0.000307254,873721,110522,161027,3.24777e+06,80916.1,-12260.7,2.94856e+06
0.137642,0.000315536,833115,94389.1,154472,3.07425e+06,88866.6,16141.1,2.82984e+06
0.139453,0.000323822,792507,78255.9,147916,2.90074e+06,96817.4,44542.4,2.71112e+06
0.141264,0.000332113,751901,62122.8,141361,2.72722e+06,104768,72944.2,2.5924e+06
0.143075,0.000340408,711294,45989.7,134805,2.55371e+06,112719,101345,2.47368e+06
0.144886,0.000348706,670688,29856.7,128250,2.3802e+06,120669,129747,2.35495e+06
0.146697,0.000357008,630081,13723.4,121694,2.20668e+06,128620,158148,2.23623e+06
0.148508,0.000365313,589475,-2409.63,115139,2.03317e+06,136571,186550,2.11751e+06
0.150319,0.00037362,548867,-18542.9,108583,1.85965e+06,144521,214951,1.99879e+06
0.15213,0.000382352,497624,-34027.1,96297.4,1.77001e+06,144714,218807,1.92443e+06
0.153942,0.00039153,503617,-26178.1,110117,1.83248e+06,138539,213420,1.93869e+06
0.155753,0.000400722,511217,-17683.9,124671,1.89899e+06,132203,207828,1.95532e+06
0.157564,0.000409918,518817,-9190,139225,1.9655e+06,125868,202235,1.97194e+06
0.159375,0.000419118,526416,-695.782,153779,2.03201e+06,119532,196643,1.98857e+06
0.161186,0.00042832,534016,7798.1,168333,2.09852e+06,113196,191051,2.00519e+06
0.162997,0.000437526,541616,16292.3,182887,2.16503e+06,106861,185458,2.02182e+06
0.164808,0.000446734,549216,24786.2,197441,2.23154e+06,100525,179866,2.03845e+06
0.166619,0.000455944,556816,33280.4,211995,2.29805e+06,94189.9,174273,2.05507e+06
0.16843,0.000465308,564929,41331.2,231119,2.36712e+06,96184.9,189460,2.0864e+06
0.170241,0.000474852,573657,48851.6,255713,2.43927e+06,108152,229517,2.13532e+06
0.172052,0.000484396,582385,56372.3,280308,2.51141e+06,120119,269576,2.18424e+06
0.173863,0.000494694,580548,63186.4,275295,2.54815e+06,119779,248474,2.23372e+06
0.175674,0.000505201,578446,68759,263738,2.56139e+06,120738,207456,2.27155e+06
0.177486,0.000515708,575585,74215.3,251372,2.57479e+06,121957,168767,2.30807e+06
0.179297,0.000526207,566224,78679.3,232089,2.58969e+06,125402,150014,2.33339e+06
0.181108,0.000536708,556863,83143,212807,2.60459e+06,128846,131260,2.35872e+06
0.182919,0.00054721,547503,87607,193524,2.61949e+06,132291,112506,2.38404e+06
0.18473,0.000557715,538141,92070.7,174242,2.63439e+06,135735,93752.8,2.40936e+06
0.186541,0.000568221,528780,96534.4,154959,2.64929e+06,139178,74999.1,2.43469e+06
0.188352,0.000578729,519420,100998,135676,2.66419e+06,142623,56245.4,2.46001e+06
0.190163,0.000589239,510058,105462,116393,2.67909e+06,146067,37491.7,2.48534e+06
0.191974,0.000599765,506142,110214,98533.7,2.69806e+06,153240,23039.2,2.51089e+06
0.193785,0.000610299,504814,115103,81349.6,2.71896e+06,162184,10631.2,2.53654e+06
0.195596,0.000621161,487273,124621,66151.6,2.6875e+06,162916,11226.5,2.51201e+06
0.197407,0.00063216,462961,136073,51782.6,2.63416e+06,160217,17254.7,2.46651e+06
0.199218,0.00064354,444678,139252,46259.2,2.57469e+06,158881,17515.6,2.4241e+06
0.20103,0.000655299,434501,140450,50201.8,2.5061e+06,157964,10899.1,2.37837e+06
0.202841,0.000667209,433465,157909,59912,2.42543e+06,154666,-1708.18,2.31383e+06
0.204652,0.000679119,432430,175370,69622.9,2.34476e+06,151369,-14317.1,2.24929e+06
0.206463,0.000690961,431901,171643,72333.5,2.27721e+06,152019,-13060,2.19477e+06
0.208274,0.000702785,431521,161735,73001.9,2.21349e+06,153822,-7758.24,2.14317e+06
0.210085,0.00071461,431141,151828,73670.6,2.14977e+06,155624,-2456.55,2.09157e+06
0.211896,0.000726437,430761,141921,74339,2.08605e+06,157427,2845.23,2.03998e+06
0.213707,0.000738266,430381,132014,75007.6,2.02232e+06,159229,8146.92,1.98838e+06
0.215518,0.000750096,430001,122106,75676.1,1.9586e+06,161032,13448.7,1.93678e+06
0.217329,0.000762437,425522,148712,61017.9,1.95349e+06,162330,33746.6,1.93036e+06
0.21914,0.000774786,420983,175850,46135.9,1.94923e+06,163620,54263.5,1.92461e+06
0.220951,0.000787154,417593,197887,33613.6,1.94457e+06,162791,75588.8,1.91458e+06
0.222762,0.00079962,420212,193233,33439.2,1.93785e+06,150871,101141,1.88221e+06
0.224574,0.000812088,422832,188580,33264.1,1.93113e+06,138953,126693,1.84984e+06
0.226385,0.000824559,425451,183926,33089.8,1.92441e+06,127033,152245,1.81747e+06
0.228196,0.000837032,428071,179273,32914.7,1.91768e+06,115114,177797,1.7851e+06
0.230007,0.000849507,430690,174619,32740.3,1.91096e+06,103194,203349,1.75273e+06
0.231818,0.000861983,433310,169966,32565.2,1.90424e+06,91275.3,228901,1.72036e+06
0.233629,0.000874462,435929,165312,32390.8,1.89751e+06,79355.5,254453,1.68798e+06
0.23544,0.000887152,436143,155051,20658.9,1.91003e+06,92925.8,248004,1.69967e+06
0.237251,0.000899888,435838,143581,6432.33,1.92669e+06,111997,234650,1.72086e+06
0.239062,0.000912624,435532,132110,-7793.74,1.94335e+06,131068,221295,1.74205e+06
0.240873,0.000925361,435227,120639,-22020.3,1.96001e+06,150140,207941,1.76324e+06
0.242684,0.0009388,419186,115516,-5976.9,1.93821e+06,163733,210654,1.74723e+06
0.244495,0.000952446,406910,108324,16267.9,1.92277e+06,181962,229846,1.72726e+06
0.246306,0.000966091,394634,101131,38512.8,1.90732e+06,200191,249039,1.70729e+06
0.248118,0.000979737,382357,93938.5,60757.6,1.89188e+06,218419,268231,1.68732e+06
0.249929,0.000993597,372448,97393.4,73291.8,1.89174e+06,222060,254771,1.6993e+06
0.25174,0.00100757,363821,106623,80559.3,1.89991e+06,217788,223601,1.72861e+06
0.253551,0.00102155,355195,115854,87826.5,1.90807e+06,213516,192431,1.75792e+06
0.255362,0.00103553,346569,125083,95094,1.91623e+06,209244,161262,1.78722e+06
0.257173,0.00104951,337943,134314,102361,1.9244e+06,204971,130092,1.81653e+06
0.258984,0.0010635,329316,143544,109629,1.93256e+06,200700,98922.1,1.84584e+06
0.260795,0.00107748,320690,152775,116896,1.94072e+06,196427,67751.9,1.87515e+06
0.262606,0.00109147,312064,162004,124163,1.94889e+06,192156,36582.5,1.90446e+06
0.264417,0.00110546,303437,171235,131431,1.95705e+06,187883,5412.36,1.93376e+06
0.266228,0.00111997,361160,191644,134581,2.06129e+06,179852,10124.5,2.01789e+06
0.268039,0.00113464,438795,215409,136496,2.19435e+06,170692,25605.2,2.11846e+06
0.26985,0.00114931,516318,239292,138487,2.32753e+06,161511,40974.1,2.21928e+06
0.271662,0.0011642,572205,285469,154823,2.48111e+06,148524,34996.4,2.36755e+06
0.273473,0.00117906,593073,315551,169012,2.5594e+06,137593,22692.4,2.4534e+06
0.275284,0.00119381,516854,301008,177250,2.42894e+06,132366,-7152.9,2.36624e+06
0.277095,0.00120856,440634,286465,185487,2.29848e+06,127138,-36998,2.27908e+06
0.278906,0.00122327,384581,276198,178913,2.20307e+06,117721,-49006,2.20443e+06
0.280717,0.00123794,347430,269940,158455,2.14052e+06,104375,-44293.8,2.14152e+06
0.282528,0.00125304,355390,274594,159886,2.16945e+06,102377,-25822.8,2.15698e+06
0.284339,0.00126816,365819,279846,162516,2.20339e+06,101001,-6598.82,2.17675e+06
0.28615,0.00128328,376248,285097,165146,2.23732e+06,99624.2,12625.3,2.19651e+06
0.287961,0.00129841,386677,290349,167776,2.27126e+06,98247.9,31849.7,2.21627e+06
0.289772,0.00131354,397106,295600,170406,2.3052e+06,96871.5,51073.8,2.23603e+06
0.291583,0.00132869,407233,300946,172769,2.33967e+06,95536,69922.4,2.25649e+06
0.293394,0.00134473,408395,309082,167228,2.38977e+06,95407.9,77667.5,2.29775e+06
0.295206,0.00136077,409558,317218,161686,2.43988e+06,95279.8,85412.6,2.339e+06
0.297017,0.00137681,410721,325354,156145,2.48999e+06,95151.7,93157.7,2.38026e+06
0.298828,0.00139285,411883,333489,150603,2.5401e+06,95023.6,100903,2.42151e+06
0.300639,0.00140889,413046,341625,145062,2.5902e+06,94895.5,108648,2.46277e+06
0.30245,0.00142493,414208,349761,139521,2.64031e+06,94767.4,116393,2.50402e+06
0.304261,0.00144097,415371,357897,133979,2.69042e+06,94639.3,124138,2.54528e+06
0.306072,0.00145701,416533,366032,128438,2.74053e+06,94511.1,131883,2.58653e+06
0.307883,0.00147306,418344,374302,123525,2.79151e+06,94202.7,140628,2.62811e+06
0.309694,0.00148935,437725,386200,135648,2.86628e+06,89005.2,176495,2.67857e+06
0.311505,0.00150569,454554,396997,145760,2.93428e+06,84768.8,207585,2.72503e+06
0.313316,0.00152261,430756,386799,132917,2.89251e+06,83074.7,186226,2.6979e+06
0.315127,0.00153971,382570,361838,111974,2.78352e+06,74902,148178,2.62033e+06
0.316938,0.00155688,348881,352996,96323,2.66208e+06,62313.5,100206,2.5452e+06
0.31875,0.00157414,332153,363014,86865.6,2.52609e+06,44559.2,40623.9,2.47292e+06
0.320561,0.00159139,314786,368690,77584.4,2.39293e+06,29059.2,-12500,2.39692e+06
0.322372,0.00160859,295108,358668,68940.8,2.26995e+06,21710.3,-42275.5,2.30742e+06
0.324183,0.00162579,275430,348645,60297.2,2.14697e+06,14361.5,-72050.6,2.21793e+06
0.325994,0.00164313,256080,337704,54531.7,2.07177e+06,24961.4,-78664.2,2.15147e+06
0.327805,0.00166046,236736,326748,48810.1,1.9973e+06,35835.7,-84923.4,2.08536e+06
0.329616,0.0016778,217392,315792,43088.5,1.92284e+06,46710.1,-91182.5,2.01924e+06
0.331427,0.00169513,198047,304836,37367.1,1.84837e+06,57584.6,-97441.8,1.95313e+06
0.333238,0.0017126,187948,303637,32831,1.82948e+06,66610.2,-103718,1.93854e+06
0.335049,0.00173038,198510,312540,29543.8,1.88932e+06,69969,-100394,2.01232e+06
0.33686,0.00174813,207653,305239,24314.5,1.88349e+06,71684.2,-84958.1,2.04453e+06
0.338671,0.00176587,216796,297937,19085.2,1.87765e+06,73399.2,-69521.7,2.07674e+06
0.340482,0.00178362,225938,290637,13855.8,1.87181e+06,75114.3,-54086.2,2.10894e+06
0.342294,0.00180137,235081,283335,8626.5,1.86597e+06,76829.4,-38649.8,2.14115e+06
0.344105,0.00181914,246967,277130,4125.9,1.87067e+06,80708.9,-23246.9,2.17461e+06
0.345916,0.0018372,287303,282296,7183.33,1.9847e+06,107035,-8182.16,2.22106e+06
0.347727,0.00185526,327639,287460,10241,2.09874e+06,133362,6883.42,2.26751e+06
0.349538,0.00187331,367975,292626,13298.4,2.21277e+06,159689,21948.2,2.31396e+06
0.351349,0.0018917,373920,274469,10778.2,2.1825e+06,168531,29467.4,2.23631e+06
0.35316,0.0019102,368007,248272,6334.52,2.10247e+06,171343,34383.8,2.11586e+06
0.354971,0.0019288,361798,228904,2774.4,2.03799e+06,176894,36257.9,2.02744e+06
0.356782,0.00194778,354496,234744,2474.72,2.03094e+06,192548,26900.7,2.05718e+06
0.358593,0.00196677,347193,240583,2175.15,2.02388e+06,208203,17544.3,2.08692e+06
0.360404,0.00198576,343369,243993,-9052.29,2.03236e+06,209642,19121.1,2.10497e+06
0.362215,0.00200474,327070,219821,-11174.5,1.93305e+06,199263,29721.4,1.99699e+06
0.364026,0.00202373,304445,183667,-7012.62,1.78195e+06,186366,42228.7,1.83437e+06
0.365838,0.00204272,281819,147514,-2850.1,1.63085e+06,173470,54735.1,1.67175e+06
0.367649,0.00206175,261629,115447,877.574,1.49407e+06,161931,65779.1,1.53541e+06
0.36946,0.0020811,258993,112832,1476.83,1.46051e+06,160182,66277.8,1.58834e+06
0.371271,0.00210046,256358,110217,2075.43,1.42696e+06,158432,66777.3,1.64129e+06
0.373082,0.00211981,253722,107602,2674.69,1.3934e+06,156683,67275.9,1.69422e+06
0.374893,0.00213917,251086,104987,3273.29,1.35985e+06,154934,67775.4,1.74717e+06
0.376704,0.00215852,248450,102372,3872.55,1.32629e+06,153184,68274.1,1.8001e+06
0.378515,0.00217788,245814,99757.2,4471.8,1.29274e+06,151435,68772.7,1.85304e+06
0.380326,0.00219755,241340,104715,17386,1.28792e+06,152140,71635.4,1.83262e+06
0.382137,0.0022174,237854,114346,34914.3,1.30754e+06,153391,78119.7,1.77426e+06
0.383948,0.00223724,234367,123978,52443.1,1.32716e+06,154642,84604,1.71589e+06
0.385759,0.00225708,230881,133609,69971.4,1.34678e+06,155893,91088.3,1.65753e+06
0.38757,0.00227693,227395,143240,87500.2,1.3664e+06,157144,97572.6,1.59916e+06
0.389382,0.00229677,223908,152871,105029,1.38601e+06,158395,104057,1.5408e+06
0.391193,0.00231679,225229,175392,119199,1.44933e+06,162499,127317,1.56227e+06
0.393004,0.00233735,235834,201961,114503,1.51193e+06,171417,161415,1.61554e+06
0.394815,0.00235802,248091,225766,104380,1.56017e+06,181074,193837,1.65402e+06
0.396626,0.00237869,260349,249571,94258.2,1.60841e+06,190731,226258,1.6925e+06
0.398437,0.00239936,272606,273376,84135.9,1.65665e+06,200389,258679,1.73098e+06
0.400248,0.00242016,278003,289633,83950.1,1.71477e+06,195791,271417,1.7647e+06
0.402059,0.00244102,280268,302443,88302.7,1.77739e+06,184681,275165,1.79625e+06
0.40387,0.00246188,282532,315252,92655.1,1.84002e+06,173573,278913,1.82779e+06
0.405681,0.00248274,284797,328062,97007.7,1.90264e+06,162464,282662,1.85934e+06
0.407492,0.00250359,287061,340872,101360,1.96527e+06,151355,286410,1.89089e+06
0.409303,0.00252446,289326,353682,105713,2.02789e+06,140246,290158,1.92243e+06
0.411114,0.00254519,296647,371272,105526,2.09236e+06,136950,280314,1.96417e+06
0.412926,0.00256612,308498,363616,90484.9,2.07765e+06,129595,279057,1.93408e+06
0.414737,0.00258709,321225,350145,72231.5,2.04508e+06,121104,280117,1.88754e+06
0.416548,0.00260807,333952,336675,53978.5,2.01251e+06,112613,281179,1.841e+06
0.418359,0.00262904,346679,323204,35725.1,1.97994e+06,104122,282240,1.79447e+06
0.42017,0.00265007,352037,307670,26457.1,1.92901e+06,99239.7,298091,1.73511e+06
0.421981,0.00267175,345958,315958,33024.1,1.96088e+06,104671,269235,1.77958e+06
0.423792,0.00269351,341795,320937,44175.5,1.98145e+06,107182,237072,1.82134e+06
0.425603,0.00271527,337633,325916,55326.3,2.00203e+06,109693,204910,1.8631e+06
0.427414,0.00273704,333471,330895,66477.1,2.02261e+06,112204,172748,1.90487e+06
0.429225,0.00275886,330572,333263,74792.3,2.02721e+06,114667,145972,1.92831e+06
0.431036,0.00278075,329629,331590,78718.3,2.00708e+06,117054,127530,1.92341e+06
0.432847,0.00280256,327567,327961,77846.3,1.98388e+06,115819,117464,1.90923e+06
0.434658,0.00282435,325221,323836,75757.2,1.9599e+06,113664,109522,1.89269e+06
0.43647,0.00284613,322875,319710,73667.7,1.93592e+06,111510,101581,1.87615e+06
0.438281,0.00286792,320529,315585,71578.6,1.91194e+06,109356,93638.9,1.85962e+06
0.440092,0.00288971,318184,311460,69489.4,1.88795e+06,107201,85697,1.84308e+06
0.441903,0.0029117,303767,307828,74565.6,1.85496e+06,111551,63545.8,1.83116e+06
0.443714,0.00293422,259625,305413,97287.7,1.79976e+06,131918,6400.5,1.83064e+06
0.445525,0.00295674,215484,302998,120010,1.74455e+06,152285,-50744.1,1.8301e+06
0.447336,0.00297946,163245,284801,119703,1.65104e+06,153498,-89860.9,1.77387e+06
0.449147,0.0030022,109668,263996,115592,1.5512e+06,151547,-125999,1.70842e+06
0.450958,0.00302516,90499.2,254215,106167,1.5181e+06,151321,-130613,1.68054e+06
0.452769,0.00304828,97694.7,252882,92672.6,1.53614e+06,152419,-111073,1.68142e+06
0.45458,0.00307142,104551,251709,80434.1,1.55178e+06,152761,-93358.3,1.68093e+06
0.456391,0.00309468,109446,251461,75478.5,1.55348e+06,148721,-86219,1.6724e+06
0.458202,0.00311794,114341,251213,70523.2,1.55519e+06,144682,-79078.9,1.66387e+06
0.460014,0.00314121,119235,250965,65567.7,1.55689e+06,140642,-71939.6,1.65534e+06
0.461825,0.00316447,124130,250717,60612.4,1.55859e+06,136602,-64799.5,1.64681e+06
0.463636,0.00318774,129024,250469,55656.8,1.56029e+06,132562,-57660.2,1.63828e+06
0.465447,0.003211,133919,250221,50701.5,1.562e+06,128523,-50520,1.62975e+06
0.467258,0.00323427,138814,249973,45745.9,1.5637e+06,124483,-43380.8,1.62122e+06
0.469069,0.00325753,143708,249726,40790.7,1.5654e+06,120444,-36240.6,1.61269e+06
0.47088,0.0032808,148603,249478,35835.1,1.5671e+06,116404,-29101.3,1.60416e+06
0.472691,0.0033041,182235,250262,30042.2,1.61464e+06,111251,14578.9,1.61067e+06
0.474502,0.00332741,229347,251532,23856.8,1.68367e+06,105578,75400.8,1.62423e+06
0.476313,0.00335072,276460,252801,17671,1.75271e+06,99904.1,136223,1.63779e+06
0.478124,0.00337434,304243,252446,10530.2,1.77726e+06,93186.1,173593,1.62847e+06
0.479935,0.00339829,310379,251364,6168.29,1.7538e+06,88383.8,184328,1.59682e+06
0.481746,0.00342255,293393,255808,26939.3,1.68943e+06,103397,164469,1.56027e+06
0.483558,0.00344682,276408,260252,47710.5,1.62507e+06,118411,144611,1.52372e+06
0.485369,0.00347108,259423,264696,68481.4,1.5607e+06,133425,124752,1.48717e+06
0.48718,0.00349523,253879,250217,76404.5,1.53243e+06,139553,131631,1.55885e+06
0.488991,0.00351939,248853,234882,83745.6,1.50579e+06,145279,139721,1.63542e+06
0.490802,0.00354354,243827,219546,91086.3,1.47916e+06,151005,147811,1.712e+06
0.492613,0.00356769,238802,204211,98427.4,1.45252e+06,156731,155901,1.78858e+06
0.494424,0.00359184,233776,188875,105768,1.42589e+06,162457,163992,1.86516e+06
0.496235,0.00361604,230191,174886,119027,1.39605e+06,170243,169452,1.89304e+06
0.498046,0.00364048,235349,170795,154563,1.3562e+06,188597,165733,1.73247e+06
0.499857,0.00366569,268994,213468,148431,1.36256e+06,225233,188907,1.85482e+06
0.501668,0.00369083,285718,233979,143858,1.3766e+06,242204,201299,1.88733e+06
0.503479,0.00371587,276090,219977,141714,1.4026e+06,228552,196902,1.77996e+06
0.505291,0.00374091,266463,205975,139570,1.4286e+06,214900,192505,1.67259e+06
0.507102,0.0037659,260649,201733,134460,1.46039e+06,207233,191543,1.57124e+06
0.508913,0.00379081,262577,213263,124003,1.50342e+06,208212,197619,1.48793e+06
0.510724,0.00381588,295172,238660,100465,1.58491e+06,201291,232333,1.5463e+06
0.512535,0.00384094,327768,264058,76925.8,1.66641e+06,194369,267048,1.60467e+06
0.514346,0.003866,360364,289455,53387.2,1.74791e+06,187448,301763,1.66305e+06
0.516157,0.00389106,392960,314852,29848.1,1.82941e+06,180526,336478,1.72142e+06
0.517968,0.00391615,410975,326975,17203.7,1.86784e+06,176091,354971,1.74673e+06
0.519779,0.00394136,404632,318190,18658.2,1.85083e+06,173723,346562,1.72954e+06
0.52159,0.00396684,375683,292330,25680.8,1.81267e+06,169448,313539,1.69622e+06
0.523401,0.00399233,346733,266469,32703.6,1.77451e+06,165172,280516,1.66291e+06
0.525212,0.00401781,317783,240609,39726.1,1.73634e+06,160897,247494,1.6296e+06
0.527023,0.00404329,288833,214748,46749,1.69818e+06,156622,214471,1.59628e+06
0.528835,0.00406936,282335,208431,51272.9,1.68049e+06,152716,200135,1.59292e+06
0.530646,0.00409549,278090,204076,55546.4,1.66486e+06,148848,187674,1.59257e+06
0.532457,0.00412162,273845,199720,59819.7,1.64923e+06,144979,175213,1.59221e+06
0.534268,0.0041478,267137,195559,63204.7,1.63433e+06,139348,162382,1.59544e+06
0.536079,0.00417409,254797,191845,64557.9,1.6211e+06,129685,148708,1.60687e+06
0.53789,0.00420038,242457,188132,65911,1.60787e+06,120021,135033,1.6183e+06
0.539701,0.00422668,230118,184418,67264.5,1.59464e+06,110358,121359,1.62973e+06
0.541512,0.00425297,217778,180704,68617.7,1.58141e+06,100695,107684,1.64115e+06
0.543323,0.00427927,205438,176991,69971.2,1.56818e+06,91032.2,94009.8,1.65258e+06
0.545134,0.00430556,193098,173277,71324.4,1.55495e+06,81368.8,80335.3,1.66401e+06
0.546945,0.00433217,208796,183947,82631.1,1.56923e+06,75636.3,62727.8,1.69384e+06
0.548756,0.00435896,233051,199583,108527,1.53644e+06,76332.3,52854.4,1.67324e+06
0.550567,0.00438575,257307,215220,134422,1.50365e+06,77028.6,42980.2,1.65265e+06
0.552379,0.00441254,281562,230857,160318,1.47086e+06,77724.6,33106.8,1.63205e+06
0.55419,0.00443933,305817,246493,186213,1.43807e+06,78420.6,23233.4,1.61145e+06
0.556001,0.00446647,294239,249065,179751,1.39693e+06,78404.4,21150.4,1.57963e+06
0.557812,0.00449377,303939,260584,172608,1.43311e+06,76033.1,20667.2,1.61551e+06
0.559623,0.00452103,309424,270058,163319,1.45966e+06,75148.1,18433.1,1.64217e+06
0.561434,0.00454829,313584,278891,153356,1.48319e+06,74730.2,15648.7,1.66592e+06
0.563245,0.00457555,317745,287723,143392,1.50671e+06,74312.5,12864.2,1.68967e+06
0.565056,0.0046028,321905,296556,133429,1.53023e+06,73894.6,10079.8,1.71342e+06
0.566867,0.00463013,296091,289848,119754,1.48044e+06,83760.5,1580.19,1.67566e+06
0.568678,0.00465746,267871,281894,105781,1.42475e+06,94451.9,-7378.19,1.63295e+06
0.570489,0.00468479,239651,273939,91807.1,1.36907e+06,105143,-16336.6,1.59025e+06
0.5723,0.00471212,211432,265985,77833.5,1.31339e+06,115835,-25295.1,1.54755e+06
0.574111,0.00473946,183212,258030,63860.1,1.25771e+06,126526,-34253.4,1.50484e+06
0.575922,0.00476693,169022,255548,58462.8,1.23454e+06,132684,-33855.6,1.47831e+06
0.577734,0.00479455,169478,258330,62020.9,1.24568e+06,134277,-22695.6,1.46309e+06
0.579545,0.00482222,172541,260420,67185,1.26433e+06,135666,-5979.31,1.42952e+06
0.581356,0.00484988,175605,262510,72349.3,1.28299e+06,137055,10736.9,1.39595e+06
0.583167,0.00487775,204843,264724,87983.3,1.34327e+06,144432,45105.3,1.40902e+06
0.584978,0.00490575,251657,267020,110648,1.43151e+06,155830,91327,1.45342e+06
0.586789,0.00493376,298471,269316,133312,1.51975e+06,167227,137549,1.49781e+06
0.5886,0.00496177,322968,271291,146477,1.58492e+06,174985,173233,1.53304e+06
0.590411,0.0049898,325582,273278,150702,1.62534e+06,180093,198609,1.55806e+06
0.592222,0.00501836,282849,280884,142863,1.57791e+06,195476,203068,1.54088e+06
0.594033,0.00504693,240116,288490,135023,1.53049e+06,210859,207526,1.52371e+06
0.595844,0.00507549,197383,296096,127184,1.48306e+06,226243,211984,1.50653e+06
0.597655,0.00510429,186058,290381,125779,1.46548e+06,220899,209593,1.50175e+06
0.599467,0.00513311,177575,283460,124957,1.45061e+06,213679,206582,1.49809e+06
0.601278,0.00516193,169093,276540,124135,1.43573e+06,206460,203571,1.49443e+06
0.603089,0.00519076,160610,269619,123312,1.42085e+06,199240,200560,1.49077e+06
0.6049,0.00521958,152128,262699,122490,1.40597e+06,192021,197549,1.48711e+06
0.606711,0.0052484,143750,255764,121702,1.39049e+06,185159,194673,1.48376e+06
0.608522,0.00527708,137744,248497,121669,1.36135e+06,186369,194841,1.48744e+06
0.610333,0.00530577,131738,241230,121635,1.33222e+06,187580,195010,1.49113e+06
0.612144,0.00533467,133910,235350,112492,1.32124e+06,193168,184303,1.49333e+06
0.613955,0.00536369,140300,230186,98650.9,1.31963e+06,201014,167986,1.49477e+06
0.615766,0.0053927,146690,225021,84809.4,1.31801e+06,208860,151669,1.49622e+06
0.617577,0.00542172,153079,219857,70968.1,1.3164e+06,216706,135353,1.49766e+06
0.619388,0.00545085,157687,215200,56073.2,1.31139e+06,222914,119363,1.49412e+06
0.621199,0.0054806,152566,213319,35426,1.28784e+06,220178,105159,1.46336e+06
0.62301,0.00551035,147446,211437,14778.6,1.26428e+06,217441,90954.3,1.43261e+06
0.624822,0.0055401,142325,209555,-5868.58,1.24073e+06,214705,76750,1.40185e+06
0.626633,0.00556985,137204,207673,-26516,1.21718e+06,211969,62545.3,1.37109e+06
0.628444,0.0055996,132083,205792,-47163.2,1.19363e+06,209233,48341,1.34034e+06
0.630255,0.00562935,126962,203910,-67810.5,1.17008e+06,206496,34136.2,1.30958e+06
0.632066,0.00565911,121842,202028,-88457.9,1.14652e+06,203760,19931.4,1.27883e+06
0.633877,0.00568886,116721,200147,-109105,1.12297e+06,201024,5727.11,1.24807e+06
0.635688,0.00571864,122997,207514,-122190,1.15685e+06,196175,2534.32,1.26256e+06
0.637499,0.00574863,147141,223830,-137999,1.25225e+06,181318,6793.18,1.3482e+06
0.63931,0.00577864,166522,238559,-152806,1.33224e+06,167441,9493.51,1.42149e+06
0.641121,0.00580879,121683,231884,-154129,1.20454e+06,166767,-8819.35,1.3285e+06
0.642932,0.00583895,76844.4,225210,-155453,1.07684e+06,166093,-27131.8,1.23551e+06
0.644743,0.00586941,73480,225966,-156001,1.05732e+06,164282,-26986.3,1.22277e+06
0.646554,0.00589989,82331.9,230524,-148397,1.07824e+06,159059,-17417.4,1.24122e+06
0.648366,0.00593038,91183.7,235083,-140794,1.09916e+06,153837,-7848.6,1.25968e+06
0.650177,0.00596086,100036,239641,-133190,1.12009e+06,148614,1720.76,1.27814e+06
0.651988,0.00599135,108888,244200,-125587,1.14101e+06,143391,11289.6,1.29659e+06
0.653799,0.00602184,117740,248758,-117983,1.16193e+06,138168,20859,1.31505e+06
0.65561,0.00605232,126592,253317,-110380,1.18285e+06,132945,30427.8,1.33351e+06
0.657421,0.00608281,135444,257876,-102776,1.20377e+06,127723,39997.2,1.35196e+06
0.659232,0.0061133,144295,262434,-95172.7,1.22469e+06,122500,49566,1.37042e+06
0.661043,0.00614406,153141,265854,-83024.9,1.25517e+06,127920,56942.8,1.39887e+06
0.662854,0.00617515,161980,268005,-65816.9,1.2963e+06,145192,61877.2,1.43844e+06
0.664665,0.00620623,170819,270156,-48608.8,1.33742e+06,162465,66811.6,1.47802e+06
0.666476,0.00623731,179658,272307,-31400.1,1.37855e+06,179738,71746.4,1.5176e+06
0.668287,0.00626839,188497,274458,-14192.1,1.41967e+06,197011,76680.8,1.55717e+06
0.670098,0.00629959,188227,274586,-5331.63,1.44219e+06,208666,75124,1.58216e+06
0.67191,0.00633103,162942,264525,-15186.5,1.41188e+06,201409,62384.2,1.55568e+06
0.673721,0.00636247,137657,254464,-25041.1,1.38158e+06,194153,49644.4,1.52921e+06
0.675532,0.00639391,112372,244403,-34895.9,1.35128e+06,186897,36904.5,1.50273e+06
0.677343,0.0064257,110429,246918,-41636.7,1.35078e+06,177933,36597.4,1.49219e+06
0.679154,0.00645762,116948,253992,-47248.9,1.36109e+06,168350,40797.8,1.48743e+06
0.680965,0.00648954,123468,261066,-52861.1,1.37139e+06,158766,44998.1,1.48267e+06
0.682776,0.00652146,129987,268140,-58473.1,1.3817e+06,149183,49198.4,1.47792e+06
0.684587,0.00655338,136507,275214,-64085.2,1.39201e+06,139599,53398.7,1.47316e+06
0.686398,0.0065853,143026,282289,-69697.2,1.40232e+06,130016,57599,1.4684e+06
0.688209,0.00661722,149545,289363,-75309.4,1.41262e+06,120432,61799.3,1.46364e+06
0.69002,0.00664915,156147,296473,-81005.7,1.42299e+06,110810,66008.3,1.45886e+06
0.691831,0.0066809,158759,301676,-78840.9,1.43215e+06,107144,70915.2,1.4629e+06
0.693642,0.00671285,171443,310911,-79644.5,1.45175e+06,106498,79041.7,1.47821e+06
0.695454,0.00674479,184126,320147,-80447.7,1.47134e+06,105852,87168.2,1.49351e+06
0.697265,0.00677673,196810,329382,-81250.9,1.49094e+06,105205,95294.8,1.50882e+06
0.699076,0.00680873,209332,340637,-81416.6,1.51821e+06,105568,100360,1.53128e+06
0.700887,0.0068413,228578,349903,-66141.8,1.56436e+06,110674,118542,1.56085e+06
0.702698,0.00687389,249133,356663,-48944.6,1.60544e+06,115498,142227,1.58393e+06
0.704509,0.00690649,269688,363423,-31747.5,1.64652e+06,120323,165912,1.60701e+06
0.70632,0.00693908,290243,370182,-14550.4,1.68761e+06,125147,189598,1.6301e+06
0.708131,0.00697188,292017,355598,-8903.45,1.64603e+06,125528,205074,1.62468e+06
0.709942,0.00700469,287873,335780,-11720.1,1.57736e+06,121552,210464,1.61328e+06
0.711753,0.00703747,283726,316467,-16180.5,1.50833e+06,116569,213297,1.6029e+06
0.713564,0.00707025,279580,297155,-20640.8,1.43929e+06,111585,216131,1.59253e+06
0.715375,0.00710303,275433,277842,-25102.3,1.37026e+06,106601,218964,1.58216e+06
0.717187,0.00713581,271287,258530,-29562.7,1.30123e+06,101618,221798,1.57178e+06
0.718998,0.00716859,267140,239217,-34024.2,1.23219e+06,96634.4,224631,1.56141e+06
0.720809,0.00720153,255551,223087,-21638.4,1.17199e+06,99741.6,224394,1.5296e+06
0.72262,0.00723461,237728,209621,4853.12,1.11917e+06,109623,221586,1.47984e+06
0.724431,0.00726775,214781,191451,15485.6,1.05602e+06,110342,215394,1.42065e+06
0.726242,0.00730099,185216,167205,5645.5,979511,99234.3,204832,1.34929e+06
0.728053,0.00733422,155653,142960,-4194.4,903006,88126.7,194271,1.27794e+06
0.729864,0.0073678,148646,142241,6830.71,944173,86822.1,210267,1.31301e+06
0.731675,0.00740139,142743,142673,18877.2,991097,85997.3,227562,1.3533e+06
0.733486,0.00743499,136839,143105,30923.1,1.03802e+06,85172.3,244857,1.39358e+06
0.735297,0.00746861,134780,146432,42224.1,1.08425e+06,85401.7,255968,1.42349e+06
0.737108,0.00750227,137096,153055,52675.7,1.12969e+06,86831.4,260039,1.44157e+06
0.738919,0.00753593,139413,159678,63128,1.17512e+06,88261.1,264110,1.45965e+06
0.74073,0.00756958,141729,166301,73579.6,1.22056e+06,89690.8,268180,1.47774e+06
0.742542,0.00760344,145980,181040,80978.4,1.25321e+06,94328.6,257209,1.48819e+06
0.744353,0.00763752,152370,204754,85000.4,1.27171e+06,102513,229606,1.49021e+06
0.746164,0.00767159,158760,228467,89022.5,1.29022e+06,110698,202003,1.49223e+06
0.747975,0.00770567,165150,252182,93045.1,1.30873e+06,118883,174400,1.49425e+06
0.749786,0.00773974,171539,275895,97067.2,1.32723e+06,127068,146798,1.49626e+06
0.751597,0.00777382,177929,299609,101090,1.34574e+06,135253,119195,1.49828e+06
0.753408,0.00780813,170771,300935,91436.9,1.33688e+06,148200,86869.3,1.46205e+06
0.755219,0.0078428,179411,269254,80249.7,1.37362e+06,164360,94054.4,1.48146e+06
0.75703,0.00787747,188052,237572,69062.3,1.41036e+06,180520,101240,1.50087e+06
0.758841,0.00791213,196692,205890,57875.1,1.4471e+06,196680,108425,1.52028e+06
0.760652,0.00794686,186612,216042,43970,1.28714e+06,219437,94705.8,1.38308e+06
0.762463,0.0079816,176933,226674,31611.5,1.13599e+06,240463,80433.9,1.25419e+06
0.764274,0.00801661,177423,230001,37365.9,1.14278e+06,240149,66322.6,1.26568e+06
0.766086,0.00805163,177913,233327,43120.1,1.14958e+06,239834,52211.7,1.27716e+06
0.767897,0.00808664,178403,236654,48874.4,1.15637e+06,239519,38100.4,1.28865e+06
0.769708,0.00812169,180292,238976,57119.1,1.18489e+06,236269,24011.6,1.31945e+06
0.771519,0.00815675,182831,240830,66524,1.22352e+06,231653,9932.78,1.35923e+06
0.77333,0.00819182,185371,242684,75929.3,1.26216e+06,227036,-4145.64,1.39902e+06
0.775141,0.00822686,185123,243490,86089.1,1.29267e+06,223054,-18618.7,1.43265e+06
0.776952,0.00826174,158333,234316,103433,1.2459e+06,225116,-36849,1.40766e+06
0.778763,0.008297,153201,236062,114310,1.28694e+06,220527,-35321.5,1.44575e+06
0.780574,0.00833258,167018,247361,119528,1.40481e+06,210121,-16509.4,1.53901e+06
0.782385,0.00836816,180834,258660,124747,1.52267e+06,199714,2302.24,1.63227e+06
0.784196,0.00840369,196735,272181,123903,1.60767e+06,192670,13064.5,1.70172e+06
0.786007,0.00843913,216517,289836,111776,1.63151e+06,191885,8846.21,1.72686e+06
0.787818,0.00847456,212768,288464,113380,1.59033e+06,183443,-1177.29,1.69307e+06
0.78963,0.00850999,202532,281847,118768,1.53122e+06,172890,-12802,1.64303e+06
0.791441,0.00854541,192296,275229,124156,1.47211e+06,162337,-24426.8,1.59299e+06
0.793252,0.00858085,192716,271438,121928,1.44399e+06,157173,-12880.9,1.56272e+06
0.795063,0.00861629,195565,268292,117963,1.42293e+06,153235,3943.37,1.53695e+06
0.796874,0.00865173,198413,265146,113999,1.40186e+06,149298,20767.9,1.51118e+06
0.798685,0.00868728,200953,263892,110952,1.37992e+06,149237,38116.8,1.48718e+06
0.800496,0.00872334,202104,271132,112022,1.35405e+06,166570,57820.1,1.47107e+06
0.802307,0.0087594,203256,278372,113092,1.32818e+06,183903,77523.1,1.45497e+06
0.804118,0.00879546,204407,285612,114162,1.30231e+06,201236,97226.4,1.43886e+06
0.805929,0.00883173,202177,281346,112503,1.27129e+06,210682,105397,1.42616e+06
0.80774,0.00886814,197873,270022,109169,1.2371e+06,215290,106493,1.41555e+06
0.809551,0.00890456,194653,258830,101647,1.20693e+06,214148,107279,1.40315e+06
0.811363,0.00894098,193845,247929,84817.5,1.18572e+06,200231,107375,1.38677e+06
0.813174,0.0089774,193037,237029,67988.7,1.16451e+06,186314,107471,1.3704e+06
0.814985,0.00901383,192229,226129,51159.5,1.14329e+06,172397,107567,1.35403e+06
0.816796,0.00905025,191041,216328,35864.8,1.12355e+06,160095,108450,1.33926e+06
0.818607,0.00908672,185854,218099,36720.4,1.1193e+06,164789,117628,1.34142e+06
0.820418,0.00912323,179751,218797,36860.4,1.11014e+06,170088,125491,1.33745e+06
0.822229,0.00916009,167134,211869,31911.7,1.06616e+06,179689,124002,1.28991e+06
0.82404,0.00919695,154516,204942,26963,1.02219e+06,189291,122512,1.24236e+06
0.825851,0.00923381,141899,198014,22014.3,978205,198892,121022,1.19482e+06
0.827662,0.0092707,130063,191111,16831.4,936724,207536,119939,1.15717e+06
0.829473,0.00930788,129232,184552,8351.73,930422,202691,124580,1.25897e+06
0.831284,0.00934507,128402,177994,-127.932,924121,197846,129221,1.36076e+06
0.833095,0.0093823,132581,174202,-10771.4,928645,190173,132683,1.4734e+06
0.834907,0.00941968,153191,179488,-28512.7,968681,173225,132278,1.6216e+06
0.836718,0.00945706,173801,184774,-46254,1.00872e+06,156277,131873,1.7698e+06
0.838529,0.00949444,207649,213639,-56876.3,1.09681e+06,148318,141203,1.77305e+06
0.84034,0.00953181,245496,249626,-65348.3,1.19941e+06,143074,153473,1.73253e+06
0.842151,0.00956953,206572,195365,-77149.4,1.16642e+06,158474,148071,1.85015e+06
0.843962,0.00960698,183115,174627,-79879.1,1.1598e+06,171756,137896,1.85281e+06
0.845773,0.00964424,176978,181836,-77702.6,1.1833e+06,181389,127588,1.77868e+06
0.847584,0.00968167,171719,183874,-76363.3,1.19318e+06,188134,117660,1.70254e+06
0.849395,0.00971943,168104,176206,-76594.6,1.1775e+06,189459,108447,1.62263e+06
0.851206,0.00975718,164489,168539,-76825.9,1.16182e+06,190783,99232.5,1.54273e+06
0.853017,0.00979494,160873,160872,-77057.2,1.14615e+06,192108,90018.6,1.46282e+06
0.854828,0.0098327,157217,153165,-77281.2,1.1303e+06,193349,80794.3,1.3832e+06
0.856639,0.00987066,143066,135317,-75677.6,1.07045e+06,173935,69017.5,1.37613e+06
0.858451,0.00990863,128915,117467,-74074,1.0106e+06,154522,57241,1.36906e+06
0.860262,0.00994666,119373,110026,-57372.1,981520,154125,62164.8,1.34966e+06
0.862073,0.00998471,110926,105061,-37077.4,959759,158254,71063.2,1.32732e+06
0.863884,0.010023,118492,105599,-11358.6,956515,168459,106276,1.30744e+06
0.865695,0.0100613,128712,107049,15260.2,956342,179673,145854,1.28798e+06
0.867506,0.0100997,146806,113374,33142.2,963232,183399,185049,1.27317e+06
0.869317,0.0101386,183516,131225,30366.2,986819,169422,223337,1.2694e+06
0.871128,0.0101774,207971,144348,31534.4,1.00048e+06,157650,248406,1.26477e+06
0.872939,0.010216,209918,148784,39946.9,995893,149929,249194,1.2586e+06
0.87475,0.0102547,211865,153220,48359,991311,142209,249983,1.25242e+06
0.876561,0.0102934,213812,157657,56771.5,986727,134488,250771,1.24624e+06
0.878372,0.010332,215759,162093,65183.6,982144,126767,251560,1.24007e+06
0.880183,0.0103707,217706,166530,73596.1,977561,119047,252348,1.23389e+06
0.881995,0.0104094,219654,170966,82008.1,972978,111326,253137,1.22771e+06
0.883806,0.010448,221600,175403,90420.7,968395,103605,253925,1.22154e+06
0.885617,0.0104867,223548,179839,98832.7,963812,95884.7,254714,1.21536e+06
0.887428,0.0105254,225495,184276,107245,959229,88163.9,255502,1.20919e+06
0.889239,0.010564,227441,188712,115658,954645,80443.2,256289,1.20301e+06
0.89105,0.0106027,206386,178059,108339,915085,73169.4,223513,1.17962e+06
0.892861,0.0106414,175561,160997,94339.2,860667,66084.8,176480,1.14891e+06
0.894672,0.0106801,145464,145038,81115.4,807610,59893.8,130356,1.11992e+06
0.896483,0.0107194,124602,143062,77734.8,771802,65037,95741.9,1.11263e+06
0.898294,0.0107588,107021,142692,73663.9,745386,70592.8,67036.9,1.10461e+06
0.900105,0.0107983,105554,150210,66201.2,765118,78173,67358.5,1.09296e+06
0.901916,0.0108378,104088,157728,58738.6,784851,85753.6,67681.5,1.0813e+06
0.903727,0.0108773,102620,165246,51275.9,804583,93333.7,68003.1,1.06965e+06
0.905538,0.0109168,101153,172764,43813.2,824315,100914,68324.8,1.05799e+06
0.90735,0.0109563,99687,180282,36350.6,844048,108494,68647.7,1.04633e+06
0.909161,0.0109958,98219.8,187800,28887.9,863779,116075,68969.4,1.03468e+06
0.910972,0.0110353,96753.6,195318,21425.3,883512,123655,69292.4,1.02302e+06
0.912783,0.0110748,95286.4,202835,13962.6,903244,131235,69614,1.01136e+06
0.914594,0.0111146,132041,220367,10749.7,997804,139462,84170.3,1.08291e+06
0.916405,0.0111544,176367,239882,8378.65,1.10719e+06,147815,101545,1.17095e+06
0.918216,0.0111943,216690,258313,5499.87,1.20887e+06,154829,116380,1.25381e+06
0.920027,0.0112343,215220,265419,-2679.36,1.23021e+06,147857,104694,1.28264e+06
0.921838,0.0112743,194264,256406,-6609.84,1.16814e+06,151726,96590.4,1.23423e+06
0.923649,0.0113142,163117,238963,-8318.16,1.06244e+06,161265,90362.2,1.1454e+06
0.92546,0.0113542,131969,221519,-10026.3,956731,170804,84133.7,1.05657e+06
0.927271,0.0113945,125859,209183,-10339.4,915580,174241,98885.3,1.01097e+06
0.929083,0.0114349,124264,197767,-10400.8,886069,176578,117420,973167
0.930894,0.0114753,122669,186351,-10462.3,856559,178914,135955,935361
0.932705,0.0115157,121073,174935,-10523.7,827048,181251,154489,897554
0.934516,0.0115561,119478,163519,-10585,797536,183587,173023,859747
0.936327,0.0115966,117883,152104,-10646.5,768026,185923,191558,821941
0.938138,0.011637,116288,140688,-10707.9,738515,188260,210093,784134
0.939949,0.0116775,114634,132913,-10769.8,706554,187899,220891,749697
0.94176,0.0117182,118633,137545,-1190.4,745786,190887,238593,778296
0.943571,0.011759,122345,142412,8009.64,784532,193723,254088,808068
0.945382,0.0117999,119980,150707,8737.5,797545,191579,226406,845236
0.947193,0.0118408,117616,159002,9464.87,810557,189434,198722,882405
0.949004,0.0118817,115252,167296,10192.7,823570,187290,171039,919574
0.950815,0.0119226,112887,175591,10920.6,836583,185146,143357,956742
0.952627,0.0119635,110523,183886,11648,849595,183001,115673,993911
0.954438,0.0120044,108159,192181,12375.8,862608,180857,87990.2,1.03108e+06
0.956249,0.0120453,105795,200476,13103.2,875620,178712,60306.4,1.06825e+06
0.95806,0.0120862,103430,208771,13831.1,888633,176568,32623.9,1.10542e+06
0.959871,0.0121271,99498.2,215734,17595.3,899039,176745,7064.85,1.13911e+06
0.961682,0.0121684,81918.5,211096,47794.9,886764,197143,2.63065,1.14254e+06
0.963493,0.0122097,64338.7,206459,77994.7,874487,217540,-7060.36,1.14596e+06
0.965304,0.0122511,59220.4,198007,90078.9,850511,227562,-16927.9,1.1291e+06
0.967115,0.0122925,64340.5,186421,87279.1,816920,229060,-29100.4,1.09556e+06
0.968926,0.0123341,77619.8,178221,79984.7,814125,227327,-24693.5,1.07007e+06
0.970737,0.0123759,93467,171087,71275.2,821021,224578,-15069.1,1.04712e+06
0.972548,0.0124176,109314,163954,62566.2,827917,221829,-5444.85,1.02417e+06
0.974359,0.0124594,117749,160875,56663.3,831524,214035,-843.652,1.00572e+06
0.976171,0.0125013,121294,160472,52612.6,832962,202912,443.355,990253
0.977982,0.0125431,124839,160070,48561.4,834399,191789,1730.37,974782
0.979793,0.012585,128384,159667,44510.7,835836,180666,3017.38,959312
0.981604,0.0126268,131929,159264,40459.5,837273,169543,4304.39,943840
0.983415,0.0126687,135474,158862,36408.4,838711,158419,5591.4,928369
0.985226,0.0127106,139019,158459,32357.7,840148,147296,6878.41,912899
0.987037,0.0127524,142564,158056,28306.5,841585,136173,8165.42,897427
0.988848,0.0127943,145896,157999,24660.6,842357,125642,9081.63,883423
0.990659,0.0128361,148567,159019,22275.3,841056,116954,8842.7,873985
0.99247,0.0128779,152929,163185,15426,854155,107379,8409.15,880554
0.994281,0.0129199,161253,174724,-1884.9,900995,95725.7,7518.79,924635
0.996092,0.0129619,169577,186263,-19195.3,947834,84072.5,6628.68,968715
0.997903,0.0130042,179932,193095,-11961.5,962320,82920.4,16032.2,965332
0.999715,0.0130469,192002,194033,10117.6,944248,88449.8,24991.6,943076
1.00153,0.0130895,204072,194971,32197.3,926174,93979,33950.9,920819
1.00334,0.0131323,207006,193542,36171.1,914513,103338,42333.2,925295
1.00515,0.0131752,208157,191652,36609,904103,113445,50602.7,934992
1.00696,0.013218,209308,189761,37047,893694,123551,58872.2,944689
1.00877,0.0132608,210458,187871,37484.9,883284,133658,67141.4,954385
1.01058,0.0133036,210994,186280,37675.4,872736,143595,74839.4,964577
1.01239,0.0133464,209977,185446,37239.4,861838,153104,81090.8,976017
1.0142,0.0133892,208961,184613,36803.9,850940,162613,87343.5,987458
1.01601,0.013432,207945,183779,36368.3,840042,172122,93595.6,998898
1.01783,0.0134749,194503,184053,40756.3,815479,175626,97929.8,990865
1.01964,0.013518,159664,179590,34890.5,759587,170343,89137.4,954675
1.02145,0.013561,124822,175126,29024.5,703691,165059,80344.1,918484
1.02326,0.0136041,89983.1,170662,23158.8,647799,159776,71551.7,882294
1.02507,0.0136473,76334.4,168240,21007.2,627012,156539,70017.3,860829
1.02688,0.0136905,80119.8,172294,24678.3,641754,154737,72718.5,863970
1.02869,0.0137338,83306.3,177225,28783.9,656800,152829,74876.5,869129
1.0305,0.013777,86492.7,182156,32889.1,671845,150921,77034.5,874287
1.03231,0.0138203,89679.3,187087,36994.5,686890,149013,79192.5,879445
1.03412,0.0138635,92865.6,192018,41100,701936,147105,81350.5,884603
1.03594,0.0139068,96052.2,196948,45205.4,716981,145197,83508.5,889761
1.03775,0.01395,99238.6,201879,49310.8,732027,143289,85666.4,894919
1.03956,0.0139933,103637,206550,54087.3,753134,144770,88548.3,908529
1.04137,0.0140371,112873,210180,61544.3,798456,159782,94320.8,955895
1.04318,0.0140808,122110,213810,69001.4,843779,174795,100094,1.00326e+06
1.04499,0.0141245,131347,217440,76458.4,889100,189807,105866,1.05063e+06
1.0468,0.0141683,133844,212239,76967.5,896103,201167,111973,1.08402e+06
1.04861,0.0142123,127875,197520,67150.2,859036,204122,115528,1.09909e+06
1.05042,0.0142563,120484,185756,50974.4,826325,194633,110059,1.10892e+06
1.05224,0.0143003,113093,173993,34799.6,793615,185144,104590,1.11875e+06
1.05405,0.0143443,105702,162228,18623.8,760904,175654,99121.2,1.12859e+06
1.05586,0.0143883,100717,154645,9557.5,740693,169132,94908.7,1.15392e+06
1.05767,0.0144324,102097,158121,19301.4,753555,170460,94020.6,1.22026e+06
1.05948,0.0144765,105022,161923,28334.6,766116,173169,97085.8,1.27192e+06
1.06129,0.0145209,113005,166795,35042.7,777695,180397,113096,1.27551e+06
1.0631,0.0145653,120988,171667,41750.6,789273,187624,129105,1.2791e+06
1.06491,0.0146096,128971,176540,48459,800852,194852,145115,1.28269e+06
1.06672,0.014654,135673,179540,52216.8,803402,201360,158184,1.2793e+06
1.06854,0.0146983,138479,176680,46783.2,778759,203651,162124,1.25433e+06
1.07035,0.014743,142402,173927,41958.6,764709,187707,166979,1.23216e+06
1.07216,0.0147877,146325,171174,37133.7,750658,171762,171835,1.21e+06
1.07397,0.0148323,150247,168420,32309.1,736607,155818,176691,1.18783e+06
1.07578,0.014877,154170,165667,27484.3,722556,139874,181546,1.16567e+06
1.07759,0.0149216,152815,159296,21309.8,708106,129272,181553,1.13074e+06
1.0794,0.0149661,145477,148823,13605.1,693204,124726,176062,1.08135e+06
1.08121,0.0150107,138140,138350,5900.87,678303,120179,170572,1.03197e+06
1.08302,0.0150552,130791,131166,-2231.4,667387,118296,158546,979353
1.08484,0.0150997,123437,125100,-10508.5,657827,117320,144298,925649
1.08665,0.0151442,116083,119034,-18786.1,648267,116343,130049,871940
1.08846,0.0151891,113302,116853,-23619.8,646240,119214,124670,844999
1.09027,0.0152343,116667,119893,-23825.3,654338,127258,131210,854030
1.09208,0.0152795,120032,122933,-24030.9,662435,135300,137750,863060
1.09389,0.0153247,122656,125697,-23889.5,671763,143375,142937,872270
1.0957,0.0153698,122266,127346,-22339.6,686082,151577,142630,882211
1.09751,0.015415,121877,128994,-20789.4,700402,159780,142321,892153
1.09932,0.0154601,121487,130643,-19239.5,714722,167982,142014,902094
1.10113,0.0155053,121098,132291,-17689.3,729042,176185,141706,912036
1.10295,0.0155505,120172,133950,-13779.4,742774,183283,140166,923003
1.10476,0.0155957,116960,135654,179,754003,185685,133377,938336
1.10657,0.015641,113750,137358,14136.8,765232,188086,126590,953668
1.10838,0.0156866,153972,167094,26448.4,809040,211172,128664,1.01153e+06
1.11019,0.0157321,194992,197344,38729,853444,234638,130902,1.07016e+06
1.112,0.0157779,203267,203138,35872.3,850407,234373,130332,1.07082e+06
1.11381,0.0158237,204579,203729,29796.2,837280,229062,129165,1.05914e+06
1.11562,0.0158695,180477,187386,25681.4,790408,216057,126725,1.00913e+06
1.11743,0.0159151,140634,160553,22782.4,722634,198290,123496,935375
1.11925,0.0159609,119627,146444,19745.5,684622,184152,123755,895235
1.12106,0.0160068,120829,147335,16546.9,681698,174296,128124,894733
1.12287,0.0160527,122031,148227,13347.9,678775,164440,132495,894230
1.12468,0.0160985,123232,149118,10149.3,675851,154584,136864,893727
1.12649,0.0161444,124434,150010,6950.54,672927,144728,141234,893224
1.1283,0.0161903,125636,150902,3751.69,670003,134872,145604,892722
1.13011,0.0162362,126837,151793,552.931,667079,125016,149973,892219
1.13192,0.0162821,128039,152685,-2645.92,664156,115160,154343,891716
1.13373,0.0163279,127030,152197,-3630.19,659056,108977,154055,888128
1.13555,0.0163738,125788,151564,-4380.55,653725,103182,153274,884213
1.13736,0.01642,125024,145364,-2020.94,627348,108808,144380,900385
1.13917,0.0164663,123286,135739,4815.76,589458,120021,122516,874738
1.14098,0.0165126,121548,126114,11651.9,551571,131234,100654,849092
1.14279,0.0165589,119810,116489,18488.5,513681,142447,78791.1,823443
1.1446,0.0166051,118072,106864,25324.7,475794,153660,56929.1,797798
1.14641,0.0166517,120653,104949,33846.3,471546,157598,48435.8,780506
1.14822,0.0166983,125598,107254,43289.9,485718,157554,47262.9,767792
1.15003,0.0167449,127143,108715,53061.4,502427,158347,48481.4,768571
1.15184,0.0167916,127391,109854,62957.3,520100,159460,50611.8,774499
1.15366,0.0168382,127638,110992,72853.8,537776,160573,52743.1,780430
1.15547,0.0168848,127886,112130,82749.7,555450,161686,54873.4,786358
1.15728,0.0169314,128133,113269,92646.2,573125,162799,57004.7,792289
1.15909,0.016978,128380,114407,102542,590800,163912,59135.7,798218
1.1609,0.0170246,128628,115546,112439,608475,165025,61266.3,804148
1.16271,0.0170715,155626,131800,111825,671026,170042,72988.3,855732
1.16452,0.0171184,189696,152050,108435,745438,176092,87244.9,919384
1.16633,0.0171653,217347,170133,105062,799314,178180,93420.9,968137
1.16814,0.0172122,231511,183665,101725,810019,171938,82606.5,985575
1.16996,0.0172592,220140,179524,100999,784614,163387,71922.6,965530
1.17177,0.0173062,179697,155263,103244,718098,152205,61385.8,902812
1.17358,0.0173532,139258,131004,105489,651586,141023,50849.6,840098
1.17539,0.0174003,132549,117766,99847,615613,137612,51013.5,817789
1.1772,0.0174473,127381,105033,93844.9,581037,134557,51666.3,797327
1.17901,0.0174943,122214,92298.5,87842.4,546460,131502,52319.2,776864
1.18082,0.0175414,117140,83926.5,81460.3,520836,128431,53211.4,765659
1.18263,0.0175886,112170,80295,74664.9,504942,125343,54363.9,764517
1.18444,0.0176357,107199,76663.7,67869.9,489049,122255,55516.3,763375
1.18626,0.0176829,102228,73032.2,61074.5,473154,119167,56668.9,762233
1.18807,0.01773,97257.5,69400.9,54279.5,457261,116079,57821.2,761090
1.18988,0.0177773,90013.8,66217.5,46900.3,443681,113762,58133,757139
1.19169,0.0178248,75022.7,64562.1,37531.1,437991,114076,55578.6,743609
1.1935,0.0178722,60030.4,62906.6,28161.3,432301,114390,53024,730079
1.19531,0.0179197,45039.2,61251.3,18792.1,426612,114703,50469.6,716550
1.19712,0.0179674,42514.3,66224.7,9336.58,432144,119453,51375.1,729859
1.19893,0.0180152,45130.2,73931,-153.712,442303,126032,53707.4,754233
1.20074,0.018063,47746,81637.7,-9644.64,452463,132610,56039.7,778608
1.20256,0.0181109,50532.6,90559.9,-18531.8,463005,138745,58378.4,805565
1.20437,0.0181587,53687.7,102107,-26117.5,474374,143924,60731.2,838096
1.20618,0.0182066,56842.8,113653,-33702.9,485742,149102,63084,870625
1.20799,0.0182544,59998.2,125201,-41288.8,497110,154280,65437,903157
1.2098,0.0183024,78353.5,136501,-38889.8,529745,160304,70225.9,936936
1.21161,0.0183503,101206,147729,-33537.8,568672,166578,75735.8,971088
1.21342,0.0183983,124056,158956,-28186.2,607596,172852,81245.2,1.00524e+06
1.21523,0.0184463,138931,165684,-27118.9,631229,176882,84033,1.02607e+06
1.21704,0.0184945,138179,163599,-34444.6,624903,176517,81488.5,1.0208e+06
1.21885,0.0185427,127600,155974,-38197.3,598948,174074,75756.4,998332
1.22067,0.0185907,104934,141539,-37556.4,548856,169076,66104.5,954714
1.22248,0.0186387,82268.1,127104,-36914.9,498761,164078,56452.1,911094
1.22429,0.0186868,59603.3,112669,-36273.6,448670,159081,46800.4,867477
1.2261,0.018735,57349.7,110669,-34588.3,448270,152841,45518,854108
1.22791,0.0187833,54891.9,108544,-32913.2,447372,146614,44151.8,840436
1.22972,0.0188316,52433.7,106419,-31238.4,446474,140386,42785.4,826763
1.23153,0.0188798,49975.9,104294,-29563.3,445576,134159,41419.2,813091
1.23334,0.0189281,47517.7,102169,-27888.5,444678,127931,40052.9,799418
1.23515,0.0189764,45059.8,100044,-26213.4,443780,121704,38686.7,785746
1.23697,0.0190246,42601.7,97919.5,-24538.5,442882,115477,37320.3,772074
1.23878,0.0190729,43923.2,95567.4,-15282.3,442627,114327,36436.9,758366
1.24059,0.0191214,51598.2,98212.8,3857.06,447962,124981,39557.2,765575
1.2424,0.0191699,59273.1,100858,22995.7,453298,135635,42677.2,772783
1.24421,0.0192184,66948.2,103504,42135,458633,146290,45797.5,779991
1.24602,0.0192669,74623,106149,61273.6,463968,156944,48917.6,787199
1.24783,0.0193156,70745.4,104950,67499,460180,157298,51953.6,772630
1.24964,0.0193644,61870.9,100932,68408.9,451630,153696,54037.7,744112
1.25145,0.0194131,52995.9,96912.2,69318.7,443079,150095,56121.8,715593
1.25327,0.0194619,44121.4,92893.2,70228.4,434529,146493,58205.9,687076
1.25508,0.019511,47863.6,94045.6,65994.5,437744,138360,57124.5,669425
1.25689,0.01956,51576.6,95185.8,61772.4,440931,130238,56050.4,651750
1.2587,0.0196091,55289.8,96326.3,57550.3,444119,122115,54976.3,634074
1.26051,0.0196581,59002.8,97466.6,53328.3,447307,113993,53902.2,616400
1.26232,0.0197072,62716.1,98607.1,49106.2,450495,105870,52828.1,598724
1.26413,0.0197562,66429,99747.4,44884.1,453682,97747.8,51754,581049
1.26594,0.0198053,70142.3,100888,40662.1,456870,89625.1,50679.9,563373
1.26775,0.0198543,73855.3,102028,36440,460057,81502.8,49605.8,545698
1.26956,0.0199034,79976.7,104746,32684.2,469416,73342.9,49964.4,535377
1.27138,0.0199525,103590,117321,29301.7,521103,63190.7,59162.7,573745
1.27319,0.0200017,127206,129897,25919.2,572793,53038.2,68361.8,612117
1.275,0.0200509,150819,142472,22536.7,624480,42886,77560.1,650485
1.27681,0.0201001,165429,150317,19063.9,653974,33974.4,82942.7,671539
1.27862,0.0201492,139453,136842,15184.2,583446,30655.5,71126.2,614549
1.28043,0.0201983,113476,123366,11304.5,512914,27336.7,59309.1,557556
1.28224,0.0202475,87500.4,109891,7424.82,442385,24017.8,47492.6,500566
1.28405,0.0202967,67051.8,99412.6,4705.01,386347,23191.9,38080,459321
1.28586,0.0203461,64981,98878.8,6490.47,378481,31251.8,36881.7,472094
1.28768,0.0203956,62909.9,98345,8276.13,370614,39312.3,35683.3,484867
1.28949,0.020445,60839.1,97811.2,10061.6,362747,47372.3,34485,497640
1.2913,0.0204944,58768,97277.3,11847.2,354880,55432.8,33286.6,510413
1.29311,0.0205439,56697.2,96743.6,13632.7,347014,63492.7,32088.3,523186
1.29492,0.0205933,54626.3,96209.7,15418.3,339147,71552.7,30889.9,535958
1.29673,0.0206428,52555.3,95676,17203.8,331280,79613.2,29691.6,548732
1.29854,0.0206924,51588.4,97368.6,16698.5,331538,84444.2,30128.9,554840
1.30035,0.0207423,52313.8,102474,12681.6,344248,84326.1,33073.6,550734
1.30216,0.0207922,53039.2,107580,8665.06,356958,84208,36018.2,546629
1.30398,0.0208421,53764.5,112685,4648.25,369669,84089.9,38962.8,542523
1.30579,0.020892,54489.9,117791,631.664,382379,83971.8,41907.3,538418
1.3076,0.0209418,57003.6,124227,-2190.21,395827,83435.5,46903.3,536320
1.30941,0.0209917,61958,132479,-3381.11,410281,82328.5,54698.7,536962
1.31122,0.0210416,67062.8,137799,-6232.3,423705,83517,63235.7,538201
1.31303,0.0210915,72547.7,135674,-13297.6,434511,90531.7,73652.5,540953
1.31484,0.0211414,78033,133549,-20363.1,445317,97546.8,84070.1,543706
1.31665,0.0211914,80493.5,129713,-28816.1,453190,103454,88332.2,545691
1.31846,0.0212414,76311.5,121990,-38941.5,451676,105829,76828.1,543932
1.32028,0.0212915,86213.9,121300,-32346.4,441871,105150,77231.1,530396
1.32209,0.0213416,96117.3,120611,-25750.8,432067,104472,77634.8,516859
1.3239,0.0213917,105200,119274,-19636.5,422426,103533,78253.4,502758
1.32571,0.0214419,106796,112030,-17914.7,414279,100214,80842.4,483492
1.32752,0.0214921,108391,104786,-16193.1,406133,96894.1,83430.6,464228
1.32933,0.0215423,109986,97541.9,-14471.2,397986,93574.7,86019.6,444963
1.33114,0.0215924,111581,90297.9,-12749.7,389840,90255.3,88607.8,425699
1.33295,0.0216426,113177,83053.6,-11027.8,381694,86936,91196.9,406433
1.33476,0.0216928,114772,75809.8,-9306.11,373547,83616.8,93785.6,387169
1.33657,0.021743,116368,68565.4,-7584.43,365401,80297.2,96374.1,367904
1.33839,0.0217933,114558,63865.6,-3681.87,361118,78796.5,97395,357916
1.3402,0.0218437,107673,60055.7,343.917,359412,78200.3,93599.7,356656
1.34201,0.0218941,100789,56245.9,4369.31,357705,77604.1,89804.9,355397
1.34382,0.0219446,97633.1,56196.3,7585.78,353301,81515.6,85866.5,370018
1.34563,0.0219951,93313.8,59052.4,11212.6,350752,86610.9,80004.6,394700
1.34744,0.0220455,88994.2,61908.7,14839.7,348203,91706.5,74142.5,419383
1.34925,0.022096,84674.8,64764.8,18466.5,345655,96801.8,68280.6,444065
1.35106,0.0221465,80355.2,67621.1,22093.6,343106,101897,62418.3,468749
1.35287,0.022197,76035.9,70477.2,25720.5,340558,106993,56556.6,493431
1.35469,0.0222476,74264.8,70118.3,24874,333008,110201,60259.4,521227
1.3565,0.0222982,73799.3,68112.3,21736,322897,112442,68861.9,550615
1.35831,0.0223489,69561.2,66260.8,20710.9,307154,114319,72837.5,570554
1.36012,0.0223996,57503.5,64729.9,24066.1,279739,115439,67221.2,570904
1.36193,0.0224504,45445.3,63199,27421.4,252323,116559,61604.8,571255
1.36374,0.0225011,33387.7,61668.1,30776.7,224908,117680,55988.5,571605
1.36555,0.0225519,21329.5,60137.1,34132,197491,118800,50372.1,571955
1.36736,0.0226028,20342.8,59952.8,36649.2,193228,117522,47481.3,559791
1.36917,0.0226537,21272,60001.6,39021.8,192972,115829,45061.9,545461
1.37099,0.0227046,22201,60050.4,41394,192715,114136,42642.7,531132
1.3728,0.0227555,23130.2,60099.2,43766.6,192458,112443,40223.2,516801
1.37461,0.0228065,23991.8,61006.3,46397,193964,110886,38195.8,502772
1.37642,0.0228574,24686.6,64038.8,49667,199832,109665,37138,489486
1.37823,0.0229083,25381.2,67071.2,52936.7,205701,108443,36080.4,476201
1.38004,0.0229592,31896.3,72585.7,54109.5,221836,107710,37075.3,476224
1.38185,0.0230103,53386.1,84486.1,49886.3,264389,108234,43351.8,510495
1.38366,0.0230614,74877.3,96387.3,45662.9,306943,108758,49628.7,544767
1.38547,0.0231125,92579.1,102908,42180.3,337315,109147,55405.8,565584
1.38728,0.0231636,101801,98862.5,40012,342170,109233,59705.3,559328
1.3891,0.0232148,81611.1,87509.5,35581.7,293185,108197,51724.7,519551
1.39091,0.023266,61419.4,76155.7,31151.3,244198,107162,43743.8,479771
1.39272,0.0233172,45271.1,67157.1,27585.2,204517,105966,36971.1,446637
1.39453,0.0233685,48640.5,69527.5,28192.5,209760,104001,36031.4,445585
1.39634,0.0234198,52009.3,71897.5,28799.4,215002,102036,35091.2,444531
1.39815,0.0234711,55378.8,74267.9,29406.7,220245,100070,34151.5,443479
1.39996,0.0235224,58747.9,76638.1,30013.8,225487,98105.2,33211.8,442426
1.40177,0.0235737,62117,79008.3,30620.9,230729,96139.8,32271.6,441373
1.40358,0.023625,65486.2,81378.5,31228,235972,94174.6,31331.9,440321
1.4054,0.0236763,68855.3,83748.7,31835.1,241214,92209.3,30391.8,439268
1.40721,0.0237276,72224.4,86118.9,32442.2,246456,90244,29452,438215
1.40902,0.0237789,75593.5,88489.1,33049.3,251699,88278.7,28511.9,437162
1.41083,0.0238302,78962.7,90859.3,33656.4,256941,86313.5,27572.2,436110
1.41264,0.0238816,71712.9,84912.3,25317.1,251666,85117.5,19153.9,431485
1.41445,0.0239329,63630.8,78313.5,16276.7,245566,83981.8,10149.5,426580
1.41626,0.0239845,60311.3,75752.3,20794.1,253517,85724.5,13063.4,431528
1.41807,0.024036,57636,73737.3,27144.4,263368,87856.3,17588.4,437807
1.41988,0.0240875,55672.7,72326.7,33662.3,263465,89182.8,22702.8,435852
1.4217,0.024139,54542.8,71623.6,40375.8,252152,89567.1,28506.1,424264
1.42351,0.0241906,52733.9,70382.3,44192.1,243593,90016.5,33734.9,414156
1.42532,0.0242423,49915,68340.6,43698.5,239132,90562.8,38108.3,406250
1.42713,0.0242939,47096.1,66298.7,43204.8,234670,91109.1,42482,398344
1.42894,0.0243456,44258.7,64678.4,42698.6,231045,92339.8,46782.1,391691
1.43075,0.0243972,41357.4,64494.8,42149.5,230271,95905.1,50833,389306
1.43256,0.0244488,38456.3,64311.2,41600.3,229498,99470.2,54883.6,386921
1.43437,0.0245004,35555,64127.7,41051.2,228724,103036,58934.5,384537
1.43618,0.0245521,33992.9,63627.6,39559.6,228348,104520,62258.6,381658
1.438,0.024604,34746.8,62580.1,36437.7,228662,102407,64326.3,377923
1.43981,0.0246558,35500.7,61532.6,33316,228976,100294,66393.9,374189
1.44162,0.0247077,36254.5,60485,30194.1,229289,98180.5,68461.7,370454
1.44343,0.0247595,37008.4,59437.5,27072.3,229603,96067.3,70529.3,366720
1.44524,0.0248114,37762.4,58390,23950.4,229917,93953.9,72597,362986
1.44705,0.0248632,38516.2,57342.5,20828.7,230230,91840.7,74664.6,359251
1.44886,0.0249151,41921.3,59601.1,17872.1,230123,86948.5,77058.6,357292
1.45067,0.0249669,47208.2,65464.6,11522.8,226403,84717.1,77269,357657
1.45248,0.0250187,52502.6,71363.5,5099.99,222613,82575.3,77429.8,358049
1.45429,0.0250706,57796.8,77262.3,-1322.27,218823,80433.3,77590.6,358441
1.45611,0.0251225,58030.6,76675.6,-6834.47,213097,79866.9,74995.7,353254
1.45792,0.0251745,54011.2,65172.3,-2102.56,196226,76745.6,66795.4,331294
1.45973,0.0252264,49992.1,53669.6,2629.07,179356,73624.6,58595.7,309336
1.46154,0.0252784,45972.8,42166.2,7361.02,162485,70503.4,50395.4,287376
1.46335,0.0253305,44391.6,35804.8,9089.21,153065,69479.5,45774.4,279195
1.46516,0.0253826,44314.9,32759,8877.4,148426,69689.3,43386.3,279935
1.46697,0.0254346,43928.8,31063.6,7833.93,145393,68786.4,40893.1,284789
1.46878,0.0254867,43542.7,29368.1,6790.42,142360,67883.4,38399.5,289642
1.47059,0.0255388,43156.7,27672.8,5746.95,139327,66980.4,35906.3,294496
1.47241,0.0255909,42770.6,25977.3,4703.44,136294,66077.4,33412.7,299350
1.47422,0.025643,42384.5,24281.9,3659.97,133262,65174.5,30919.5,304203
1.47603,0.025695,41990.7,22617.4,2626.72,130235,64315.4,28483.2,309106
1.47784,0.0257471,40664.1,24678.3,2826.68,127895,68750.6,32934.7,319911
1.47965,0.0257993,39089.3,27790.9,7891.22,132944,73855.9,38070.7,331235
1.48146,0.0258516,37445.6,31196,14309.9,140049,79147.2,43396.7,342703
1.48327,0.0259038,35801.7,34601.4,20729,147154,84438.9,48723.2,354172
1.48508,0.025956,34158,38006.5,27147.7,154259,89730.3,54049.2,365640
1.48689,0.0260083,33708.9,40625.8,32055.1,159595,91733.4,56543.4,367548
1.48871,0.0260607,34676.7,42312.7,35169.6,162832,89836.9,55679.1,358121
1.49052,0.026113,35644.6,43999.8,38284.4,166069,87940.3,54814.7,348692
1.49233,0.0261653,35906.3,45210.5,39403.9,168066,83040.1,54383.8,338650
1.49414,0.0262176,35699.6,46105.5,39200.5,169241,76147.5,54240.3,328200
1.49595,0.02627,35492.9,47000.3,38996.8,170416,69254.7,54096.9,317750
1.49776,0.0263223,35286.2,47895.2,38793.4,171591,62362.1,53953.4,307299
1.49957,0.0263746,35029.3,50008.3,39385.9,171597,58922.4,53514.1,301523
1.50138,0.026427,34646.4,55180.1,41977.7,168669,64151.9,52331.7,307481
1.50319,0.0264794,34263.5,60351.6,44569.1,165741,69380.8,51149.3,313438
1.50501,0.0265318,34384.6,64681.7,45449.7,163034,73666,50176,317763
1.50682,0.0265843,35524,65019.2,40671.7,160339,74535.3,49647.9,315169
1.50863,0.0266368,33593.6,61215.6,37417.8,154548,75061.7,47936.9,307880
1.51044,0.0266893,31663.3,57412.3,34164.1,148757,75588.1,46225.9,300591
1.51225,0.0267419,29887.3,53941.1,30794.6,143424,76070.1,44767.1,294356
1.51406,0.0267944,29255.8,52931.4,26569,141484,76224.6,45176.6,295937
1.51587,0.0268469,28624.2,51921.6,22343.2,139545,76378.9,45586.1,297519
1.51768,0.0268994,27992.7,50911.9,18117.7,137605,76533.4,45995.6,299100
1.51949,0.026952,27361,49902.2,13891.9,135666,76687.7,46405.1,300681
1.5213,0.0270045,26729.6,48892.5,9666.33,133727,76842.2,46814.6,302263
1.52312,0.027057,26433.7,48190.5,5500.21,132917,77231.3,47209.2,303939
1.52493,0.0271095,26284.4,47622.9,1360.4,132600,77722.8,47597.3,305656
1.52674,0.0271621,26135.1,47055.2,-2779.68,132282,78214.4,47985.5,307373
1.52855,0.0272147,25795,47791.2,-1746.84,133199,78637.2,48506.1,301391
1.53036,0.0272674,25390.4,48969.2,1039.78,134533,79036.8,49071.8,292798
1.53217,0.0273201,24985.6,50147.1,3826.29,135868,79436.2,49637.4,284205
1.53398,0.0273729,24580.9,51325.1,6612.91,137202,79835.8,50203,275612
1.53579,0.0274256,23997.3,52455.9,9436.11,138719,80179.1,50709.4,267069
1.5376,0.0274783,22530.4,53354.1,12440.6,141133,80244.8,50923.2,258775
1.53942,0.027531,21063.8,54252.3,15445,143548,80310.4,51137.1,250481
1.54123,0.0275837,19596.8,55150.4,18449.5,145962,80376.1,51351,242187
1.54304,0.0276364,18949.3,55351.1,21649.3,147875,80371.6,51910.4,234742
1.54485,0.0276891,21611.5,52734.6,25638.8,147760,80083.3,53865.3,230726
1.54666,0.0277419,24549.6,50766,28835.3,145132,79234.1,55491.6,224972
1.54847,0.0277947,22258.4,48999.1,26971.9,133099,76274.8,53245,213930
1.55028,0.0278475,17641.1,46518.3,24152.2,120556,73198,49926.4,202997
1.55209,0.0279004,16300.1,45922.6,23245.7,118229,70955.3,48270.7,203545
1.5539,0.0279533,16018.7,45936.7,22958,119205,68982.5,47152.7,207805
1.55572,0.0280062,15737.2,45950.7,22670.3,120181,67009.6,46034.7,212065
1.55753,0.028059,15455.8,45964.8,22382.6,121157,65036.8,44916.7,216324
1.55934,0.0281119,15174.3,45978.9,22094.9,122134,63063.9,43798.7,220585
1.56115,0.0281648,14892.8,45992.9,21807.2,123109,61091.2,42680.8,224844
1.56296,0.0282177,14611.3,46007,21519.5,124086,59118.3,41562.7,229105
1.56477,0.0282706,14329.9,46020.9,21231.7,125062,57145.5,40444.8,233364
1.56658,0.0283234,14048.4,46035,20944,126038,55172.6,39326.8,237624
1.56839,0.0283763,14285.8,44616.1,19808.3,122006,53495.4,36970.8,235769
1.5702,0.0284292,15130.7,41116.7,17092.9,110603,52604.7,32519.9,223836
1.57201,0.028482,15975.5,37617.5,14377.6,99200.6,51714.1,28069.3,211903
1.57383,0.0285349,16820.3,34118.1,11662.2,87797.6,50823.5,23618.4,199970
1.57564,0.0285878,17003.6,32086.9,11119.7,81767.5,51112.2,21252.8,193879
1.57745,0.0286408,16189.4,32202.7,14558.8,83999.8,53423.2,22275,197439
1.57926,0.0286939,15375.3,32318.5,17997.6,86231.9,55734,23297.2,200999
1.58107,0.0287469,14561.1,32434.2,21436.7,88464.2,58045,24319.4,204559
1.58288,0.0287999,14027.7,32689,23664.4,89797.8,59270,24799.3,206318
1.58469,0.028853,14014.5,33060,23370.7,89157.5,58457.1,24155.1,204349
1.5865,0.028906,14001.2,33430.9,23077.1,88517.3,57644.4,23511.1,202380
1.58831,0.0289591,13988,33801.9,22783.6,87877,56831.6,22867,200412
1.59013,0.0290121,13974.7,34172.8,22489.8,87236.7,56018.7,22222.9,198443
1.59194,0.0290652,13961.5,34543.8,22196.3,86596.4,55205.9,21578.9,196475
1.59375,0.0291183,13948.2,34914.7,21902.6,85956.1,54393,20934.7,194506
1.59556,0.0291713,13935,35285.7,21609,85315.8,53580.2,20290.7,192537
1.59737,0.0292244,13921.7,35656.6,21315.3,84675.5,52767.4,19646.6,190569
1.59918,0.0292774,13908.5,36027.6,21021.7,84035.2,51954.6,19002.5,188600
1.60099,0.0293305,15531.8,37588,20967.3,85051.5,50894.2,18152.8,189261
1.6028,0.0293837,20224.1,41378.9,21361.7,89174.2,49369.9,16917.6,194854
1.60461,0.0294368,21489.7,43212.5,20094.3,89111.2,48474.7,15568.6,196512
1.60643,0.0294899,18011.1,42336.1,16525.6,83252.4,48450.7,14061.7,192721
1.60824,0.029543,13779.8,40229.6,14170.6,76409.7,48855.2,13176.7,187189
1.61005,0.0295962,7579.77,34905.2,14990,66992.2,50380.6,13918.3,177098
1.61186,0.0296493,4077.51,31049.2,15433.5,60600.1,50725,14377.3,168319
1.61367,0.0297025,5411.22,29824.6,15203.3,59630.5,48952,14329.5,161886
1.61548,0.0297557,6744.82,28600.2,14973.1,58661.1,47179.3,14281.7,155455
1.61729,0.0298088,8078.45,27375.7,14742.9,57691.5,45406.4,14233.9,149023
1.6191,0.029862,8375.96,26693.3,13587.5,57996.5,44902,14873,146815
1.62091,0.0299152,8482.75,26110.6,12261.9,58536.1,44631.1,15638.4,145384
1.62273,0.0299684,8589.53,25527.9,10936.2,59075.6,44360.2,16403.8,143953
1.62454,0.0300216,8696.31,24945.3,9610.57,59615.2,44089.2,17169.2,142523
1.62635,0.0300748,8431.78,24083.6,8427.75,60347.3,43800.3,17821.7,142288
1.62816,0.030128,6776.17,22176.8,7780.32,61801,43444,18050.9,146535
1.62997,0.0301813,5120.44,20269.9,7132.85,63254.6,43087.7,18280.2,150782
1.63178,0.0302345,4347.45,18737.3,7462.4,62890,42506.9,18510.5,154040
1.63359,0.0302878,4832.65,17738.2,9184.75,59933.2,41606.1,18742.5,155888
1.6354,0.0303411,5317.85,16739.2,10907,56976.7,40705.4,18974.4,157736
1.63721,0.0303944,5803.08,15740.1,12629.4,54019.9,39804.6,19206.4,159583
1.63902,0.0304476,6132.94,14812.2,14354.1,50751.5,38718.1,19530,160571
1.64084,0.0305009,5561.43,14297.5,16093.7,45672.9,36553.2,20385.2,156570
1.64265,0.0305543,4989.88,13782.8,17833.1,40594.5,34388.5,21240.4,152569
1.64446,0.0306076,4732.25,14167.8,18987,35413.6,32601.6,21870.9,149266
1.64627,0.0306609,5026.11,16011.2,19018.6,30066.3,31506.1,21985.8,147076
1.64808,0.0307142,5237.28,15053.5,17258.8,25026.9,30875.4,19636.3,142346
1.64989,0.0307676,5448.34,14095.6,15499,19987.7,30244.6,17286.9,137616
1.6517,0.0308209,5536.05,13746.9,13633.1,18308.5,30081.8,16317.3,134302
1.65351,0.0308742,5521.85,13900.7,11679.7,19402.5,30305.2,16486.6,132157
1.65532,0.0309276,5507.59,14054.4,9726.24,20496.4,30528.6,16655.8,130011
1.65714,0.0309809,5493.39,14208.2,7772.9,21590.4,30752,16825.1,127866
1.65895,0.0310342,5512.57,14655.8,5867.92,23107.8,30931.8,17034.7,125887
1.66076,0.0310875,5658.45,16216.6,4146.83,26229.3,30946.4,17397.3,124543
1.66257,0.0311409,5804.3,17777.5,2425.62,29351,30960.9,17759.8,123198
1.66438,0.0311942,5578.98,19369.6,1265.11,32103.7,31063.7,17715.3,121777
1.66619,0.0312476,3807.72,21092,2439.11,33321.3,31533.9,15975.2,120032
1.668,0.031301,2036.62,22814.3,3613.02,34538.7,32004,14235.4,118288
1.66981,0.0313544,265.422,24536.7,4787.02,35756.2,32474.2,12495.4,116544
1.67162,0.0314078,-1726.58,26057.5,6054.98,37374.6,32870.2,10748.3,114749
1.67344,0.0314612,-3881.52,27429.8,7392.36,39288.8,33211.5,8995.92,112915
1.67525,0.0315146,-6036.34,28802.1,8729.64,41202.7,33552.8,7243.61,111082
1.67706,0.031568,-8191.28,30174.5,10067,43116.9,33894.1,5491.23,109249
1.67887,0.0316214,-7860.21,30228,11815.4,43964.3,34000,6945.6,108394
1.68068,0.0316749,-6834.25,29912.8,13678.7,44513.6,34040,9296.46,107813
1.68249,0.0317283,-5943.96,29599.4,15458.4,44827.1,33987.5,11577.7,107104
1.6843,0.0317817,-7856.98,29291.7,15493.1,40285.7,32050.2,12398,103759
1.68611,0.0318351,-10196.4,27661.1,14404.9,35745,31170.1,11826.3,99850.1
1.68792,0.0318886,-12535.8,26030.4,13316.7,31204.1,30289.9,11254.7,95940.6
1.68973,0.0319421,-14170.1,24599.6,12263.6,27856.1,29251.8,10970.9,92693.7
1.69155,0.0319955,-13878.2,23714.3,11306.5,27766.1,27782.3,11473.4,91255.7
1.69336,0.032049,-13586.4,22829.2,10349.5,27676.1,26312.9,11975.8,89817.9
1.69517,0.0321024,-13294.5,21944,9392.47,27586.1,24843.4,12478.3,88379.9
1.69698,0.0321559,-13002.7,21058.8,8435.47,27496.1,23374,12980.7,86942.1
1.69879,0.0322094,-12710.9,20173.6,7478.4,27406.1,21904.5,13483.2,85504.1
1.7006,0.0322628,-12419.1,19288.5,6521.4,27316.2,20435,13985.6,84066.3
1.70241,0.0323163,-12127.2,18403.3,5564.33,27226.2,18965.5,14488,82628.5
1.70422,0.0323697,-11835.4,17518.1,4607.33,27136.2,17496.1,14990.5,81190.5
1.70603,0.0324232,-11543.6,16632.9,3650.27,27046.3,16026.6,15492.9,79752.7
1.70785,0.0324766,-11510.1,15261.6,2107.93,24961.7,15559.6,14417.4,76660.2
1.70966,0.0325301,-11500.2,13845.9,512.166,22695.5,15183.9,13197.9,73416.9
1.71147,0.0325836,-11490.2,12430.4,-1083.48,20429.3,14808.2,11978.7,70173.7
1.71328,0.0326371,-11808.8,11339.7,-1703.19,18773.1,14273.9,11052.7,67852.9
1.71509,0.0326905,-10263.2,10369.1,-202.33,17629.3,13971.7,12669.1,65072.5
1.7169,0.032744,-8717.48,9398.43,1298.63,16485.4,13669.4,14285.5,62291.9
1.71871,0.0327975,-7171.84,8427.83,2799.49,15341.6,13367.2,15901.8,59511.5
1.72052,0.032851,-7132.33,8561.13,2860.04,15662.3,13034.8,16243.3,58679.5
1.72233,0.0329045,-7190.23,8765.83,2827.42,16077.7,12700.5,16502.2,57973.7
1.72415,0.032958,-7248.18,8970.56,2794.77,16493.1,12366.1,16761.2,57267.8
1.72596,0.0330115,-7306.07,9175.26,2762.15,16908.6,12031.8,17020.1,56561.9
1.72777,0.033065,-7364.02,9379.99,2729.51,17324,11697.5,17279.1,55856
1.72958,0.0331185,-7421.91,9584.69,2696.89,17739.4,11363.1,17538,55150.1
1.73139,0.033172,-7479.79,9789.41,2664.27,18154.9,11028.8,17797,54444.2
1.7332,0.0332255,-7648.79,10039.1,2681.34,18058,10742.5,18096.1,53785.1
1.73501,0.0332791,-7067.05,9709.42,2283.44,15415.1,10845.8,17857.4,51599.6
1.73682,0.0333326,-6145.46,9179.96,1715.52,12988.2,10962.7,17435.7,48998.7
1.73863,0.0333861,-5223.67,8650.42,1147.57,10561.2,11079.7,17014,46397.4
1.74045,0.0334396,-3799.02,7923.96,874.339,9232.3,11184.1,16662.8,43961.6
1.74226,0.0334931,-2909.38,7726.39,1313.63,9214.69,11091.3,16279.8,43777.2
1.74407,0.0335466,-2135.34,7598.82,1764.76,9137.09,10985,15884,43743
1.74588,0.0336002,-1361.22,7471.25,2215.9,9059.49,10878.6,15488.1,43708.8
1.74769,0.0336537,-587.157,7343.68,2667.02,8981.89,10772.3,15092.3,43674.6
1.7495,0.0337072,186.94,7216.1,3118.17,8904.28,10666,14696.5,43640.4
1.75131,0.0337607,961.002,7088.54,3569.29,8826.68,10559.7,14300.6,43606.2
1.75312,0.0338142,1735.1,6960.96,4020.44,8749.08,10453.4,13904.8,43572
1.75493,0.0338678,2611.97,7146.1,3983.61,8879.03,10643.2,13603.8,43847.3
1.75674,0.0339213,3559.99,7547.54,3609.25,9152.55,11038,13368.4,44336.8
1.75856,0.0339748,4507.97,7948.96,3234.93,9426.06,11432.7,13132.9,44826.3
1.76037,0.0340284,3653.46,9709.48,3046.32,11257.4,11955.9,13423.1,49022.1
1.76218,0.034082,2576.6,11637.6,2880.65,13280.8,12495,13778.1,53675
1.76399,0.0341355,1567.96,11713.1,3099.47,13883,12327.6,13515.8,54689.4
1.7658,0.0341891,584.082,11117.3,3457.59,13970.1,11904.2,13029.9,54385.5
1.76761,0.0342426,-399.808,10521.4,3815.74,14057.2,11480.8,12543.9,54081.4
1.76942,0.0342962,-1383.69,9925.67,4173.86,14144.3,11057.4,12058,53777.4
1.77123,0.0343497,-2367.58,9329.8,4532.02,14231.4,10633.9,11572.1,53473.3
1.77304,0.0344033,-3351.46,8734.03,4890.14,14318.5,10210.5,11086.2,53169.4
1.77486,0.0344568,-3148.66,7069.03,5109.01,12933.1,9370.79,10656.6,50016.6
1.77667,0.0345104,-2561.41,5943.89,5735.53,11581,8900.59,10515.6,47768
1.77848,0.0345639,-2180.53,5737.6,6760.87,10907,8919.94,10588.4,47525.8
1.78029,0.0346175,-1622,5542.32,7762.69,10290.9,8878.06,10608.5,47141.9
1.7821,0.034671,-840.253,5360.85,8735.02,9747.47,8759.27,10562.4,46580
1.78391,0.0347246,-58.4457,5179.39,9707.45,9204.07,8640.46,10516.4,46018.1
1.78572,0.0347782,723.297,4997.92,10679.8,8660.65,8521.67,10470.3,45456.2
1.78753,0.0348317,1505.1,4816.46,11652.2,8117.26,8402.86,10424.3,44894.3
1.78934,0.0348853,2784.06,4533.37,12318.9,7948.75,8056.44,10382.7,44032.8
1.79116,0.0349388,4693.24,4092.94,12542.5,8239.38,7414.1,10391.6,42691.5
1.79297,0.0349924,6399.79,3487.45,12488.6,8261.57,6810.85,10721.3,40749.3
1.79478,0.0350459,8106.42,2881.93,12434.7,8283.76,6207.56,11051.1,38807
1.79659,0.0350995,9812.94,2276.45,12380.8,8305.95,5604.32,11380.8,36864.8
1.7984,0.0351531,11519.6,1670.92,12326.8,8328.14,5001.03,11710.6,34922.4
1.80021,0.0352066,12574.5,1597.61,12450.6,8495.95,4227.02,12538.6,34837.1
1.80202,0.0352602,13140.3,1923.74,12707.7,8773.05,3324.76,13740.8,36145.5
1.80383,0.0353137,13706.1,2249.85,12964.8,9050.15,2422.58,14942.9,37453.9
1.80564,0.0353673,14035.4,2476.36,13268.5,9422.32,1547.91,15971.8,38289.3
1.80745,0.0354209,13819.9,2473.54,13679.5,10013.3,736.805,16601.8,38035.6
1.80927,0.0354744,13328.1,2429.25,14065.9,10577.7,-139.809,17019.9,37362.8
1.81108,0.035528,12797.5,2379.13,14448.8,11138.3,-1025.57,17408.1,36631
