"arc_length","Displacement_Magnitude","Sxx","Sxy","Sxz","Syy","Syz","Szz","Von_Mises_Stress"
0,0,2.43283e+06,-46804.3,4122.98,5.07948e+06,547245,2.10892e+06,2.99406e+06
0.00181107,6.07183e-07,2.34529e+06,-67020.6,5629.74,4.93559e+06,495976,1.99733e+06,2.9362e+06
0.00362215,1.21437e-06,2.25775e+06,-87236,7137.24,4.79169e+06,444707,1.88573e+06,2.87835e+06
0.00543323,1.82155e-06,2.17021e+06,-107452,8644,4.6478e+06,393437,1.77414e+06,2.82049e+06
0.00724431,2.54602e-06,2.0845e+06,-124190,11126.6,4.51026e+06,344344,1.66339e+06,2.76859e+06
0.00905538,3.95633e-06,2.00902e+06,-121492,19058.2,4.40823e+06,307412,1.5574e+06,2.74996e+06
0.0108665,5.38954e-06,1.93354e+06,-118794,26989.7,4.3062e+06,270481,1.4514e+06,2.73132e+06
0.0126775,6.8312e-06,1.85805e+06,-116097,34921.6,4.20417e+06,233548,1.34541e+06,2.71269e+06
0.0144886,8.27698e-06,1.78257e+06,-113400,42853.2,4.10214e+06,196616,1.23941e+06,2.69406e+06
0.0162997,9.72495e-06,1.70708e+06,-110702,50785.1,4.00011e+06,159684,1.13342e+06,2.67542e+06
0.0181108,1.11743e-05,1.6316e+06,-108005,58716.6,3.89808e+06,122752,1.02743e+06,2.65679e+06
0.0199218,1.24107e-05,1.55513e+06,-108400,68313.8,3.78488e+06,86164.2,929997,2.64631e+06
0.0217329,1.45121e-05,1.48817e+06,-94942.8,92950.5,3.68308e+06,61385.3,848271,2.60018e+06
0.023544,1.73227e-05,1.399e+06,-68043.9,127016,3.5384e+06,32539.8,739812,2.56078e+06
0.0253551,2.01367e-05,1.30983e+06,-41145.8,161080,3.39372e+06,3695.74,631357,2.52137e+06
0.0271662,2.25639e-05,1.24606e+06,-23533.1,187354,3.28347e+06,-11246.3,552954,2.4924e+06
0.0289772,2.44956e-05,1.21778e+06,-18899.6,202738,3.22137e+06,-6756.02,516558,2.478e+06
0.0307883,2.64824e-05,1.18951e+06,-14266,218122,3.15926e+06,-2265.66,480162,2.46361e+06
0.0325994,2.85128e-05,1.16123e+06,-9632.51,233506,3.09716e+06,2224.63,443767,2.44921e+06
0.0344105,3.0578e-05,1.13295e+06,-4998.98,248890,3.03505e+06,6715,407371,2.43482e+06
0.0362215,3.26716e-05,1.10467e+06,-365.451,264274,2.97294e+06,11205.3,370975,2.42042e+06
0.0380326,3.47883e-05,1.0764e+06,4268.08,279659,2.91084e+06,15695.6,334580,2.40602e+06
0.0398437,3.69243e-05,1.04812e+06,8901.62,295043,2.84873e+06,20185.9,298184,2.39163e+06
0.0416548,3.91026e-05,1.0209e+06,13279.2,310078,2.79044e+06,25346.6,261400,2.38044e+06
0.0434658,4.24035e-05,1.03768e+06,7049.56,310656,2.89016e+06,58280.5,208514,2.5024e+06
0.0452769,4.5808e-05,1.01111e+06,15298.7,302699,2.7992e+06,49752.8,227206,2.42255e+06
0.047088,4.93453e-05,985784,26692.3,294590,2.69822e+06,38415.1,254349,2.32869e+06
0.0488991,5.33415e-05,1.01944e+06,39495.1,295765,2.76518e+06,59838.9,246305,2.39227e+06
0.0507102,5.73384e-05,1.0531e+06,52297.2,296939,2.83213e+06,81261.5,238262,2.45584e+06
0.0525212,6.1336e-05,1.08675e+06,65100,298114,2.89909e+06,102685,230218,2.51941e+06
0.0543323,6.53341e-05,1.12041e+06,77902.1,299288,2.96605e+06,124108,222175,2.58298e+06
0.0561434,6.90906e-05,1.13606e+06,75355.6,289609,2.9826e+06,130690,216484,2.6053e+06
0.0579545,7.24704e-05,1.1227e+06,48070.8,262439,2.91792e+06,113353,214587,2.5611e+06
0.0597655,7.58674e-05,1.10933e+06,20786.1,235268,2.85323e+06,96014.8,212689,2.51691e+06
0.0615766,7.92793e-05,1.09596e+06,-6501.1,208096,2.78854e+06,78675.3,210792,2.47271e+06
0.0633877,8.34571e-05,1.08518e+06,27405.9,199576,2.84161e+06,104557,187403,2.5435e+06
0.0651988,8.77683e-05,1.07485e+06,72006.5,194314,2.91526e+06,137991,160258,2.63438e+06
0.0670099,9.21821e-05,1.0655e+06,103663,191459,2.98777e+06,166847,134573,2.71888e+06
0.0688209,9.69364e-05,1.05933e+06,93472.9,196378,3.05658e+06,180898,113605,2.78273e+06
0.070632,0.000101707,1.05317e+06,83282.8,201299,3.1254e+06,194949,92638.4,2.84658e+06
0.0724431,0.000106491,1.04701e+06,73093,206218,3.19421e+06,209001,71670.8,2.91043e+06
0.0742542,0.000111287,1.04085e+06,62902.9,211139,3.26303e+06,223052,50704.1,2.97428e+06
0.0760652,0.000116093,1.03468e+06,52712.8,216060,3.33185e+06,237104,29737.4,3.03813e+06
0.0778763,0.000120907,1.02871e+06,42305.1,220437,3.40292e+06,251518,7521.78,3.10488e+06
0.0796874,0.000125725,1.02583e+06,26766.9,213460,3.51425e+06,271645,-37220.4,3.22431e+06
0.0814985,0.00013113,1.01647e+06,-4006.76,191350,3.57667e+06,272066,-60003.9,3.29769e+06
0.0833095,0.000136538,1.00711e+06,-34781.4,169240,3.63908e+06,272488,-82788.5,3.37107e+06
0.0851206,0.000142391,978270,-34441.4,159231,3.57552e+06,269697,-83228.5,3.31921e+06
0.0869317,0.000148771,925783,-27486.1,155738,3.50394e+06,287661,-114062,3.28762e+06
0.0887428,0.000155163,883989,-21452.1,153022,3.45515e+06,304147,-139915,3.2705e+06
0.0905539,0.000161561,886280,-26129.2,162008,3.47698e+06,302680,-141326,3.2892e+06
0.0923649,0.000167909,870296,-34694.3,176383,3.44138e+06,294365,-148161,3.26437e+06
0.094176,0.00017427,854310,-43260.1,190758,3.40577e+06,286049,-154997,3.23954e+06
0.0959871,0.000180698,845669,-51028.4,201242,3.39444e+06,282773,-148089,3.23135e+06
0.0977982,0.000187149,838803,-58604.5,210786,3.38896e+06,280715,-137859,3.2272e+06
0.0996092,0.000193607,831938,-66180.2,220330,3.38349e+06,278658,-127628,3.22304e+06
0.10142,0.00020007,825072,-73756.2,229873,3.37802e+06,276600,-117398,3.21888e+06
0.103231,0.000206864,841486,-68088,229968,3.40715e+06,274429,-81778.2,3.21918e+06
0.105042,0.000213844,871211,-54846.8,224660,3.45605e+06,272195,-31640.7,3.22202e+06
0.106854,0.000220824,900936,-41605.5,219351,3.50496e+06,269960,18496.1,3.22486e+06
0.108665,0.000228111,853998,-33923.1,211228,3.33017e+06,259181,50053.4,3.3182e+06
0.110476,0.000235566,767638,-29099.3,201657,3.04036e+06,244007,72057.3,3.45809e+06
0.112287,0.00024338,753196,-19118.2,198443,2.98682e+06,229237,74763.4,3.51355e+06
0.114098,0.000251422,784611,-5848.59,199282,3.08394e+06,214724,65164.7,3.51517e+06
0.115909,0.000259468,816030,7421.29,200120,3.18107e+06,200212,55565.1,3.51679e+06
0.11772,0.000267517,847446,20690.9,200959,3.27818e+06,185699,45966.4,3.51841e+06
0.119531,0.000275569,878864,33960.8,201798,3.37531e+06,171186,36366.7,3.52003e+06
0.121342,0.000283623,910283,47230.6,202637,3.47244e+06,156674,26767.1,3.52165e+06
0.123153,0.000291681,941699,60500.2,203476,3.56956e+06,142161,17168.4,3.52327e+06
0.124964,0.00029974,973118,73770.1,204315,3.66668e+06,127649,7568.75,3.52488e+06
0.126775,0.000307802,1.00453e+06,87039.7,205154,3.7638e+06,113136,-2029.93,3.52651e+06
0.128586,0.000315865,1.03595e+06,100310,205993,3.86093e+06,98623.5,-11629.6,3.52812e+06
0.130398,0.000324119,1.07948e+06,112685,202663,3.9763e+06,87007.1,-13022.4,3.59824e+06
0.132209,0.000332783,1.17148e+06,124873,188402,4.20039e+06,82221.1,-3709.69,3.783e+06
0.13402,0.000341671,1.11852e+06,126484,185364,4.06235e+06,81393.3,-7244.21,3.66617e+06
0.135831,0.000350673,1.00246e+06,121402,186196,3.76804e+06,84213.3,-14407.3,3.42218e+06
0.137642,0.000360157,955891,103375,178730,3.56774e+06,93536.5,18264.1,3.2827e+06
0.139453,0.000369647,909318,85348.1,171263,3.36744e+06,102860,50934.8,3.14322e+06
0.141264,0.000379142,862746,67321,163797,3.16715e+06,112183,83606.2,3.00374e+06
0.143075,0.000388641,816172,49293.9,156330,2.96685e+06,121506,116277,2.86426e+06
0.144886,0.000398145,769600,31266.9,148864,2.76656e+06,130829,148948,2.72478e+06
0.146697,0.000407653,723027,13239.7,141397,2.56626e+06,140153,181619,2.5853e+06
0.148508,0.000417164,676455,-4787.38,133931,2.36596e+06,149476,214290,2.44583e+06
0.150319,0.000426678,629881,-22814.6,126464,2.16567e+06,158799,246961,2.30635e+06
0.15213,0.000436693,571057,-40403.5,112172,2.06274e+06,159210,251181,2.22122e+06
0.153942,0.000447218,577817,-31549.9,128059,2.13535e+06,152126,245147,2.24034e+06
0.155753,0.000457761,586418,-21964.6,144796,2.21262e+06,144854,238888,2.26225e+06
0.157564,0.000468308,595019,-12379.7,161533,2.28989e+06,137581,232629,2.28415e+06
0.159375,0.000478859,603620,-2794.35,178270,2.36716e+06,130308,226369,2.30605e+06
0.161186,0.000489413,612222,6790.59,195007,2.44443e+06,123036,220111,2.32796e+06
0.162997,0.000499971,620823,16375.9,211744,2.5217e+06,115763,213851,2.34986e+06
0.164808,0.000510531,629424,25960.8,228481,2.59897e+06,108490,207593,2.37176e+06
0.166619,0.000521095,638025,35546.2,245218,2.67623e+06,101218,201333,2.39366e+06
0.16843,0.000531834,647354,44591.1,267338,2.75682e+06,103512,219146,2.43174e+06
0.170241,0.000542781,657552,52989.7,295902,2.84136e+06,117258,265773,2.48918e+06
0.172052,0.000553728,667750,61388.7,324467,2.9259e+06,131004,312400,2.54661e+06
0.173863,0.000565551,665970,69225.6,318601,2.96923e+06,130956,288073,2.60444e+06
0.175674,0.000577614,664120,75760,305051,2.98519e+06,132569,240634,2.64857e+06
0.177486,0.000589677,661335,82147.4,290583,3.00132e+06,134439,195896,2.69118e+06
0.179297,0.000601734,650547,87279.3,268265,3.01891e+06,138532,174284,2.72078e+06
0.181108,0.000613794,639759,92411,245947,3.03651e+06,142623,152672,2.75039e+06
0.182919,0.000625856,628972,97543,223629,3.0541e+06,146716,131061,2.77999e+06
0.18473,0.00063792,618184,102675,201311,3.0717e+06,150807,109449,2.80959e+06
0.186541,0.000649986,607396,107806,178992,3.08929e+06,154899,87837,2.8392e+06
0.188352,0.000662054,596608,112938,156675,3.10689e+06,158991,66225.1,2.8688e+06
0.190163,0.000674124,585820,118070,134356,3.12448e+06,163083,44613.3,2.8984e+06
0.191974,0.000686211,581318,123518,113689,3.1467e+06,171539,27873.1,2.92818e+06
0.193785,0.000698308,579803,129116,93806.3,3.17112e+06,182069,13448.5,2.95805e+06
0.195596,0.000710791,559465,140364,76379.6,3.13515e+06,182982,14011.3,2.93015e+06
0.197407,0.000723434,531265,153972,59978.4,3.07397e+06,179879,20835.8,2.87812e+06
0.199218,0.000736516,510051,157967,53673.9,3.00525e+06,178236,21089.3,2.82847e+06
0.20103,0.000750035,498220,159633,58162,2.92564e+06,177019,13484,2.77426e+06
0.202841,0.00076373,496945,180120,69193.7,2.83217e+06,173177,-1018.22,2.69918e+06
0.204652,0.000777426,495671,200609,80226.3,2.7387e+06,169335,-15522.4,2.62411e+06
0.206463,0.000791038,495137,196610,83281.2,2.66026e+06,169955,-14160.7,2.55972e+06
0.208274,0.000804628,494819,185468,84008.9,2.58622e+06,171877,-8170.98,2.49844e+06
0.210085,0.000818221,494501,174326,84736.8,2.51217e+06,173798,-2181.4,2.43717e+06
0.211896,0.000831815,494183,163184,85464.6,2.43812e+06,175720,3808.3,2.37589e+06
0.213707,0.000845411,493865,152042,86192.5,2.36408e+06,177641,9797.89,2.31462e+06
0.215518,0.000859008,493547,140900,86920.2,2.29003e+06,179563,15787.6,2.25334e+06
0.217329,0.000873203,487862,171862,69877.9,2.28491e+06,181367,39527.5,2.24658e+06
0.21914,0.000887406,482098,203438,52576.1,2.28079e+06,183170,63526.7,2.24062e+06
0.220951,0.000901632,477762,229083,38013.8,2.27603e+06,182473,88402.9,2.22964e+06
0.222762,0.000915975,480895,223695,37786.6,2.26789e+06,168695,117864,2.19237e+06
0.224574,0.00093032,484028,218308,37558.5,2.25975e+06,154918,147325,2.1551e+06
0.226385,0.000944668,487161,212921,37331.2,2.25161e+06,141140,176786,2.11783e+06
0.228196,0.000959018,490294,207533,37103.1,2.24347e+06,127363,206247,2.08057e+06
0.230007,0.000973371,493427,202146,36875.9,2.23533e+06,113585,235708,2.0433e+06
0.231818,0.000987726,496560,196759,36647.8,2.22719e+06,99807.4,265170,2.00603e+06
0.233629,0.00100208,499693,191371,36420.6,2.21905e+06,86029.2,294631,1.96876e+06
0.23544,0.00101669,500501,179480,22627.1,2.23428e+06,102238,287310,1.98292e+06
0.237251,0.00103136,500807,166186,5905.35,2.25456e+06,124918,272054,2.00818e+06
0.239062,0.00104602,501112,152891,-10815.8,2.27484e+06,147598,256796,2.03343e+06
0.240873,0.00106069,501418,139597,-27537.5,2.29512e+06,170279,241540,2.05869e+06
0.242684,0.00107617,482840,133690,-8871.08,2.27008e+06,186004,244820,2.04035e+06
0.244495,0.00109189,468176,125286,17116.1,2.25239e+06,207032,267350,2.01746e+06
0.246306,0.00110761,453513,116881,43103.3,2.23471e+06,228060,289880,1.99457e+06
0.248118,0.00112334,438850,108477,69090.5,2.21702e+06,249088,312411,1.97168e+06
0.249929,0.00113931,427191,112485,83739.9,2.21693e+06,253315,296739,1.98606e+06
0.25174,0.00115541,417163,123227,92240.2,2.22638e+06,248428,260349,2.02066e+06
0.253551,0.00117151,407134,133970,100740,2.23582e+06,243541,223958,2.05526e+06
0.255362,0.00118762,397106,144712,109240,2.24527e+06,238655,187567,2.08985e+06
0.257173,0.00120373,387077,155455,117740,2.25472e+06,233768,151176,2.12445e+06
0.258984,0.00121984,377048,166196,126241,2.26416e+06,228881,114786,2.15904e+06
0.260795,0.00123595,367020,176939,134740,2.27361e+06,223994,78394.4,2.19364e+06
0.262606,0.00125206,356991,187681,143241,2.28306e+06,219108,42004.1,2.22824e+06
0.264417,0.00126818,346962,198424,151741,2.29251e+06,214221,5612.87,2.26283e+06
0.266228,0.0012849,414184,222030,155498,2.41478e+06,205134,11252.1,2.36141e+06
0.268039,0.00130182,504589,249498,157833,2.57091e+06,194785,29505,2.47919e+06
0.26985,0.00131873,594861,277104,160254,2.72717e+06,184413,47626.6,2.59727e+06
0.271662,0.0013359,659486,330619,179156,2.90707e+06,169494,40685.9,2.77052e+06
0.273473,0.00135304,683372,365584,195619,2.99897e+06,156832,26320,2.87105e+06
0.275284,0.00137004,594309,349116,205325,2.84689e+06,150428,-8633.47,2.76997e+06
0.277095,0.00138705,505244,332648,215029,2.69481e+06,144024,-43586.8,2.66889e+06
0.278906,0.00140401,439809,321042,207557,2.58392e+06,132911,-57784.7,2.58293e+06
0.280717,0.00142093,396522,313995,183984,2.51164e+06,117385,-52527,2.51114e+06
0.282528,0.00143834,405479,319314,185668,2.54562e+06,114997,-31063.3,2.52963e+06
0.284339,0.00145578,417296,325309,188736,2.58543e+06,113327,-8712.6,2.55305e+06
0.28615,0.00147322,429113,331304,191803,2.62523e+06,111658,13638.3,2.57647e+06
0.287961,0.00149066,440931,337299,194871,2.66504e+06,109988,35989.4,2.5999e+06
0.289772,0.0015081,452748,343294,197938,2.70484e+06,108319,58340.2,2.62332e+06
0.291583,0.00152558,464223,349396,200696,2.74528e+06,106702,80262.2,2.64758e+06
0.293394,0.0015441,465594,358656,194291,2.8044e+06,106651,89504.5,2.69651e+06
0.295206,0.00156262,466966,367917,187886,2.86352e+06,106600,98746.8,2.74544e+06
0.297017,0.00158113,468337,377177,181482,2.92265e+06,106549,107989,2.79437e+06
0.298828,0.00159965,469708,386437,175077,2.98177e+06,106497,117231,2.8433e+06
0.300639,0.00161817,471079,395697,168672,3.0409e+06,106446,126474,2.89222e+06
0.30245,0.00163669,472450,404957,162267,3.10002e+06,106395,135716,2.94115e+06
0.304261,0.0016552,473822,414218,155863,3.15914e+06,106343,144958,2.99008e+06
0.306072,0.00167372,475193,423478,149458,3.21827e+06,106292,154200,3.03901e+06
0.307883,0.00169226,477320,432900,143786,3.27842e+06,106020,164604,3.08832e+06
0.309694,0.00171106,499935,446701,157994,3.36639e+06,99776.5,206488,3.14789e+06
0.311505,0.00172992,519583,459227,169841,3.44641e+06,94709.2,242785,3.20278e+06
0.313316,0.00174946,492028,447427,154811,3.39794e+06,93043,217717,3.17161e+06
0.315127,0.00176921,436164,418500,130351,3.2711e+06,83799.9,173123,3.08165e+06
0.316938,0.00178905,396960,408604,112062,3.12881e+06,69453.3,116520,2.99327e+06
0.31875,0.00180899,377247,420975,100995,2.96842e+06,49136.6,45869.2,2.90674e+06
0.320561,0.00182892,356874,428253,90127.8,2.81152e+06,31378.8,-17110.3,2.81603e+06
0.322372,0.00184879,334109,417119,79981.4,2.66722e+06,22873.3,-52354.4,2.71026e+06
0.324183,0.00186867,311345,405984,69834.9,2.52292e+06,14367.9,-87598,2.60449e+06
0.325994,0.0018887,289533,393601,63012.6,2.43569e+06,26823.4,-95159.1,2.52726e+06
0.327805,0.00190874,267736,381200,56241,2.34933e+06,39599.3,-102297,2.45046e+06
0.329616,0.00192878,245939,368799,49469.4,2.26298e+06,52375.3,-109434,2.37367e+06
0.331427,0.00194882,224142,356397,42698,2.17662e+06,65151.5,-116572,2.29687e+06
0.333238,0.00196901,212810,355174,37379.3,2.15525e+06,75881.5,-123808,2.28075e+06
0.335049,0.00198956,224930,365360,33700.3,2.22549e+06,79968.1,-120024,2.36707e+06
0.33686,0.00201007,235517,356774,27777.9,2.21836e+06,81768.6,-102106,2.40238e+06
0.338671,0.00203058,246103,348188,21855.6,2.21123e+06,83568.9,-84186.8,2.43768e+06
0.340482,0.0020511,256690,339602,15933.2,2.2041e+06,85369.4,-66268.7,2.47299e+06
0.342294,0.00207161,267277,331015,10010.9,2.19697e+06,87169.8,-48349.6,2.5083e+06
0.344105,0.00209216,281110,323710,4922.45,2.20229e+06,91533.1,-30431.8,2.54552e+06
0.345916,0.00211303,328608,329692,8482.17,2.33669e+06,122477,-12516.7,2.60267e+06
0.347727,0.00213391,376106,335673,12042.1,2.47109e+06,153421,5399.3,2.65982e+06
0.349538,0.00215478,423604,341655,15601.8,2.60549e+06,184365,23314.4,2.71697e+06
0.351349,0.00217604,431359,320757,12399,2.57066e+06,194737,32542.6,2.62693e+06
0.35316,0.00219743,425409,290591,6864.14,2.47749e+06,198014,38774.1,2.48614e+06
0.354971,0.00221895,419084,268289,2408.77,2.40276e+06,204555,41408.2,2.38258e+06
0.356782,0.00224092,411374,275018,1937.13,2.39612e+06,223139,30760.6,2.4164e+06
0.358593,0.00226289,403664,281746,1465.61,2.38947e+06,241722,20113.9,2.45021e+06
0.360404,0.00228486,399617,285647,-11736.5,2.40053e+06,243649,22248.4,2.47148e+06
0.362215,0.00230684,380898,257809,-14342,2.28412e+06,231227,34900.4,2.34494e+06
0.364026,0.00232881,354822,216191,-9631.48,2.10659e+06,215630,49767.6,2.15411e+06
0.365838,0.00235078,328746,174573,-4920.22,1.92905e+06,200032,64633.8,1.96328e+06
0.367649,0.0023728,305420,137661,-686.394,1.7683e+06,186074,77731.5,1.80316e+06
0.36946,0.0023952,301906,134656,112.906,1.72842e+06,183928,78076.6,1.86431e+06
0.371271,0.0024176,298394,131652,911.453,1.68854e+06,181782,78422.6,1.92547e+06
0.373082,0.00244,294880,128648,1710.75,1.64866e+06,179636,78767.8,1.98663e+06
0.374893,0.00246241,291368,125644,2509.3,1.60879e+06,177489,79113.8,2.04779e+06
0.376704,0.00248481,287855,122640,3308.6,1.56891e+06,175343,79458.9,2.10894e+06
0.378515,0.00250721,284341,119635,4107.9,1.52903e+06,173197,79804,2.1701e+06
0.380326,0.00252999,278877,125326,19360.1,1.52312e+06,173973,83160.6,2.14589e+06
0.382137,0.00255296,274715,136374,40046.8,1.54605e+06,175452,90914.7,2.07757e+06
0.383948,0.00257593,270553,147422,60733.8,1.56898e+06,176931,98668.8,2.00926e+06
0.385759,0.0025989,266392,158470,81420.5,1.59191e+06,178409,106423,1.94095e+06
0.38757,0.00262188,262230,169518,102108,1.61483e+06,179888,114177,1.87264e+06
0.389382,0.00264485,258069,180565,122794,1.63776e+06,181367,121931,1.80433e+06
0.391193,0.00266804,259313,206588,139485,1.71234e+06,186290,149126,1.8299e+06
0.393004,0.00269185,271667,237500,134064,1.78638e+06,197136,189062,1.89286e+06
0.394815,0.0027158,286109,265265,122304,1.84356e+06,208913,227117,1.9384e+06
0.396626,0.00273975,300551,293029,110544,1.90073e+06,220691,265172,1.98394e+06
0.398437,0.0027637,314993,320793,98783.8,1.95791e+06,232468,303227,2.02948e+06
0.400248,0.0027878,321146,339664,98466.1,2.02659e+06,227288,318034,2.07095e+06
0.402059,0.00281196,323514,354473,103375,2.10054e+06,214363,322224,2.11055e+06
0.40387,0.00283613,325882,369281,108283,2.17449e+06,201438,326414,2.15016e+06
0.405681,0.00286031,328250,384090,113191,2.24844e+06,188512,330604,2.18976e+06
0.407492,0.00288448,330618,398899,118100,2.32238e+06,175588,334793,2.22937e+06
0.409303,0.00290865,332986,413708,123008,2.39633e+06,162662,338983,2.26897e+06
0.411114,0.00293268,341254,434053,122707,2.47236e+06,159102,327386,2.32046e+06
0.412926,0.00295693,355131,425200,105111,2.45523e+06,150596,325892,2.2858e+06
0.414737,0.00298125,370102,409622,83772.6,2.41708e+06,140711,327119,2.23143e+06
0.416548,0.00300556,385072,394044,62434.7,2.37893e+06,130825,328348,2.17707e+06
0.418359,0.00302988,400043,378466,41096.4,2.34078e+06,120939,329575,2.1227e+06
0.42017,0.00305425,406391,360534,30294.2,2.28083e+06,114976,348055,2.05223e+06
0.421981,0.00307939,399161,370102,38307.4,2.31875e+06,121380,314272,2.10563e+06
0.423792,0.00310464,394350,375751,51799.2,2.34365e+06,124187,276835,2.155e+06
0.425603,0.00312988,389539,381400,65290.3,2.36854e+06,126993,239399,2.20438e+06
0.427414,0.00315512,384728,387050,78781.4,2.39344e+06,129800,201963,2.25375e+06
0.429225,0.00318042,381337,389684,88867.9,2.39926e+06,132510,170632,2.28134e+06
0.431036,0.00320581,380143,387654,93684.5,2.37558e+06,135073,148749,2.27521e+06
0.432847,0.0032311,377645,383437,92861.6,2.34809e+06,133436,136510,2.25826e+06
0.434658,0.00325636,374815,378665,90608.1,2.31963e+06,130734,126717,2.23856e+06
0.43647,0.00328162,371986,373893,88354.2,2.29118e+06,128031,116925,2.21886e+06
0.438281,0.00330688,369156,369121,86100.6,2.26272e+06,125329,107132,2.19916e+06
0.440092,0.00333215,366327,364349,83847.1,2.23427e+06,122626,97338.5,2.17946e+06
0.441903,0.00335766,349344,360110,89919.1,2.19537e+06,127622,71080.7,2.16529e+06
0.443714,0.00338378,297507,357187,116494,2.13079e+06,151574,4274.9,2.16474e+06
0.445525,0.0034099,245670,354263,143069,2.06621e+06,175526,-62530.1,2.16418e+06
0.447336,0.00343626,185400,333293,142466,1.95664e+06,176932,-108181,2.09816e+06
0.449147,0.00346266,123735,309342,137372,1.83964e+06,174614,-150336,2.02132e+06
0.450958,0.0034893,102128,298110,125973,1.80135e+06,174418,-155259,1.98873e+06
0.452769,0.00351613,111212,296627,109744,1.82336e+06,175850,-131653,1.99005e+06
0.45458,0.00354299,119820,295326,95030.4,1.84244e+06,176386,-110249,1.98971e+06
0.456391,0.00356999,125672,295091,89100,1.84451e+06,171728,-101605,1.9798e+06
0.458202,0.00359699,131524,294857,83169.9,1.84657e+06,167070,-92959.1,1.9699e+06
0.460014,0.003624,137376,294623,77239.5,1.84864e+06,162412,-84314.5,1.95999e+06
0.461825,0.003651,143228,294388,71309.4,1.8507e+06,157754,-75668.9,1.95008e+06
0.463636,0.00367801,149079,294154,65379,1.85277e+06,153096,-67024.4,1.94018e+06
0.465447,0.00370501,154931,293919,59448.9,1.85484e+06,148438,-58378.8,1.93027e+06
0.467258,0.00373202,160783,293685,53518.5,1.8569e+06,143780,-49734.2,1.92036e+06
0.469069,0.00375902,166635,293451,47588.4,1.85897e+06,139122,-41088.7,1.91046e+06
0.47088,0.00378603,172487,293216,41658,1.86103e+06,134464,-32444.1,1.90055e+06
0.472691,0.00381308,211824,294101,34605.4,1.91722e+06,128707,19032.5,1.9086e+06
0.474502,0.00384014,266868,295511,27026.8,1.99881e+06,122435,90602.1,1.92508e+06
0.476313,0.00386721,321913,296922,19447.9,2.08039e+06,116163,162172,1.94156e+06
0.478124,0.00389463,354461,296463,11034.1,2.10989e+06,108273,205919,1.9313e+06
0.479935,0.00392246,361746,295217,6148.16,2.083e+06,102265,218123,1.89482e+06
0.481746,0.00395065,341646,300660,30735.1,2.00715e+06,119541,194431,1.85179e+06
0.483558,0.00397884,321547,306102,55322.2,1.9313e+06,136817,170738,1.80877e+06
0.485369,0.00400703,301447,311544,79909.2,1.85546e+06,154094,147045,1.76574e+06
0.48718,0.00403509,295237,294687,89256.8,1.82236e+06,161130,155237,1.84804e+06
0.488991,0.00406314,289657,276820,97914.1,1.7912e+06,167701,164873,1.93602e+06
0.490802,0.0040912,284076,258952,106571,1.76004e+06,174273,174509,2.02399e+06
0.492613,0.00411925,278495,241084,115228,1.72888e+06,180845,184144,2.11197e+06
0.494424,0.00414731,272914,223217,123885,1.69772e+06,187417,193780,2.19994e+06
0.496235,0.00417541,268923,207030,139477,1.66246e+06,196413,200155,2.23104e+06
0.498046,0.0042038,274648,202848,181180,1.61405e+06,217885,195074,2.0421e+06
0.499857,0.0042331,312634,252952,174180,1.62083e+06,261257,222479,2.18467e+06
0.501668,0.00426232,331637,277011,168914,1.63702e+06,281577,237152,2.22287e+06
0.503479,0.00429142,321075,260513,166346,1.66785e+06,266001,231997,2.09857e+06
0.505291,0.00432053,310514,244014,163778,1.69869e+06,250425,226842,1.97427e+06
0.507102,0.00434957,304074,238901,157762,1.73629e+06,241887,225708,1.85718e+06
0.508913,0.00437853,306188,252192,145516,1.78709e+06,243516,232832,1.76138e+06
0.510724,0.00440767,344541,281798,117871,1.88385e+06,235847,273867,1.83046e+06
0.512535,0.0044368,382895,311404,90225.5,1.98061e+06,228177,314903,1.89954e+06
0.514346,0.00446594,421249,341010,62580.5,2.07738e+06,220508,355938,1.96863e+06
0.516157,0.00449507,459603,370617,34934.9,2.17414e+06,212839,396974,2.03771e+06
0.517968,0.00452424,480821,384727,20099.3,2.21986e+06,207891,418834,2.0677e+06
0.519779,0.00455355,473376,374383,21875,2.19997e+06,205051,408938,2.04772e+06
0.52159,0.00458318,439260,343972,30290.8,2.15522e+06,199695,370079,2.00945e+06
0.523401,0.00461282,405142,313560,38706.8,2.11047e+06,194340,331219,1.97119e+06
0.525212,0.00464245,371026,283149,47122.6,2.06572e+06,188984,292359,1.93292e+06
0.527023,0.00467208,336908,252737,55538.7,2.02097e+06,183628,253500,1.89465e+06
0.528835,0.0047024,329169,245331,60905.7,2.00007e+06,178795,236432,1.89024e+06
0.530646,0.00473279,324077,240233,65967,1.98157e+06,174013,221551,1.88922e+06
0.532457,0.00476318,318985,235135,71028,1.96307e+06,169232,206671,1.88821e+06
0.534268,0.00479363,311018,230180,75046.2,1.9456e+06,162414,191373,1.89145e+06
0.536079,0.00482423,296480,225554,76678.6,1.93052e+06,150937,175120,1.90443e+06
0.53789,0.00485482,281941,220928,78311,1.91544e+06,139460,158867,1.9174e+06
0.539701,0.00488541,267403,216302,79943.8,1.90036e+06,127983,142613,1.93037e+06
0.541512,0.00491601,252864,211676,81576.2,1.88527e+06,116506,126360,1.94335e+06
0.543323,0.0049466,238326,207050,83209,1.87019e+06,105029,110107,1.95632e+06
0.545134,0.00497719,223788,202424,84841.4,1.85511e+06,93552.2,93854.1,1.96929e+06
0.546945,0.00500816,242252,214700,98237.5,1.87239e+06,86792.6,73155.5,2.00413e+06
0.548756,0.00503934,270862,233219,128995,1.83389e+06,87403.2,61518.4,1.97948e+06
0.550567,0.00507052,299474,251739,159752,1.79541e+06,88014.1,49880.5,1.95484e+06
0.552379,0.00510171,328084,270258,190510,1.75691e+06,88624.7,38243.5,1.93019e+06
0.55419,0.00513289,356694,288778,221267,1.71842e+06,89235.2,26606.4,1.90554e+06
0.556001,0.00516448,343034,291851,213848,1.67001e+06,89399.6,24031,1.86826e+06
0.557812,0.00519625,354435,305054,205783,1.71293e+06,86999.6,23518.7,1.91086e+06
0.559623,0.00522799,360848,315942,195103,1.74438e+06,86345.6,20912.1,1.94261e+06
0.561434,0.00525971,365694,326102,183600,1.77222e+06,86240.2,17647.3,1.97095e+06
0.563245,0.00529144,370540,336263,172098,1.80007e+06,86134.9,14382.4,1.9993e+06
0.565056,0.00532316,375385,346423,160595,1.82791e+06,86029.5,11117.6,2.02764e+06
0.566867,0.00535498,345109,338909,144291,1.76846e+06,97967.2,737.104,1.98291e+06
0.568678,0.00538681,312014,329976,127602,1.70201e+06,110872,-10214.5,1.93232e+06
0.570489,0.00541864,278918,321043,110912,1.63555e+06,123776,-21166.2,1.88172e+06
0.5723,0.00545046,245823,312110,94221.8,1.5691e+06,136680,-32118,1.83113e+06
0.574111,0.00548229,212728,303177,77531.9,1.50264e+06,149585,-43069.6,1.78054e+06
0.575922,0.00551428,196054,300382,71042,1.47503e+06,157020,-42654.1,1.74971e+06
0.577734,0.00554646,196438,303470,75121,1.48845e+06,158891,-29104.3,1.7333e+06
0.579545,0.00557868,199555,305688,80796.2,1.51102e+06,160298,-8578.19,1.69672e+06
0.581356,0.0056109,202671,307906,86471.5,1.53359e+06,161704,11947.9,1.66014e+06
0.583167,0.00564336,237319,310246,104583,1.60582e+06,170507,53219.7,1.67723e+06
0.584978,0.00567598,293139,312667,131045,1.71139e+06,184278,108422,1.73037e+06
0.586789,0.0057086,348959,315088,157507,1.81697e+06,198048,163624,1.78351e+06
0.5886,0.00574122,378289,317136,172833,1.89548e+06,207254,206520,1.82593e+06
0.590411,0.00577388,381629,319203,177703,1.9448e+06,213096,237325,1.85632e+06
0.592222,0.00580717,330901,327916,168827,1.88861e+06,231026,242663,1.83564e+06
0.594033,0.00584044,280172,336630,159951,1.83242e+06,248955,248001,1.81496e+06
0.595844,0.00587373,229445,345344,151076,1.77624e+06,266884,253339,1.79428e+06
0.597655,0.00590729,216331,338809,149339,1.75571e+06,260274,250767,1.78806e+06
0.599467,0.00594088,206623,330893,148248,1.73842e+06,251443,247480,1.78315e+06
0.601278,0.00597447,196914,322978,147157,1.72112e+06,242613,244193,1.77824e+06
0.603089,0.00600806,187205,315063,146067,1.70383e+06,233782,240906,1.77334e+06
0.6049,0.00604165,177497,307148,144976,1.68654e+06,224953,237619,1.76843e+06
0.606711,0.00607523,167903,299215,143925,1.66851e+06,216548,234488,1.76387e+06
0.608522,0.00610867,160901,290875,143785,1.63395e+06,217761,234882,1.7671e+06
0.610333,0.0061421,153898,282535,143645,1.59938e+06,218974,235276,1.77034e+06
0.612144,0.00617579,156300,275750,132822,1.58618e+06,225685,222259,1.77284e+06
0.613955,0.00620962,163552,269767,116488,1.58398e+06,235231,202324,1.77497e+06
0.615766,0.00624345,170804,263784,100154,1.58179e+06,244777,182389,1.7771e+06
0.617577,0.00627728,178056,257802,83821,1.5796e+06,254323,162454,1.77923e+06
0.619388,0.00631124,183249,252433,66245.9,1.57341e+06,261928,142987,1.77555e+06
0.621199,0.00634594,177199,250420,41891.4,1.54538e+06,258929,126072,1.74018e+06
0.62301,0.00638064,171149,248406,17536.6,1.51736e+06,255929,109157,1.70481e+06
0.624822,0.00641534,165099,246393,-6817.88,1.48933e+06,252930,92242,1.66943e+06
0.626633,0.00645005,159049,244380,-31172.6,1.4613e+06,249931,75326.7,1.63406e+06
0.628444,0.00648475,152998,242366,-55527.2,1.43328e+06,246932,58412,1.59869e+06
0.630255,0.00651945,146948,240353,-79881.9,1.40525e+06,243932,41496.7,1.56332e+06
0.632066,0.00655415,140898,238339,-104237,1.37722e+06,240933,24581.4,1.52795e+06
0.633877,0.00658886,134848,236326,-128591,1.34919e+06,237933,7666.71,1.49257e+06
0.635688,0.0066236,142519,244837,-143916,1.38998e+06,232457,3806.3,1.51082e+06
0.637499,0.0066586,171672,263588,-162412,1.50482e+06,215257,8843.87,1.61333e+06
0.63931,0.00669361,195125,280554,-179733,1.60124e+06,199159,12041.1,1.70114e+06
0.641121,0.0067288,141738,273447,-181226,1.4495e+06,197924,-9575.1,1.59068e+06
0.642932,0.006764,88352.3,266341,-182718,1.29777e+06,196688,-31190.8,1.48021e+06
0.644743,0.00679955,84255.7,267344,-183320,1.27468e+06,194451,-31119,1.46479e+06
0.646554,0.00683513,94718.3,272497,-174283,1.29996e+06,188129,-19986.2,1.48623e+06
0.648366,0.00687071,105181,277650,-165246,1.32524e+06,181808,-8853.43,1.50767e+06
0.650177,0.00690629,115644,282804,-156209,1.35052e+06,175486,2279.94,1.52911e+06
0.651988,0.00694187,126106,287957,-147172,1.3758e+06,169164,13412.7,1.55055e+06
0.653799,0.00697746,136569,293111,-138135,1.40108e+06,162843,24546.1,1.57199e+06
0.65561,0.00701304,147031,298264,-129098,1.42636e+06,156521,35678.8,1.59343e+06
0.657421,0.00704862,157494,303418,-120060,1.45164e+06,150199,46812.2,1.61487e+06
0.659232,0.0070842,167957,308571,-111023,1.47692e+06,143878,57945,1.63631e+06
0.661043,0.00712012,178358,312277,-96532.9,1.51345e+06,150063,66882.5,1.66965e+06
0.662854,0.00715641,188691,314372,-75969.8,1.5625e+06,170178,73373.7,1.71624e+06
0.664665,0.0071927,199024,316466,-55406.8,1.61155e+06,190292,79865,1.76282e+06
0.666476,0.00722898,209357,318561,-34843,1.6606e+06,210407,86356.8,1.80941e+06
0.668287,0.00726527,219690,320655,-14279.9,1.70965e+06,230522,92848,1.856e+06
0.670098,0.0073017,219400,320593,-3701.21,1.73655e+06,244130,91574.3,1.88551e+06
0.67191,0.00733842,190058,309148,-15764.9,1.70073e+06,235755,76902.2,1.85482e+06
0.673721,0.00737513,160717,297704,-27828.3,1.6649e+06,227381,62230,1.82412e+06
0.675532,0.00741185,131375,286259,-39892,1.62908e+06,219007,47557.8,1.79343e+06
0.677343,0.00744899,129077,289318,-48126.6,1.62869e+06,208571,46930.6,1.78217e+06
0.679154,0.00748628,136583,297635,-54973.5,1.64116e+06,197388,51395.4,1.77797e+06
0.680965,0.00752358,144090,305952,-61820.3,1.65362e+06,186204,55860.3,1.77376e+06
0.682776,0.00756087,151595,314269,-68666.8,1.66609e+06,175021,60325,1.76956e+06
0.684587,0.00759817,159102,322585,-75513.6,1.67855e+06,163838,64789.8,1.76536e+06
0.686398,0.00763546,166608,330902,-82360.2,1.69102e+06,152655,69254.5,1.76115e+06
0.688209,0.00767275,174114,339219,-89207,1.70348e+06,141471,73719.3,1.75695e+06
0.69002,0.00771005,181620,347536,-96053.6,1.71595e+06,130288,78184,1.75274e+06
0.691831,0.00774716,184696,353457,-93688.8,1.72746e+06,125855,83842.2,1.75817e+06
0.693642,0.0077845,199505,363930,-94625,1.75193e+06,125235,93166.1,1.77716e+06
0.695454,0.00782183,214313,374402,-95560.6,1.7764e+06,124615,102490,1.79615e+06
0.697265,0.00785917,229122,384875,-96496.3,1.80087e+06,123995,111814,1.81513e+06
0.699076,0.00789658,243706,397737,-96640.5,1.83448e+06,124615,117489,1.84291e+06
0.700887,0.00793465,266268,408374,-78436.5,1.88979e+06,130857,139155,1.87858e+06
0.702698,0.00797277,290419,416068,-57984.7,1.93896e+06,136715,167446,1.90613e+06
0.704509,0.00801088,314569,423762,-37533,1.98812e+06,142574,195735,1.93368e+06
0.70632,0.00804899,338720,431455,-17081.2,2.03728e+06,148432,224025,1.96124e+06
0.708131,0.00808735,341062,414487,-10338.9,1.98718e+06,148633,242762,1.95248e+06
0.709942,0.0081257,336496,391524,-13680.4,1.9047e+06,143622,249462,1.93608e+06
0.711753,0.00816404,331916,369163,-18985.9,1.82184e+06,137441,253084,1.92096e+06
0.713564,0.00820237,327335,346803,-24291.3,1.73898e+06,131261,256706,1.90585e+06
0.715375,0.0082407,322755,324442,-29598.2,1.65611e+06,125080,260328,1.89073e+06
0.717187,0.00827903,318174,302081,-34903.6,1.57325e+06,118900,263950,1.87561e+06
0.718998,0.00831736,313594,279720,-40210.5,1.49039e+06,112719,267571,1.8605e+06
0.720809,0.00835587,299935,261138,-25347.7,1.41852e+06,116020,267656,1.82166e+06
0.72262,0.00839455,278673,245720,6402.56,1.35585e+06,127260,264778,1.76295e+06
0.724431,0.00843331,251640,224895,19163.5,1.28084e+06,127682,257778,1.69311e+06
0.726242,0.0084722,217157,197088,7410.78,1.18989e+06,114139,245454,1.6089e+06
0.728053,0.00851108,182676,169282,-4341.64,1.09895e+06,100597,233131,1.52468e+06
0.729864,0.00855037,174748,168120,8499.93,1.1485e+06,98623.6,252725,1.56681e+06
0.731675,0.00858967,168120,168261,22545.4,1.20492e+06,97216.4,273881,1.61512e+06
0.733486,0.00862898,161491,168402,36590.2,1.26135e+06,95809.1,295037,1.66343e+06
0.735297,0.00866832,159152,171951,49810.7,1.31698e+06,95776.2,308662,1.69973e+06
0.737108,0.0087077,161694,179379,62091.1,1.37171e+06,97308,313711,1.72237e+06
0.738919,0.00874709,164237,186808,74372.2,1.42644e+06,98839.9,318761,1.745e+06
0.74073,0.00878647,166780,194236,86652.6,1.48117e+06,100372,323810,1.76763e+06
0.742542,0.00882609,171724,211265,95634.5,1.52117e+06,105695,310862,1.78129e+06
0.744353,0.00886598,179323,238907,100968,1.54488e+06,115211,278015,1.78502e+06
0.746164,0.00890587,186921,266549,106302,1.5686e+06,124727,245168,1.78876e+06
0.747975,0.00894575,194520,294192,111636,1.59231e+06,134243,212321,1.79249e+06
0.749786,0.00898564,202119,321834,116970,1.61602e+06,143759,179474,1.79623e+06
0.751597,0.00902553,209718,349477,122304,1.63974e+06,153275,146627,1.79996e+06
0.753408,0.00906569,201366,350949,111236,1.62895e+06,169123,107521,1.75755e+06
0.755219,0.00910629,211978,313847,97979,1.6725e+06,189309,115012,1.7817e+06
0.75703,0.00914688,222651,276635,84718.6,1.71622e+06,209506,122644,1.80607e+06
0.758841,0.00918748,233323,239422,71458.3,1.75994e+06,229703,130276,1.83043e+06
0.760652,0.00922814,217960,251802,53898.9,1.56278e+06,255928,110961,1.66299e+06
0.762463,0.00926884,203282,264706,38240.4,1.37654e+06,280130,91205.9,1.50572e+06
0.764274,0.00930986,204148,268429,45132.7,1.38537e+06,279891,74705.7,1.52023e+06
0.766086,0.00935088,205014,272152,52024.9,1.3942e+06,279652,58205.9,1.53473e+06
0.767897,0.0093919,205881,275874,58917.2,1.40304e+06,279413,41705.7,1.54924e+06
0.769708,0.00943296,208884,278335,68910,1.4387e+06,275813,25653.5,1.58736e+06
0.771519,0.00947405,212884,280207,80347.5,1.48685e+06,270648,9809.36,1.63649e+06
0.77333,0.00951514,216884,282079,91785.2,1.535e+06,265483,-6034.22,1.68562e+06
0.775141,0.0095562,217518,282754,104064,1.57326e+06,261047,-22384.3,1.7272e+06
0.776952,0.00959707,186109,272037,124349,1.51728e+06,263558,-43557.2,1.69692e+06
0.778763,0.00963838,180187,273704,137077,1.56797e+06,258354,-41210.3,1.74374e+06
0.780574,0.00968008,196561,286204,143195,1.71196e+06,246402,-18287.9,1.85802e+06
0.782385,0.00972178,212935,298704,149313,1.85596e+06,234449,4634.03,1.97229e+06
0.784196,0.00976343,231408,314234,148222,1.95941e+06,226509,17560.7,2.05715e+06
0.786007,0.00980497,253786,335403,133715,1.98742e+06,226036,11885.5,2.08725e+06
0.787818,0.00984649,249131,334740,135386,1.9369e+06,216302,-93.1785,2.04598e+06
0.78963,0.00988801,237024,328058,141516,1.86473e+06,204015,-13810.6,1.98503e+06
0.791441,0.00992953,224918,321376,147646,1.79257e+06,191727,-27528.1,1.92409e+06
0.793252,0.00997107,224936,317386,144749,1.75778e+06,185580,-14010.4,1.88653e+06
0.795063,0.0100126,227718,314009,139796,1.73151e+06,180833,5711.65,1.8543e+06
0.796874,0.0100542,230499,310631,134843,1.70524e+06,176085,25434,1.82207e+06
0.798685,0.0100958,232968,309398,131085,1.67824e+06,175855,46001.2,1.792e+06
0.800496,0.0101381,234039,317788,132689,1.64794e+06,195900,70361.6,1.77161e+06
0.802307,0.0101804,235110,326178,134293,1.61764e+06,215944,94721.5,1.75121e+06
0.804118,0.0102227,236180,334568,135897,1.58734e+06,235988,119082,1.73081e+06
0.805929,0.0102652,233577,329523,134021,1.55028e+06,247018,129459,1.71414e+06
0.80774,0.0103079,228721,316238,130009,1.50908e+06,252518,131260,1.69977e+06
0.809551,0.0103507,225243,303192,120997,1.47277e+06,251314,132477,1.68376e+06
0.811363,0.0103934,224827,290676,100874,1.44734e+06,235216,132396,1.66412e+06
0.813174,0.0104361,224410,278159,80751.3,1.42191e+06,219117,132316,1.64449e+06
0.814985,0.0104788,223994,265643,60628.5,1.39648e+06,203019,132236,1.62486e+06
0.816796,0.0105216,223075,254379,42348.2,1.37281e+06,188797,133120,1.60717e+06
0.818607,0.0105644,216866,256297,43461.4,1.36768e+06,194326,144156,1.60992e+06
0.820418,0.0106072,209624,256952,43719.3,1.35666e+06,200462,153630,1.60533e+06
0.822229,0.0106505,195040,248639,37895.6,1.30375e+06,210906,151999,1.54848e+06
0.82404,0.0106937,180456,240326,32071.9,1.25083e+06,221350,150369,1.49164e+06
0.825851,0.010737,165872,232013,26248.3,1.19792e+06,231794,148738,1.4348e+06
0.827662,0.0107803,152246,223741,20133.5,1.148e+06,241136,147590,1.38991e+06
0.829473,0.0108239,152114,216057,9918.93,1.14034e+06,234958,153245,1.51333e+06
0.831284,0.0108676,151981,208373,-295.545,1.13268e+06,228780,158900,1.63674e+06
0.833095,0.0109113,157939,204001,-13132.1,1.13855e+06,219366,163047,1.77338e+06
0.834907,0.0109552,183874,210497,-34569.9,1.18881e+06,199341,162252,1.95336e+06
0.836718,0.0109991,209810,216993,-56007.7,1.23908e+06,179315,161457,2.13334e+06
0.838529,0.011043,250074,251227,-68611.9,1.34731e+06,170720,171504,2.13923e+06
0.84034,0.0110869,294667,293838,-78547.9,1.47305e+06,165578,184826,2.09254e+06
0.842151,0.0111312,247755,228592,-92948.2,1.43179e+06,184452,179437,2.23459e+06
0.843962,0.0111751,218309,203202,-96336,1.42269e+06,200898,167542,2.23902e+06
0.845773,0.0112189,209027,211111,-93714.6,1.45053e+06,213119,154787,2.1516e+06
0.847584,0.0112628,201349,213200,-92126.5,1.46194e+06,221743,142424,2.06062e+06
0.849395,0.0113072,196677,204367,-92476.7,1.4425e+06,223618,130796,1.96296e+06
0.851206,0.0113516,192006,195536,-92826.9,1.42307e+06,225494,119167,1.8653e+06
0.853017,0.0113959,187334,186703,-93177.2,1.40363e+06,227370,107538,1.76764e+06
0.854828,0.0114403,182662,177871,-93527.4,1.3842e+06,229246,95909.6,1.66997e+06
0.856639,0.0114849,166007,157299,-91851,1.31267e+06,205269,82313.5,1.65979e+06
0.858451,0.0115295,149398,136773,-90182.8,1.24135e+06,181395,68725.6,1.64925e+06
0.860262,0.0115742,137804,128220,-70333.1,1.20688e+06,180899,75084.3,1.62606e+06
0.862073,0.0116189,127403,122515,-46157,1.18118e+06,185966,86190.1,1.59986e+06
0.863884,0.0116639,136784,123227,-15217.5,1.17733e+06,198064,129080,1.57549e+06
0.865695,0.0117089,149446,125001,16844.2,1.17711e+06,211329,177242,1.55144e+06
0.867506,0.0117541,171623,132604,38206.9,1.1858e+06,215747,224971,1.53313e+06
0.869317,0.0117998,216299,153985,34272.4,1.21556e+06,199252,271680,1.5284e+06
0.871128,0.0118454,246020,169648,35269.5,1.23293e+06,185220,302276,1.52282e+06
0.872939,0.0118908,248271,174804,45324.5,1.22756e+06,175713,303277,1.51565e+06
0.87475,0.0119363,250522,179960,55378.9,1.22219e+06,166207,304278,1.50849e+06
0.876561,0.0119818,252773,185116,65433.9,1.21681e+06,156701,305278,1.50132e+06
0.878372,0.0120272,255024,190272,75488.3,1.21144e+06,147195,306279,1.49416e+06
0.880183,0.0120727,257275,195428,85543.3,1.20607e+06,137688,307280,1.48699e+06
0.881995,0.0121182,259526,200584,95597.7,1.2007e+06,128182,308281,1.47982e+06
0.883806,0.0121636,261776,205740,105653,1.19533e+06,118676,309281,1.47266e+06
0.885617,0.0122091,264028,210896,115707,1.18996e+06,109170,310283,1.46549e+06
0.887428,0.0122546,266278,216052,125762,1.18458e+06,99663.3,311283,1.45832e+06
0.889239,0.0123,268529,221208,135817,1.17921e+06,90156.9,312283,1.45116e+06
0.89105,0.0123455,243484,208613,126674,1.13114e+06,81682.6,272298,1.42336e+06
0.892861,0.012391,206846,188478,109377,1.06493e+06,73645.7,214903,1.3868e+06
0.894672,0.0124366,170975,169656,93053.8,1.00034e+06,66646.3,158594,1.35228e+06
0.896483,0.0124828,144832,167486,89077.8,956313,72803.6,116028,1.34363e+06
0.898294,0.0125291,122781,167160,84241.5,923816,79516.9,80750.2,1.33429e+06
0.900105,0.0125756,120828,175887,75177.3,947981,88958.8,81271.1,1.3215e+06
0.901916,0.0126221,118875,184614,66113.3,972149,98401.3,81793.5,1.30871e+06
0.903727,0.0126685,116922,193341,57049.1,996314,107843,82314.4,1.29592e+06
0.905538,0.012715,114968,202068,47985,1.02048e+06,117285,82835.2,1.28313e+06
0.90735,0.0127615,113016,210795,38921,1.04465e+06,126727,83357.6,1.27034e+06
0.909161,0.012808,111062,219522,29856.8,1.06881e+06,136169,83878.5,1.25755e+06
0.910972,0.0128545,109110,228249,20792.8,1.09298e+06,145612,84400.9,1.24476e+06
0.912783,0.012901,107156,236976,11728.6,1.11715e+06,155054,84921.8,1.23197e+06
0.914594,0.0129478,151321,257018,7918.7,1.23332e+06,165410,102332,1.3198e+06
0.916405,0.0129947,204622,279302,5149.57,1.36772e+06,175947,123085,1.42756e+06
0.918216,0.0130416,253118,300376,1780.15,1.49279e+06,184838,140759,1.52908e+06
0.920027,0.0130888,251461,308828,-7856.31,1.5204e+06,176538,126262,1.56558e+06
0.921838,0.0131359,225664,298642,-12644.3,1.44499e+06,181175,116091,1.50739e+06
0.923649,0.0131829,187241,278708,-14896.6,1.3157e+06,192579,108184,1.39969e+06
0.92546,0.0132299,148818,258775,-17148.6,1.18641e+06,203984,100276,1.29198e+06
0.927271,0.0132774,141178,244482,-17361.7,1.13533e+06,207986,117997,1.23648e+06
0.929083,0.013325,139089,231205,-17206.8,1.09834e+06,210653,140339,1.19038e+06
0.930894,0.0133726,137001,217930,-17052.1,1.06135e+06,213320,162682,1.14429e+06
0.932705,0.0134202,134911,204654,-16897.2,1.02436e+06,215987,185024,1.0982e+06
0.934516,0.0134678,132822,191378,-16742.4,987371,218655,207366,1.0521e+06
0.936327,0.0135154,130734,178102,-16587.7,950384,221322,229709,1.00601e+06
0.938138,0.013563,128645,164826,-16432.8,913395,223989,252050,959920
0.939949,0.0136107,126578,155960,-16208.8,873939,223391,265096,918001
0.94176,0.0136588,132056,161439,-4032.2,923214,227395,287099,954013
0.943571,0.0137068,137196,167184,7664.45,971896,231218,306405,991397
0.945382,0.013755,135029,176922,8740.57,989085,228897,272926,1.03661e+06
0.947193,0.0138032,132863,186661,9816.09,1.00627e+06,226574,239445,1.08183e+06
0.949004,0.0138515,130696,196399,10892.2,1.02346e+06,224253,205966,1.12704e+06
0.950815,0.0138997,128529,206138,11968.3,1.04065e+06,221932,172487,1.17226e+06
0.952627,0.0139479,126362,215877,13043.9,1.05784e+06,219610,139007,1.21747e+06
0.954438,0.0139961,124195,225615,14120,1.07503e+06,217289,105528,1.26269e+06
0.956249,0.0140443,122028,235354,15195.5,1.09222e+06,214966,72047.5,1.30791e+06
0.95806,0.0140925,119861,245092,16271.6,1.1094e+06,212645,38568.6,1.35312e+06
0.959871,0.0141408,115732,253246,21032.6,1.12331e+06,213117,7756.79,1.39412e+06
0.961682,0.0141895,94518.2,247597,57873.7,1.1086e+06,237908,176.285,1.39837e+06
0.963493,0.0142382,73304.6,241949,94715.1,1.09389e+06,262698,-7405.15,1.40263e+06
0.965304,0.0142869,67078.6,232212,109242,1.06417e+06,274666,-18945.2,1.38192e+06
0.967115,0.0143358,73166.6,219115,105435,1.02213e+06,276099,-33738.6,1.3407e+06
0.968926,0.0143849,88949.7,209535,96002.1,1.01746e+06,273519,-28741,1.3094e+06
0.970737,0.0144342,107784,201063,84798.1,1.02457e+06,269676,-17515.1,1.28122e+06
0.972548,0.0144834,126618,192590,73594.7,1.03167e+06,265832,-6289.49,1.25304e+06
0.974359,0.0145327,136594,188869,65967.2,1.03559e+06,256208,-710.418,1.23112e+06
0.976171,0.0145821,140726,188282,60699.9,1.03741e+06,242769,1143.05,1.21334e+06
0.977982,0.0146315,144857,187695,55432.1,1.03923e+06,229330,2996.54,1.19555e+06
0.979793,0.0146809,148989,187109,50164.8,1.04105e+06,215892,4850.01,1.17777e+06
0.981604,0.0147303,153121,186522,44897,1.04287e+06,202453,6703.49,1.15998e+06
0.983415,0.0147797,157252,185935,39629.2,1.04469e+06,189014,8556.97,1.1422e+06
0.985226,0.0148291,161384,185348,34361.9,1.04651e+06,175576,10410.4,1.12441e+06
0.987037,0.0148785,165516,184761,29094.1,1.04833e+06,162137,12263.9,1.10662e+06
0.988848,0.0149278,169326,184599,24342.4,1.04928e+06,149393,13617.3,1.0905e+06
0.990659,0.0149772,172135,185756,21196.6,1.04748e+06,138812,13412.9,1.07954e+06
0.99247,0.0150265,177152,190540,12532.7,1.06378e+06,127275,13097.7,1.08818e+06
0.994281,0.0150761,187339,203825,-9063.24,1.1225e+06,113496,12521.7,1.14275e+06
0.996092,0.0151257,197526,217109,-30658.5,1.18121e+06,99717.5,11946.1,1.19732e+06
0.997903,0.0151756,209852,225159,-21893.2,1.19936e+06,98295.3,23698.8,1.19356e+06
0.999715,0.0152261,224510,226399,5397.22,1.17758e+06,104871,34752.1,1.1659e+06
1.00153,0.0152765,239168,227640,32688.4,1.1558e+06,111447,45805.5,1.13825e+06
1.00334,0.015327,242868,225923,37851.1,1.14156e+06,122921,55841.6,1.14239e+06
1.00515,0.0153776,244428,223630,38692.3,1.1288e+06,135351,65679,1.15275e+06
1.00696,0.0154282,245988,221336,39533.6,1.11604e+06,147781,75516.5,1.1631e+06
1.00877,0.0154788,247547,219043,40374.8,1.10328e+06,160211,85353.6,1.17346e+06
1.01058,0.0155293,248341,217107,40912.3,1.09036e+06,172467,94481.7,1.18443e+06
1.01239,0.0155799,247196,216075,40681.3,1.07705e+06,184280,101815,1.19695e+06
1.0142,0.0156304,246052,215043,40450.9,1.06374e+06,196094,109149,1.20948e+06
1.01601,0.015681,244908,214012,40220.3,1.05043e+06,207907,116483,1.222e+06
1.01783,0.0157317,228464,214623,46009.9,1.0212e+06,211879,121473,1.21236e+06
1.01964,0.0157826,186110,209839,39188.8,952956,205289,110390,1.16865e+06
1.02145,0.0158335,143752,205054,32367.3,884705,198699,99305.9,1.12495e+06
1.02326,0.0158844,101398,200269,25546.2,816458,192109,88222.7,1.08124e+06
1.02507,0.0159354,84769.2,197644,22999.7,790753,187871,86154.4,1.05518e+06
1.02688,0.0159865,89122.8,202527,27513.9,808962,185496,89391.5,1.05946e+06
1.02869,0.0160376,92713.9,208467,32598.2,827707,183040,91962.8,1.06632e+06
1.0305,0.0160888,96304.9,214406,37681.9,846449,180583,94534,1.07318e+06
1.03231,0.0161399,99896,220345,42765.9,865193,178127,97105.3,1.08004e+06
1.03412,0.016191,103487,226285,47849.9,883937,175671,99676.4,1.08691e+06
1.03594,0.0162421,107078,232224,52933.9,902680,173214,102248,1.09377e+06
1.03775,0.0162932,110669,238163,58017.8,921424,170758,104819,1.10063e+06
1.03956,0.0163445,115659,243811,64033.1,947587,172500,108341,1.11792e+06
1.04137,0.0163962,126239,248295,73767.7,1.00339e+06,191007,115661,1.17684e+06
1.04318,0.0164479,136819,252779,83502.6,1.05919e+06,209515,122981,1.23577e+06
1.04499,0.0164996,147398,257262,93237.2,1.11499e+06,228023,130301,1.29469e+06
1.0468,0.0165514,150335,251186,94262,1.12327e+06,242043,138121,1.33543e+06
1.04861,0.0166034,143630,233768,82342.8,1.07689e+06,245770,142790,1.3526e+06
1.05042,0.0166555,135183,220000,62456.2,1.03585e+06,234316,136009,1.3637e+06
1.05224,0.0167075,126736,206233,42570.9,994814,222861,129228,1.37479e+06
1.05405,0.0167596,118288,192464,22684.3,953775,211407,122446,1.38589e+06
1.05586,0.0168116,112588,183527,11497.6,928366,203448,117281,1.41643e+06
1.05767,0.0168638,114155,187368,23328.7,944305,204739,116394,1.4984e+06
1.05948,0.0169161,117911,191664,34309.8,960130,207719,120521,1.56251e+06
1.06129,0.0169686,128836,197451,42510.4,975578,216226,141071,1.56819e+06
1.0631,0.0170211,139761,203238,50710.7,991026,224732,161619,1.57388e+06
1.06491,0.0170736,150686,209025,58911.6,1.00648e+06,233239,182168,1.57956e+06
1.06672,0.0171261,159843,212552,63435.5,1.01082e+06,240967,198954,1.57645e+06
1.06854,0.0171786,163480,209029,56509.5,981606,243863,203968,1.54615e+06
1.07035,0.0172315,167330,205873,50383,964353,224525,209283,1.51977e+06
1.07216,0.0172844,171179,202717,44256.2,947098,205187,214597,1.49339e+06
1.07397,0.0173373,175029,199561,38129.7,929845,185850,219912,1.46701e+06
1.07578,0.0173901,178879,196405,32002.9,912591,166511,225227,1.44063e+06
1.07759,0.0174429,176717,188832,24241.8,894572,153900,224613,1.39837e+06
1.0794,0.0174957,167740,176251,14627.7,875684,148911,217279,1.33812e+06
1.08121,0.0175484,158765,163671,5014.11,856797,143923,209945,1.27788e+06
1.08302,0.0176011,149766,154893,-5126.79,843031,142297,194612,1.21351e+06
1.08484,0.0176539,140759,147408,-15446.1,831006,141816,176561,1.14775e+06
1.08665,0.0177066,131753,139922,-25766.1,818980,141334,158508,1.08198e+06
1.08846,0.0177597,128325,137149,-31696.3,816326,145163,151652,1.04881e+06
1.09027,0.0178132,132397,140709,-31727.5,826268,154788,159847,1.05944e+06
1.09208,0.0178668,136469,144268,-31758.7,836208,164411,168040,1.07007e+06
1.09389,0.0179203,139680,147402,-31365.6,847912,174058,174619,1.08108e+06
1.0957,0.0179739,139398,148806,-29250.4,866771,183792,174641,1.09365e+06
1.09751,0.0180274,139115,150209,-27135,885632,193528,174662,1.10623e+06
1.09932,0.0180809,138833,151612,-25019.8,904491,203262,174685,1.1188e+06
1.10113,0.0181344,138550,153016,-22904.3,923352,212998,174706,1.13137e+06
1.10295,0.0181879,137627,154519,-17898,941548,221401,173252,1.14532e+06
1.10476,0.0182416,133972,156446,-581.908,956919,224136,165513,1.16512e+06
1.10657,0.0182952,130319,158373,16733.4,972290,226871,157775,1.18492e+06
1.10838,0.0183492,178848,195165,31730.1,1.02517e+06,256104,160060,1.25454e+06
1.11019,0.0184032,228334,232596,46683.3,1.07873e+06,285823,162529,1.32506e+06
1.112,0.0184575,238497,239767,42842.1,1.07432e+06,285628,161444,1.325e+06
1.11381,0.0185119,240296,240502,35003.8,1.05757e+06,279072,159602,1.30992e+06
1.11562,0.0185661,211383,220743,29721.2,999406,262726,156562,1.24825e+06
1.11743,0.0186203,163447,188287,26023,915586,240316,152779,1.15771e+06
1.11925,0.0186745,138115,171270,22178.8,868458,222611,153114,1.10855e+06
1.12106,0.018729,139433,172454,18163.4,864592,210455,158303,1.10817e+06
1.12287,0.0187834,140751,173639,14147.6,860726,198298,163493,1.10779e+06
1.12468,0.0188378,142069,174823,10132.2,856859,186143,168683,1.10741e+06
1.12649,0.0188922,143387,176007,6116.69,852992,173986,173872,1.10703e+06
1.1283,0.0189467,144705,177191,2101.04,849127,161830,179062,1.10665e+06
1.13011,0.0190011,146023,178376,-1914.5,845260,149674,184252,1.10627e+06
1.13192,0.0190555,147341,179560,-5930.16,841394,137517,189442,1.10589e+06
1.13373,0.0191099,146034,179019,-7258.09,834921,130012,188921,1.10171e+06
1.13555,0.0191643,144450,178296,-8302.16,828173,122996,187798,1.09713e+06
1.13736,0.0192191,143212,171030,-5537.08,795022,129962,176639,1.11707e+06
1.13917,0.019274,140670,159522,2770.62,747707,143758,149276,1.08515e+06
1.14098,0.019329,138128,148014,11077.6,700395,157552,121915,1.05323e+06
1.14279,0.0193839,135586,136506,19385.2,653081,171347,94552.5,1.02131e+06
1.1446,0.0194388,133044,124999,27692.4,605769,185141,67191.3,989398
1.14641,0.019494,136321,122582,38366.5,600796,189890,56758.2,968029
1.14822,0.0195494,142785,125143,50335.7,619005,189686,55594.5,952440
1.15003,0.0196048,145187,126623,62670.2,640592,190558,57510.5,953778
1.15184,0.0196601,146040,127690,75143.1,663465,191840,60600.7,961576
1.15366,0.0197155,146891,128756,87616.7,686340,193123,63692.1,969376
1.15547,0.0197708,147744,129823,100090,709213,194405,66782.3,977175
1.15728,0.0198262,148595,130890,112563,732088,195688,69873.7,984975
1.15909,0.0198815,149447,131957,125036,754962,196971,72964.6,992774
1.1609,0.0199369,150299,133024,137510,777836,198253,76055.2,1.00057e+06
1.16271,0.0199925,184794,152454,136974,858641,205114,91492.4,1.06603e+06
1.16452,0.0200483,228181,176737,133001,954758,213449,110192,1.14673e+06
1.16633,0.020104,262730,198575,129002,1.02379e+06,216749,118445,1.20805e+06
1.16814,0.0201597,278706,215275,124944,1.03591e+06,209460,104731,1.22866e+06
1.16996,0.0202155,263744,210314,124197,1.00275e+06,198723,91302.7,1.2029e+06
1.17177,0.0202713,213560,180693,127217,918060,184058,78196.7,1.12435e+06
1.17358,0.0203272,163379,151074,130237,833375,169394,65091.6,1.0458e+06
1.17539,0.0203831,155914,135120,123024,788662,165101,65693.7,1.01861e+06
1.1772,0.020439,150403,119791,115344,745776,161283,66922.1,993770
1.17901,0.0204949,144890,104462,107663,702890,157464,68150.7,968929
1.18082,0.0205508,139030,94418.2,99523.2,670874,153685,69441.8,955227
1.18263,0.0206069,132790,90119.2,90882.9,650671,149948,70801.4,953633
1.18444,0.0206629,126550,85820.4,82243.2,630470,146212,72160.7,952038
1.18626,0.0207189,120310,81521.4,73602.9,610266,142475,73520.3,950444
1.18807,0.0207749,114071,77222.7,64963.1,590065,138739,74879.6,948849
1.18988,0.0208311,104914,73542.2,55713.3,572667,136071,74853,943796
1.19169,0.0208875,85812.5,71970.5,44386.6,564832,137045,70101.3,926951
1.1935,0.020944,66710.1,70398.6,33059.1,556997,138018,65349.2,910105
1.19531,0.0210004,47609,68826.9,21732.4,549162,138992,60597.5,893260
1.19712,0.0210571,44236,75060,10130.5,555842,145450,61150.4,910539
1.19893,0.021114,47348.7,84511,-1583.69,568507,154167,63890.7,941886
1.20074,0.0211709,50461.5,93962.5,-13298.7,581172,162886,66631,973236
1.20256,0.0212277,53807.8,104962,-24306.4,594421,171002,69502.8,1.00787e+06
1.20437,0.0212847,57658.1,119306,-33790.1,608933,177819,72658.4,1.0496e+06
1.20618,0.0213416,61508.3,133648,-43273.2,623443,184636,75813.9,1.09133e+06
1.20799,0.0213985,65358.7,147991,-52757,637954,191454,78969.6,1.13306e+06
1.2098,0.0214555,88854.2,161845,-49695.4,680598,199118,85689.5,1.17609e+06
1.21161,0.0215126,118162,175554,-42923.5,731566,207033,93464.3,1.21951e+06
1.21342,0.0215697,147467,189264,-36152.2,782529,214948,101238,1.26293e+06
1.21523,0.0216269,166457,197339,-34980.7,813848,220154,105441,1.2896e+06
1.21704,0.0216842,165235,194376,-44779.5,806675,220052,102645,1.28346e+06
1.21885,0.0217415,151525,184875,-49980.2,773915,217100,95581.5,1.25544e+06
1.22067,0.0217986,122455,167333,-49527,709689,210644,83268.6,1.20051e+06
1.22248,0.0218558,93384,149789,-49073,645460,204188,70955.1,1.14557e+06
1.22429,0.021913,64315,132247,-48619.2,581235,197733,58642.5,1.09064e+06
1.2261,0.0219704,61438,129583,-46748.1,581058,189834,57175.3,1.07366e+06
1.22791,0.0220279,58298.7,126770,-44890.9,580239,181950,55599.6,1.05631e+06
1.22972,0.0220853,55159.1,123956,-43034.1,579420,174066,54023.7,1.03895e+06
1.23153,0.0221428,52019.8,121143,-41176.9,578600,166182,52447.9,1.0216e+06
1.23334,0.0222002,48880.2,118330,-39320,577781,158298,50872.1,1.00424e+06
1.23515,0.0222577,45740.9,115516,-37462.9,576962,150414,49296.3,986883
1.23697,0.0223151,42601.3,112703,-35606,576143,142529,47720.4,969526
1.23878,0.0223726,44179.7,109661,-24046.3,576015,140852,46721.8,952032
1.24059,0.0224303,53521.6,112779,338.796,583231,153697,50806,960715
1.2424,0.0224881,62863.3,115896,24723,590448,166542,54889.8,969396
1.24421,0.0225458,72205.3,119013,49108,597664,179386,58974,978079
1.24602,0.0226035,81547,122131,73492.2,604881,192231,63057.8,986760
1.24783,0.0226615,76798,120766,81407.4,599827,192685,66649.9,968655
1.24964,0.0227196,65996,116122,82524.7,588302,188427,68829.4,933351
1.25145,0.0227777,55193.2,111478,83641.7,576774,184167,71009,898045
1.25327,0.0228358,44391.1,106834,84758.7,565248,179908,73188.4,862742
1.25508,0.0228942,49249.6,108233,79502.9,569315,169921,71883.8,841633
1.25689,0.0229527,54071.7,109619,74261.9,573346,159947,70587.1,820494
1.2587,0.0230111,58894.2,111004,69020.8,577377,149973,69290.5,799352
1.26051,0.0230695,63716.4,112390,63779.7,581408,139999,67993.9,778213
1.26232,0.023128,68538.8,113775,58538.6,585439,130024,66697.2,757072
1.26413,0.0231864,73361,115161,53297.5,589470,120050,65400.6,735932
1.26594,0.0232449,78183.5,116546,48056.4,593501,110076,64104,714791
1.26775,0.0233033,83005.7,117931,42815.3,597532,100102,62807.3,693652
1.26956,0.0233618,90889.8,121170,38195.6,609619,90102.5,63289.2,681712
1.27138,0.0234204,121116,135976,34360.3,677001,77852.7,74763.9,730980
1.27319,0.023479,151345,150784,30525,744389,65602.4,86239.4,780252
1.275,0.0235376,181572,165591,26689.7,811771,53352.5,97714.1,829519
1.27681,0.0235963,200353,174835,22669.5,850391,42455.9,104402,856582
1.27862,0.0236548,167549,159009,17816,759375,37660,89513.2,783556
1.28043,0.0237134,134742,143181,12962.4,668352,32864.1,74623.9,710528
1.28224,0.023772,101938,127354,8108.9,577335,28068.2,59735.3,637502
1.28405,0.0238307,76070.3,115058,4685.94,504990,26531.6,47907.6,584342
1.28586,0.0238896,73223.3,114458,6804.44,494709,36566.6,46508.3,599213
1.28768,0.0239486,70376.1,113857,8923.17,484427,46602.2,45108.8,614086
1.28949,0.0240075,67529.1,113257,11041.7,474145,56637.2,43709.4,628958
1.2913,0.0240665,64681.9,112657,13160.4,463863,66672.8,42309.9,643830
1.29311,0.0241254,61835,112057,15278.9,453582,76707.8,40910.6,658702
1.29492,0.0241844,58987.9,111457,17397.5,443301,86742.8,39511.2,673574
1.29673,0.0242433,56140.8,110857,19516.1,433019,96778.4,38111.8,688446
1.29854,0.0243025,54867,112940,18911.3,433318,102832,38508.7,695698
1.30035,0.024362,56004.8,119135,14131.8,449835,102782,41659.2,691269
1.30216,0.0244216,57142.5,125329,9352.61,466351,102733,44809.4,686840
1.30398,0.0244811,58280.3,131524,4573.17,482869,102683,47959.8,682412
1.30579,0.0245406,59418,137718,-206.005,499385,102634,51110.1,677983
1.3076,0.0246002,62612.5,145600,-3539.23,516797,102089,56922.3,676007
1.30941,0.0246597,68613.9,155784,-4898.52,535428,100869,66367,677379
1.31122,0.0247192,75066.2,162283,-8522.09,552882,102524,76867.2,679525
1.31303,0.0247788,82660.9,159426,-17892.8,567343,111477,90043.3,683636
1.31484,0.0248383,90256.2,156569,-27263.7,581806,120431,103220,687747
1.31665,0.0248979,94020.5,151557,-38346.7,592542,128138,108637,691070
1.31846,0.0249577,89131.7,141723,-51411.9,591168,131769,94154.3,689984
1.32028,0.0250175,100291,141259,-43238.1,577842,131210,94533.3,672580
1.32209,0.0250773,111451,140794,-35063.6,564514,130651,94913.3,655174
1.3239,0.0251371,121727,139483,-27496,551473,129754,95580.7,637211
1.32571,0.025197,123938,130431,-25466,541040,125775,98883.7,614146
1.32752,0.0252569,126147,121380,-23436.5,530609,121797,102186,591082
1.32933,0.0253168,128357,112328,-21406.4,520177,117818,105489,568016
1.33114,0.0253768,130566,103276,-19376.9,509745,113839,108791,544952
1.33295,0.0254367,132776,94224.3,-17346.9,499313,109860,112093,521886
1.33476,0.0254966,134986,85173,-15317.1,488882,105882,115396,498822
1.33657,0.0255565,137196,76121,-13287.3,478450,101903,118698,475757
1.33839,0.0256166,135121,70180,-8383.75,473457,99986.4,119994,464232
1.3402,0.0256768,126681,65337.5,-3270.89,471948,99065.2,115133,463497
1.34201,0.025737,118242,60495.2,1841.46,470438,98144.1,110273,462761
1.34382,0.0257973,114064,60618.3,5855.25,464396,102759,105369,479829
1.34563,0.0258576,108319,64338,10406.6,460858,108818,98219.8,509071
1.34744,0.0259178,102574,68058,14958.2,457320,114877,91069.8,538315
1.34925,0.0259781,96829.4,71777.7,19509.6,453783,120936,83920.2,567557
1.35106,0.0260384,91084.4,75497.6,24061.2,450245,126995,76770.1,596800
1.35287,0.0260987,85339.7,79217.3,28612.6,446707,133054,69620.7,626042
1.35469,0.0261591,82912.5,78823.8,27574.1,436683,137018,73828.4,660697
1.3565,0.0262196,82185,76323.1,23672,423337,139909,83854.3,698123
1.35831,0.0262802,76717.7,74094.4,22512.4,402882,142276,88117.8,723524
1.36012,0.0263408,61425.9,72429.9,27038.2,367697,143555,80435.8,723997
1.36193,0.0264015,46133.4,70765.4,31563.9,332510,144835,72753.5,724470
1.36374,0.0264621,30841.6,69100.9,36089.7,297324,146114,65071.5,724942
1.36555,0.0265228,15549.2,67436.4,40615.4,262137,147393,57389.2,725415
1.36736,0.0265836,14310.4,67216,43938.7,256582,145628,54023.5,709816
1.36917,0.0266445,15503.4,67245.4,47054.3,256155,143335,51404.4,691433
1.37099,0.0267054,16696.2,67274.8,50169.5,255727,141042,48785.5,673053
1.3728,0.0267662,17889.2,67304.2,53285.1,255300,138749,46166.3,654671
1.37461,0.0268271,19035.1,68392.7,56737,257337,136599,44148.5,636696
1.37642,0.026888,20064.9,72103.1,61022.8,265477,134802,43618.7,619723
1.37823,0.0269488,21094.6,75813.5,65308.1,273616,133006,43089.1,602752
1.38004,0.0270097,29579.3,82475.1,66912.3,295035,131943,45174.7,602678
1.38185,0.0270708,57244.4,96729.3,61616.6,350620,132769,53989.6,646086
1.38366,0.0271319,84911.2,110985,56320.6,406208,133595,62805.1,689497
1.38547,0.027193,107525,118662,51916.9,445299,134172,70558.3,715606
1.38728,0.0272541,118907,113444,49093.8,450033,134218,75634.4,706940
1.3891,0.0273153,92807.6,99718.1,43489.3,386511,132930,65443.1,656018
1.39091,0.0273765,66706.3,85991.3,37884.7,322985,131642,55251.5,605092
1.39272,0.0274378,45800.8,75122.6,33413.7,271499,130146,46517,562720
1.39453,0.0274991,49975.7,78049.9,34416.4,278137,127643,44817.5,561642
1.39634,0.0275605,54150,80976.9,35418.6,284774,125141,43117.5,560564
1.39815,0.0276219,58324.9,83904.2,36421.3,291412,122638,41418,559486
1.39996,0.0276832,62499.5,86831.4,37423.8,298049,120135,39718.4,558407
1.40177,0.0277446,66674.1,89758.6,38426.2,304686,117632,38018.5,557329
1.40358,0.027806,70848.7,92685.7,39428.7,311324,115129,36318.9,556251
1.4054,0.0278673,75023.2,95612.9,40431,317961,112626,34619,555172
1.40721,0.0279287,79197.8,98540,41433.6,324598,110123,32919.4,554094
1.40902,0.02799,83372.4,101467,42435.9,331235,107620,31219.5,553015
1.41083,0.0280514,87547,104394,43438.5,337872,105118,29519.9,551937
1.41264,0.0281129,78732.8,96908.5,32849.5,330788,103895,18806.1,546501
1.41445,0.0281743,68900.6,88606.6,21352.2,322627,102773,7385.76,540722
1.41626,0.028236,65370.5,85182,27300.4,333373,105102,11574.4,547760
1.41807,0.0282976,62692.6,82417.2,35607.3,346673,107896,17873.3,556529
1.41988,0.0283593,60641.7,80774.5,44033.5,347350,109652,24759,554586
1.4217,0.0284209,59324.2,80445.1,52599.1,333256,110192,32330.6,540108
1.42351,0.0284827,57014.7,79359.9,57326.3,322376,110784,39029.6,527413
1.42532,0.0285445,53229.5,77150.9,56343.7,316276,111456,44429.5,517372
1.42713,0.0286063,49444.2,74941.6,55360.8,310175,112127,49829.8,507330
1.42894,0.0286682,45712.1,73158.4,54350.1,305284,113756,55370.4,498906
1.43075,0.0287299,42160.5,72827.6,53244,304512,118652,61391.5,495996
1.43256,0.0287917,38609.1,72496.8,52137.8,303741,123548,67412.2,493086
1.43437,0.0288535,35057.4,72166,51031.7,302969,128444,73433.4,490177
1.43618,0.0289154,33265.9,71508,48882.4,302665,130554,78175.5,486558
1.438,0.0289774,34518,70283.9,44928.7,303168,127846,80706.3,481712
1.43981,0.0290395,35770.2,69059.9,40975.1,303672,125138,83236.9,476867
1.44162,0.0291016,37022.4,67835.9,37021.3,304175,122430,85767.7,472022
1.44343,0.0291637,38274.6,66611.9,33067.7,304679,119722,88298.3,467177
1.44524,0.0292258,39526.8,65387.8,29113.9,305183,117014,90829.1,462331
1.44705,0.0292879,40778.9,64163.8,25160.4,305686,114306,93359.7,457486
1.44886,0.02935,45004.3,67168.8,21411.7,305519,108165,96160.3,454815
1.45067,0.029412,51683.9,74551.7,13118.8,300785,105432,96405,454426
1.45248,0.0294741,58379.1,81975,4727.68,295963,102812,96592.8,454057
1.45429,0.0295361,65074.1,89398.3,-3662.7,291142,100191,96780.8,453689
1.45611,0.0295983,65821.3,88620.9,-10922,283932,99628.9,93821.6,446719
1.45792,0.0296606,61213.8,74069.6,-4964.44,262145,95883.2,83760.1,418905
1.45973,0.0297228,56606.7,59519.2,992.811,240359,92137.9,73699.2,391094
1.46154,0.0297851,51999.4,44967.8,6950.46,218571,88392.5,63637.7,363280
1.46335,0.0298474,50236.8,36829.1,9078.47,206182,87416.3,57810.8,353304
1.46516,0.0299098,50218,32829.2,8725.53,199822,88073.9,54616.2,354881
1.46697,0.0299722,49673.3,30570.8,7207.14,195486,87327.6,51165.1,361842
1.46878,0.0300346,49128.6,28312.1,5688.66,191149,86581.1,47713.6,368803
1.47059,0.030097,48584,26053.6,4170.27,186813,85834.8,44262.5,375764
1.47241,0.0301594,48039.3,23794.9,2651.8,182476,85088.3,40811,382725
1.47422,0.0302217,47494.7,21536.4,1133.41,178140,84342,37359.9,389686
1.47603,0.0302841,46950,19277.7,-385.063,173804,83595.5,33908.4,396647
1.47784,0.0303465,45387.2,21868.7,371.407,171106,89544,40607.4,410745
1.47965,0.0304091,43194.1,25755.8,6997.03,177299,95770.4,47156.9,424877
1.48146,0.0304717,40823.4,30014.4,15261.5,185971,102089,53687.1,439034
1.48327,0.0305343,38452.5,34273.4,23526.7,194644,108408,60217.9,453191
1.48508,0.0305969,36081.8,38532,31791.2,203316,114726,66748.2,467348
1.48689,0.0306595,35349.8,41846.5,38116.7,209937,116782,69688.2,469072
1.48871,0.0307223,36561.2,44041.1,42142,214126,113784,68370.3,456053
1.49052,0.030785,37772.8,46235.7,46167.6,218316,110785,67052.3,443033
1.49233,0.0308477,38123.6,47804.3,47619.7,221171,103933,66565,429405
1.49414,0.0309104,37903.8,48957.7,47365.2,223142,94526.3,66628.7,415372
1.49595,0.0309731,37684,50111,47110.4,225113,85119.2,66692.4,401340
1.49776,0.0310358,37464.2,51264.5,46855.9,227084,75712.3,66756,387307
1.49957,0.0310985,37207.8,54075.7,47692.9,227418,70880.8,66370,379324
1.50138,0.0311613,36859.3,61049.3,51271.1,223641,77537,64854.6,386531
1.50319,0.0312241,36510.8,68022.5,54848.8,219863,84192.4,63339.3,393738
1.50501,0.0312869,36780.8,73887.2,56221.4,216338,89664.4,62065,398943
1.50682,0.0313498,38253.7,74491.5,50255.5,212593,90902,61178.3,395595
1.50863,0.0314127,35769.2,69639.7,46074.4,204357,91908.7,58420.3,386221
1.51044,0.0314757,33284.8,64788.2,41893.6,196121,92915.4,55662.6,376847
1.51225,0.0315387,30995.8,60366.1,37588.4,188535,93915.3,53250.7,368943
1.51406,0.0316017,30157,59127.6,32365.4,185762,94866.6,53402.5,371927
1.51587,0.0316646,29318,57889,27142,182990,95817.7,53554.2,374911
1.51768,0.0317276,28479.2,56650.5,21919,180217,96769,53706,377895
1.51949,0.0317906,27640.1,55411.9,16695.6,177445,97720.2,53857.8,380879
1.5213,0.0318535,26801.3,54173.4,11472.6,174672,98671.4,54009.6,383863
1.52312,0.0319165,26395.4,53307.2,6305.34,173430,99906.4,54192.8,387030
1.52493,0.0319795,26178.5,52603.4,1162.92,172854,101265,54389.8,390277
1.52674,0.0320424,25961.6,51899.5,-3979.83,172279,102624,54586.8,393524
1.52855,0.0321056,25711.3,52813.5,-2446.34,173492,102787,55518.3,385439
1.53036,0.0321688,25449.9,54276,1350.62,175311,102544,56699.1,373513
1.53217,0.032232,25188.4,55738.5,5147.42,177130,102301,57879.6,361588
1.53398,0.0322952,24927,57201,8944.39,178950,102058,59060.4,349661
1.53579,0.0323584,24450.1,58590.3,12787.4,181017,101740,60171.1,337810
1.5376,0.0324216,22909.7,59617.8,16859,184307,101049,60936.5,326328
1.53942,0.0324848,21369.7,60645.5,20930.2,187597,100358,61701.9,314846
1.54123,0.032548,19829.4,61673.1,25001.8,190888,99667,62467.3,303363
1.54304,0.0326112,19275.1,61828.5,29220.6,193523,98948.8,63574.9,293117
1.54485,0.0326745,22703.5,58461,34035.6,193509,98120.7,66065.1,287858
1.54666,0.0327377,26563.7,56043,37873.7,190258,96664.4,68208.3,280294
1.54847,0.0328011,24300.3,54205,35687,174920,93046.1,65790.6,266053
1.55028,0.0328645,19180.6,51429,32401.5,158939,89372.7,62061.8,252087
1.55209,0.0329279,17828.4,50749.1,31168.1,156061,86861.5,60092,253169
1.5539,0.0329913,17694.5,50747.1,30598.4,157422,84726.1,58691.3,259118
1.55572,0.0330548,17560.7,50745.1,30028.7,158782,82590.7,57290.4,265066
1.55753,0.0331182,17426.8,50743.2,29459,160142,80455.4,55889.7,271015
1.55934,0.0331816,17292.9,50741.2,28889.2,161503,78319.9,54488.9,276964
1.56115,0.033245,17159.1,50739.2,28319.5,162863,76184.6,53088.1,282912
1.56296,0.0333085,17025.2,50737.2,27749.7,164223,74049.1,51687.3,288861
1.56477,0.0333719,16891.4,50735.2,27180,165583,71913.8,50286.5,294809
1.56658,0.0334353,16757.5,50733.3,26610.3,166944,69778.3,48885.7,300758
1.56839,0.0334987,17129.4,49028.4,24864.6,161624,67967.7,45816,298670
1.5702,0.0335621,18051,44840,20993.8,146404,67064.8,39913,283303
1.57201,0.0336255,18972.5,40651.9,17123.2,131184,66161.8,34010.3,267937
1.57383,0.033689,19894,36463.6,13252.5,115964,65258.9,28107.4,252570
1.57564,0.0337525,20093.5,33967.4,12302.1,107780,65633.2,25065.9,244469
1.57745,0.0338161,19184,33896,16633.5,110339,68157.8,26639.8,248243
1.57926,0.0338797,18274.7,33824.7,20964.6,112898,70682.2,28213.7,252017
1.58107,0.0339433,17365.2,33753.3,25296.1,115457,73206.8,29787.7,255791
1.58288,0.0340069,16734.8,33934.9,28187.6,117012,74437.4,30482,257493
1.58469,0.0340706,16642.9,34438.3,28066.4,116358,73259.8,29438,254932
1.5865,0.0341343,16551.1,34941.6,27945.3,115704,72082.3,28394.2,252371
1.58831,0.0341979,16459.3,35445,27824.2,115050,70904.8,27350.2,249810
1.59013,0.0342616,16367.4,35948.4,27703,114396,69727.2,26306.3,247249
1.59194,0.0343252,16275.6,36451.8,27581.9,113743,68549.7,25262.4,244688
1.59375,0.0343889,16183.7,36955.1,27460.6,113089,67372.1,24218.4,242127
1.59556,0.0344526,16091.9,37458.5,27339.5,112435,66194.6,23174.5,239566
1.59737,0.0345162,16000,37961.8,27218.3,111781,65017.1,22130.5,237005
1.59918,0.0345799,15908.2,38465.2,27097.2,111127,63839.6,21086.6,234445
1.60099,0.0346436,17874.1,40430.9,27203.7,112541,62476,19796.7,235170
1.6028,0.0347073,23698.4,45139.1,27737.6,117833,60763.9,18045.7,242059
1.60461,0.0347711,25341.6,47404.1,26232.7,117842,59833.7,16097,244134
1.60643,0.0348348,21195.5,46286.5,21904.5,110536,59986.1,13874.5,239543
1.60824,0.0348985,16061.7,43626.2,19047.2,101771,60520.4,12426.1,232613
1.61005,0.0349624,8343.79,36930.2,20036.6,89189,62053.4,13002,219562
1.61186,0.0350262,3901.11,32163.1,20407.7,80480.6,62366.1,13184.7,208508
1.61367,0.03509,5329.48,30853.1,19670.7,78714.6,60491.1,12662.5,201032
1.61548,0.0351538,6757.74,29543.3,18933.7,76948.9,58616.3,12140.4,193558
1.61729,0.0352176,8186.02,28233.4,18196.8,75183,56741.5,11618.2,186082
1.6191,0.0352814,8470.64,27471.3,16288.7,75255.8,56388,12289.3,183655
1.62091,0.0353452,8544.75,26810.1,14165.2,75667,56314.6,13179.9,182157
1.62273,0.0354091,8618.83,26148.8,12041.5,76078.2,56241.3,14070.7,180659
1.62454,0.0354729,8692.93,25487.5,9918,76489.4,56167.9,14961.4,179161
1.62635,0.0355367,8484.36,24420.1,8130.64,77308.9,56023.8,16004.9,178977
1.62816,0.0356006,7216.85,21831.3,7603.33,79657.9,55614.8,17620.6,183714
1.62997,0.0356645,5949.24,19242.3,7075.99,82006.9,55205.8,19236.5,188452
1.63178,0.0357284,5489.03,17262.5,7707,81855.8,54372.2,20440.4,192008
1.63359,0.0357924,6179.68,16150.8,9989.35,78140.4,52933.3,21057.3,193879
1.6354,0.0358563,6870.31,15039.2,12271.6,74425.3,51494.4,21674.2,195750
1.63721,0.0359203,7560.99,13927.6,14553.9,70710,50055.5,22291.2,197621
1.63902,0.0359842,8062.87,12925.7,16832.7,66558.9,48393.3,22975,198440
1.64084,0.0360482,7469.44,12561.1,19091.7,59877.6,45434.2,24047.2,193153
1.64265,0.0361122,6875.98,12196.5,21350.5,53196.6,42475.4,25119.4,187867
1.64446,0.0361762,6500.31,12824.9,22772.9,46413.3,39950.4,25814.4,183231
1.64627,0.0362402,6527.13,15039.3,22616,39481.8,38235.2,25716.2,179613
1.64808,0.0363042,6913.61,13664.8,20399,33221.8,37383.2,22984.6,173227
1.64989,0.0363682,7299.99,12290.2,18182.1,26962,36531.2,20253.2,166842
1.6517,0.0364322,7495.27,11739.8,15900.1,24873.6,36409.7,18854,162491
1.65351,0.0364962,7532.74,11869.7,13564.8,26228.1,36891,18554.4,159818
1.65532,0.0365603,7570.16,11999.4,11229.3,27582.5,37372.3,18254.8,157145
1.65714,0.0366243,7607.63,12129.3,8893.93,28937,37853.7,17955.2,154472
1.65895,0.0366883,7655.59,12607.6,6604.27,30835.1,38281.3,17685.1,152019
1.66076,0.0367523,7743.5,14406.4,4488.5,34792.7,38505.6,17527.3,150401
1.66257,0.0368163,7831.37,16205.3,2372.59,38750.7,38729.9,17369.4,148782
1.66438,0.0368803,7615.31,18032.2,989.442,42317,39002.8,17058.6,147027
1.66619,0.0369444,6133.29,19976,2657.28,44253.3,39478,16110.8,144703
1.668,0.0370085,4651.42,21919.7,4325,46189.4,39953.2,15163.1,142379
1.66981,0.0370726,3169.46,23863.5,5992.82,48125.7,40428.5,14215.3,140055
1.67162,0.0371367,1422.6,25541.5,7713.38,50524.9,40800.6,13229.8,137687
1.67344,0.0372008,-519.7,27023.5,9472.99,53265.6,41096.8,12216.5,135286
1.67525,0.0372649,-2461.87,28505.5,11232.5,56006.1,41392.9,11203.3,132884
1.67706,0.037329,-4404.17,29987.6,12992.1,58746.8,41689.1,10190,130483
1.67887,0.0373932,-3875.87,29936.6,14955.7,59422,41831.8,11917.9,129065
1.68068,0.0374573,-2656.98,29457.2,16976.4,59520,41931.6,14412.2,127921
1.68249,0.0375214,-1590.01,28984.7,18922.5,59331.3,41909.7,16814.8,126603
1.6843,0.0375855,-3664.92,28626.5,19299.4,53243.4,39404.8,17296.2,121702
1.68611,0.0376497,-6355.33,26892.2,18038.1,47433.6,38093.9,16053.2,116737
1.68792,0.0377138,-9045.84,25157.7,16776.6,41623.4,36782.9,14810.1,111771
1.68973,0.037778,-10989.8,23635.4,15550.3,37234.2,35365.8,13872.9,107715
1.69155,0.0378422,-10894.7,22692.6,14419.5,36725.6,33658.3,13771.2,106141
1.69336,0.0379063,-10799.6,21749.8,13288.7,36217.1,31950.9,13669.4,104568
1.69517,0.0379705,-10704.5,20807,12157.9,35708.5,30243.5,13567.6,102994
1.69698,0.0380347,-10609.4,19864.2,11027.2,35200,28536.1,13465.9,101420
1.69879,0.0380989,-10514.3,18921.4,9896.37,34691.4,26828.7,13364.1,99846.8
1.7006,0.038163,-10419.3,17978.6,8765.64,34182.9,25121.3,13262.4,98273.4
1.70241,0.0382272,-10324.2,17035.8,7634.83,33674.4,23413.8,13160.6,96699.9
1.70422,0.0382914,-10229.1,16093,6504.09,33165.8,21706.5,13058.9,95126.3
1.70603,0.0383555,-10134,15150.2,5373.29,32657.3,19999,12957.1,93552.8
1.70785,0.0384197,-9709.86,13546.6,3456.88,30119.6,19783.8,11790.8,89803
1.70966,0.0384839,-9255.78,11882.8,1468.78,27397.1,19704.4,10527.4,85854.8
1.71147,0.0385481,-8801.67,10219,-519.172,24674.6,19625.1,9264.17,81906.8
1.71328,0.0386123,-8989.01,8940.93,-1407.08,22519.3,19312.6,8211.08,79074.5
1.71509,0.0386765,-7944.99,7924.43,248.498,20108.7,18878.3,8985.08,75522.9
1.7169,0.0387407,-6900.84,6907.88,1904.19,17698,18444,9759.14,71971.1
1.71871,0.0388049,-5856.78,5891.4,3559.77,15287.4,18009.7,10533.1,68419.6
1.72052,0.0388691,-5874.15,6128.12,3536.87,15659.8,17632.3,10999,67310.1
1.72233,0.0389334,-5960.14,6445.9,3405.41,16212.2,17258.6,11444.9,66358.6
1.72415,0.0389976,-6046.19,6763.71,3273.9,16764.6,16884.9,11890.8,65407.2
1.72596,0.0390618,-6132.18,7081.49,3142.43,17317,16511.2,12336.6,64455.7
1.72777,0.0391261,-6218.23,7399.31,3010.92,17869.4,16137.5,12782.5,63504.3
1.72958,0.0391903,-6304.23,7717.09,2879.45,18421.8,15763.8,13228.4,62552.8
1.73139,0.0392545,-6390.21,8034.88,2747.99,18974.2,15390,13674.3,61601.3
1.7332,0.0393188,-6577.28,8392.29,2702.14,18898.5,15016.8,14161.2,60632.1
1.73501,0.039383,-5433.67,8012.77,2279.81,16038,14659.1,14595.6,57626.1
1.73682,0.0394472,-3835.13,7406.43,1640.78,13518,14304.1,14954.8,54189.3
1.73863,0.0395115,-2236.33,6799.99,1001.72,10998,13949,15314.1,50752.2
1.74045,0.0395757,-278.299,5985.82,680.455,9595.39,13634.1,15527.6,47537.9
1.74226,0.03964,739.294,5831.5,1048.89,9603.97,13332.9,15363.8,47241.1
1.74407,0.0397042,1630.97,5758.9,1423.99,9557.44,13027,15192.2,47137.6
1.74588,0.0397684,2522.74,5686.31,1799.11,9510.91,12721,15020.7,47034.1
1.74769,0.0398327,3414.45,5613.73,2174.2,9464.38,12415.1,14849.1,46930.7
1.7495,0.0398969,4306.19,5541.13,2549.33,9417.85,12109.1,14677.5,46827.2
1.75131,0.0399612,5197.9,5468.54,2924.42,9371.32,11803.2,14506,46723.7
1.75312,0.0400254,6089.65,5395.95,3299.54,9324.79,11497.2,14334.4,46620.2
1.75493,0.0400897,7186.72,5737.99,3194.52,9256.4,11535.4,13868.7,47057.8
1.75674,0.0401539,8425.9,6366.85,2757.38,9172.87,11811.7,13199.4,47869.7
1.75856,0.0402182,9665.01,6995.67,2320.26,9089.35,12088,12530.2,48681.6
1.76037,0.0402825,8870.96,8882.1,2066.89,10995.8,12409.9,12429.4,52602.8
1.76218,0.0403468,7826.11,10923.6,1836.22,13147.7,12737.4,12398.7,56907.5
1.76399,0.0404111,6755.29,11016.7,1761.29,13661.6,12404.6,11974,57277.6
1.7658,0.0404753,5675.09,10403.8,1742.8,13581.9,11832.5,11406.6,56222.1
1.76761,0.0405396,4594.88,9790.8,1724.32,13502.1,11260.4,10839.1,55166.4
1.76942,0.0406039,3514.68,9177.9,1705.83,13422.3,10688.4,10271.7,54110.9
1.77123,0.0406682,2434.47,8564.92,1687.35,13342.6,10116.3,9704.18,53055.2
1.77304,0.0407324,1354.27,7952.03,1668.86,13262.8,9544.27,9136.74,51999.6
1.77486,0.0407967,1523.8,6336.45,1786.71,11601.8,8635.75,8558.84,48426.8
1.77667,0.040861,2391.14,5337.53,2511.85,10091.3,8272.09,8472.64,46123.2
1.77848,0.0409253,3283.5,5291.57,3679.14,9403.97,8507.7,8797.72,45981.4
1.78029,0.0409896,4321.95,5292.38,4801.14,8792.75,8636.24,9119.29,45622.1
1.7821,0.0410539,5544.01,5351.94,5866.35,8277.07,8630.28,9436.47,44989.5
1.78391,0.0411181,6766.16,5411.52,6931.62,7761.42,8624.29,9753.67,44356.9
1.78572,0.0411824,7988.22,5471.08,7996.83,7245.74,8618.33,10070.8,43724.3
1.78753,0.0412467,9210.38,5530.66,9062.1,6730.08,8612.35,10388,43091.7
1.78934,0.041311,10628.7,5443.94,9845.69,6592.94,8319.9,10570,42289.6
1.79116,0.0413753,12247,5128.06,10253.9,6924.29,7648.29,10574.1,41198.5
1.79297,0.0414396,13433,4555.12,10642.4,7019.89,6977.4,10587.1,39638.3
1.79478,0.0415039,14619,3982.17,11030.9,7115.5,6306.47,10600,38078
1.79659,0.0415681,15804.9,3409.25,11419.4,7211.1,5635.59,10613,36517.8
1.7984,0.0416324,16991,2836.28,11807.9,7306.7,4964.66,10626,34957.5
1.80021,0.0416967,17599,2640.65,12204.1,7298.24,4207.55,10917.2,34912.4
1.80202,0.041761,17773.2,2728.21,12606.1,7211.65,3385.68,11417.2,36004.5
1.80383,0.0418253,17947.5,2815.77,13008.1,7125.08,2563.86,11917.2,37096.6
1.80564,0.0418896,17972,2892.85,13431.6,7095.39,1814.92,12344.1,37784
1.80745,0.0419539,17652.1,2945.82,13904.5,7196.67,1233.93,12602.9,37539.9
1.80927,0.0420182,17109.4,3108.11,14382.4,7508.82,552.591,12897,37093.8
1.81108,0.0420825,16535.4,3285.76,14860.9,7850.61,-142.807,13196.1,36619.4
