"arc_length","Displacement_Magnitude","Von_Mises_Stress"
0,0,2.39875e+06
0.00181107,4.95751e-07,2.35114e+06
0.00362215,9.91503e-07,2.30353e+06
0.00543323,1.48725e-06,2.25591e+06
0.00724431,2.07544e-06,2.2131e+06
0.00905538,3.20538e-06,2.19714e+06
0.0108665,4.35446e-06,2.18118e+06
0.0126775,5.51067e-06,2.16521e+06
0.0144886,6.67038e-06,2.14925e+06
0.0162997,7.83195e-06,2.13329e+06
0.0181108,8.99475e-06,2.11732e+06
0.0199218,9.98856e-06,2.10789e+06
0.0217329,1.16729e-05,2.07014e+06
0.023544,1.39175e-05,2.0372e+06
0.0253551,1.61647e-05,2.00427e+06
0.0271662,1.81092e-05,1.98018e+06
0.0289772,1.96664e-05,1.96847e+06
0.0307883,2.12671e-05,1.95675e+06
0.0325994,2.29022e-05,1.94503e+06
0.0344105,2.45648e-05,1.93331e+06
0.0362215,2.62496e-05,1.92159e+06
0.0380326,2.79527e-05,1.90988e+06
0.0398437,2.9671e-05,1.89816e+06
0.0416548,3.14227e-05,1.88897e+06
0.0434658,3.40616e-05,1.98479e+06
0.0452769,3.67883e-05,1.92332e+06
0.047088,3.96201e-05,1.85082e+06
0.0488991,4.28105e-05,1.90046e+06
0.0507102,4.60014e-05,1.95009e+06
0.0525212,4.91928e-05,1.99972e+06
0.0543323,5.23846e-05,2.04935e+06
0.0561434,5.53877e-05,2.06715e+06
0.0579545,5.80963e-05,2.03365e+06
0.0597655,6.08183e-05,2.00016e+06
0.0615766,6.35519e-05,1.96665e+06
0.0633877,6.6889e-05,2.02217e+06
0.0651988,7.03313e-05,2.09324e+06
0.0670099,7.38549e-05,2.15906e+06
0.0688209,7.76487e-05,2.2079e+06
0.070632,8.1455e-05,2.25674e+06
0.0724431,8.52721e-05,2.30558e+06
0.0742542,8.90987e-05,2.35442e+06
0.0760652,9.29336e-05,2.40326e+06
0.0778763,9.67742e-05,2.45437e+06
0.0796874,0.000100619,2.54673e+06
0.0814985,0.000104918,2.6026e+06
0.0833095,0.000109218,2.65846e+06
0.0851206,0.000113869,2.61687e+06
0.0869317,0.000118932,2.59053e+06
0.0887428,0.000124005,2.57549e+06
0.0905539,0.00012909,2.58853e+06
0.0923649,0.000134138,2.56769e+06
0.094176,0.000139195,2.54686e+06
0.0959871,0.000144305,2.53921e+06
0.0977982,0.000149431,2.53476e+06
0.0996092,0.000154563,2.5303e+06
0.10142,0.0001597,2.52585e+06
0.103231,0.000165093,2.52423e+06
0.105042,0.000170632,2.52424e+06
0.106854,0.000176171,2.52425e+06
0.108665,0.000181956,2.59605e+06
0.110476,0.000187873,2.70477e+06
0.112287,0.000194067,2.74713e+06
0.114098,0.000200438,2.74718e+06
0.115909,0.000206811,2.74724e+06
0.11772,0.000213186,2.74729e+06
0.119531,0.000219564,2.74734e+06
0.121342,0.000225944,2.74739e+06
0.123153,0.000232326,2.74744e+06
0.124964,0.00023871,2.74749e+06
0.126775,0.000245096,2.74754e+06
0.128586,0.000251483,2.74759e+06
0.130398,0.000258019,2.80095e+06
0.132209,0.000264875,2.9433e+06
0.13402,0.000271905,2.85112e+06
0.135831,0.000279024,2.66028e+06
0.137642,0.000286521,2.55301e+06
0.139453,0.000294021,2.44573e+06
0.141264,0.000301526,2.33846e+06
0.143075,0.000309034,2.23118e+06
0.144886,0.000316545,2.1239e+06
0.146697,0.00032406,2.01663e+06
0.148508,0.000331577,1.90935e+06
0.150319,0.000339097,1.80208e+06
0.15213,0.000346998,1.73444e+06
0.153942,0.000355299,1.74697e+06
0.155753,0.000363614,1.76163e+06
0.157564,0.000371932,1.77629e+06
0.159375,0.000380253,1.79095e+06
0.161186,0.000388577,1.80561e+06
0.162997,0.000396904,1.82027e+06
0.164808,0.000405233,1.83494e+06
0.166619,0.000413564,1.8496e+06
0.16843,0.00042203,1.87727e+06
0.170241,0.000430656,1.92051e+06
0.172052,0.000439282,1.96375e+06
0.173863,0.000448582,2.00744e+06
0.175674,0.000458067,2.0408e+06
0.177486,0.000467553,2.07299e+06
0.179297,0.000477034,2.09529e+06
0.181108,0.000486517,2.11759e+06
0.182919,0.000496001,2.13989e+06
0.18473,0.000505487,2.16219e+06
0.186541,0.000514975,2.18449e+06
0.188352,0.000524464,2.20679e+06
0.190163,0.000533955,2.22909e+06
0.191974,0.000543459,2.25161e+06
0.193785,0.000552971,2.27424e+06
0.195596,0.000562776,2.25203e+06
0.197407,0.000572704,2.2111e+06
0.199218,0.000582973,2.17337e+06
0.20103,0.000593582,2.13284e+06
0.202841,0.000604325,2.07481e+06
0.204652,0.000615069,2.01677e+06
0.206463,0.000625751,1.9684e+06
0.208274,0.000636417,1.92285e+06
0.210085,0.000647084,1.87729e+06
0.211896,0.000657753,1.83174e+06
0.213707,0.000668423,1.78619e+06
0.215518,0.000679094,1.74063e+06
0.217329,0.000690221,1.73481e+06
0.21914,0.000701355,1.72957e+06
0.220951,0.000712506,1.72045e+06
0.222762,0.000723747,1.691e+06
0.224574,0.000734991,1.66155e+06
0.226385,0.000746236,1.63209e+06
0.228196,0.000757484,1.60264e+06
0.230007,0.000768733,1.57319e+06
0.231818,0.000779984,1.54374e+06
0.233629,0.000791237,1.51429e+06
0.23544,0.000802678,1.52441e+06
0.237251,0.00081416,1.54307e+06
0.239062,0.000825642,1.56172e+06
0.240873,0.000837124,1.58038e+06
0.242684,0.000849233,1.56594e+06
0.244495,0.000861526,1.5481e+06
0.246306,0.00087382,1.53025e+06
0.248118,0.000886113,1.51241e+06
0.249929,0.000898598,1.52316e+06
0.25174,0.000911188,1.54943e+06
0.253551,0.00092378,1.57569e+06
0.255362,0.000936373,1.60196e+06
0.257173,0.000948968,1.62823e+06
0.258984,0.000961564,1.65449e+06
0.260795,0.000974162,1.68076e+06
0.262606,0.00098676,1.70703e+06
0.264417,0.00099936,1.73329e+06
0.266228,0.00101243,1.80791e+06
0.268039,0.00102564,1.89703e+06
0.26985,0.00103885,1.98638e+06
0.271662,0.00105225,2.11807e+06
0.273473,0.00106562,2.19426e+06
0.275284,0.0010789,2.11656e+06
0.277095,0.00109218,2.03886e+06
0.278906,0.00110543,1.97221e+06
0.280717,0.00111864,1.91591e+06
0.282528,0.00113223,1.92928e+06
0.284339,0.00114584,1.94646e+06
0.28615,0.00115945,1.96364e+06
0.287961,0.00117306,1.98082e+06
0.289772,0.00118668,1.998e+06
0.291583,0.00120032,2.01581e+06
0.293394,0.00121475,2.05243e+06
0.295206,0.00122917,2.08904e+06
0.297017,0.0012436,2.12566e+06
0.298828,0.00125803,2.16227e+06
0.300639,0.00127246,2.19889e+06
0.30245,0.00128689,2.2355e+06
0.304261,0.00130133,2.27211e+06
0.306072,0.00131576,2.30873e+06
0.307883,0.0013302,2.34563e+06
0.309694,0.00134484,2.39032e+06
0.311505,0.00135954,2.43147e+06
0.313316,0.00137475,2.40708e+06
0.315127,0.00139012,2.33759e+06
0.316938,0.00140556,2.27014e+06
0.31875,0.00142108,2.20509e+06
0.320561,0.00143659,2.13683e+06
0.322372,0.00145205,2.05693e+06
0.324183,0.00146751,1.97703e+06
0.325994,0.00148309,1.91745e+06
0.327805,0.00149868,1.85817e+06
0.329616,0.00151426,1.7989e+06
0.331427,0.00152984,1.73962e+06
0.333238,0.00154555,1.7261e+06
0.335049,0.00156152,1.79137e+06
0.33686,0.00157747,1.82009e+06
0.338671,0.00159342,1.84881e+06
0.340482,0.00160937,1.87753e+06
0.342294,0.00162532,1.90625e+06
0.344105,0.0016413,1.93607e+06
0.345916,0.00165752,1.97718e+06
0.347727,0.00167375,2.0183e+06
0.349538,0.00168997,2.05942e+06
0.351349,0.00170649,1.99017e+06
0.35316,0.00172311,1.88287e+06
0.354971,0.00173982,1.80399e+06
0.356782,0.00175687,1.83006e+06
0.358593,0.00177392,1.85613e+06
0.360404,0.00179097,1.87191e+06
0.362215,0.00180802,1.77585e+06
0.364026,0.00182507,1.6313e+06
0.365838,0.00184212,1.48674e+06
0.367649,0.00185921,1.36552e+06
0.36946,0.00187658,1.41242e+06
0.371271,0.00189396,1.45932e+06
0.373082,0.00191134,1.50621e+06
0.374893,0.00192871,1.55311e+06
0.376704,0.00194609,1.60001e+06
0.378515,0.00196347,1.6469e+06
0.380326,0.00198113,1.62883e+06
0.382137,0.00199894,1.57718e+06
0.383948,0.00201675,1.52553e+06
0.385759,0.00203455,1.47388e+06
0.38757,0.00205236,1.42223e+06
0.389382,0.00207017,1.37058e+06
0.391193,0.00208814,1.38981e+06
0.393004,0.00210657,1.43711e+06
0.394815,0.00212512,1.47123e+06
0.396626,0.00214366,1.50534e+06
0.398437,0.00216221,1.53945e+06
0.400248,0.00218087,1.5695e+06
0.402059,0.00219958,1.59771e+06
0.40387,0.00221829,1.62591e+06
0.405681,0.002237,1.65411e+06
0.407492,0.00225571,1.68231e+06
0.409303,0.00227442,1.71052e+06
0.411114,0.00229302,1.74756e+06
0.412926,0.00231179,1.72029e+06
0.414737,0.0023306,1.67831e+06
0.416548,0.00234941,1.63632e+06
0.418359,0.00236823,1.59434e+06
0.42017,0.00238708,1.54136e+06
0.421981,0.00240651,1.58039e+06
0.423792,0.00242602,1.61681e+06
0.425603,0.00244553,1.65324e+06
0.427414,0.00246504,1.68967e+06
0.429225,0.00248459,1.70998e+06
0.431036,0.00250422,1.70537e+06
0.432847,0.00252377,1.69263e+06
0.434658,0.0025433,1.67783e+06
0.43647,0.00256282,1.66303e+06
0.438281,0.00258235,1.64824e+06
0.440092,0.00260188,1.63344e+06
0.441903,0.0026216,1.62274e+06
0.443714,0.00264177,1.62216e+06
0.445525,0.00266195,1.62157e+06
0.447336,0.0026823,1.57188e+06
0.449147,0.00270267,1.51408e+06
0.450958,0.00272324,1.48947e+06
0.452769,0.00274395,1.4903e+06
0.45458,0.00276467,1.48991e+06
0.456391,0.0027855,1.48253e+06
0.458202,0.00280634,1.47514e+06
0.460014,0.00282717,1.46775e+06
0.461825,0.00284801,1.46037e+06
0.463636,0.00286884,1.45298e+06
0.465447,0.00288968,1.4456e+06
0.467258,0.00291051,1.43821e+06
0.469069,0.00293135,1.43082e+06
0.47088,0.00295218,1.42344e+06
0.472691,0.00297304,1.42918e+06
0.474502,0.00299392,1.44108e+06
0.476313,0.00301479,1.45297e+06
0.478124,0.00303593,1.44452e+06
0.479935,0.00305737,1.41622e+06
0.481746,0.00307908,1.38373e+06
0.483558,0.00310079,1.35124e+06
0.485369,0.00312251,1.31875e+06
0.48718,0.00314412,1.38133e+06
0.488991,0.00316574,1.44822e+06
0.490802,0.00318736,1.51511e+06
0.492613,0.00320897,1.58199e+06
0.494424,0.00323059,1.64888e+06
0.496235,0.00325224,1.67294e+06
0.498046,0.00327411,1.53133e+06
0.499857,0.00329666,1.63923e+06
0.501668,0.00331915,1.66801e+06
0.503479,0.00334154,1.5736e+06
0.505291,0.00336394,1.47918e+06
0.507102,0.0033863,1.39017e+06
0.508913,0.00340859,1.31716e+06
0.510724,0.003431,1.36854e+06
0.512535,0.00345342,1.41992e+06
0.514346,0.00347584,1.4713e+06
0.516157,0.00349826,1.52268e+06
0.517968,0.0035207,1.54491e+06
0.519779,0.00354325,1.52962e+06
0.52159,0.00356604,1.50004e+06
0.523401,0.00358882,1.47047e+06
0.525212,0.00361161,1.44089e+06
0.527023,0.0036344,1.41131e+06
0.528835,0.00365771,1.40826e+06
0.530646,0.00368107,1.40788e+06
0.532457,0.00370442,1.40749e+06
0.534268,0.00372783,1.41021e+06
0.536079,0.00375133,1.42005e+06
0.53789,0.00377484,1.42989e+06
0.539701,0.00379834,1.43973e+06
0.541512,0.00382185,1.44957e+06
0.543323,0.00384536,1.45941e+06
0.545134,0.00386886,1.46925e+06
0.546945,0.00389264,1.49522e+06
0.548756,0.00391658,1.47679e+06
0.550567,0.00394052,1.45837e+06
0.552379,0.00396446,1.43994e+06
0.55419,0.0039884,1.42151e+06
0.556001,0.00401266,1.39329e+06
0.557812,0.00403704,1.42469e+06
0.559623,0.0040614,1.44798e+06
0.561434,0.00408575,1.46873e+06
0.563245,0.0041101,1.48948e+06
0.565056,0.00413446,1.51022e+06
0.566867,0.00415887,1.47692e+06
0.568678,0.00418329,1.43927e+06
0.570489,0.0042077,1.40162e+06
0.5723,0.00423212,1.36398e+06
0.574111,0.00425654,1.32633e+06
0.575922,0.00428108,1.30307e+06
0.577734,0.00430576,1.28998e+06
0.579545,0.00433047,1.26108e+06
0.581356,0.00435518,1.23217e+06
0.583167,0.00438007,1.24372e+06
0.584978,0.00440507,1.28243e+06
0.586789,0.00443008,1.32114e+06
0.5886,0.00445509,1.35182e+06
0.590411,0.00448013,1.37356e+06
0.592222,0.00450563,1.35863e+06
0.594033,0.00453113,1.3437e+06
0.595844,0.00455663,1.32878e+06
0.597655,0.00458234,1.3245e+06
0.599467,0.00460806,1.32119e+06
0.601278,0.00463379,1.31788e+06
0.603089,0.00465952,1.31457e+06
0.6049,0.00468525,1.31125e+06
0.606711,0.00471098,1.30821e+06
0.608522,0.00473659,1.31123e+06
0.610333,0.0047622,1.31425e+06
0.612144,0.00478799,1.31575e+06
0.613955,0.00481389,1.31645e+06
0.615766,0.00483979,1.31715e+06
0.617577,0.00486568,1.31785e+06
0.619388,0.00489168,1.31428e+06
0.621199,0.00491822,1.28739e+06
0.62301,0.00494476,1.26049e+06
0.624822,0.0049713,1.23359e+06
0.626633,0.00499784,1.20669e+06
0.628444,0.00502439,1.17979e+06
0.630255,0.00505093,1.1529e+06
0.632066,0.00507747,1.126e+06
0.633877,0.00510401,1.0991e+06
0.635688,0.00513058,1.11164e+06
0.637499,0.00515733,1.18581e+06
0.63931,0.00518409,1.24924e+06
0.641121,0.00521098,1.16772e+06
0.642932,0.00523788,1.0862e+06
0.644743,0.00526503,1.07491e+06
0.646554,0.00529222,1.09079e+06
0.648366,0.0053194,1.10667e+06
0.650177,0.00534658,1.12255e+06
0.651988,0.00537376,1.13842e+06
0.653799,0.00540094,1.1543e+06
0.65561,0.00542813,1.17018e+06
0.657421,0.00545531,1.18606e+06
0.659232,0.00548249,1.20193e+06
0.661043,0.00550992,1.22667e+06
0.662854,0.00553762,1.26128e+06
0.664665,0.00556532,1.29588e+06
0.666476,0.00559303,1.33049e+06
0.668287,0.00562073,1.3651e+06
0.670098,0.00564853,1.38689e+06
0.67191,0.00567655,1.36328e+06
0.673721,0.00570456,1.33968e+06
0.675532,0.00573257,1.31607e+06
0.677343,0.00576089,1.30647e+06
0.679154,0.00578932,1.30195e+06
0.680965,0.00581775,1.29744e+06
0.682776,0.00584619,1.29292e+06
0.684587,0.00587462,1.2884e+06
0.686398,0.00590305,1.28389e+06
0.688209,0.00593148,1.27937e+06
0.69002,0.00595992,1.27483e+06
0.691831,0.0059882,1.27805e+06
0.693642,0.00601665,1.29094e+06
0.695454,0.00604509,1.30382e+06
0.697265,0.00607354,1.31671e+06
0.699076,0.00610203,1.33578e+06
0.700887,0.00613102,1.36113e+06
0.702698,0.00616003,1.38088e+06
0.704509,0.00618904,1.40064e+06
0.70632,0.00621805,1.42039e+06
0.708131,0.00624725,1.41547e+06
0.709942,0.00627644,1.40531e+06
0.711753,0.00630562,1.39602e+06
0.713564,0.0063348,1.38672e+06
0.715375,0.00636397,1.37743e+06
0.717187,0.00639315,1.36813e+06
0.718998,0.00642233,1.35883e+06
0.720809,0.00645164,1.33096e+06
0.72262,0.00648107,1.28752e+06
0.724431,0.00651056,1.23588e+06
0.726242,0.00654013,1.17366e+06
0.728053,0.00656969,1.11143e+06
0.729864,0.00659956,1.14176e+06
0.731675,0.00662943,1.17661e+06
0.733486,0.00665931,1.21145e+06
0.735297,0.00668922,1.23738e+06
0.737108,0.00671915,1.25314e+06
0.738919,0.00674908,1.2689e+06
0.74073,0.00677901,1.28466e+06
0.742542,0.00680911,1.29387e+06
0.744353,0.00683941,1.29582e+06
0.746164,0.0068697,1.29778e+06
0.747975,0.0069,1.29973e+06
0.749786,0.00693029,1.30169e+06
0.751597,0.00696059,1.30365e+06
0.753408,0.00699109,1.27272e+06
0.755219,0.00702189,1.28899e+06
0.75703,0.0070527,1.3054e+06
0.758841,0.00708351,1.32181e+06
0.760652,0.00711436,1.20302e+06
0.762463,0.00714524,1.09144e+06
0.764274,0.00717634,1.10144e+06
0.766086,0.00720744,1.11143e+06
0.767897,0.00723855,1.12143e+06
0.769708,0.00726968,1.14814e+06
0.771519,0.00730083,1.18264e+06
0.77333,0.00733198,1.21715e+06
0.775141,0.00736312,1.24632e+06
0.776952,0.00739411,1.22478e+06
0.778763,0.00742542,1.25785e+06
0.780574,0.00745702,1.33871e+06
0.782385,0.00748861,1.41956e+06
0.784196,0.00752016,1.47972e+06
0.786007,0.00755163,1.50136e+06
0.787818,0.0075831,1.47204e+06
0.78963,0.00761456,1.42868e+06
0.791441,0.00764603,1.38532e+06
0.793252,0.0076775,1.35918e+06
0.795063,0.00770898,1.33696e+06
0.796874,0.00774045,1.31474e+06
0.798685,0.00777202,1.29402e+06
0.800496,0.00780403,1.28001e+06
0.802307,0.00783604,1.266e+06
0.804118,0.00786805,1.252e+06
0.805929,0.00790025,1.24095e+06
0.80774,0.00793257,1.23173e+06
0.809551,0.00796489,1.22088e+06
0.811363,0.00799721,1.20642e+06
0.813174,0.00802954,1.19196e+06
0.814985,0.00806186,1.1775e+06
0.816796,0.00809419,1.16443e+06
0.818607,0.00812655,1.16596e+06
0.820418,0.00815895,1.16217e+06
0.822229,0.00819165,1.12053e+06
0.82404,0.00822436,1.0789e+06
0.825851,0.00825706,1.03726e+06
0.827662,0.00828978,1.00421e+06
0.829473,0.00832276,1.09197e+06
0.831284,0.00835575,1.17973e+06
0.833095,0.00838878,1.27693e+06
0.834907,0.00842192,1.40505e+06
0.836718,0.00845507,1.53317e+06
0.838529,0.00848822,1.53589e+06
0.84034,0.00852137,1.50072e+06
0.842151,0.00855482,1.60244e+06
0.843962,0.00858802,1.60458e+06
0.845773,0.00862107,1.54023e+06
0.847584,0.00865426,1.47444e+06
0.849395,0.00868774,1.40597e+06
0.851206,0.00872122,1.33751e+06
0.853017,0.00875469,1.26905e+06
0.854828,0.00878817,1.20058e+06
0.856639,0.00882183,1.19527e+06
0.858451,0.00885548,1.18971e+06
0.860262,0.0088892,1.17295e+06
0.862073,0.00892293,1.15353e+06
0.863884,0.00895685,1.1361e+06
0.865695,0.00899079,1.119e+06
0.867506,0.00902488,1.10589e+06
0.869317,0.00905929,1.10221e+06
0.871128,0.00909365,1.09794e+06
0.872939,0.00912791,1.09259e+06
0.87475,0.00916218,1.08725e+06
0.876561,0.00919644,1.0819e+06
0.878372,0.00923071,1.07655e+06
0.880183,0.00926497,1.07121e+06
0.881995,0.00929924,1.06586e+06
0.883806,0.00933351,1.06052e+06
0.885617,0.00936777,1.05517e+06
0.887428,0.00940204,1.04982e+06
0.889239,0.00943631,1.04448e+06
0.89105,0.00947058,1.02409e+06
0.892861,0.00950486,997311
0.894672,0.00953918,972017
0.896483,0.00957399,965540
0.898294,0.00960882,958355
0.900105,0.00964381,947690
0.901916,0.0096788,937026
0.903727,0.00971378,926360
0.905538,0.00974877,915695
0.90735,0.00978376,905031
0.909161,0.00981874,894365
0.910972,0.00985373,883701
0.912783,0.00988872,873036
0.914594,0.00992394,934600
0.916405,0.0099592,1.01047e+06
0.918216,0.00999448,1.08188e+06
0.920027,0.0100299,1.10667e+06
0.921838,0.0100653,1.06477e+06
0.923649,0.0101007,987973
0.92546,0.010136,911181
0.927271,0.0101717,871901
0.929083,0.0102075,839386
0.930894,0.0102433,806872
0.932705,0.010279,774357
0.934516,0.0103148,741842
0.936327,0.0103506,709328
0.938138,0.0103863,676812
0.939949,0.0104222,647067
0.94176,0.0104582,671527
0.943571,0.0104943,697013
0.945382,0.0105305,729052
0.947193,0.0105667,761091
0.949004,0.0106029,793129
0.950815,0.0106391,825168
0.952627,0.0106753,857207
0.954438,0.0107115,889245
0.956249,0.0107477,921285
0.95806,0.0107839,953323
0.959871,0.0108201,982349
0.961682,0.0108566,985143
0.963493,0.0108931,987937
0.965304,0.0109297,973192
0.967115,0.0109663,944036
0.968926,0.0110032,921800
0.970737,0.0110401,901741
0.972548,0.011077,881682
0.974359,0.011114,865531
0.976171,0.011151,851959
0.977982,0.011188,838387
0.979793,0.011225,824815
0.981604,0.011262,811243
0.983415,0.0112991,797671
0.985226,0.0113361,784099
0.987037,0.0113731,770527
0.988848,0.0114101,758252
0.990659,0.011447,750018
0.99247,0.0114841,755555
0.994281,0.0115212,793367
0.996092,0.0115583,831177
0.997903,0.0115957,827966
0.999715,0.0116334,808510
1.00153,0.0116711,789053
1.00334,0.011709,793610
1.00515,0.0117468,802856
1.00696,0.0117847,812102
1.00877,0.0118225,821348
1.01058,0.0118603,831020
1.01239,0.0118982,841770
1.0142,0.011936,852520
1.01601,0.0119738,863270
1.01783,0.0120118,856485
1.01964,0.0120498,825065
1.02145,0.0120878,793643
1.02326,0.0121259,762224
1.02507,0.012164,743375
1.02688,0.0122022,745704
1.02869,0.0122405,749789
1.0305,0.0122787,753874
1.03231,0.0123169,757959
1.03412,0.0123551,762044
1.03594,0.0123933,766128
1.03775,0.0124315,770213
1.03956,0.0124698,781644
1.04137,0.0125084,822417
1.04318,0.012547,863191
1.04499,0.0125856,903964
1.0468,0.0126243,932890
1.04861,0.0126632,946118
1.05042,0.012702,954364
1.05224,0.0127409,962609
1.05405,0.0127797,970855
1.05586,0.0128186,992285
1.05767,0.0128575,1.04861e+06
1.05948,0.0128965,1.09231e+06
1.06129,0.0129357,1.0947e+06
1.0631,0.0129748,1.0971e+06
1.06491,0.013014,1.09949e+06
1.06672,0.0130532,1.096e+06
1.06854,0.0130923,1.07429e+06
1.07035,0.0131318,1.05498e+06
1.07216,0.0131712,1.03567e+06
1.07397,0.0132106,1.01636e+06
1.07578,0.01325,997054
1.07759,0.0132894,967166
1.0794,0.0133287,925285
1.08121,0.013368,883406
1.08302,0.0134073,838895
1.08484,0.0134466,793492
1.08665,0.0134859,748085
1.08846,0.0135255,725331
1.09027,0.0135654,733018
1.09208,0.0136052,740704
1.09389,0.0136451,748532
1.0957,0.0136849,756932
1.09751,0.0137248,765334
1.09932,0.0137646,773734
1.10113,0.0138045,782136
1.10295,0.0138443,791353
1.10476,0.0138843,804048
1.10657,0.0139242,816742
1.10838,0.0139644,865148
1.11019,0.0140046,914207
1.112,0.0140449,914143
1.11381,0.0140853,903631
1.11562,0.0141257,860855
1.11743,0.0141659,798095
1.11925,0.0142063,763838
1.12106,0.0142467,763188
1.12287,0.0142872,762537
1.12468,0.0143276,761887
1.12649,0.0143681,761236
1.1283,0.0144085,760586
1.13011,0.014449,759936
1.13192,0.0144895,759285
1.13373,0.0145299,756035
1.13555,0.0145703,752509
1.13736,0.0146111,765658
1.13917,0.0146519,743434
1.14098,0.0146926,721210
1.14279,0.0147334,698985
1.1446,0.0147742,676762
1.14641,0.0148152,661411
1.14822,0.0148563,649825
1.15003,0.0148974,649621
1.15184,0.0149385,653761
1.15366,0.0149795,657902
1.15547,0.0150206,662042
1.15728,0.0150617,666183
1.15909,0.0151027,670324
1.1609,0.0151438,674465
1.16271,0.0151851,717177
1.16452,0.0152264,770085
1.16633,0.0152677,810507
1.16814,0.015309,824688
1.16996,0.0153503,807748
1.17177,0.0153918,755378
1.17358,0.0154332,703011
1.17539,0.0154746,684583
1.1772,0.015516,667706
1.17901,0.0155574,650829
1.18082,0.0155989,641712
1.18263,0.0156404,641032
1.18444,0.0156819,640351
1.18626,0.0157234,639671
1.18807,0.0157649,638990
1.18988,0.0158065,635827
1.19169,0.0158483,624202
1.1935,0.0158901,612577
1.19531,0.0159319,600952
1.19712,0.0159738,611622
1.19893,0.0160159,631483
1.20074,0.016058,651346
1.20256,0.0161,673360
1.20437,0.0161421,700024
1.20618,0.0161842,726686
1.20799,0.0162263,753349
1.2098,0.0162685,781006
1.21161,0.0163107,808960
1.21342,0.0163529,836911
1.21523,0.0163951,853900
1.21704,0.0164375,849409
1.21885,0.0164798,830767
1.22067,0.0165221,794723
1.22248,0.0165643,758677
1.22429,0.0166066,722633
1.2261,0.016649,711324
1.22791,0.0166914,699769
1.22972,0.0167339,688212
1.23153,0.0167763,676657
1.23334,0.0168187,665100
1.23515,0.0168612,653545
1.23697,0.0169036,641988
1.23878,0.0169461,630429
1.24059,0.0169887,636515
1.2424,0.0170313,642600
1.24421,0.0170739,648687
1.24602,0.0171165,654772
1.24783,0.0171593,642454
1.24964,0.0172022,618403
1.25145,0.0172451,594351
1.25327,0.0172879,570321
1.25508,0.017331,555562
1.25689,0.0173741,540804
1.2587,0.0174172,526045
1.26051,0.0174603,511287
1.26232,0.0175033,496528
1.26413,0.0175464,481770
1.26594,0.0175895,467011
1.26775,0.0176326,452253
1.26956,0.0176757,443636
1.27138,0.0177189,475748
1.27319,0.0177621,507863
1.275,0.0178053,539975
1.27681,0.0178485,557705
1.27862,0.0178916,510614
1.28043,0.0179348,463521
1.28224,0.0179779,416430
1.28405,0.0180212,382339
1.28586,0.0180646,392858
1.28768,0.018108,403377
1.28949,0.0181514,413896
1.2913,0.0181948,424416
1.29311,0.0182382,434935
1.29492,0.0182816,445454
1.29673,0.018325,455974
1.29854,0.0183686,461086
1.30035,0.0184124,457909
1.30216,0.0184562,454733
1.30398,0.0185,451557
1.30579,0.0185438,448380
1.3076,0.0185875,446899
1.30941,0.0186313,447730
1.31122,0.0186751,449011
1.31303,0.0187189,451432
1.31484,0.0187627,453853
1.31665,0.0188065,455631
1.31846,0.0188505,454268
1.32028,0.0188944,442976
1.32209,0.0189384,431682
1.3239,0.0189823,419910
1.32571,0.0190264,403757
1.32752,0.0190704,387605
1.32933,0.0191144,371452
1.33114,0.0191585,355300
1.33295,0.0192025,339146
1.33476,0.0192466,322994
1.33657,0.0192906,306841
1.33839,0.0193347,298682
1.3402,0.0193789,298080
1.34201,0.0194232,297479
1.34382,0.0194674,310018
1.34563,0.0195117,330998
1.34744,0.019556,351978
1.34925,0.0196003,372957
1.35106,0.0196446,393938
1.35287,0.0196888,414917
1.35469,0.0197332,438426
1.3565,0.0197776,463229
1.35831,0.0198221,480085
1.36012,0.0198666,480464
1.36193,0.0199111,480844
1.36374,0.0199556,481224
1.36555,0.0200001,481604
1.36736,0.0200447,471694
1.36917,0.0200894,460003
1.37099,0.0201341,448313
1.3728,0.0201787,436622
1.37461,0.0202234,425166
1.37642,0.020268,414287
1.37823,0.0203127,403410
1.38004,0.0203574,403527
1.38185,0.0204022,431937
1.38366,0.020447,460349
1.38547,0.0204918,477442
1.38728,0.0205366,471783
1.3891,0.0205815,438453
1.39091,0.0206263,405121
1.39272,0.0206713,377250
1.39453,0.0207162,375744
1.39634,0.0207612,374238
1.39815,0.0208062,372732
1.39996,0.0208511,371226
1.40177,0.0208961,369719
1.40358,0.0209411,368213
1.4054,0.020986,366707
1.40721,0.021031,365201
1.40902,0.021076,363694
1.41083,0.0211209,362188
1.41264,0.021166,358219
1.41445,0.021211,354058
1.41626,0.0212561,358269
1.41807,0.0213013,363611
1.41988,0.0213465,361995
1.4217,0.0213916,352237
1.42351,0.0214368,343914
1.42532,0.0214821,337725
1.42713,0.0215274,331536
1.42894,0.0215726,326507
1.43075,0.0216179,325435
1.43256,0.0216631,324363
1.43437,0.0217083,323291
1.43618,0.0217536,321571
1.438,0.0217991,318728
1.43981,0.0218445,315885
1.44162,0.0218899,313043
1.44343,0.0219354,310200
1.44524,0.0219808,307358
1.44705,0.0220262,304515
1.44886,0.0220717,303092
1.45067,0.0221171,302910
1.45248,0.0221625,302737
1.45429,0.0222079,302564
1.45611,0.0222534,297766
1.45792,0.0222989,279514
1.45973,0.0223444,261263
1.46154,0.02239,243010
1.46335,0.0224356,235774
1.46516,0.0224812,235673
1.46697,0.0225268,238896
1.46878,0.0225724,242119
1.47059,0.022618,245342
1.47241,0.0226636,248565
1.47422,0.0227093,251789
1.47603,0.0227549,255058
1.47784,0.0228005,263820
1.47965,0.0228462,272804
1.48146,0.022892,281848
1.48327,0.0229377,290892
1.48508,0.0229834,299936
1.48689,0.0230292,301702
1.48871,0.0230751,294837
1.49052,0.0231209,287971
1.49233,0.0231667,280739
1.49414,0.0232125,273262
1.49595,0.0232583,265786
1.49776,0.0233041,258309
1.49957,0.02335,254209
1.50138,0.0233959,258585
1.50319,0.0234417,262961
1.50501,0.0234876,265965
1.50682,0.0235335,263210
1.50863,0.0235795,256734
1.51044,0.0236255,250259
1.51225,0.0236715,244619
1.51406,0.0237175,245176
1.51587,0.0237634,245732
1.51768,0.0238094,246288
1.51949,0.0238554,246844
1.5213,0.0239014,247400
1.52312,0.0239473,248073
1.52493,0.0239933,248797
1.52674,0.0240393,249521
1.52855,0.0240854,245083
1.53036,0.0241315,238895
1.53217,0.0241776,232707
1.53398,0.0242237,226519
1.53579,0.0242699,220364
1.5376,0.024316,214374
1.53942,0.0243621,208384
1.54123,0.0244082,202394
1.54304,0.0244543,196891
1.54485,0.0245005,193354
1.54666,0.0245466,188342
1.54847,0.0245929,178655
1.55028,0.0246391,168991
1.55209,0.0246853,168948
1.5539,0.0247316,172016
1.55572,0.0247779,175084
1.55753,0.0248241,178152
1.55934,0.0248704,181221
1.56115,0.0249166,184289
1.56296,0.0249629,187357
1.56477,0.0250091,190425
1.56658,0.0250554,193493
1.56839,0.0251016,191556
1.5702,0.0251478,181428
1.57201,0.0251941,171301
1.57383,0.0252403,161173
1.57564,0.0252866,155739
1.57745,0.025333,157962
1.57926,0.0253793,160186
1.58107,0.0254257,162410
1.58288,0.025472,163451
1.58469,0.0255184,161971
1.5865,0.0255648,160491
1.58831,0.0256112,159011
1.59013,0.0256576,157531
1.59194,0.025704,156050
1.59375,0.0257504,154570
1.59556,0.0257967,153090
1.59737,0.0258431,151610
1.59918,0.0258895,150130
1.60099,0.0259359,150095
1.6028,0.0259823,152772
1.60461,0.0260288,152824
1.60643,0.0260752,149242
1.60824,0.0261216,144643
1.61005,0.0261681,137383
1.61186,0.0262145,130915
1.61367,0.026261,125864
1.61548,0.0263074,120814
1.61729,0.0263539,115764
1.6191,0.0264004,113977
1.62091,0.0264468,112790
1.62273,0.0264933,111602
1.62454,0.0265398,110415
1.62635,0.0265863,109794
1.62816,0.0266328,111293
1.62997,0.0266793,112793
1.63178,0.0267258,114035
1.63359,0.0267723,114911
1.6354,0.0268189,115787
1.63721,0.0268654,116663
1.63902,0.0269119,116943
1.64084,0.0269585,113764
1.64265,0.027005,110585
1.64446,0.0270516,107660
1.64627,0.0270981,105125
1.64808,0.0271447,101374
1.64989,0.0271912,97621.7
1.6517,0.0272378,94318
1.65351,0.0272843,91384.4
1.65532,0.0273309,88450.5
1.65714,0.0273774,85516.9
1.65895,0.027424,82677.1
1.66076,0.0274705,80194.1
1.66257,0.0275171,77710.8
1.66438,0.0275637,75438.2
1.66619,0.0276103,74041.9
1.668,0.0276568,72645.8
1.66981,0.0277034,71249.6
1.67162,0.02775,69927.8
1.67344,0.0277966,68660.8
1.67525,0.0278432,67393.8
1.67706,0.0278898,66126.9
1.67887,0.0279364,65588.8
1.68068,0.027983,65254.7
1.68249,0.0280296,64852.6
1.6843,0.0280762,63053.4
1.68611,0.0281228,61253.2
1.68792,0.0281695,59452.7
1.68973,0.0282161,57970.2
1.69155,0.0282627,57355.5
1.69336,0.0283093,56740.8
1.69517,0.028356,56126.1
1.69698,0.0284026,55511.5
1.69879,0.0284492,54896.8
1.7006,0.0284958,54282.1
1.70241,0.0285425,53667.5
1.70422,0.0285891,53052.8
1.70603,0.0286357,52438.1
1.70785,0.0286823,50873.8
1.70966,0.028729,49223
1.71147,0.0287756,47572.2
1.71328,0.0288222,46656.8
1.71509,0.0288689,45730.7
1.7169,0.0289155,44804.4
1.71871,0.0289621,43878.3
1.72052,0.0290088,43478.7
1.72233,0.0290554,43113.2
1.72415,0.029102,42747.7
1.72596,0.0291487,42382.3
1.72777,0.0291953,42016.8
1.72958,0.029242,41651.3
1.73139,0.0292886,41285.8
1.7332,0.0293353,41034.8
1.73501,0.0293819,39889.8
1.73682,0.0294286,38367.4
1.73863,0.0294752,36844.9
1.74045,0.0295219,35248.1
1.74226,0.0295685,34672.5
1.74407,0.0296152,34187.1
1.74588,0.0296618,33701.7
1.74769,0.0297085,33216.3
1.7495,0.0297551,32730.9
1.75131,0.0298018,32245.5
1.75312,0.0298484,31760.1
1.75493,0.0298951,31683.4
1.75674,0.0299417,31889.4
1.75856,0.0299884,32095.4
1.76037,0.0300351,34894.4
1.76218,0.0300817,38013.1
1.76399,0.0301284,39357.7
1.7658,0.0301751,40059.2
1.76761,0.0302217,40760.8
1.76942,0.0302684,41462.3
1.77123,0.0303151,42163.9
1.77304,0.0303617,42865.4
1.77486,0.0304084,41869.8
1.77667,0.0304551,40938.9
1.77848,0.0305017,40811.6
1.78029,0.0305484,40732.8
1.7821,0.0305951,40714.9
1.78391,0.0306417,40697
1.78572,0.0306884,40679.1
1.78753,0.0307351,40661.3
1.78934,0.0307817,39814
1.79116,0.0308284,37765.4
1.79297,0.0308751,34969.4
1.79478,0.0309217,32173.3
1.79659,0.0309684,29377.3
1.7984,0.0310151,26581.2
1.80021,0.0310617,25727
1.80202,0.0311084,26330.2
1.80383,0.0311551,26933.4
1.80564,0.0312018,27633.8
1.80745,0.0312484,28558.1
1.80927,0.0312951,29532.4
1.81108,0.0313418,30513.8
