"arc_length","Displacement_Magnitude","Sxx","Sxy","Sxz","Syy","Syz","Szz","Von_Mises_Stress"
0,1.99757e-09,2.6499e+06,-192720,75373.6,5.47549e+06,433316,2.23338e+06,3.1758e+06
0.00181107,7.93674e-07,2.60575e+06,-189102,88446.8,5.47259e+06,400372,2.10982e+06,3.26063e+06
0.00362215,1.58536e-06,2.5616e+06,-185485,101520,5.46969e+06,367428,1.98626e+06,3.34546e+06
0.00543323,2.37705e-06,2.51745e+06,-181867,114593,5.46679e+06,334485,1.8627e+06,3.43029e+06
0.00724431,3.16873e-06,2.4733e+06,-178250,127666,5.46389e+06,301541,1.73914e+06,3.51511e+06
0.00905538,3.96042e-06,2.42915e+06,-174633,140739,5.46099e+06,268597,1.61558e+06,3.59994e+06
0.0108665,5.13494e-06,2.31597e+06,-165319,152787,5.31629e+06,225304,1.43325e+06,3.60437e+06
0.0126775,6.37153e-06,2.19172e+06,-155093,164669,5.14887e+06,180353,1.24151e+06,3.59593e+06
0.0144886,7.60855e-06,2.06748e+06,-144867,176552,4.98146e+06,135403,1.04977e+06,3.58748e+06
0.0162997,8.84582e-06,1.94324e+06,-134641,188435,4.81405e+06,90451.7,858034,3.57903e+06
0.0181108,1.03765e-05,1.85791e+06,-129937,193414,4.71107e+06,67771.7,715912,3.59467e+06
0.0199218,1.22949e-05,1.81827e+06,-131717,190286,4.68375e+06,71240.2,632050,3.63857e+06
0.0217329,1.4253e-05,1.77863e+06,-133497,187158,4.65643e+06,74708.9,548187,3.68248e+06
0.023544,1.62365e-05,1.73899e+06,-135276,184030,4.6291e+06,78177.5,464324,3.72639e+06
0.0253551,1.82371e-05,1.69935e+06,-137056,180903,4.60178e+06,81646.1,380462,3.7703e+06
0.0271662,2.0221e-05,1.66368e+06,-137947,178187,4.58661e+06,87709.9,295429,3.82593e+06
0.0289772,2.20396e-05,1.65197e+06,-133478,177954,4.64469e+06,109421,203335,3.9523e+06
0.0307883,2.38635e-05,1.64026e+06,-129010,177720,4.70277e+06,131131,111242,4.07866e+06
0.0325994,2.56916e-05,1.62855e+06,-124541,177487,4.76085e+06,152841,19148.7,4.20503e+06
0.0344105,2.79881e-05,1.6226e+06,-118433,183217,4.80984e+06,165470,-60565.7,4.312e+06
0.0362215,3.0958e-05,1.57555e+06,-117458,199260,4.69078e+06,163638,-83922.8,4.22949e+06
0.0380326,3.39686e-05,1.52849e+06,-116484,215303,4.57172e+06,161806,-107280,4.14697e+06
0.0398437,3.69844e-05,1.47506e+06,-115146,230908,4.42313e+06,159712,-122650,4.03857e+06
0.0416548,4.00231e-05,1.42078e+06,-113761,246455,4.27061e+06,157582,-136956,3.92672e+06
0.0434658,4.30827e-05,1.3665e+06,-112375,262002,4.11808e+06,155453,-151262,3.81486e+06
0.0452769,4.61763e-05,1.31587e+06,-110328,275353,3.98126e+06,151457,-164578,3.7149e+06
0.047088,4.94336e-05,1.29677e+06,-102564,269701,3.98033e+06,131306,-169323,3.71784e+06
0.0488991,5.27029e-05,1.27767e+06,-94799.6,264047,3.97941e+06,111154,-174067,3.72078e+06
0.0507102,5.59821e-05,1.25857e+06,-87035.8,258394,3.97848e+06,91002.9,-178812,3.72372e+06
0.0525212,5.94625e-05,1.27266e+06,-83522.8,250444,4.04559e+06,80224.6,-165003,3.75905e+06
0.0543323,6.34029e-05,1.31005e+06,-82314,236947,4.18935e+06,73027.7,-155691,3.86971e+06
0.0561434,6.75047e-05,1.34699e+06,-80701.5,221490,4.3468e+06,64184,-155494,4.00653e+06
0.0579545,7.16167e-05,1.38393e+06,-79089.8,206034,4.50424e+06,55341.2,-155297,4.14334e+06
0.0597655,7.57373e-05,1.42086e+06,-77478.1,190578,4.66169e+06,46498.3,-155101,4.28016e+06
0.0615766,7.9865e-05,1.4578e+06,-75865.6,175122,4.81913e+06,37654.6,-154904,4.41697e+06
0.0633877,8.42155e-05,1.4618e+06,-80056.6,181037,4.83689e+06,39157.6,-139303,4.42216e+06
0.0651988,8.86568e-05,1.45359e+06,-86397.4,194871,4.80289e+06,44493.9,-117994,4.37858e+06
0.0670099,9.31226e-05,1.44517e+06,-92467.3,208334,4.76905e+06,49878.7,-97108.6,4.3354e+06
0.0688209,9.8411e-05,1.42507e+06,-83586.5,201296,4.74399e+06,57896.2,-99529,4.31439e+06
0.070632,0.000103763,1.39864e+06,-72951.6,193626,4.69273e+06,66003.9,-91225,4.26308e+06
0.0724431,0.000109187,1.36387e+06,-60005.3,185122,4.60696e+06,74228.4,-68791.5,4.17184e+06
0.0742542,0.000114621,1.3291e+06,-47059.2,176618,4.52119e+06,82453.7,-46358.6,4.0806e+06
0.0760652,0.000120063,1.29433e+06,-34113.1,168114,4.43542e+06,90679,-23925.6,3.98936e+06
0.0778763,0.000125364,1.24963e+06,-19438.4,158358,4.33352e+06,97269.2,-1090.09,3.88462e+06
0.0796874,0.000130573,1.1986e+06,-3658.93,147801,4.22129e+06,102815,22001.8,3.77123e+06
0.0814985,0.000135785,1.14756e+06,12120.6,137244,4.10906e+06,108361,45094.3,3.65785e+06
0.0833095,0.00014145,1.13337e+06,32308.6,123976,4.06288e+06,114722,72507.8,3.59693e+06
0.0851206,0.000147561,1.15556e+06,56849.5,108031,4.08189e+06,121888,104189,3.58782e+06
0.0869317,0.000153583,1.1727e+06,67403,108078,4.12633e+06,116375,108249,3.62252e+06
0.0887428,0.000160364,1.12818e+06,15369.1,116298,4.03755e+06,110565,114651,3.5428e+06
0.0905539,0.000167186,1.10813e+06,-3425.6,119762,4.00664e+06,108190,108425,3.5221e+06
0.0923649,0.000174035,1.09901e+06,-7360.41,121099,4.00162e+06,107350,96554.6,3.52779e+06
0.094176,0.000180891,1.0899e+06,-11295.5,122435,3.99659e+06,106510,84685.4,3.53346e+06
0.0959871,0.000187754,1.08079e+06,-15230.3,123772,3.99156e+06,105671,72814.7,3.53914e+06
0.0977982,0.000194623,1.07168e+06,-19165.4,125109,3.98653e+06,104831,60945.4,3.54482e+06
0.0996092,0.000201497,1.06257e+06,-23100.2,126446,3.98151e+06,103991,49074.7,3.5505e+06
0.10142,0.000208375,1.05346e+06,-27035.3,127782,3.97648e+06,103151,37205.4,3.55618e+06
0.103231,0.000215259,1.04434e+06,-30970.1,129119,3.97145e+06,102312,25334.7,3.56186e+06
0.105042,0.000222306,1.0354e+06,-35547.9,129751,3.95487e+06,105533,33418.3,3.54301e+06
0.106854,0.000230015,1.04146e+06,-2808.14,141261,3.97385e+06,97919.1,17126.4,3.57108e+06
0.108665,0.000237808,1.06545e+06,-3567.87,146595,4.12546e+06,89992.8,2873.38,3.72082e+06
0.110476,0.000245577,1.08923e+06,5826.59,150442,4.22402e+06,81037.1,4291.35,3.8089e+06
0.112287,0.000253354,1.11168e+06,16434.3,153822,4.30055e+06,72311.5,11789.5,3.8725e+06
0.114098,0.00026119,1.12793e+06,19383.3,156910,4.34019e+06,66086.7,28089.5,3.89877e+06
0.115909,0.00026903,1.14419e+06,22332.7,159999,4.37984e+06,59862.5,44388.4,3.92504e+06
0.11772,0.000276874,1.16045e+06,25281.7,163087,4.41948e+06,53637.7,60688.4,3.95131e+06
0.119531,0.000284721,1.17671e+06,28231,166175,4.45912e+06,47413.5,76987.4,3.97758e+06
0.121342,0.000293318,1.15461e+06,27145.7,162576,4.41424e+06,58570.3,62804.3,3.94853e+06
0.123153,0.000302142,1.12108e+06,24858.5,156986,4.34419e+06,74903.2,39543.5,3.903e+06
0.124964,0.000310969,1.08756e+06,22571.5,151396,4.27413e+06,91236.8,16281.7,3.85747e+06
0.126775,0.000319779,1.05608e+06,21296,145750,4.20741e+06,104899,-1682.76,3.81068e+06
0.128586,0.000328641,1.01724e+06,20079.1,140445,4.10174e+06,112307,-3122.68,3.71889e+06
0.130398,0.000337573,970292,17297.3,135454,3.96506e+06,119809,-2031.26,3.59935e+06
0.132209,0.000346506,923349,14516.1,130463,3.82837e+06,127312,-939.879,3.47981e+06
0.13402,0.000355441,876406,11734.3,125472,3.69168e+06,134815,151.547,3.36028e+06
0.135831,0.000364738,846346,13033,122202,3.6094e+06,138104,2336.53,3.28774e+06
0.137642,0.00037472,848195,22043,122188,3.62993e+06,133429,6588.44,3.30404e+06
0.139453,0.000384705,850044,31052.6,122173,3.65046e+06,128755,10840.4,3.32034e+06
0.141264,0.000394693,851894,40062.6,122158,3.67099e+06,124080,15092.3,3.33664e+06
0.143075,0.000404683,853743,49072,122143,3.69152e+06,119405,19344.3,3.35294e+06
0.144886,0.000414677,855592,58082,122128,3.71205e+06,114730,23596.2,3.36924e+06
0.146697,0.000424567,880556,74180.9,120152,3.82913e+06,109397,24468.8,3.47511e+06
0.148508,0.000434427,912318,92365.5,117599,3.97461e+06,103871,24347.3,3.60732e+06
0.150319,0.00044429,944082,110550,115047,4.1201e+06,98344.6,24225.6,3.73955e+06
0.15213,0.000454196,958487,123091,113393,4.18671e+06,93076.8,33076.2,3.79796e+06
0.153942,0.000464852,943411,129917,110962,4.17472e+06,87266,23699,3.79555e+06
0.155753,0.000475885,910582,133204,108414,4.10877e+06,81538,8301.43,3.74823e+06
0.157564,0.000486922,867354,134236,106814,3.99243e+06,77089,3637.96,3.65101e+06
0.159375,0.000497961,824126,135268,105214,3.87611e+06,72639.7,-1025.98,3.55379e+06
0.161186,0.000509041,785953,135234,102832,3.77201e+06,66045.4,-7820.69,3.46804e+06
0.162997,0.000520331,763789,135408,98072.9,3.72841e+06,56024.6,-26178.9,3.44375e+06
0.164808,0.000531733,744263,138759,93010.6,3.71385e+06,48392.8,-50665.3,3.45165e+06
0.166619,0.000543135,724737,142109,87948.1,3.69929e+06,40760.9,-75151.1,3.45955e+06
0.16843,0.000554539,705211,145461,82885.8,3.68473e+06,33129.1,-99637.5,3.46745e+06
0.170241,0.000565944,685685,148812,77823.5,3.67017e+06,25497.4,-124124,3.47535e+06
0.172052,0.00057735,666159,152162,72761,3.65561e+06,17865.4,-148610,3.48325e+06
0.173863,0.000589246,673928,165670,67467.7,3.69674e+06,26849.8,-151505,3.52562e+06
0.175674,0.00060133,691312,182059,62319.2,3.74034e+06,46329.4,-146144,3.56344e+06
0.177486,0.000613442,708842,197781,56580.4,3.77523e+06,66164.4,-133684,3.58911e+06
0.179297,0.000625555,726373,213503,50841.4,3.81012e+06,85999.5,-121223,3.61477e+06
0.181108,0.000637669,743904,229225,45102.6,3.84501e+06,105834,-108763,3.64043e+06
0.182919,0.000649932,761540,242961,39502,3.87542e+06,121488,-93283.3,3.65789e+06
0.18473,0.000662718,779550,249653,34392.4,3.88999e+06,122317,-67097.6,3.64627e+06
0.186541,0.000675528,792294,256279,29018.6,3.87644e+06,126665,-37832.3,3.6086e+06
0.188352,0.000688416,806188,262458,20475.6,3.83884e+06,131046,3806.76,3.54106e+06
0.190163,0.000701713,807684,268442,25498.8,3.87022e+06,111409,-4355.48,3.57713e+06
0.191974,0.000715001,803586,270364,32772.4,3.87402e+06,91182.7,-11307,3.58669e+06
0.193785,0.00072824,792869,262766,42021.5,3.81445e+06,69955.1,-4927.37,3.52628e+06
0.195596,0.000741479,782152,255169,51270.8,3.75487e+06,48727.4,1452.04,3.46587e+06
0.197407,0.000754721,771435,247571,60519.9,3.6953e+06,27499.8,7831.63,3.40546e+06
0.199218,0.00076813,769383,250353,64657.6,3.70309e+06,15574.4,688.052,3.42338e+06
0.20103,0.000781634,772180,258944,65934.4,3.74857e+06,8855.11,-14023.5,3.48515e+06
0.202841,0.00079514,774978,267535,67211.2,3.79406e+06,2135.82,-28735.1,3.54692e+06
0.204652,0.000808746,759019,268789,71794.4,3.78444e+06,1732.51,-36736.9,3.55007e+06
0.206463,0.000823058,746883,275570,77509.2,3.7575e+06,15481.1,-51442.4,3.53584e+06
0.208274,0.000837372,734747,282351,83224.2,3.73057e+06,29229.7,-66148.3,3.5216e+06
0.210085,0.000851688,722610,289133,88939,3.70363e+06,42978.3,-80853.7,3.50737e+06
0.211896,0.000866004,710474,295914,94654,3.67669e+06,56726.9,-95559.7,3.49313e+06
0.213707,0.000880322,698338,302696,100369,3.64975e+06,70475.5,-110265,3.4789e+06
0.215518,0.000894696,684132,302173,108462,3.58756e+06,84343.1,-107990,3.42235e+06
0.217329,0.00090908,669580,300426,116953,3.51946e+06,98230.8,-102870,3.35872e+06
0.21914,0.000923687,662128,315216,121980,3.47462e+06,113443,-121912,3.3351e+06
0.220951,0.000938995,643077,303646,117464,3.45226e+06,116003,-117066,3.31322e+06
0.222762,0.000954298,614925,283515,112264,3.4201e+06,121964,-122404,3.28884e+06
0.224574,0.000969494,611449,262227,94053.1,3.40895e+06,109440,-105746,3.26171e+06
0.226385,0.000984766,605903,255791,86086.4,3.41459e+06,103979,-95487.1,3.26015e+06
0.228196,0.00100005,600127,251015,79265,3.4221e+06,99306.2,-85944.1,3.26146e+06
0.230007,0.00101533,594350,246239,72443.7,3.42962e+06,94634.4,-76401,3.26276e+06
0.231818,0.00103061,588574,241464,65622.3,3.43713e+06,89961.9,-66858,3.26406e+06
0.233629,0.00104589,582797,236688,58801,3.44464e+06,85290,-57314.9,3.26537e+06
0.23544,0.00106118,577020,231912,51979.7,3.45215e+06,80618.1,-47771.8,3.26667e+06
0.237251,0.00107663,601434,240217,52921.6,3.5636e+06,70073.5,-30916.3,3.35833e+06
0.239062,0.00109241,616910,282559,59894.5,3.62347e+06,75992.5,-23508.1,3.41991e+06
0.240873,0.00110844,614294,313231,53378.3,3.64745e+06,84592.2,-25783.2,3.45389e+06
0.242684,0.00112459,622119,330845,40862.1,3.73166e+06,84725,-25793.2,3.53646e+06
0.244495,0.00114084,628606,347550,32555.6,3.78258e+06,88982.2,-19806.7,3.58405e+06
0.246306,0.0011573,632047,362188,33824.6,3.75775e+06,102622,-180.777,3.55208e+06
0.248118,0.00117376,635488,376826,35093.4,3.73292e+06,116261,19445.1,3.52012e+06
0.249929,0.00119022,638929,391464,36362.4,3.70809e+06,129901,39071,3.48815e+06
0.25174,0.00120661,646545,405608,33103.5,3.69833e+06,137450,59914.4,3.46872e+06
0.253551,0.00122294,657706,419333,26001,3.70138e+06,139827,81791.3,3.45994e+06
0.255362,0.00123978,657582,427351,24264,3.69422e+06,146226,82251.7,3.45562e+06
0.257173,0.00125695,650220,431708,25969.6,3.68052e+06,155204,68971.6,3.45417e+06
0.258984,0.00127422,643091,429709,23954.8,3.63978e+06,164208,64899.3,3.42028e+06
0.260795,0.00129152,636042,425576,20691.4,3.58996e+06,173221,63918.2,3.37549e+06
0.262606,0.00130883,628991,421443,17427.9,3.54014e+06,182234,62936.6,3.3307e+06
0.264417,0.00132613,621942,417310,14164.4,3.49032e+06,191246,61955.5,3.28591e+06
0.266228,0.00134373,601744,410071,25979.5,3.4324e+06,206385,76807.8,3.22838e+06
0.268039,0.00136132,574883,399419,35855.9,3.36796e+06,221860,78471.1,3.17415e+06
0.26985,0.001379,551832,390849,39905.1,3.31876e+06,230209,72507.1,3.13758e+06
0.271662,0.00139736,548172,407624,28925,3.32102e+06,206276,82981.3,3.13809e+06
0.273473,0.00141574,527178,420416,20921.2,3.29123e+06,187650,81533,3.12145e+06
0.275284,0.00143408,528368,419623,25001.8,3.30705e+06,181563,85352.3,3.13257e+06
0.277095,0.00145242,529557,418830,29082.5,3.32287e+06,175477,89171.8,3.14369e+06
0.278906,0.00147076,530747,418036,33163.1,3.33868e+06,169390,92991,3.15481e+06
0.280717,0.0014891,531936,417243,37243.6,3.3545e+06,163304,96810.3,3.16593e+06
0.282528,0.00150744,533126,416450,41324.3,3.37032e+06,157217,100630,3.17705e+06
0.284339,0.00152578,534316,415656,45404.9,3.38614e+06,151130,104449,3.18816e+06
0.28615,0.00154457,529976,422104,46526.3,3.42055e+06,153014,91624.9,3.23297e+06
0.287961,0.00156348,524139,430513,46845.7,3.45999e+06,157057,74290.4,3.28691e+06
0.289772,0.00158239,518302,438923,47165.3,3.49943e+06,161100,56955.9,3.34085e+06
0.291583,0.0016013,512464,447332,47484.7,3.53888e+06,165143,39621.4,3.39479e+06
0.293394,0.00162026,505498,451423,50238.2,3.58828e+06,163195,21848.1,3.45628e+06
0.295206,0.00163929,501397,451127,55570.6,3.64661e+06,157080,6359.96,3.52142e+06
0.297017,0.00165832,509276,458753,56702.8,3.68375e+06,166687,-1580.17,3.56281e+06
0.298828,0.00167735,517411,466590,57886.4,3.72135e+06,176345,-9582.88,3.60468e+06
0.300639,0.00169726,512624,466695,63759.9,3.65206e+06,185256,-9724.78,3.54254e+06
0.30245,0.00171725,504436,463405,67586.8,3.57233e+06,193186,-11101,3.47098e+06
0.304261,0.00173723,496249,460114,71413.4,3.49259e+06,201116,-12477.3,3.39942e+06
0.306072,0.00175721,488061,456824,75240.3,3.41285e+06,209046,-13853.4,3.32785e+06
0.307883,0.0017772,479874,453533,79066.9,3.33312e+06,216976,-15229.8,3.25629e+06
0.309694,0.00179718,471686,450243,82893.9,3.25338e+06,224906,-16605.9,3.18473e+06
0.311505,0.00181716,463498,446952,86720.5,3.17365e+06,232836,-17982.2,3.11317e+06
0.313316,0.00183735,459672,448704,90285.7,3.13859e+06,227841,-23343.9,3.08514e+06
0.315127,0.00185789,485599,451104,90463.6,3.18769e+06,208028,-26584.4,3.123e+06
0.316938,0.00187847,482649,453989,89379.8,3.21993e+06,193477,-29786.2,3.15611e+06
0.31875,0.00189905,476490,456927,88155.9,3.2503e+06,179511,-32982.7,3.18869e+06
0.320561,0.00191964,470331,459865,86931.9,3.28067e+06,165544,-36180,3.22127e+06
0.322372,0.00194026,467121,458827,86503,3.29248e+06,151820,-30850.3,3.2295e+06
0.324183,0.00196089,465403,455776,86476.6,3.2949e+06,138220,-21204.8,3.2254e+06
0.325994,0.00198153,463685,452725,86450.1,3.29732e+06,124619,-11559.3,3.22129e+06
0.327805,0.00200275,465995,452565,80931.6,3.29844e+06,132598,-1245.7,3.21644e+06
0.329616,0.00202423,470084,453683,72988.2,3.29899e+06,150105,9362.93,3.21125e+06
0.331427,0.00204571,474173,454800,65044.7,3.29954e+06,167613,19971.7,3.20607e+06
0.333238,0.0020672,478262,455917,57101.2,3.30008e+06,185120,30580.3,3.20088e+06
0.335049,0.00208868,482351,457034,49157.7,3.30063e+06,202627,41189.1,3.19569e+06
0.33686,0.00211016,486440,458152,41214.3,3.30118e+06,220134,51797.7,3.1905e+06
0.338671,0.00213152,482994,458713,35414.3,3.27682e+06,238650,57077.4,3.16664e+06
0.340482,0.00215287,472014,456144,31554.2,3.23593e+06,251592,56407.2,3.2093e+06
0.342294,0.00217485,463024,453330,34749.4,3.22706e+06,249128,56406.9,3.16993e+06
0.344105,0.00219724,453495,455315,38462.3,3.20607e+06,240642,45990.4,3.1158e+06
0.345916,0.00221982,447859,461374,40467.7,3.18818e+06,231369,34095.9,3.11297e+06
0.347727,0.0022424,442223,467433,42472.8,3.17029e+06,222097,22201.4,3.11014e+06
0.349538,0.00226498,436587,473492,44478.2,3.1524e+06,212825,10306.9,3.10731e+06
0.351349,0.00228756,430951,479551,46483.3,3.13451e+06,203553,-1587.57,3.10448e+06
0.35316,0.00231014,425315,485610,48488.7,3.11661e+06,194280,-13482.1,3.10166e+06
0.354971,0.00233272,419680,491669,50493.8,3.09872e+06,185008,-25376.6,3.09883e+06
0.356782,0.00235528,409989,492261,53661.8,3.06168e+06,175145,-34289.4,3.07643e+06
0.358593,0.00237781,395213,485994,58288,3.00062e+06,164541,-39461.3,3.02946e+06
0.360404,0.00240035,380438,479730,62913.9,2.93956e+06,153936,-44634.9,2.98251e+06
0.362215,0.00242302,388065,499460,62617.7,2.995e+06,145936,-64264,3.03756e+06
0.364026,0.0024458,397244,507731,60412.7,3.02625e+06,141875,-68605.8,3.05258e+06
0.365838,0.00246899,396266,505450,54075.2,3.01904e+06,147639,-72799.9,3.04012e+06
0.367649,0.00249255,387381,500166,43974.3,2.99662e+06,161600,-84160.9,3.02738e+06
0.36946,0.00251612,378496,494884,33873.4,2.9742e+06,175562,-95521.8,3.01463e+06
0.371271,0.00253969,369611,489601,23772.6,2.95179e+06,189523,-106883,3.00189e+06
0.373082,0.00256326,360726,484318,13671.7,2.92937e+06,203484,-118244,2.98914e+06
0.374893,0.00258679,352008,479048,4858.97,2.91252e+06,216351,-128501,2.98011e+06
0.376704,0.00261027,343509,473796,-2260.23,2.90298e+06,227778,-137309,2.97595e+06
0.378515,0.00263395,336182,464403,-9563.18,2.87733e+06,234712,-138441,2.95036e+06
0.380326,0.00265833,337774,452186,-12801.1,2.83361e+06,222638,-118562,2.88851e+06
0.382137,0.00268274,345139,455798,-10949,2.81945e+06,208679,-90213.3,2.85635e+06
0.383948,0.00270716,353140,462903,-7390.19,2.82323e+06,194820,-62094,2.84272e+06
0.385759,0.00273159,359947,467448,-4416.43,2.8269e+06,181477,-36203,2.82918e+06
0.38757,0.00275602,366753,471993,-1442.5,2.83056e+06,168134,-10312,2.81564e+06
0.389382,0.00278044,373560,476537,1531.26,2.83423e+06,154791,15579,2.8021e+06
0.391193,0.00280487,380366,481082,4505.2,2.8379e+06,141447,41470,2.78856e+06
0.393004,0.00282929,387173,485626,7478.96,2.84156e+06,128104,67361,2.77502e+06
0.394815,0.00285387,397553,491117,9387.37,2.84836e+06,124623,91766.6,2.7662e+06
0.396626,0.00287876,415038,498491,9178.36,2.86139e+06,140742,113220,2.76676e+06
0.398437,0.00290385,402773,510197,3698.94,2.86419e+06,143246,101241,2.78758e+06
0.400248,0.00292895,389974,521980,-1874.74,2.8668e+06,145506,88662.6,2.80877e+06
0.402059,0.00295406,377176,533762,-7448.68,2.86941e+06,147765,76083.9,2.82995e+06
0.40387,0.00297916,364377,545545,-13022.3,2.87202e+06,150025,63505.7,2.85113e+06
0.405681,0.0030043,357297,548919,-17966.1,2.85713e+06,155073,63735.3,2.84777e+06
0.407492,0.00302946,353322,547727,-22567.3,2.83274e+06,161635,70920.7,2.83109e+06
0.409303,0.00305514,347845,542175,-27679.7,2.79408e+06,181782,62474.5,2.80569e+06
0.411114,0.0030809,342133,535943,-32871.7,2.75319e+06,204047,51590.6,2.77892e+06
0.412926,0.00310667,336422,529712,-38063.5,2.71231e+06,226312,40706.9,2.75216e+06
0.414737,0.00313282,334923,533364,-26456.6,2.73022e+06,229702,16832.7,2.77948e+06
0.416548,0.00315904,334227,538898,-11649.6,2.75933e+06,229498,-9515.85,2.81711e+06
0.418359,0.00318527,333473,543906,3441.12,2.78718e+06,229090,-35591,2.85334e+06
0.42017,0.00321163,331100,534405,26340.4,2.78051e+06,223078,-54141.8,2.8512e+06
0.421981,0.003238,328728,524904,49239.5,2.77384e+06,217066,-72692.7,2.84905e+06
0.423792,0.00326432,321111,526997,55922.8,2.77551e+06,230718,-80868.3,2.86327e+06
0.425603,0.00329087,317575,515815,66727.6,2.75405e+06,208146,-83056.6,2.83513e+06
0.427414,0.00331764,316206,516810,72613.1,2.76599e+06,193065,-84875.8,2.84577e+06
0.429225,0.00334448,312599,518174,76166.8,2.77279e+06,182229,-85568.8,2.85309e+06
0.431036,0.00337132,308994,519539,79720.2,2.7796e+06,171393,-86262.2,2.86042e+06
0.432847,0.00339815,305387,520903,83273.8,2.78641e+06,160558,-86955.3,2.86775e+06
0.434658,0.00342499,301781,522268,86827.3,2.79322e+06,149722,-87648.7,2.87508e+06
0.43647,0.00345183,298175,523633,90380.9,2.80003e+06,138886,-88341.8,2.8824e+06
0.438281,0.00347867,294569,524998,93934.3,2.80684e+06,128051,-89035.2,2.88973e+06
0.440092,0.0035055,290963,526363,97487.8,2.81365e+06,117215,-89728.6,2.89706e+06
0.441903,0.00353234,287357,527727,101041,2.82046e+06,106379,-90421.7,2.90438e+06
0.443714,0.00355933,283046,520796,100881,2.79416e+06,98577.4,-87809.2,2.87517e+06
0.445525,0.00358655,251652,479356,96408.1,2.61996e+06,97978.7,-79525.5,2.69684e+06
0.447336,0.00361425,261280,500050,88386.2,2.66138e+06,99251.3,-82199.2,2.74521e+06
0.449147,0.00364209,282201,537849,79387.8,2.76216e+06,101038,-87889.1,2.85598e+06
0.450958,0.00366992,302765,566187,68097.3,2.83274e+06,105212,-87385.1,2.93597e+06
0.452769,0.00369773,320902,581730,53968.8,2.85954e+06,113474,-82356.4,2.97279e+06
0.45458,0.00372553,339040,597273,39840,2.88635e+06,121737,-77327.4,3.00961e+06
0.456391,0.00375333,357177,612816,25711.2,2.91316e+06,129999,-72298.5,3.04642e+06
0.458202,0.00378154,370584,623106,13686.5,2.94327e+06,139609,-68079,3.07571e+06
0.460014,0.00381008,380149,629131,3370.02,2.97605e+06,150314,-64516.4,3.09888e+06
0.461825,0.00383863,385339,627971,-5294.83,2.98387e+06,157398,-64746.6,3.09681e+06
0.463636,0.00386719,376561,603876,-8688.21,2.912e+06,152927,-77083.4,3.01415e+06
0.465447,0.00389575,367783,579781,-12081.5,2.84013e+06,148456,-89420.1,2.9315e+06
0.467258,0.00392434,360630,550324,-15926.7,2.7543e+06,143973,-95278.1,2.83237e+06
0.469069,0.00395298,356677,510301,-20662,2.64099e+06,139464,-88371.7,2.70082e+06
0.47088,0.00398162,352723,470279,-25397.5,2.52768e+06,134956,-81465.4,2.56926e+06
0.472691,0.0040103,345483,431960,-29633.4,2.41222e+06,130842,-78220.9,2.43999e+06
0.474502,0.00403951,320075,408230,-27634.1,2.29206e+06,129916,-95323,2.33717e+06
0.476313,0.00406895,323597,409898,-23442.1,2.29291e+06,135267,-83799.9,2.33597e+06
0.478124,0.00409841,331070,431740,-20144.5,2.36126e+06,145865,-70395.5,2.40169e+06
0.479935,0.00412787,338543,453581,-16847.2,2.42961e+06,156463,-56991.1,2.4674e+06
0.481746,0.00415733,346015,475422,-13549.5,2.49795e+06,167060,-43586.7,2.53311e+06
0.483558,0.0041868,353488,497264,-10252.2,2.5663e+06,177658,-30182.3,2.59882e+06
0.485369,0.00421625,362491,519531,-5356.68,2.63516e+06,188384,-15018,2.66487e+06
0.48718,0.00424569,372655,542121,752.452,2.70441e+06,199207,1483.22,2.73117e+06
0.488991,0.00427514,382820,564711,6861.58,2.77367e+06,210031,17984.4,2.79747e+06
0.490802,0.00430459,392984,587301,12970.4,2.84292e+06,220854,34485,2.86377e+06
0.492613,0.00433449,375091,587620,15685.6,2.84135e+06,222105,28769.7,2.87233e+06
0.494424,0.00436482,357524,571114,23206.6,2.76656e+06,216749,30639,2.79946e+06
0.496235,0.00439518,334978,546500,25904.4,2.66568e+06,209396,26292,2.71331e+06
0.498046,0.00442554,312435,521888,28602.6,2.56481e+06,202043,21946.1,2.62717e+06
0.499857,0.0044559,289889,497274,31300.3,2.46393e+06,194690,17599.1,2.54102e+06
0.501668,0.00448626,267346,472662,33998.5,2.36305e+06,187338,13253.2,2.45488e+06
0.503479,0.00451662,244800,448047,36696.3,2.26217e+06,179985,8906.23,2.36874e+06
0.505291,0.00454698,222255,423433,39394,2.16129e+06,172632,4559.3,2.28259e+06
0.507102,0.00457735,200923,400256,42209.3,2.06596e+06,165468,577.96,2.20109e+06
0.508913,0.00460816,229448,436146,49842.5,2.19847e+06,166059,11602.8,2.31062e+06
0.510724,0.00463898,257974,472037,57476.1,2.33099e+06,166649,22628.3,2.42015e+06
0.512535,0.0046698,286498,507927,65109.3,2.4635e+06,167240,33653.2,2.52968e+06
0.514346,0.00470061,315024,543818,72742.9,2.59602e+06,167831,44678.7,2.63922e+06
0.516157,0.0047315,348498,576761,77769.2,2.72659e+06,169074,57030.1,2.74703e+06
0.517968,0.0047628,371132,586195,72407.5,2.77448e+06,173392,58193.7,2.78864e+06
0.519779,0.00479433,354998,575102,64035.3,2.711e+06,179152,36913.2,2.74191e+06
0.52159,0.00482587,338864,564009,55663.2,2.64751e+06,184911,15632.7,2.69518e+06
0.523401,0.0048574,338501,566110,49074.1,2.61121e+06,189979,187.856,2.67376e+06
0.525212,0.00488901,308024,556246,48498.1,2.57726e+06,207464,-39879.9,2.67377e+06
0.527023,0.00492062,277547,546381,47922.1,2.5433e+06,224949,-79947.8,2.67379e+06
0.528835,0.00495224,247071,536517,47346.2,2.50935e+06,242434,-120016,2.6738e+06
0.530646,0.0049839,220662,521705,47711.8,2.46379e+06,256623,-152252,2.66579e+06
0.532457,0.00501558,196742,503868,48653.6,2.41113e+06,268797,-179698,2.65288e+06
0.534268,0.00504752,180396,500192,49136.3,2.40362e+06,279016,-202667,2.66705e+06
0.536079,0.00507983,175756,518410,48909.1,2.4659e+06,286214,-218715,2.72309e+06
0.53789,0.00511217,169587,528444,50576.5,2.50185e+06,291708,-226475,2.76228e+06
0.539701,0.00514463,172082,529198,50527.9,2.53389e+06,293458,-220609,2.78816e+06
0.541512,0.00517737,183533,542521,44976.7,2.57103e+06,287469,-206704,2.81697e+06
0.543323,0.0052101,195424,556035,39202.3,2.60999e+06,279317,-193180,2.84707e+06
0.545134,0.00524284,207315,569550,33427.6,2.64896e+06,271164,-179657,2.87717e+06
0.546945,0.00527557,219206,583064,27653.2,2.68792e+06,263012,-166133,2.90728e+06
0.548756,0.00530831,231097,596578,21878.5,2.72688e+06,254859,-152610,2.93738e+06
0.550567,0.00534101,242733,607361,17210.5,2.75784e+06,247113,-134681,2.95622e+06
0.552379,0.00537372,254399,618465,12411.7,2.78975e+06,239319,-117272,2.97639e+06
0.55419,0.0054066,261579,620818,4854.47,2.79929e+06,230812,-106211,2.98239e+06
0.556001,0.00543996,263669,615752,8341.97,2.77789e+06,215546,-109842,2.96177e+06
0.557812,0.00547333,265743,610741,12314.1,2.75621e+06,200069,-113758,2.94073e+06
0.559623,0.0055067,267816,605729,16287,2.73453e+06,184591,-117675,2.91968e+06
0.561434,0.00554007,269890,600717,20259.1,2.71285e+06,169114,-121592,2.89864e+06
0.563245,0.00557353,271715,603430,25506.9,2.70343e+06,161684,-125856,2.88861e+06
0.565056,0.00560711,273271,614570,32144.8,2.70738e+06,163035,-130497,2.89061e+06
0.566867,0.00564073,266076,612477,33336.6,2.68058e+06,161055,-133976,2.86475e+06
0.568678,0.00567439,251308,598935,29814.5,2.62717e+06,156193,-136450,2.81477e+06
0.570489,0.00570806,237547,587070,28645.3,2.56697e+06,152091,-138590,2.75925e+06
0.5723,0.00574214,248379,601191,48197.8,2.50895e+06,162943,-127703,2.7081e+06
0.574111,0.00577655,269808,618083,56029,2.54606e+06,178216,-108478,2.7375e+06
0.575922,0.00581096,291237,634975,63860.9,2.58317e+06,193489,-89254.1,2.7669e+06
0.577734,0.00584537,312666,651866,71692.2,2.62029e+06,208763,-70029.6,2.7963e+06
0.579545,0.00587977,334095,668758,79524.1,2.6574e+06,224036,-50805.5,2.8257e+06
0.581356,0.00591418,355524,685650,87355.4,2.69451e+06,239310,-31581,2.8551e+06
0.583167,0.00594851,374611,703770,103905,2.75511e+06,248907,-20036.5,2.9106e+06
0.584978,0.00598334,358808,699419,104466,2.73331e+06,247626,-28276.1,2.90078e+06
0.586789,0.00601836,330192,687916,98918.2,2.69042e+06,241592,-43860.5,2.87001e+06
0.5886,0.00605338,301227,672575,93203.4,2.64441e+06,232482,-58396.6,2.83232e+06
0.590411,0.00608841,272672,654380,86560.7,2.59005e+06,222422,-70977.1,2.78613e+06
0.592222,0.00612344,244118,636184,79918,2.53569e+06,212361,-83557.5,2.73994e+06
0.594033,0.00615846,215563,617990,73275.3,2.48134e+06,202300,-96138,2.69375e+06
0.595844,0.00619349,187009,599794,66632.6,2.42698e+06,192239,-108718,2.64756e+06
0.597655,0.00622852,158490,581771,60123.5,2.37407e+06,182733,-121055,2.60267e+06
0.599467,0.00626409,141534,584146,59796.5,2.39826e+06,185541,-122890,2.63115e+06
0.601278,0.0062999,135932,591686,58857,2.41011e+06,172174,-126351,2.65067e+06
0.603089,0.00633574,137578,585388,59970.4,2.39849e+06,163664,-125452,2.64519e+06
0.6049,0.00637151,144053,580073,61229.2,2.38599e+06,154773,-120813,2.63217e+06
0.606711,0.00640701,167056,578127,62986,2.37047e+06,144577,-103379,2.59334e+06
0.608522,0.0064425,190059,576181,64742.7,2.35496e+06,134382,-85945.3,2.55451e+06
0.610333,0.006478,213063,574235,66499.5,2.33944e+06,124186,-68511.3,2.51568e+06
0.612144,0.00651383,232055,574117,71548.4,2.32733e+06,119105,-57098,2.48862e+06
0.613955,0.00655032,243045,577646,83166.4,2.32199e+06,124231,-57698.1,2.48505e+06
0.615766,0.00658681,254036,581175,94784.5,2.31666e+06,129356,-58298.3,2.48149e+06
0.617577,0.0066233,265025,584704,106402,2.31132e+06,134482,-58898.7,2.47792e+06
0.619388,0.00665979,276016,588234,118020,2.30598e+06,139607,-59498.8,2.47435e+06
0.621199,0.00669628,287005,591763,129638,2.30065e+06,144732,-60099.3,2.47079e+06
0.62301,0.00673277,297996,595292,141257,2.29531e+06,149858,-60699.4,2.46722e+06
0.624822,0.00676926,308985,598821,152875,2.28998e+06,154983,-61299.8,2.46366e+06
0.626633,0.00680549,309451,596887,160671,2.28022e+06,157716,-53801.5,2.44492e+06
0.628444,0.00684168,307056,588045,167998,2.25312e+06,160182,-43577.5,2.40935e+06
0.630255,0.00687787,305405,576198,175546,2.22299e+06,160685,-33980,2.37244e+06
0.632066,0.00691478,295855,589555,162879,2.27845e+06,167807,-42983.5,2.43773e+06
0.633877,0.00695207,298177,588839,149310,2.28123e+06,169052,-34991.5,2.43259e+06
0.635688,0.00698936,300500,588123,135741,2.284e+06,170298,-26999.3,2.42746e+06
0.637499,0.00702665,302822,587407,122172,2.28678e+06,171544,-19007.3,2.42232e+06
0.63931,0.00706394,305145,586691,108602,2.28955e+06,172790,-11015,2.41719e+06
0.641121,0.00710122,307467,585975,95032.9,2.29233e+06,174036,-3023,2.41205e+06
0.642932,0.00713851,309789,585259,81463.5,2.2951e+06,175282,4969.24,2.40692e+06
0.644743,0.00717587,316949,579521,70180.2,2.27577e+06,174973,18208.6,2.37441e+06
0.646554,0.00721324,325070,572785,59351.1,2.25205e+06,174355,32490.7,2.33647e+06
0.648366,0.00725071,338776,568694,49132.8,2.26466e+06,178709,41072.4,2.33421e+06
0.650177,0.00728826,328330,554030,54633.3,2.23062e+06,157006,22203.7,2.30339e+06
0.651988,0.00732659,318205,540106,48865.5,2.20084e+06,154205,24528.6,2.26799e+06
0.653799,0.00736502,319919,538692,45827.5,2.20883e+06,155369,34771.9,2.26795e+06
0.65561,0.00740345,321633,537279,42789.7,2.21681e+06,156534,45014.4,2.26791e+06
0.657421,0.00744188,323347,535865,39751.7,2.22479e+06,157698,55257.7,2.26786e+06
0.659232,0.0074803,324159,531971,37011.2,2.22773e+06,158876,65996.6,2.26459e+06
0.661043,0.00751866,321553,518661,35398.6,2.2115e+06,160107,78620.1,2.24907e+06
0.662854,0.00755702,318947,505353,33786.1,2.19528e+06,161337,91242.6,2.23354e+06
0.664665,0.00759539,316341,492045,32173.5,2.17906e+06,162567,103865,2.21802e+06
0.666476,0.00763375,313735,478735,30561,2.16283e+06,163798,116489,2.2025e+06
0.668287,0.00767224,298389,499398,36266,2.2123e+06,157428,107634,2.25477e+06
0.670098,0.00771109,296047,541062,43642.5,2.31669e+06,148059,84716.3,2.34754e+06
0.67191,0.00775027,314260,578589,44300.2,2.39991e+06,144370,96117.4,2.43555e+06
0.673721,0.00778943,332912,612567,47116.6,2.47007e+06,137803,106071,2.51058e+06
0.675532,0.00782832,341905,641565,56617.9,2.52135e+06,140061,101019,2.57786e+06
0.677343,0.00786725,349024,661800,65710.8,2.54968e+06,141821,97546.9,2.62367e+06
0.679154,0.0079062,355715,679060,74832.3,2.57026e+06,143133,94655.2,2.66209e+06
0.680965,0.00794541,356725,684782,77076,2.57294e+06,145105,85515.5,2.67512e+06
0.682776,0.00798504,348189,671115,67762.1,2.54557e+06,148188,65877.2,2.64548e+06
0.684587,0.00802468,338983,651801,57335.5,2.50108e+06,150455,48554,2.6002e+06
0.686398,0.00806432,329138,627109,45849.2,2.44029e+06,151943,33436.7,2.54002e+06
0.688209,0.00810397,319292,602417,34362.8,2.37949e+06,153432,18318.9,2.47984e+06
0.69002,0.00814361,309447,577725,22876.5,2.31869e+06,154920,3201.63,2.41966e+06
0.691831,0.00818326,299602,553032,11390.1,2.2579e+06,156408,-11916.1,2.35948e+06
0.693642,0.00822287,295665,542667,7458.45,2.2379e+06,156453,-18863.2,2.33945e+06
0.695454,0.00826267,345273,554387,16451.5,2.3469e+06,151554,-18285,2.42797e+06
0.697265,0.00830278,295800,530598,22798.1,2.25825e+06,174996,-34255.4,2.35801e+06
0.699076,0.00834352,289040,536499,29877.8,2.2644e+06,167389,-34954.5,2.36948e+06
0.700887,0.00838426,282281,542402,36957.7,2.27056e+06,159782,-35653.6,2.38096e+06
0.702698,0.008425,275521,548303,44037.3,2.27671e+06,152174,-36352.7,2.39243e+06
0.704509,0.00846574,268761,554206,51117.2,2.28287e+06,144568,-37051.8,2.40391e+06
0.70632,0.00850648,262001,560107,58196.8,2.28902e+06,136960,-37751,2.41538e+06
0.708131,0.00854722,255242,566010,65276.7,2.29518e+06,129353,-38450.1,2.42686e+06
0.709942,0.00858796,248236,569932,72184.1,2.29703e+06,122744,-38619.3,2.43562e+06
0.711753,0.00862868,240012,564037,78237.5,2.27753e+06,121083,-36159.9,2.4309e+06
0.713564,0.0086694,231788,558142,84290.9,2.25803e+06,119422,-33700.5,2.42617e+06
0.715375,0.00871013,223564,552246,90343.9,2.23853e+06,117761,-31241.2,2.42145e+06
0.717187,0.00875085,214118,545562,93989,2.20909e+06,118682,-27420.8,2.39825e+06
0.718998,0.0087917,206961,541036,93533.4,2.17882e+06,117680,-21723.7,2.40773e+06
0.720809,0.00883304,208696,548473,83295.5,2.18541e+06,110791,-13829.3,2.48481e+06
0.72262,0.00887451,208325,558426,66753.1,2.19385e+06,112421,-4242.85,2.47424e+06
0.724431,0.00891598,207954,568379,50210.9,2.2023e+06,114052,5343.75,2.46367e+06
0.726242,0.0089575,205205,576916,40288,2.20456e+06,121127,13111.8,2.42541e+06
0.728053,0.00899901,202438,585441,30417.2,2.20677e+06,128246,20865.6,2.38694e+06
0.729864,0.00904053,199656,592609,20351.9,2.20636e+06,135372,29178.3,2.35054e+06
0.731675,0.00908207,196777,590517,8963.01,2.18807e+06,142543,41300.1,2.32824e+06
0.733486,0.00912381,195840,592937,851.711,2.16948e+06,150725,44247.5,2.31379e+06
0.735297,0.00916597,196687,595882,718.237,2.16743e+06,155975,25934.1,2.32459e+06
0.737108,0.00920813,197533,598828,584.274,2.16538e+06,161225,7621.01,2.33539e+06
0.738919,0.0092503,198379,601773,450.8,2.16333e+06,166474,-10692.5,2.34618e+06
0.74073,0.00929246,199226,604719,316.837,2.16128e+06,171724,-29005.5,2.35698e+06
0.742542,0.00933462,200072,607664,183.364,2.15923e+06,176974,-47319,2.36778e+06
0.744353,0.00937679,201171,610731,-102.467,2.15765e+06,182387,-65116.6,2.37875e+06
0.746164,0.00941925,215292,620014,-8214.4,2.18023e+06,196223,-56352.1,2.39865e+06
0.747975,0.00946171,229413,629296,-16326.1,2.20281e+06,210059,-47587.3,2.41856e+06
0.749786,0.00950471,219274,602515,-20436,2.14079e+06,211629,-58576.5,2.35427e+06
0.751597,0.00954781,204874,566171,-23444.7,2.04452e+06,210932,-74367.3,2.25656e+06
0.753408,0.00959075,182981,539539,-21944.2,1.94959e+06,203494,-77888.8,2.16329e+06
0.755219,0.00963353,190898,528583,-17570.3,1.94161e+06,200948,-74939.7,2.14328e+06
0.75703,0.0096763,201679,518509,-13159.8,1.94092e+06,199124,-72004.6,2.12925e+06
0.758841,0.00971908,212459,508435,-8749.2,1.94022e+06,197300,-69069.7,2.11522e+06
0.760652,0.00976216,220341,511448,-5812.11,1.96617e+06,198098,-66088.8,2.13592e+06
0.762463,0.00980563,224600,530821,-4717.02,2.02541e+06,202176,-63050.6,2.20003e+06
0.764274,0.0098491,228858,550194,-3621.9,2.08465e+06,206255,-60012.6,2.26414e+06
0.766086,0.00989257,233117,569568,-2526.81,2.14389e+06,210333,-56974.4,2.32825e+06
0.767897,0.00993604,237375,588940,-1431.69,2.20313e+06,214411,-53936.5,2.39235e+06
0.769708,0.00997951,241634,608314,-336.595,2.26237e+06,218489,-50898.3,2.45646e+06
0.771519,0.010023,244461,625677,668.688,2.31506e+06,222992,-49961.7,2.51497e+06
0.77333,0.0100665,230407,623941,2476.32,2.30215e+06,228737,-64757.6,2.5162e+06
0.775141,0.01011,216864,619163,8584.92,2.286e+06,228472,-72730.5,2.50758e+06
0.776952,0.0101541,217026,605769,18229.8,2.26691e+06,218909,-76240.3,2.47971e+06
0.778763,0.0101984,214934,601344,19017,2.25219e+06,212169,-81692.7,2.46508e+06
0.780574,0.0102427,212842,596918,19804,2.23747e+06,205430,-87145.1,2.45046e+06
0.782385,0.010287,210750,592493,20591.2,2.22275e+06,198690,-92597.5,2.43583e+06
0.784196,0.0103313,208659,588067,21378.3,2.20802e+06,191950,-98049.8,2.42121e+06
0.786007,0.0103756,205691,579493,22650.1,2.18354e+06,184924,-101346,2.39605e+06
0.787818,0.0104199,201229,563852,24747.4,2.14242e+06,177408,-100971,2.35295e+06
0.78963,0.0104642,196767,548212,26844.9,2.10131e+06,169892,-100595,2.30984e+06
0.791441,0.0105085,193085,534997,27393.4,2.05529e+06,169016,-97515.5,2.26257e+06
0.793252,0.0105527,190249,524412,26261.7,2.00393e+06,175340,-91504.3,2.21077e+06
0.795063,0.0105969,187413,513828,25130,1.95258e+06,181664,-85493.1,2.15897e+06
0.796874,0.0106416,194472,514884,24467.7,1.93474e+06,187809,-72484.8,2.13241e+06
0.798685,0.0106865,206997,522373,24064.9,1.93542e+06,193855,-55610.9,2.11979e+06
0.800496,0.0107314,219523,529861,23661.9,1.9361e+06,199901,-38736.9,2.10718e+06
0.802307,0.0107764,241302,532195,25697.8,1.92058e+06,208925,-11922.4,2.0757e+06
0.804118,0.0108215,235226,521438,26719.1,1.8862e+06,215014,4357.91,2.03229e+06
0.805929,0.0108667,231119,510689,29794.4,1.85603e+06,222623,18193.2,1.99478e+06
0.80774,0.010912,232545,496805,35271.3,1.8188e+06,228570,34946.8,1.9526e+06
0.809551,0.0109578,246825,475637,46328.3,1.76515e+06,230654,58480.4,1.89957e+06
0.811363,0.0110035,245752,472444,50353.5,1.77016e+06,230559,63706.7,1.90337e+06
0.813174,0.0110491,244154,469865,54137.9,1.77718e+06,230388,68305.8,1.90911e+06
0.814985,0.0110948,242556,467287,57922.2,1.7842e+06,230218,72904.7,1.91485e+06
0.816796,0.0111404,240958,464709,61706.7,1.79121e+06,230048,77503.8,1.92059e+06
0.818607,0.011186,239360,462131,65490.9,1.79823e+06,229877,82102.7,1.92633e+06
0.820418,0.0112317,237761,459552,69275.4,1.80525e+06,229707,86701.7,1.93207e+06
0.822229,0.0112774,241712,462749,77759.3,1.83209e+06,228648,97123.9,1.9514e+06
0.82404,0.0113233,255360,476038,94458.6,1.89357e+06,226037,117725,1.99449e+06
0.825851,0.0113692,242598,505958,92348.2,1.96415e+06,221592,107377,2.06483e+06
0.827662,0.0114152,222772,542253,80662.5,2.03316e+06,219784,83454.8,2.14609e+06
0.829473,0.0114618,231875,542717,77027.5,2.01157e+06,215872,86986.9,2.12076e+06
0.831284,0.0115084,241132,538350,73781,1.97616e+06,209213,92671.3,2.07759e+06
0.833095,0.011555,250388,533984,70534.6,1.94075e+06,202554,98355.5,2.03442e+06
0.834907,0.0116017,259644,529617,67288,1.90534e+06,195895,104040,1.99125e+06
0.836718,0.0116483,268900,525251,64041.6,1.86992e+06,189236,109724,1.94808e+06
0.838529,0.0116947,275607,522408,60546.5,1.8492e+06,183371,111119,1.92886e+06
0.84034,0.0117411,280963,518790,57212.5,1.83112e+06,177868,111877,1.91709e+06
0.842151,0.0117876,283062,513528,55311,1.80985e+06,173177,111699,1.89991e+06
0.843962,0.0118345,259865,495500,64536.7,1.76383e+06,174799,104238,1.84076e+06
0.845773,0.0118817,248853,489049,68058.4,1.75387e+06,183449,93514,1.86047e+06
0.847584,0.0119289,240742,485204,70075.3,1.75223e+06,194037,82196,1.89494e+06
0.849395,0.0119761,232631,481359,72092.2,1.7506e+06,204625,70878.1,1.92941e+06
0.851206,0.0120234,224520,477514,74109.1,1.74897e+06,215213,59560.1,1.96388e+06
0.853017,0.0120706,216409,473669,76126,1.74733e+06,225801,48242.2,1.99836e+06
0.854828,0.0121178,208298,469823,78142.9,1.7457e+06,236389,36924.2,2.03283e+06
0.856639,0.0121651,197772,457998,82740.1,1.72936e+06,247253,32183.5,1.96956e+06
0.858451,0.0122127,209311,460305,80426.7,1.74438e+06,254260,39954.2,1.96272e+06
0.860262,0.0122604,225448,467841,76025.9,1.76994e+06,260516,47512.5,2.00014e+06
0.862073,0.0123081,235214,477116,70269.5,1.79651e+06,261845,54500.5,2.03048e+06
0.863884,0.0123561,228963,490765,61105.5,1.82564e+06,250788,60054.8,2.04301e+06
0.865695,0.0124042,222710,504414,51941.4,1.85478e+06,239731,65609.1,2.05554e+06
0.867506,0.0124522,216458,518063,42777.5,1.88391e+06,228675,71163.4,2.06808e+06
0.869317,0.0125002,210206,531712,33613.4,1.91304e+06,217618,76717.7,2.08061e+06
0.871128,0.0125482,203954,545361,24449.5,1.94218e+06,206562,82272,2.09315e+06
0.872939,0.0125962,197702,559010,15285.5,1.97131e+06,195505,87826.3,2.10568e+06
0.87475,0.0126443,189455,563910,7594.52,1.98186e+06,183575,93979.2,2.11424e+06
0.876561,0.0126925,182914,571054,911.155,1.97845e+06,166536,99730.8,2.11343e+06
0.878372,0.0127408,182299,574081,1085.06,1.96586e+06,140892,101703,2.09891e+06
0.880183,0.0127892,181685,577108,1259.32,1.95326e+06,115249,103675,2.08438e+06
0.881995,0.012838,172752,574110,8768.04,1.93067e+06,117236,99787.5,2.06789e+06
0.883806,0.012887,165922,570678,13335.1,1.91127e+06,121133,91339.3,2.05546e+06
0.885617,0.0129359,159091,567246,17901.9,1.89186e+06,125031,82891.2,2.04302e+06
0.887428,0.0129848,152262,563814,22468.9,1.87246e+06,128928,74443,2.03059e+06
0.889239,0.0130338,145432,560382,27035.9,1.85305e+06,132825,65994.9,2.01816e+06
0.89105,0.0130827,138602,556951,31602.6,1.83364e+06,136723,57547,2.00573e+06
0.892861,0.0131316,140899,548901,35344.5,1.818e+06,137077,48460.2,1.98832e+06
0.894672,0.0131806,145711,541624,39061.8,1.8058e+06,136187,38469.5,1.97424e+06
0.896483,0.0132295,146473,537503,43255.3,1.79324e+06,136724,28368.2,1.96492e+06
0.898294,0.0132784,147236,533381,47448.7,1.78067e+06,137261,18266.6,1.95559e+06
0.900105,0.0133274,147998,529260,51642.2,1.76811e+06,137797,8165.28,1.94627e+06
0.901916,0.0133767,162309,514256,62669.5,1.75009e+06,141152,17723.2,1.92018e+06
0.903727,0.0134265,140080,477502,66744.8,1.6486e+06,156049,-11477.2,1.84874e+06
0.905538,0.0134765,150226,478907,68063.6,1.65981e+06,157417,-12340.8,1.85144e+06
0.90735,0.0135265,163550,482949,69398.2,1.67926e+06,157725,-10335.8,1.85919e+06
0.909161,0.0135765,176876,486994,70732.8,1.69871e+06,158033,-8330.2,1.86694e+06
0.910972,0.0136266,190201,491036,72067.4,1.71815e+06,158341,-6325.1,1.87469e+06
0.912783,0.0136766,199304,492575,73162,1.73156e+06,158240,-6443.01,1.88123e+06
0.914594,0.0137266,203721,491330,73990.2,1.73827e+06,157686,-8919.01,1.88641e+06
0.916405,0.0137766,208136,490086,74818.4,1.74498e+06,157131,-11395.3,1.8916e+06
0.918216,0.0138266,212552,488841,75646.6,1.75168e+06,156576,-13871.2,1.89678e+06
0.920027,0.0138766,216967,487597,76474.7,1.75839e+06,156022,-16347.5,1.90196e+06
0.921838,0.0139266,223957,485955,77098.2,1.76575e+06,156580,-17247.9,1.90577e+06
0.923649,0.0139765,233053,483986,77554.4,1.77363e+06,158048,-16859.4,1.90844e+06
0.92546,0.0140266,246381,484738,77791.8,1.78874e+06,161642,-13268.2,1.9167e+06
0.927271,0.0140771,289549,504672,76487.5,1.85473e+06,180220,12906.7,1.96437e+06
0.929083,0.014128,295646,507436,72068.9,1.85899e+06,171203,20224.2,1.96243e+06
0.930894,0.014179,298791,508831,67402.4,1.85833e+06,159986,26039.3,1.95655e+06
0.932705,0.0142299,301934,510227,62735.8,1.85768e+06,148770,31854.6,1.95066e+06
0.934516,0.0142808,302109,510675,57560.9,1.85188e+06,135325,35593.8,1.94113e+06
0.936327,0.0143318,296376,509236,51375.1,1.83586e+06,117446,35203.3,1.92433e+06
0.938138,0.0143828,296985,510886,46480.2,1.83702e+06,105255,36695.5,1.9233e+06
0.939949,0.0144339,299802,513611,42034.9,1.84414e+06,95043.6,38841.9,1.92776e+06
0.94176,0.014485,302618,516337,37589.4,1.85127e+06,84832.2,40989.2,1.93222e+06
0.943571,0.0145361,302311,512545,33028.8,1.83826e+06,75576.5,44284.6,1.92906e+06
0.945382,0.0145872,299762,504077,28385.5,1.81081e+06,67006.8,48405.4,1.92043e+06
0.947193,0.0146382,297214,495609,23742.3,1.78336e+06,58436.8,52525.1,1.9118e+06
0.949004,0.0146893,294666,487141,19099,1.75592e+06,49867.1,56645.9,1.90317e+06
0.950815,0.0147408,295921,491143,18802.2,1.78402e+06,50971.2,63804,2.03889e+06
0.952627,0.0147927,311788,501627,15846.2,1.81371e+06,65537,68381.4,1.88807e+06
0.954438,0.0148445,304213,493249,16968.9,1.77608e+06,62813.2,46894.7,1.85513e+06
0.956249,0.0148963,296638,484870,18091.8,1.73844e+06,60088.8,25406.3,1.8222e+06
0.95806,0.0149482,289063,476491,19214.5,1.7008e+06,57365.1,3919.52,1.78927e+06
0.959871,0.015,282586,466821,20035,1.66202e+06,57381.2,-13010.9,1.7547e+06
0.961682,0.0150519,279222,453492,19998,1.62e+06,65165.2,-17022,1.71551e+06
0.963493,0.015104,282989,431776,17996.7,1.57055e+06,90749,8569.87,1.66572e+06
0.965304,0.0151561,286756,410060,15995.3,1.5211e+06,116332,34161.3,1.61594e+06
0.967115,0.0152084,306287,402749,10658.8,1.48766e+06,148921,84577.5,1.5739e+06
0.968926,0.0152609,298317,421730,9924.51,1.51365e+06,164597,85095.1,1.61103e+06
0.970737,0.0153135,263253,456760,13957.1,1.58144e+06,164511,37718.5,1.70838e+06
0.972548,0.0153661,233738,479662,19097,1.62038e+06,169215,253.546,1.77251e+06
0.974359,0.0154187,215891,477058,26566.4,1.59862e+06,183995,-16365.3,1.76675e+06
0.976171,0.0154712,200293,469539,34484.6,1.56517e+06,200717,-28966.1,1.74753e+06
0.977982,0.0155238,189427,451675,43347.5,1.5071e+06,221524,-33113.7,1.69996e+06
0.979793,0.0155763,178560,433813,52210.2,1.44904e+06,242332,-37261.5,1.65239e+06
0.981604,0.015629,176031,426178,57451.8,1.4591e+06,256618,-22882.7,1.65424e+06
0.983415,0.0156822,182880,430091,56746.9,1.49481e+06,255998,-9045.08,1.67754e+06
0.985226,0.0157356,192047,436871,54045.3,1.52253e+06,249565,-1356.21,1.69653e+06
0.987037,0.0157889,192677,443426,55229.7,1.54503e+06,244483,-281.279,1.71775e+06
0.988848,0.0158421,186097,449793,59696.2,1.56313e+06,240541,-4793.31,1.74086e+06
0.990659,0.0158953,179516,456159,64163.4,1.58124e+06,236600,-9305.9,1.76396e+06
0.99247,0.0159485,192972,480459,64217.4,1.6513e+06,228073,-2408.33,1.83069e+06
0.994281,0.0160017,206816,505106,64186.5,1.72237e+06,219457,4710.32,1.89826e+06
0.996092,0.0160548,220661,529752,64155.1,1.79343e+06,210842,11828.8,1.96583e+06
0.997903,0.016108,234505,554399,64124.1,1.8645e+06,202227,18947.4,2.0334e+06
0.999715,0.0161613,244338,571150,63776.9,1.90779e+06,186966,19957.1,2.07545e+06
1.00153,0.0162148,243027,565967,62551,1.8739e+06,153247,3997.25,2.04663e+06
1.00334,0.0162683,241716,560784,61325.5,1.84001e+06,119528,-11962.6,2.0178e+06
1.00515,0.0163221,235355,544631,60951.3,1.78442e+06,95167.2,-23859.8,1.97029e+06
1.00696,0.0163761,219359,505877,61607.8,1.68537e+06,78380.6,-21157.5,1.88508e+06
1.00877,0.0164301,203362,467123,62263.9,1.58631e+06,61595.5,-18455.2,1.79988e+06
1.01058,0.0164842,187365,428367,62920.4,1.48726e+06,44808.3,-15752.8,1.71468e+06
1.01239,0.0165382,171368,389614,63576.4,1.3882e+06,28023.2,-13050.5,1.62948e+06
1.0142,0.0165922,167933,377005,59254.4,1.36087e+06,51602.9,-6728.22,1.58471e+06
1.01601,0.0166462,164597,364604,54893.2,1.33409e+06,75500.7,-377.711,1.54027e+06
1.01783,0.0167003,161261,352202,50531.4,1.30732e+06,99400.3,5973.25,1.49582e+06
1.01964,0.0167543,157926,339801,46170.2,1.28055e+06,123298,12323.8,1.45138e+06
1.02145,0.0168085,158291,346250,46590.9,1.30288e+06,137662,14444.8,1.44868e+06
1.02326,0.0168631,162434,371937,51892.3,1.37531e+06,142294,12249,1.48858e+06
1.02507,0.0169177,170080,384039,50583.8,1.42036e+06,145251,31500.9,1.51048e+06
1.02688,0.0169725,171800,389653,48424.5,1.43927e+06,148709,42370.1,1.52605e+06
1.02869,0.0170275,165671,395944,48922.2,1.44637e+06,153566,33367.1,1.54482e+06
1.0305,0.0170825,159542,402235,49420,1.45348e+06,158422,24364.9,1.56359e+06
1.03231,0.0171375,153414,408527,49917.8,1.46058e+06,163279,15362,1.58236e+06
1.03412,0.0171923,152376,403828,46475.4,1.44462e+06,167464,21088.5,1.5709e+06
1.03594,0.0172471,154718,391835,40417.5,1.41336e+06,171204,36592.4,1.53937e+06
1.03775,0.017302,157058,379843,34360.3,1.38209e+06,174944,52093.6,1.50785e+06
1.03956,0.0173568,153987,373491,31473.7,1.36204e+06,176858,56754.2,1.49221e+06
1.04137,0.0174116,137158,381480,36647.7,1.37048e+06,174131,33854.3,1.51696e+06
1.04318,0.0174668,135016,403787,40354.8,1.40518e+06,171175,15824.9,1.56628e+06
1.04499,0.0175221,143741,436689,42976.2,1.45931e+06,168050,1400.36,1.63377e+06
1.0468,0.0175775,152467,469593,45597.7,1.51344e+06,164924,-13024.3,1.70126e+06
1.04861,0.0176329,175781,511789,44680.2,1.59433e+06,159925,-23396.6,1.79467e+06
1.05042,0.0176886,176255,505429,47076.2,1.56765e+06,157489,-35761.3,1.7715e+06
1.05224,0.0177444,176852,482551,50797.2,1.51478e+06,154896,-35928.6,1.73015e+06
1.05405,0.0178002,180643,461408,53992.5,1.46781e+06,151893,-34066,1.69587e+06
1.05586,0.0178561,184435,440269,57187.6,1.42085e+06,148890,-32203.5,1.6616e+06
1.05767,0.0179119,166733,432037,60722.9,1.38453e+06,151311,-35492.8,1.63575e+06
1.05948,0.0179677,146169,425527,64303.1,1.34964e+06,154456,-39468.2,1.61102e+06
1.06129,0.0180235,125603,419015,67883.6,1.31474e+06,157600,-43443.8,1.58629e+06
1.0631,0.0180793,105040,412505,71463.8,1.27984e+06,160744,-47419.1,1.56157e+06
1.06491,0.0181352,84474.8,405995,75044.2,1.24495e+06,163889,-51394.8,1.53684e+06
1.06672,0.0181911,75514.5,419018,83909.6,1.23739e+06,177356,-48865.6,1.54116e+06
1.06854,0.0182473,76411.7,446915,93778.2,1.25501e+06,196825,-42152.3,1.56621e+06
1.07035,0.0183037,77799.4,465947,84289.3,1.28467e+06,201184,-42698.3,1.57026e+06
1.07216,0.0183602,81851.7,464251,67346.6,1.29414e+06,195886,-24790.7,1.55066e+06
1.07397,0.0184169,95512.2,433260,64753.8,1.26586e+06,195091,2827.83,1.51189e+06
1.07578,0.0184737,102795,403016,62484,1.22651e+06,191697,25714.2,1.4744e+06
1.07759,0.0185305,110077,372774,60214.1,1.18715e+06,188304,48599,1.43691e+06
1.0794,0.0185872,117360,342531,57944.3,1.1478e+06,184911,71485.5,1.39941e+06
1.08121,0.018644,124642,312289,55674.5,1.10844e+06,181517,94370.3,1.36192e+06
1.08302,0.0187007,131924,282045,53404.6,1.06908e+06,178124,117257,1.32443e+06
1.08484,0.0187575,139207,251804,51134.9,1.02973e+06,174731,140142,1.28694e+06
1.08665,0.0188143,145388,241877,49988,1.02458e+06,172493,144930,1.28001e+06
1.08846,0.0188713,149795,259582,50329.6,1.06587e+06,172151,123709,1.31453e+06
1.09027,0.0189283,154204,277289,50671.3,1.10717e+06,171809,102486,1.34905e+06
1.09208,0.0189853,158611,294994,51012.9,1.14846e+06,171467,81264.6,1.38357e+06
1.09389,0.0190423,169837,329662,54811.2,1.23271e+06,179859,67012.3,1.44691e+06
1.0957,0.0190994,183510,370422,59851,1.33237e+06,191388,55265.2,1.52059e+06
1.09751,0.0191564,197185,411184,64891.2,1.43205e+06,202918,43517.3,1.59428e+06
1.09932,0.0192135,212562,453475,69799.4,1.53813e+06,213456,31874.5,1.6756e+06
1.10113,0.019271,206256,451210,72302.2,1.51823e+06,216306,45286.3,1.65669e+06
1.10295,0.0193289,195741,424903,74438.7,1.44837e+06,208357,61048.3,1.58346e+06
1.10476,0.0193868,185227,398595,76575.5,1.37851e+06,200407,76810.8,1.51022e+06
1.10657,0.0194447,174712,372288,78712,1.30865e+06,192457,92572.7,1.43699e+06
1.10838,0.0195026,166366,354391,79966.6,1.26013e+06,187484,101619,1.38425e+06
1.11019,0.0195605,160121,344649,80365.9,1.23232e+06,185395,104154,1.35136e+06
1.112,0.0196184,153876,334906,80765.1,1.2045e+06,183307,106690,1.31847e+06
1.11381,0.0196764,145180,324973,82670.1,1.18179e+06,180780,104722,1.29223e+06
1.11562,0.0197342,131722,314664,87500.3,1.16901e+06,177400,94004.9,1.2789e+06
1.11743,0.0197921,118266,304357,92330,1.15624e+06,174021,83288.9,1.26557e+06
1.11925,0.01985,123616,326728,90269.6,1.20742e+06,180281,63744.8,1.31916e+06
1.12106,0.019908,131483,351831,87387.6,1.26226e+06,186913,44256.8,1.37671e+06
1.12287,0.0199664,135062,352682,87107.9,1.25226e+06,181934,39451,1.36771e+06
1.12468,0.0200248,138641,353533,86828.2,1.24226e+06,176954,34645.6,1.35872e+06
1.12649,0.0200833,142220,354384,86548.5,1.23226e+06,171975,29840,1.34973e+06
1.1283,0.0201417,145798,355236,86268.7,1.22226e+06,166996,25034.5,1.34074e+06
1.13011,0.0202001,149377,356087,85989,1.21226e+06,162016,20228.9,1.33175e+06
1.13192,0.0202584,160666,357293,82800.9,1.21016e+06,151428,24995.8,1.33496e+06
1.13373,0.0203167,174704,355532,77686,1.2037e+06,137492,33957.8,1.34329e+06
1.13555,0.0203749,188742,353771,72570.9,1.19725e+06,123554,42919.7,1.35161e+06
1.13736,0.0204335,187760,359844,66662.2,1.21341e+06,126301,21978.3,1.35937e+06
1.13917,0.0204923,185125,368331,60507.2,1.24433e+06,132763,2962.87,1.39091e+06
1.14098,0.0205513,185203,376893,53264,1.26713e+06,145536,-6403.58,1.38822e+06
1.14279,0.0206104,184272,379464,43719.4,1.28038e+06,155615,-11715.3,1.40977e+06
1.1446,0.0206694,183342,382035,34175.6,1.29363e+06,165695,-17026.9,1.43131e+06
1.14641,0.0207285,182411,384606,24631.1,1.30688e+06,175775,-22338.6,1.45286e+06
1.14822,0.0207875,181480,387177,15087.2,1.32013e+06,185854,-27650.2,1.47441e+06
1.15003,0.0208467,167321,380548,7413.3,1.29388e+06,201688,-43825.9,1.4641e+06
1.15184,0.0209061,131764,338409,-2425.7,1.194e+06,210813,-60201,1.41456e+06
1.15366,0.0209657,95362.1,288612,-13925.6,1.08827e+06,214814,-71314.4,1.36719e+06
1.15547,0.0210253,58962.1,238817,-25424.7,982550,218816,-82427.5,1.31982e+06
1.15728,0.0210848,28781.7,190999,-36789.8,883530,220473,-88620.3,1.27612e+06
1.15909,0.0211443,41315.2,163341,-30936.6,846744,197306,-68658.5,1.22907e+06
1.1609,0.0212039,50118.5,154700,-16077.9,843652,183655,-67153.1,1.19697e+06
1.16271,0.0212636,76130.5,165769,705.088,884274,173368,-62022.6,1.19954e+06
1.16452,0.0213233,102144,176841,17489.3,924900,163081,-56892.6,1.20211e+06
1.16633,0.021383,125338,209608,35522.4,989008,167740,-65169.9,1.22768e+06
1.16814,0.0214427,146848,255360,54304.8,1.06717e+06,181342,-81469.5,1.26701e+06
1.16996,0.0215025,168357,301108,73085.8,1.14533e+06,194943,-97767.9,1.30634e+06
1.17177,0.0215624,169827,313368,67012.2,1.16401e+06,193911,-91530.4,1.32427e+06
1.17358,0.0216224,170710,324643,60209.1,1.18094e+06,192450,-84631.4,1.34156e+06
1.17539,0.0216824,171593,335919,53405.5,1.19786e+06,190989,-77731.9,1.35885e+06
1.1772,0.0217424,172475,347194,46602.7,1.21479e+06,189527,-70833.3,1.37615e+06
1.17901,0.0218025,176214,359828,40702.8,1.2252e+06,181504,-58453.4,1.38317e+06
1.18082,0.0218628,179147,369781,32922.4,1.22782e+06,172395,-44793.2,1.38007e+06
1.18263,0.021923,182079,379734,25141.3,1.23045e+06,163286,-31132.2,1.37697e+06
1.18444,0.0219832,185011,389686,17360.9,1.23307e+06,154177,-17472.1,1.37386e+06
1.18626,0.0220438,180261,370789,15799.4,1.17356e+06,154757,-4504.71,1.3418e+06
1.18807,0.0221046,173284,337306,19681.9,1.09051e+06,153393,10855.5,1.3051e+06
1.18988,0.0221653,166307,303821,23564.4,1.00746e+06,152028,26216.8,1.26839e+06
1.19169,0.022226,154921,271258,28140.3,932567,149392,34927.2,1.22873e+06
1.1935,0.0222867,137359,239981,33688.1,869096,144975,34325.1,1.18492e+06
1.19531,0.0223474,119797,208705,39235.3,805630,140558,33722.4,1.14112e+06
1.19712,0.0224081,102235,177427,44783,742159,136141,33120.3,1.09731e+06
1.19893,0.0224688,84524.6,155559,49352.2,702310,132445,27341.4,1.06405e+06
1.20074,0.0225298,77903.6,170045,50841.4,738308,131990,15226,1.06071e+06
1.20256,0.0225908,88057.2,209820,50730.6,815096,134140,9316.56,1.06973e+06
1.20437,0.0226518,98211.3,249599,50619.9,891890,136291,3406.54,1.07875e+06
1.20618,0.0227128,108365,289375,50509.1,968679,138441,-2502.94,1.08777e+06
1.20799,0.022774,124252,306619,48155.6,1.02812e+06,140276,13239.3,1.13294e+06
1.2098,0.0228352,140563,322193,45636.2,1.08628e+06,142087,30583.7,1.18078e+06
1.21161,0.0228964,156875,337767,43116.6,1.14444e+06,143899,47929.4,1.22863e+06
1.21342,0.0229576,173186,353341,40597.2,1.2026e+06,145710,65273.8,1.27647e+06
1.21523,0.0230189,202819,379389,43333.8,1.28154e+06,156123,80569,1.35055e+06
1.21704,0.0230803,209442,356784,27983.3,1.23921e+06,152222,102081,1.30014e+06
1.21885,0.023142,181567,341875,34016.1,1.17339e+06,160248,94497.5,1.2738e+06
1.22067,0.0232038,171103,339236,36775.3,1.15809e+06,157677,81163.9,1.25797e+06
1.22248,0.0232655,163141,337814,39002.2,1.14873e+06,153785,67575.7,1.24325e+06
1.22429,0.0233273,155180,336391,41228.9,1.13937e+06,149893,53988.3,1.22854e+06
1.2261,0.023389,146672,330530,42887.5,1.11812e+06,146157,41282,1.20661e+06
1.22791,0.0234508,136029,322471,44171.2,1.08763e+06,143963,27759.3,1.18391e+06
1.22972,0.0235125,124439,315921,45591.6,1.05913e+06,142605,13174.3,1.16535e+06
1.23153,0.0235742,112849,309371,47011.9,1.03064e+06,141248,-1409.75,1.14678e+06
1.23334,0.023636,103844,303850,47860.2,1.00952e+06,139440,-12826.1,1.13261e+06
1.23515,0.0236982,100495,304257,53621.4,1.00678e+06,137752,-9193.74,1.13012e+06
1.23697,0.0237604,99799.4,290462,50983,981107,137682,1831.15,1.10901e+06
1.23878,0.0238226,102066,260842,38976.2,929918,139413,21084.6,1.06717e+06
1.24059,0.0238848,104332,231220,26968.8,878727,141144,40339,1.02532e+06
1.2424,0.023947,106599,201598,14961,827535,142875,59593.8,983475
1.24421,0.0240092,113808,202208,18968.2,830488,140734,68386.4,984807
1.24602,0.0240715,123107,215605,29749.6,856344,136956,72753.7,1.0044e+06
1.24783,0.0241339,132406,229003,40531.8,882203,133177,77120.3,1.024e+06
1.24964,0.0241962,130870,247052,48978.9,914119,128507,71366.8,1.05106e+06
1.25145,0.0242587,116624,270557,54688.5,953145,122792,53740.3,1.08687e+06
1.25327,0.0243212,102379,294061,60397.7,992169,117077,36115,1.12268e+06
1.25508,0.0243837,88133.9,317567,66107.1,1.03119e+06,111361,18488.9,1.15849e+06
1.25689,0.0244463,86513.5,329198,67847.7,1.05298e+06,108370,17832.5,1.17604e+06
1.2587,0.0245089,95021.7,324877,65514.5,1.05047e+06,107944,28422.9,1.16196e+06
1.26051,0.0245716,103529,320557,63181.4,1.04796e+06,107518,39012.6,1.14787e+06
1.26232,0.0246344,88032.4,311412,59568.8,1.00444e+06,106688,30832.3,1.11271e+06
1.26413,0.0246974,74911.6,292898,59226.7,937364,109180,28295.5,1.07754e+06
1.26594,0.0247605,68431.7,273022,60098.8,874073,112682,31988.2,1.04763e+06
1.26775,0.0248236,61952.6,253148,60970.9,810786,116185,35680.7,1.01773e+06
1.26956,0.0248866,55473,233272,61843,747496,119687,39373.4,987817
1.27138,0.0249497,48993.5,213398,62715,684209,123190,43065.9,957910
1.27319,0.0250128,42514,193522,63587.1,620918,126692,46758.6,928000
1.275,0.0250759,49331.4,205050,65466.3,649858,134431,46859.4,954983
1.27681,0.0251391,59388,224226,67591,701263,143202,46085.5,995823
1.27862,0.0252023,94055.9,245641,73127.9,800002,155541,57990.8,1.03555e+06
1.28043,0.0252656,117128,263455,77111.4,876617,164093,62033.3,1.06279e+06
1.28224,0.0253291,111572,273842,77228.3,898496,164513,47757.3,1.06673e+06
1.28405,0.0253927,106016,284230,77345.3,920379,164933,33480.4,1.07066e+06
1.28586,0.0254562,100460,294618,77462.2,942260,165353,19204.5,1.0746e+06
1.28768,0.0255199,88719.1,282722,75042.4,915974,158581,11714.3,1.04647e+06
1.28949,0.0255835,78437.3,263682,70088.7,870145,151523,7036.66,995415
1.2913,0.0256471,68154.5,244641,65134.7,824312,144465,2358.52,944359
1.29311,0.0257106,57872.6,225602,60180.9,778483,137407,-2319.17,893307
1.29492,0.0257744,55084,208981,57788.9,744286,132095,2495.31,858324
1.29673,0.0258383,64270,196227,59489.7,728678,129572,22478.5,849020
1.29854,0.0259022,73455.1,183473,61190.7,713071,127050,42460.5,839716
1.30035,0.0259662,82683.6,175110,62326.8,705090,124437,58849.5,836947
1.30216,0.0260301,92048.7,180905,61641.8,721703,121530,63648.3,855251
1.30398,0.0260941,103048,186538,61340.6,738839,118948,70103.2,872755
1.30579,0.0261582,131995,190383,65256.8,761714,119930,94760.8,881440
1.3076,0.0262223,160943,194229,69173.2,784591,120912,119419,890127
1.30941,0.0262864,146709,217084,66348.1,814595,117942,90893.1,916995
1.31122,0.0263504,119769,245533,61539.5,846700,113809,46718.3,949215
1.31303,0.0264145,95610.7,270972,57105.9,874277,110374,8427.36,975804
1.31484,0.0264789,100112,265385,56535.5,855182,114131,30786.3,944349
1.31665,0.0265433,104612,259799,55965.1,836087,117887,53143.6,912896
1.31846,0.0266077,109113,254212,55394.6,816991,121644,75502.4,881441
1.32028,0.0266721,114714,247573,54670.8,806017,122291,93030.3,867168
1.32209,0.0267366,124842,228409,52833.9,783959,118072,109817,873761
1.3239,0.0268011,134969,209247,50997.1,761902,113854,126603,880354
1.32571,0.0268657,127620,190551,50311.6,719273,115548,122564,867352
1.32752,0.0269305,103183,172312,50751.9,656533,123024,98162.1,835192
1.32933,0.0269952,89170.5,159465,50109.4,615042,127080,78789.1,817343
1.33114,0.02706,85888.3,152168,48352.7,595425,127616,64593.6,814225
1.33295,0.0271248,82605.7,144869,46595.8,575805,128152,50397.4,811107
1.33476,0.0271896,81582.1,154107,42363.6,589664,134116,34291,814111
1.33657,0.0272544,81923,173334,36635.9,623745,143358,17029.1,820811
1.33839,0.0273192,82263.7,192559,30908.6,657823,152599,-231.489,827511
1.3402,0.027384,82604.6,211785,25180.9,691905,161841,-17493.4,834212
1.34201,0.027449,83756.8,222723,16790.4,710631,171987,-26009.3,849058
1.34382,0.0275142,85359.2,229065,6922.46,720846,182636,-29676.2,868422
1.34563,0.0275793,86961.4,235407,-2944.83,731060,193284,-33342.9,887786
1.34744,0.0276447,92093.3,223425,-2298.32,718338,187439,-17095.4,886276
1.34925,0.0277101,99419.8,206844,1409.28,702970,176569,6784.28,880969
1.35106,0.0277755,106747,190262,5117.13,687602,165697,30665.6,875661
1.35287,0.0278409,105973,179634,9367.04,653341,154326,38568.7,852693
1.35469,0.0279062,102651,170877,13787.9,613134,142797,41446.3,824166
1.3565,0.0279715,99330.1,162121,18208.4,572930,131268,44324.4,795642
1.35831,0.0280369,87755.3,155062,19693.1,527088,119703,38272.7,760316
1.36012,0.0281024,82494.8,160997,22613,549319,126219,33942,764310
1.36193,0.028168,77314.7,167101,25396.5,571921,132740,29496.1,768702
1.36374,0.0282335,73244,175524,26293.2,599609,139326,23464.9,778598
1.36555,0.0282991,69173.5,183949,27189.9,627299,145911,17433,788496
1.36736,0.0283646,65103.2,192373,28086.6,654987,152497,11401.6,798393
1.36917,0.0284302,61032.3,200797,28983.3,682676,159083,5369.91,808290
1.37099,0.0284958,48448.6,202053,25867.1,686880,165710,2436.05,814032
1.3728,0.0285616,30927.3,172198,23819.6,623209,156927,14328.8,800991
1.37461,0.0286275,41229.7,185712,27198.8,652720,156863,12123.2,811442
1.37642,0.0286935,53465.8,202241,30955.3,688707,157405,8938.04,823526
1.37823,0.0287594,64967.8,216739,35179.3,718729,156657,5783.65,834623
1.38004,0.0288254,72205.5,221406,40237.9,722529,150514,4181.62,840230
1.38185,0.0288913,76264.4,221837,42956.1,720062,143660,5894.21,842148
1.38366,0.0289573,80323.6,222268,45674.4,717596,136805,7606.87,844067
1.38547,0.0290232,84382.2,222699,48392.7,715128,129951,9319.67,845984
1.38728,0.0290892,88441.4,223130,51111,712661,123096,11032.3,847902
1.3891,0.0291551,93955.3,224285,53625.3,713693,117442,11591.9,849248
1.39091,0.0292213,103814,228321,54245.1,730849,120595,10612.9,844292
1.39272,0.0292875,108386,230449,54315.4,740980,124626,15733.7,836792
1.39453,0.0293539,102866,214088,48495.8,709917,123343,26157.4,820502
1.39634,0.0294203,84051.8,186577,44052.6,629111,116886,27543.2,813759
1.39815,0.0294867,65236.3,159064,39609,548300,110429,28928.8,807016
1.39996,0.0295531,46656.5,132416,35931,470243,103842,29771,798745
1.40177,0.0296195,29978.9,112771,38463.8,414495,96195.4,26203,778066
1.40358,0.0296859,13302.6,93128,40996.7,358752,88549.3,22634.9,757389
1.4054,0.0297522,-3374.97,73483,43529.6,303004,80902.7,19067,736710
1.40721,0.0298188,-4322.16,85757.9,47250,328124,78464.4,19709.3,728311
1.40902,0.0298854,-4598.2,99395.4,51021.1,356696,76248.2,20531.9,720436
1.41083,0.029952,1688.39,119497,51570.8,405148,76996.3,27429.5,710413
1.41264,0.0300186,14118.4,145653,49105.4,472214,80519.2,40014.4,698380
1.41445,0.0300851,26547.3,171807,46640.2,539276,84041.8,52598.5,686348
1.41626,0.0301517,38517.4,195114,44173,599394,87179.7,64417.2,680404
1.41807,0.0302186,41394.9,200291,36146.9,599957,91008.4,51862,699879
1.41988,0.0302855,44124.6,205460,27988,600136,94911.3,38839.1,719053
1.4217,0.0303524,46853.9,210629,19829.7,600316,98813.9,25817.2,738226
1.42351,0.0304192,49583.6,215798,11670.7,600495,102717,12794.3,757400
1.42532,0.0304861,52312.9,220967,3512.42,600674,106619,-227.57,776574
1.42713,0.030553,55042.6,226136,-4646.54,600854,110522,-13250.5,795748
1.42894,0.0306199,58335.2,229950,-13002.1,599413,114440,-26366.5,808633
1.43075,0.0306868,62593.9,231439,-21696.3,595195,118385,-39644.7,810733
1.43256,0.0307539,56702.6,230294,-17534.4,592998,114783,-49851.9,760518
1.43437,0.0308211,49254.6,217051,-13272.7,562468,110175,-53223.1,736820
1.43618,0.0308883,40537.2,203340,-8613.63,529874,104709,-56026.5,708436
1.438,0.0309555,31819.5,189628,-3954.32,497278,99242.6,-58830,680050
1.43981,0.0310227,23987.8,175933,711.853,466038,93721.7,-61387,652431
1.44162,0.0310898,17115.5,162254,5385.96,436262,88141.2,-63677.2,625636
1.44343,0.031157,10243.9,148576,10059.8,406489,82560.9,-65967.2,598844
1.44524,0.0312242,5600.04,139682,12764,388033,81534.9,-66624.2,581428
1.44705,0.0312916,10825.4,144167,12013.1,407348,91569,-58244.2,590334
1.44886,0.0313589,20116.5,150125,12564.4,435831,101447,-45208.8,602218
1.45067,0.0314263,29407.3,156084,13115.8,464313,111325,-32173.5,614101
1.45248,0.0314937,36842.3,162322,12497.4,490992,119598,-21949,625366
1.45429,0.0315611,39789.5,169237,9051.32,513305,123992,-18520.5,635132
1.45611,0.0316285,42894.7,169815,5036.78,522289,125296,-15059.5,638984
1.45792,0.0316962,46447.6,146123,1457.11,476315,118338,-9917.5,633189
1.45973,0.0317639,47222,133718,1008.38,451572,113367,-5200.8,618355
1.46154,0.0318316,46079.5,129098,2719.61,441471,109766,-776.867,597282
1.46335,0.0318993,44937.3,124479,4430.63,431370,106164,3647.11,576212
1.46516,0.031967,43794.9,119860,6141.85,421270,102563,8071.04,555139
1.46697,0.0320347,42652.6,115240,7852.88,411169,98961.7,12495,534068
1.46878,0.0321024,41510.2,110621,9564.1,401069,95360.5,16918.9,512996
1.47059,0.0321701,40368,106001,11275.1,390968,91759.1,21342.9,491925
1.47241,0.0322378,39054.3,101491,13558.8,379950,88056.9,24946.8,469656
1.47422,0.0323055,36491.8,97773.3,20015.3,362241,83617.6,22573.6,438659
1.47603,0.0323733,35441.1,100606,24746.9,364107,83305.8,21478,415389
1.47784,0.0324413,32638.1,108075,23677.3,371057,86924.2,22358.8,427229
1.47965,0.0325093,27428.3,114803,22532.2,379762,90097.7,21584.2,443647
1.48146,0.0325773,24786.3,113646,21125.1,369660,90555,22857.3,458433
1.48327,0.0326453,23354.9,108772,19594.4,350692,89731.8,25096,472450
1.48508,0.0327132,21923.5,103898,18063.8,331724,88908.5,27334.5,486467
1.48689,0.0327812,20492.1,99023.3,16533.2,312755,88085.3,29573.2,500485
1.48871,0.0328492,19060.7,94149.1,15002.6,293787,87262.1,31811.7,514501
1.49052,0.0329172,19900.1,89794.5,12096.3,277865,88558.8,33060.1,526985
1.49233,0.0329853,28076.6,87118.7,4745.67,271789,96704.8,31108.5,534515
1.49414,0.0330535,36129.4,85135.2,-2411.79,266464,104985,29082.9,541803
1.49595,0.0331217,37545.2,91290.5,-4049.17,288271,106630,28815.5,533053
1.49776,0.03319,38026,97239.7,-4944.68,311504,106927,28765,520803
1.49957,0.0332582,38506.8,103188,-5840.12,334736,107223,28714.6,508553
1.50138,0.0333265,38987.5,109137,-6735.63,357970,107519,28664,496303
1.50319,0.0333947,39468.3,115086,-7631.07,381202,107815,28613.6,484053
1.50501,0.033463,39949.1,121035,-8526.57,404436,108111,28563.1,471803
1.50682,0.0335314,45096.2,119641,-9912.75,403014,103802,30922.2,464613
1.50863,0.0335998,39686.2,113649,-6742.39,384906,99676.7,27329.1,450675
1.51044,0.0336682,28383.6,107288,-671.927,363175,96843,20627.1,435406
1.51225,0.0337367,23813.5,106396,4052.51,354674,95525.6,17515.3,432425
1.51406,0.0338051,19243.7,105504,8776.5,346174,94208.3,14403.6,429444
1.51587,0.0338736,14673.7,104612,13500.9,337674,92890.9,11291.8,426462
1.51768,0.0339421,10103.9,103720,18224.9,329173,91573.6,8180.19,423481
1.51949,0.0340105,5533.85,102828,22949.4,320673,90256.2,5068.41,420500
1.5213,0.034079,3490.23,104608,27761.8,324795,94122.4,2161.49,424907
1.52312,0.0341475,3222.38,108267,32636.7,337791,101633,-601.634,434509
1.52493,0.0342161,11023.5,110570,35097.5,347581,102602,5048.68,435819
1.52674,0.0342848,24480.7,111921,35866.5,355124,98984.7,16596.3,431318
1.52855,0.0343535,38614.1,113059,36402.1,361714,94435.4,29229.3,425734
1.53036,0.0344221,41820.3,114794,39819.7,364123,93963.6,35203.3,426553
1.53217,0.0344908,45740.9,112123,39248,357583,92791.5,40838.8,427773
1.53398,0.0345596,50209.3,109795,36962.3,352628,91831.6,45488.9,427601
1.53579,0.0346284,57356.9,111771,30687,358442,95294.6,46803.8,408163
1.5376,0.0346973,58926.7,102479,25068.4,334783,96178.3,48801.4,390129
1.53942,0.0347661,53258.8,93524.1,24030.4,309075,92749.8,48312.6,384567
1.54123,0.034835,45605.8,86613.4,23669.7,285381,87971.8,45759.7,381151
1.54304,0.0349039,37953.3,79703.1,23308.9,261689,83194.2,43207.1,377736
1.54485,0.0349727,30300.4,72792.2,22948.1,237995,78416.4,40654.3,374320
1.54666,0.0350416,22648,65881.9,22587.3,214302,73638.7,38101.7,370905
1.54847,0.0351104,14995.1,58971.1,22226.5,190608,68860.9,35549,367489
1.55028,0.0351794,16030.9,56654.1,25510.2,195788,66796.9,35496.9,373074
1.55209,0.0352484,19647.4,55701.2,29876.5,209544,65539,36187.7,381332
1.5539,0.0353173,21579.2,56379.8,33526.4,222489,66995.8,36548.1,385217
1.55572,0.0353862,17777.9,63654.7,34856.3,229054,70707.2,32276.2,374846
1.55753,0.0354552,13850.6,71074.7,36135.3,235476,74464.3,27901,364162
1.55934,0.0355242,9923.16,78495.2,37414.3,241898,78221.8,23525.4,353478
1.56115,0.0355931,5996.02,85915.1,38693.2,248320,81978.9,19150.2,342793
1.56296,0.0356622,2475.36,91291.5,39470.8,252191,84543.6,15883.2,336297
1.56477,0.0357314,-445.35,91510.2,38512.3,250315,83703,15269,336882
1.56658,0.0358006,-3366.31,91728.8,37553.9,248439,82862.4,14654.7,337467
1.56839,0.0358698,-6287.03,91947.4,36595.4,246563,82021.8,14040.5,338051
1.5702,0.0359391,-9207.99,92166.1,35637,244688,81181.1,13426.2,338636
1.57201,0.0360083,-12128.8,92384.7,34678.6,242812,80340.5,12812,339221
1.57383,0.0360775,-15049.7,92603.3,33720.1,240936,79499.9,12197.7,339805
1.57564,0.0361467,-17970.4,92822,32761.7,239060,78659.3,11583.5,340390
1.57745,0.036216,-20891.4,93040.6,31803.2,237184,77818.6,10969.2,340974
1.57926,0.0362852,-23812.1,93259.2,30844.8,235309,76978,10355,341559
1.58107,0.0363544,-26674.7,93505.1,29883.7,233512,76147.9,9753.76,341911
1.58288,0.0364236,-24652,92915,28076.3,231910,75226.7,11058.5,332808
1.58469,0.0364928,-22079.2,89592.8,25643.7,224839,73468,13267.2,331147
1.5865,0.0365621,-22503.1,88461.1,25667.8,219773,73328,13057.4,322746
1.58831,0.0366315,-21843,87935.7,24173.2,216921,71223.1,15730.6,305450
1.59013,0.0367009,-17937.2,84918.2,23310,211909,68290.4,18254.3,291535
1.59194,0.0367703,-11261.5,80035.2,22901.3,205010,64791.2,21037.2,280240
1.59375,0.0368397,-4586.27,75152.5,22492.5,198112,61292.1,23819.8,268946
1.59556,0.0369091,2089.37,70269.5,22083.8,191214,57792.9,26602.8,257650
1.59737,0.0369785,8764.64,65386.7,21675,184316,54293.9,29385.4,246356
1.59918,0.037048,7735.12,61287.9,21188.9,174166,53600.6,31343,233537
1.60099,0.0371175,5575.72,60931.7,20010.4,173512,53694.7,29196.1,232279
1.6028,0.037187,5019.67,63406.6,18285.8,181766,53515.3,23933,241065
1.60461,0.0372565,4463.65,65881.3,16561.3,190019,53335.8,18670.2,249850
1.60643,0.037326,3907.57,68356,14836.7,198273,53156.3,13407.1,258636
1.60824,0.0373955,3351.55,70830.7,13112.3,206526,52976.9,8144.3,267422
1.61005,0.037465,3325.33,74094.5,13391.3,213892,54024.4,3619.35,273258
1.61186,0.0375345,4319.84,73044.4,15025.8,209900,56170.9,654.346,295788
1.61367,0.0376042,1454.62,68866.8,12212.1,198000,56787.6,-1133.99,276705
1.61548,0.0376738,374.582,60433.6,9438.48,177231,56524.3,-874.141,272438
1.61729,0.0377434,2056.05,52474.9,8560.79,166530,55970.1,1727.55,278594
1.6191,0.037813,2180.84,45529.4,8125.93,152917,55666.8,2855.4,276685
1.62091,0.0378826,1882.96,38851.3,7804.37,138584,55429.2,3608.1,272801
1.62273,0.0379523,-7183.18,36698.6,8969.29,118204,56235.5,-296.551,254579
1.62454,0.0380219,-16248.7,34546.1,10134.2,97826,57041.7,-4200.97,236358
1.62635,0.0380916,-17711.3,38519.4,11258.3,101184,57464.6,-4021.2,230441
1.62816,0.0381613,-16525.3,44626.5,12368.1,112811,57753.9,-2418.72,228810
1.62997,0.0382311,-15339.1,50733.8,13478,124438,58043.2,-816.12,227178
1.63178,0.0383008,-14153.1,56840.9,14587.9,136064,58332.5,786.358,225547
1.63359,0.0383705,-12967,62948.3,15697.8,147691,58621.7,2388.96,223916
1.6354,0.0384402,-10046.8,65118.2,16102.9,156596,56900.1,4202.48,226287
1.63721,0.0385099,-6819.91,64218,16508.3,158711,54572.6,6605.88,227150
1.63902,0.0385796,-1914.74,62592.6,14696.1,159394,57696.3,10606.3,226303
1.64084,0.0386494,244.669,61910.4,12974.9,159894,60025.4,12537.8,224104
1.64265,0.0387192,-1763.66,62059.6,11937.3,157678,60530.3,11576.2,218770
1.64446,0.038789,-4146.63,60135.2,12619.3,145147,59931.7,11294.8,207910
1.64627,0.0388588,-1040.42,54721.9,12509.9,135733,58330.5,13784,208087
1.64808,0.0389287,2088.97,49293.8,12397.2,126332,56725,16284.9,208311
1.64989,0.0389986,5218.2,43865.9,12284.6,116932,55119.6,18785.6,208534
1.6517,0.0390684,8347.59,38437.7,12171.9,107531,53514.1,21286.5,208757
1.65351,0.0391383,10389,32575.2,10409.9,95785.3,49367.9,21046.9,202765
1.65532,0.0392082,12191.1,27845.2,8786.95,86088.1,45445.3,20981.8,194952
1.65714,0.039278,13745,26831.5,8347.16,83823,43375.8,22706.2,184316
1.65895,0.0393479,15299,25817.6,7907.32,81557.4,41306.1,24430.7,173679
1.66076,0.0394178,15626,26418.9,7622.39,82506.8,39868.9,25343.7,162556
1.66257,0.0394877,14074.2,29493.5,7574.62,88379.1,39400,25013.9,150690
1.66438,0.0395576,12522.5,32567.8,7526.85,94251.2,38931.1,24684.2,138825
1.66619,0.0396275,10970.6,35642.4,7479.08,100124,38462.2,24354.4,126959
1.668,0.0396975,9083.78,33720.7,6066.94,92914.4,38320.4,23528.1,134044
1.66981,0.0397675,7229.81,30963.6,4350.11,83801.5,38283.9,22599.9,143979
1.67162,0.0398375,5271.75,28043.1,2951.82,74193.2,38184.2,21691.3,152027
1.67344,0.0399075,2662.61,24098.6,3545.54,61481.6,37689.4,20905.9,148270
1.67525,0.0399774,53.5416,20154.4,4139.13,48770.9,37194.7,20120.6,144514
1.67706,0.0400474,-2555.6,16209.8,4732.86,36059.3,36699.9,19335.2,140757
1.67887,0.0401174,-3607.41,13350,5763.02,26160.4,35829.2,18368.7,128038
1.68068,0.0401874,-4270.71,15257.2,5929.22,29827.6,36549.1,16800.3,123513
1.68249,0.0402574,-5043.88,17467.3,5919.2,33840.1,36917.8,15316.5,120439
1.6843,0.0403274,-5817.11,19677.6,5909.2,37853,37286.6,13832.5,117364
1.68611,0.0403974,-6590.29,21887.7,5899.2,41865.6,37655.4,12348.7,114290
1.68792,0.0404674,-7363.51,24097.9,5889.18,45878.4,38024.2,10864.7,111215
1.68973,0.0405375,-8136.69,26308.1,5879.18,49891,38393,9380.92,108141
1.69155,0.0406075,-8909.92,28518.3,5869.16,53903.8,38761.8,7896.94,105066
1.69336,0.0406775,-6860.89,30450.4,5255.39,57915.4,38248.1,8437.92,109096
1.69517,0.0407476,-2581.79,29245.5,3764.83,56556.7,36559.6,9024.55,112284
1.69698,0.0408177,1696.96,28040.7,2274.4,55198.2,34871.1,9611.16,115471
1.69879,0.0408878,4997.66,26675.4,1268.97,53322.4,33253.9,9996.72,117094
1.7006,0.0409579,5298.26,24818.5,1751.1,49861.3,31855.4,9765.83,113917
1.70241,0.041028,5598.91,22961.5,2233.25,46400,30456.7,9534.94,110741
1.70422,0.0410981,5899.39,21104.4,2715.44,42938.7,29058.2,9303.97,107564
1.70603,0.0411682,6469.55,20446.9,2833.32,42068.7,27833.4,9347.48,106945
1.70785,0.0412382,4977.76,19799.9,3051.79,41570.1,26819.5,7475.58,102402
1.70966,0.0413083,3380.21,19131.4,3281.84,41042.1,25812.7,5504.92,97618.9
1.71147,0.0413784,-979.806,21597.1,4495.49,44025.9,25448.4,5162.89,91906.9
1.71328,0.0414485,-5814.53,24601.3,5878.15,47613.1,25194.5,5100.61,86035.1
1.71509,0.0415186,-5589.95,24392.7,6951.42,46551.8,27259,8263.53,85734.5
1.7169,0.0415887,250.43,19762.5,6343.17,40502.6,28575.1,12725.6,106299
1.71871,0.0416589,6090.44,15132.6,5734.95,34453.7,29891.1,17187.3,126862
1.72052,0.0417291,4800.03,16145.8,6336.87,35418.5,29459.6,18135.5,124054
1.72233,0.0417992,1861.84,18463.1,7218.41,38004.2,28624.3,18271.6,115844
1.72415,0.0418694,-1076.49,20780.4,8100,40589.9,27788.9,18407.8,107633
1.72596,0.0419395,-4014.68,23097.7,8981.53,43175.6,26953.5,18543.9,99423.3
1.72777,0.0420097,-6953,25415,9863.12,45761.3,26118.1,18680,91213
1.72958,0.0420799,-8851.07,26593.4,10278.9,45853.7,25115.5,18591.1,84128.9
1.73139,0.04215,-7886.29,24790.5,9041.58,38458,23669.9,18200.3,84228.7
1.7332,0.0422201,-7134.62,22983.6,8026.47,31719.5,22363.3,17770.2,83952.4
1.73501,0.0422903,-8403.11,21577.9,9004.77,32043.2,22576.5,17034.7,80108.5
1.73682,0.0423605,-8744.79,22065.2,8534.57,33070.3,23050.6,16760.4,77896.1
1.73863,0.0424307,-9086.48,22552.5,8064.29,34097.3,23524.7,16486,75683.5
1.74045,0.0425009,-9428.16,23039.8,7594.08,35124.5,23998.8,16211.7,73471
1.74226,0.0425711,-8818.96,22392.9,7051.29,34733.4,24051.8,15703.1,72752.7
1.74407,0.0426413,-7000.45,20166.8,6390.03,31510.5,23377.5,14592.9,74373.6
1.74588,0.0427115,-4952.76,18074.5,5382.6,28257.5,22823,13909.5,73363.9
1.74769,0.0427817,-4355.67,18009.1,3999.27,27355,22701.9,13777.7,68073.2
1.7495,0.0428519,-5275.68,19041.8,3135,28142.8,22610.7,13066.2,65745.5
1.75131,0.0429221,-5073.88,18468.2,2405.66,27437.1,22018.5,12593.1,64110.3
1.75312,0.0429923,-4274.31,17038.7,1748.14,25935.8,21159.4,12247,62844
1.75493,0.0430625,-3321.84,16492.8,1432.65,25483.6,20038.2,12533.6,61158.1
1.75674,0.0431328,-2356.82,16019,1145.01,25116.9,18895.6,12871.8,59438
1.75856,0.043203,-1391.88,15545.2,857.409,24750.4,17753,13210,57718
1.76037,0.0432732,-426.853,15071.4,569.769,24383.7,16610.4,13548.2,55997.9
1.76218,0.0433434,538.092,14597.6,282.17,24017.1,15467.8,13886.4,54277.8
1.76399,0.0434136,1503.1,14123.8,-5.44121,23650.5,14325.2,14224.6,52557.7
1.7658,0.0434838,1826.03,14081,-97.2693,23801.8,13119,14322.5,51334.2
1.76761,0.0435541,1275.49,14624.7,77.3117,24657.9,11826.4,14093.6,50786.1
1.76942,0.0436243,1271.7,14498.8,856.554,21893.3,11482.6,14003.3,47728.1
1.77123,0.0436945,1856.03,15134.5,1799.23,21764,10984,14242,44307.8
1.77304,0.0437648,2732.21,16290,2776.29,23567.3,10296.1,14661.2,40932
1.77486,0.043835,4768.28,14453.8,3982.73,18814.2,9601.98,13575.1,52143.7
1.77667,0.0439052,6784.31,12138.4,5189.29,13432.3,8947.89,12086.5,64251
1.77848,0.0439754,7955.57,10065.4,6244.09,10120.1,8443.41,10131,69917.5
1.78029,0.0440457,10692.1,9455.01,6648.44,8508.32,9076.86,11249.7,67734.3
1.7821,0.0441159,12840.6,8955.11,6975.52,8168.32,9771.33,11976,61671.4
1.78391,0.0441862,14101.1,8630.72,7156.06,8485.41,10016.4,11816.9,55851.4
1.78572,0.0442564,14601.6,8497.96,7177.52,8806.33,9619.28,10788.5,53069.8
1.78753,0.0443267,15102.2,8365.15,7199,9127.24,9222.1,9760.02,50288.1
1.78934,0.0443969,15602.7,8232.38,7220.46,9448.17,8824.98,8731.61,47506.5
1.79116,0.0444671,15999,8154.32,7206.99,9842.28,8445.68,7696.19,44238.3
1.79297,0.0445374,17211.3,7433.78,7526.2,9502.91,7114.52,8018.96,42386.9
1.79478,0.0446076,18359.6,6996.81,7976.91,9242.28,5755.87,8421.94,40864.2
1.79659,0.0446779,19230.8,7878.29,9055.56,9469.03,4620.92,9050.34,41600.2
1.7984,0.0447481,20186.1,8111.4,10279.5,9969.75,3954.82,9575.28,43266.3
1.80021,0.0448184,21142.1,8338.51,11504.7,10473,3293.11,10099.2,44940.9
1.80202,0.0448886,22098.2,8565.64,12729.9,10976.2,2631.34,10623.2,46615.7
1.80383,0.0449589,23054.2,8792.75,13955.1,11479.4,1969.63,11147.2,48290.3
1.80564,0.0450291,24038.6,8258.91,15110.7,11384.8,1608.78,11111.6,48887.1
1.80745,0.0450994,25046.2,7104.77,16209.4,10802.7,1493.26,10619.8,48605.1
1.80927,0.0451696,26034.9,6132.45,17264.3,10432.5,1405.52,10236.2,48496.2
1.81108,0.0452399,26841,5868.33,18266,10848.2,1338.29,10257.8,49086.3
